 <VTKFile type="UnstructuredGrid"  version="0.1"   >
 <UnstructuredGrid>
 <Piece  NumberOfPoints="          1600 "  NumberOfCells="         1024 ">
 <Points>
 <DataArray  type="Float64" NumberOfComponents="3"  format="ascii" >
   0.0000000000000000        0.0000000000000000        0.0000000000000000     
   3.1250000000000000E-002   0.0000000000000000        0.0000000000000000     
   6.2500000000000000E-002   0.0000000000000000        0.0000000000000000     
   9.3750000000000000E-002   0.0000000000000000        0.0000000000000000     
  0.12500000000000000        0.0000000000000000        0.0000000000000000     
   0.0000000000000000        3.1250000000000000E-002   0.0000000000000000     
   3.1250000000000000E-002   3.1250000000000000E-002   0.0000000000000000     
   6.2500000000000000E-002   3.1250000000000000E-002   0.0000000000000000     
   9.3750000000000000E-002   3.1250000000000000E-002   0.0000000000000000     
  0.12500000000000000        3.1250000000000000E-002   0.0000000000000000     
   0.0000000000000000        6.2500000000000000E-002   0.0000000000000000     
   3.1250000000000000E-002   6.2500000000000000E-002   0.0000000000000000     
   6.2500000000000000E-002   6.2500000000000000E-002   0.0000000000000000     
   9.3750000000000000E-002   6.2500000000000000E-002   0.0000000000000000     
  0.12500000000000000        6.2500000000000000E-002   0.0000000000000000     
   0.0000000000000000        9.3750000000000000E-002   0.0000000000000000     
   3.1250000000000000E-002   9.3750000000000000E-002   0.0000000000000000     
   6.2500000000000000E-002   9.3750000000000000E-002   0.0000000000000000     
   9.3750000000000000E-002   9.3750000000000000E-002   0.0000000000000000     
  0.12500000000000000        9.3750000000000000E-002   0.0000000000000000     
   0.0000000000000000       0.12500000000000000        0.0000000000000000     
   3.1250000000000000E-002  0.12500000000000000        0.0000000000000000     
   6.2500000000000000E-002  0.12500000000000000        0.0000000000000000     
   9.3750000000000000E-002  0.12500000000000000        0.0000000000000000     
  0.12500000000000000       0.12500000000000000        0.0000000000000000     
  0.12500000000000000        0.0000000000000000        0.0000000000000000     
  0.15625000000000000        0.0000000000000000        0.0000000000000000     
  0.18750000000000000        0.0000000000000000        0.0000000000000000     
  0.21875000000000000        0.0000000000000000        0.0000000000000000     
  0.25000000000000000        0.0000000000000000        0.0000000000000000     
  0.12500000000000000        3.1250000000000000E-002   0.0000000000000000     
  0.15625000000000000        3.1250000000000000E-002   0.0000000000000000     
  0.18750000000000000        3.1250000000000000E-002   0.0000000000000000     
  0.21875000000000000        3.1250000000000000E-002   0.0000000000000000     
  0.25000000000000000        3.1250000000000000E-002   0.0000000000000000     
  0.12500000000000000        6.2500000000000000E-002   0.0000000000000000     
  0.15625000000000000        6.2500000000000000E-002   0.0000000000000000     
  0.18750000000000000        6.2500000000000000E-002   0.0000000000000000     
  0.21875000000000000        6.2500000000000000E-002   0.0000000000000000     
  0.25000000000000000        6.2500000000000000E-002   0.0000000000000000     
  0.12500000000000000        9.3750000000000000E-002   0.0000000000000000     
  0.15625000000000000        9.3750000000000000E-002   0.0000000000000000     
  0.18750000000000000        9.3750000000000000E-002   0.0000000000000000     
  0.21875000000000000        9.3750000000000000E-002   0.0000000000000000     
  0.25000000000000000        9.3750000000000000E-002   0.0000000000000000     
  0.12500000000000000       0.12500000000000000        0.0000000000000000     
  0.15625000000000000       0.12500000000000000        0.0000000000000000     
  0.18750000000000000       0.12500000000000000        0.0000000000000000     
  0.21875000000000000       0.12500000000000000        0.0000000000000000     
  0.25000000000000000       0.12500000000000000        0.0000000000000000     
  0.25000000000000000        0.0000000000000000        0.0000000000000000     
  0.28125000000000000        0.0000000000000000        0.0000000000000000     
  0.31250000000000000        0.0000000000000000        0.0000000000000000     
  0.34375000000000000        0.0000000000000000        0.0000000000000000     
  0.37500000000000000        0.0000000000000000        0.0000000000000000     
  0.25000000000000000        3.1250000000000000E-002   0.0000000000000000     
  0.28125000000000000        3.1250000000000000E-002   0.0000000000000000     
  0.31250000000000000        3.1250000000000000E-002   0.0000000000000000     
  0.34375000000000000        3.1250000000000000E-002   0.0000000000000000     
  0.37500000000000000        3.1250000000000000E-002   0.0000000000000000     
  0.25000000000000000        6.2500000000000000E-002   0.0000000000000000     
  0.28125000000000000        6.2500000000000000E-002   0.0000000000000000     
  0.31250000000000000        6.2500000000000000E-002   0.0000000000000000     
  0.34375000000000000        6.2500000000000000E-002   0.0000000000000000     
  0.37500000000000000        6.2500000000000000E-002   0.0000000000000000     
  0.25000000000000000        9.3750000000000000E-002   0.0000000000000000     
  0.28125000000000000        9.3750000000000000E-002   0.0000000000000000     
  0.31250000000000000        9.3750000000000000E-002   0.0000000000000000     
  0.34375000000000000        9.3750000000000000E-002   0.0000000000000000     
  0.37500000000000000        9.3750000000000000E-002   0.0000000000000000     
  0.25000000000000000       0.12500000000000000        0.0000000000000000     
  0.28125000000000000       0.12500000000000000        0.0000000000000000     
  0.31250000000000000       0.12500000000000000        0.0000000000000000     
  0.34375000000000000       0.12500000000000000        0.0000000000000000     
  0.37500000000000000       0.12500000000000000        0.0000000000000000     
  0.37500000000000000        0.0000000000000000        0.0000000000000000     
  0.40625000000000000        0.0000000000000000        0.0000000000000000     
  0.43750000000000000        0.0000000000000000        0.0000000000000000     
  0.46875000000000000        0.0000000000000000        0.0000000000000000     
  0.50000000000000000        0.0000000000000000        0.0000000000000000     
  0.37500000000000000        3.1250000000000000E-002   0.0000000000000000     
  0.40625000000000000        3.1250000000000000E-002   0.0000000000000000     
  0.43750000000000000        3.1250000000000000E-002   0.0000000000000000     
  0.46875000000000000        3.1250000000000000E-002   0.0000000000000000     
  0.50000000000000000        3.1250000000000000E-002   0.0000000000000000     
  0.37500000000000000        6.2500000000000000E-002   0.0000000000000000     
  0.40625000000000000        6.2500000000000000E-002   0.0000000000000000     
  0.43750000000000000        6.2500000000000000E-002   0.0000000000000000     
  0.46875000000000000        6.2500000000000000E-002   0.0000000000000000     
  0.50000000000000000        6.2500000000000000E-002   0.0000000000000000     
  0.37500000000000000        9.3750000000000000E-002   0.0000000000000000     
  0.40625000000000000        9.3750000000000000E-002   0.0000000000000000     
  0.43750000000000000        9.3750000000000000E-002   0.0000000000000000     
  0.46875000000000000        9.3750000000000000E-002   0.0000000000000000     
  0.50000000000000000        9.3750000000000000E-002   0.0000000000000000     
  0.37500000000000000       0.12500000000000000        0.0000000000000000     
  0.40625000000000000       0.12500000000000000        0.0000000000000000     
  0.43750000000000000       0.12500000000000000        0.0000000000000000     
  0.46875000000000000       0.12500000000000000        0.0000000000000000     
  0.50000000000000000       0.12500000000000000        0.0000000000000000     
  0.50000000000000000        0.0000000000000000        0.0000000000000000     
  0.53125000000000000        0.0000000000000000        0.0000000000000000     
  0.56250000000000000        0.0000000000000000        0.0000000000000000     
  0.59375000000000000        0.0000000000000000        0.0000000000000000     
  0.62500000000000000        0.0000000000000000        0.0000000000000000     
  0.50000000000000000        3.1250000000000000E-002   0.0000000000000000     
  0.53125000000000000        3.1250000000000000E-002   0.0000000000000000     
  0.56250000000000000        3.1250000000000000E-002   0.0000000000000000     
  0.59375000000000000        3.1250000000000000E-002   0.0000000000000000     
  0.62500000000000000        3.1250000000000000E-002   0.0000000000000000     
  0.50000000000000000        6.2500000000000000E-002   0.0000000000000000     
  0.53125000000000000        6.2500000000000000E-002   0.0000000000000000     
  0.56250000000000000        6.2500000000000000E-002   0.0000000000000000     
  0.59375000000000000        6.2500000000000000E-002   0.0000000000000000     
  0.62500000000000000        6.2500000000000000E-002   0.0000000000000000     
  0.50000000000000000        9.3750000000000000E-002   0.0000000000000000     
  0.53125000000000000        9.3750000000000000E-002   0.0000000000000000     
  0.56250000000000000        9.3750000000000000E-002   0.0000000000000000     
  0.59375000000000000        9.3750000000000000E-002   0.0000000000000000     
  0.62500000000000000        9.3750000000000000E-002   0.0000000000000000     
  0.50000000000000000       0.12500000000000000        0.0000000000000000     
  0.53125000000000000       0.12500000000000000        0.0000000000000000     
  0.56250000000000000       0.12500000000000000        0.0000000000000000     
  0.59375000000000000       0.12500000000000000        0.0000000000000000     
  0.62500000000000000       0.12500000000000000        0.0000000000000000     
  0.62500000000000000        0.0000000000000000        0.0000000000000000     
  0.65625000000000000        0.0000000000000000        0.0000000000000000     
  0.68750000000000000        0.0000000000000000        0.0000000000000000     
  0.71875000000000000        0.0000000000000000        0.0000000000000000     
  0.75000000000000000        0.0000000000000000        0.0000000000000000     
  0.62500000000000000        3.1250000000000000E-002   0.0000000000000000     
  0.65625000000000000        3.1250000000000000E-002   0.0000000000000000     
  0.68750000000000000        3.1250000000000000E-002   0.0000000000000000     
  0.71875000000000000        3.1250000000000000E-002   0.0000000000000000     
  0.75000000000000000        3.1250000000000000E-002   0.0000000000000000     
  0.62500000000000000        6.2500000000000000E-002   0.0000000000000000     
  0.65625000000000000        6.2500000000000000E-002   0.0000000000000000     
  0.68750000000000000        6.2500000000000000E-002   0.0000000000000000     
  0.71875000000000000        6.2500000000000000E-002   0.0000000000000000     
  0.75000000000000000        6.2500000000000000E-002   0.0000000000000000     
  0.62500000000000000        9.3750000000000000E-002   0.0000000000000000     
  0.65625000000000000        9.3750000000000000E-002   0.0000000000000000     
  0.68750000000000000        9.3750000000000000E-002   0.0000000000000000     
  0.71875000000000000        9.3750000000000000E-002   0.0000000000000000     
  0.75000000000000000        9.3750000000000000E-002   0.0000000000000000     
  0.62500000000000000       0.12500000000000000        0.0000000000000000     
  0.65625000000000000       0.12500000000000000        0.0000000000000000     
  0.68750000000000000       0.12500000000000000        0.0000000000000000     
  0.71875000000000000       0.12500000000000000        0.0000000000000000     
  0.75000000000000000       0.12500000000000000        0.0000000000000000     
  0.75000000000000000        0.0000000000000000        0.0000000000000000     
  0.78125000000000000        0.0000000000000000        0.0000000000000000     
  0.81250000000000000        0.0000000000000000        0.0000000000000000     
  0.84375000000000000        0.0000000000000000        0.0000000000000000     
  0.87500000000000000        0.0000000000000000        0.0000000000000000     
  0.75000000000000000        3.1250000000000000E-002   0.0000000000000000     
  0.78125000000000000        3.1250000000000000E-002   0.0000000000000000     
  0.81250000000000000        3.1250000000000000E-002   0.0000000000000000     
  0.84375000000000000        3.1250000000000000E-002   0.0000000000000000     
  0.87500000000000000        3.1250000000000000E-002   0.0000000000000000     
  0.75000000000000000        6.2500000000000000E-002   0.0000000000000000     
  0.78125000000000000        6.2500000000000000E-002   0.0000000000000000     
  0.81250000000000000        6.2500000000000000E-002   0.0000000000000000     
  0.84375000000000000        6.2500000000000000E-002   0.0000000000000000     
  0.87500000000000000        6.2500000000000000E-002   0.0000000000000000     
  0.75000000000000000        9.3750000000000000E-002   0.0000000000000000     
  0.78125000000000000        9.3750000000000000E-002   0.0000000000000000     
  0.81250000000000000        9.3750000000000000E-002   0.0000000000000000     
  0.84375000000000000        9.3750000000000000E-002   0.0000000000000000     
  0.87500000000000000        9.3750000000000000E-002   0.0000000000000000     
  0.75000000000000000       0.12500000000000000        0.0000000000000000     
  0.78125000000000000       0.12500000000000000        0.0000000000000000     
  0.81250000000000000       0.12500000000000000        0.0000000000000000     
  0.84375000000000000       0.12500000000000000        0.0000000000000000     
  0.87500000000000000       0.12500000000000000        0.0000000000000000     
  0.87500000000000000        0.0000000000000000        0.0000000000000000     
  0.90625000000000000        0.0000000000000000        0.0000000000000000     
  0.93750000000000000        0.0000000000000000        0.0000000000000000     
  0.96875000000000000        0.0000000000000000        0.0000000000000000     
   1.0000000000000000        0.0000000000000000        0.0000000000000000     
  0.87500000000000000        3.1250000000000000E-002   0.0000000000000000     
  0.90625000000000000        3.1250000000000000E-002   0.0000000000000000     
  0.93750000000000000        3.1250000000000000E-002   0.0000000000000000     
  0.96875000000000000        3.1250000000000000E-002   0.0000000000000000     
   1.0000000000000000        3.1250000000000000E-002   0.0000000000000000     
  0.87500000000000000        6.2500000000000000E-002   0.0000000000000000     
  0.90625000000000000        6.2500000000000000E-002   0.0000000000000000     
  0.93750000000000000        6.2500000000000000E-002   0.0000000000000000     
  0.96875000000000000        6.2500000000000000E-002   0.0000000000000000     
   1.0000000000000000        6.2500000000000000E-002   0.0000000000000000     
  0.87500000000000000        9.3750000000000000E-002   0.0000000000000000     
  0.90625000000000000        9.3750000000000000E-002   0.0000000000000000     
  0.93750000000000000        9.3750000000000000E-002   0.0000000000000000     
  0.96875000000000000        9.3750000000000000E-002   0.0000000000000000     
   1.0000000000000000        9.3750000000000000E-002   0.0000000000000000     
  0.87500000000000000       0.12500000000000000        0.0000000000000000     
  0.90625000000000000       0.12500000000000000        0.0000000000000000     
  0.93750000000000000       0.12500000000000000        0.0000000000000000     
  0.96875000000000000       0.12500000000000000        0.0000000000000000     
   1.0000000000000000       0.12500000000000000        0.0000000000000000     
   0.0000000000000000       0.12500000000000000        0.0000000000000000     
   3.1250000000000000E-002  0.12500000000000000        0.0000000000000000     
   6.2500000000000000E-002  0.12500000000000000        0.0000000000000000     
   9.3750000000000000E-002  0.12500000000000000        0.0000000000000000     
  0.12500000000000000       0.12500000000000000        0.0000000000000000     
   0.0000000000000000       0.15625000000000000        0.0000000000000000     
   3.1250000000000000E-002  0.15625000000000000        0.0000000000000000     
   6.2500000000000000E-002  0.15625000000000000        0.0000000000000000     
   9.3750000000000000E-002  0.15625000000000000        0.0000000000000000     
  0.12500000000000000       0.15625000000000000        0.0000000000000000     
   0.0000000000000000       0.18750000000000000        0.0000000000000000     
   3.1250000000000000E-002  0.18750000000000000        0.0000000000000000     
   6.2500000000000000E-002  0.18750000000000000        0.0000000000000000     
   9.3750000000000000E-002  0.18750000000000000        0.0000000000000000     
  0.12500000000000000       0.18750000000000000        0.0000000000000000     
   0.0000000000000000       0.21875000000000000        0.0000000000000000     
   3.1250000000000000E-002  0.21875000000000000        0.0000000000000000     
   6.2500000000000000E-002  0.21875000000000000        0.0000000000000000     
   9.3750000000000000E-002  0.21875000000000000        0.0000000000000000     
  0.12500000000000000       0.21875000000000000        0.0000000000000000     
   0.0000000000000000       0.25000000000000000        0.0000000000000000     
   3.1250000000000000E-002  0.25000000000000000        0.0000000000000000     
   6.2500000000000000E-002  0.25000000000000000        0.0000000000000000     
   9.3750000000000000E-002  0.25000000000000000        0.0000000000000000     
  0.12500000000000000       0.25000000000000000        0.0000000000000000     
  0.12500000000000000       0.12500000000000000        0.0000000000000000     
  0.15625000000000000       0.12500000000000000        0.0000000000000000     
  0.18750000000000000       0.12500000000000000        0.0000000000000000     
  0.21875000000000000       0.12500000000000000        0.0000000000000000     
  0.25000000000000000       0.12500000000000000        0.0000000000000000     
  0.12500000000000000       0.15625000000000000        0.0000000000000000     
  0.15625000000000000       0.15625000000000000        0.0000000000000000     
  0.18750000000000000       0.15625000000000000        0.0000000000000000     
  0.21875000000000000       0.15625000000000000        0.0000000000000000     
  0.25000000000000000       0.15625000000000000        0.0000000000000000     
  0.12500000000000000       0.18750000000000000        0.0000000000000000     
  0.15625000000000000       0.18750000000000000        0.0000000000000000     
  0.18750000000000000       0.18750000000000000        0.0000000000000000     
  0.21875000000000000       0.18750000000000000        0.0000000000000000     
  0.25000000000000000       0.18750000000000000        0.0000000000000000     
  0.12500000000000000       0.21875000000000000        0.0000000000000000     
  0.15625000000000000       0.21875000000000000        0.0000000000000000     
  0.18750000000000000       0.21875000000000000        0.0000000000000000     
  0.21875000000000000       0.21875000000000000        0.0000000000000000     
  0.25000000000000000       0.21875000000000000        0.0000000000000000     
  0.12500000000000000       0.25000000000000000        0.0000000000000000     
  0.15625000000000000       0.25000000000000000        0.0000000000000000     
  0.18750000000000000       0.25000000000000000        0.0000000000000000     
  0.21875000000000000       0.25000000000000000        0.0000000000000000     
  0.25000000000000000       0.25000000000000000        0.0000000000000000     
  0.25000000000000000       0.12500000000000000        0.0000000000000000     
  0.28125000000000000       0.12500000000000000        0.0000000000000000     
  0.31250000000000000       0.12500000000000000        0.0000000000000000     
  0.34375000000000000       0.12500000000000000        0.0000000000000000     
  0.37500000000000000       0.12500000000000000        0.0000000000000000     
  0.25000000000000000       0.15625000000000000        0.0000000000000000     
  0.28125000000000000       0.15625000000000000        0.0000000000000000     
  0.31250000000000000       0.15625000000000000        0.0000000000000000     
  0.34375000000000000       0.15625000000000000        0.0000000000000000     
  0.37500000000000000       0.15625000000000000        0.0000000000000000     
  0.25000000000000000       0.18750000000000000        0.0000000000000000     
  0.28125000000000000       0.18750000000000000        0.0000000000000000     
  0.31250000000000000       0.18750000000000000        0.0000000000000000     
  0.34375000000000000       0.18750000000000000        0.0000000000000000     
  0.37500000000000000       0.18750000000000000        0.0000000000000000     
  0.25000000000000000       0.21875000000000000        0.0000000000000000     
  0.28125000000000000       0.21875000000000000        0.0000000000000000     
  0.31250000000000000       0.21875000000000000        0.0000000000000000     
  0.34375000000000000       0.21875000000000000        0.0000000000000000     
  0.37500000000000000       0.21875000000000000        0.0000000000000000     
  0.25000000000000000       0.25000000000000000        0.0000000000000000     
  0.28125000000000000       0.25000000000000000        0.0000000000000000     
  0.31250000000000000       0.25000000000000000        0.0000000000000000     
  0.34375000000000000       0.25000000000000000        0.0000000000000000     
  0.37500000000000000       0.25000000000000000        0.0000000000000000     
  0.37500000000000000       0.12500000000000000        0.0000000000000000     
  0.40625000000000000       0.12500000000000000        0.0000000000000000     
  0.43750000000000000       0.12500000000000000        0.0000000000000000     
  0.46875000000000000       0.12500000000000000        0.0000000000000000     
  0.50000000000000000       0.12500000000000000        0.0000000000000000     
  0.37500000000000000       0.15625000000000000        0.0000000000000000     
  0.40625000000000000       0.15625000000000000        0.0000000000000000     
  0.43750000000000000       0.15625000000000000        0.0000000000000000     
  0.46875000000000000       0.15625000000000000        0.0000000000000000     
  0.50000000000000000       0.15625000000000000        0.0000000000000000     
  0.37500000000000000       0.18750000000000000        0.0000000000000000     
  0.40625000000000000       0.18750000000000000        0.0000000000000000     
  0.43750000000000000       0.18750000000000000        0.0000000000000000     
  0.46875000000000000       0.18750000000000000        0.0000000000000000     
  0.50000000000000000       0.18750000000000000        0.0000000000000000     
  0.37500000000000000       0.21875000000000000        0.0000000000000000     
  0.40625000000000000       0.21875000000000000        0.0000000000000000     
  0.43750000000000000       0.21875000000000000        0.0000000000000000     
  0.46875000000000000       0.21875000000000000        0.0000000000000000     
  0.50000000000000000       0.21875000000000000        0.0000000000000000     
  0.37500000000000000       0.25000000000000000        0.0000000000000000     
  0.40625000000000000       0.25000000000000000        0.0000000000000000     
  0.43750000000000000       0.25000000000000000        0.0000000000000000     
  0.46875000000000000       0.25000000000000000        0.0000000000000000     
  0.50000000000000000       0.25000000000000000        0.0000000000000000     
  0.50000000000000000       0.12500000000000000        0.0000000000000000     
  0.53125000000000000       0.12500000000000000        0.0000000000000000     
  0.56250000000000000       0.12500000000000000        0.0000000000000000     
  0.59375000000000000       0.12500000000000000        0.0000000000000000     
  0.62500000000000000       0.12500000000000000        0.0000000000000000     
  0.50000000000000000       0.15625000000000000        0.0000000000000000     
  0.53125000000000000       0.15625000000000000        0.0000000000000000     
  0.56250000000000000       0.15625000000000000        0.0000000000000000     
  0.59375000000000000       0.15625000000000000        0.0000000000000000     
  0.62500000000000000       0.15625000000000000        0.0000000000000000     
  0.50000000000000000       0.18750000000000000        0.0000000000000000     
  0.53125000000000000       0.18750000000000000        0.0000000000000000     
  0.56250000000000000       0.18750000000000000        0.0000000000000000     
  0.59375000000000000       0.18750000000000000        0.0000000000000000     
  0.62500000000000000       0.18750000000000000        0.0000000000000000     
  0.50000000000000000       0.21875000000000000        0.0000000000000000     
  0.53125000000000000       0.21875000000000000        0.0000000000000000     
  0.56250000000000000       0.21875000000000000        0.0000000000000000     
  0.59375000000000000       0.21875000000000000        0.0000000000000000     
  0.62500000000000000       0.21875000000000000        0.0000000000000000     
  0.50000000000000000       0.25000000000000000        0.0000000000000000     
  0.53125000000000000       0.25000000000000000        0.0000000000000000     
  0.56250000000000000       0.25000000000000000        0.0000000000000000     
  0.59375000000000000       0.25000000000000000        0.0000000000000000     
  0.62500000000000000       0.25000000000000000        0.0000000000000000     
  0.62500000000000000       0.12500000000000000        0.0000000000000000     
  0.65625000000000000       0.12500000000000000        0.0000000000000000     
  0.68750000000000000       0.12500000000000000        0.0000000000000000     
  0.71875000000000000       0.12500000000000000        0.0000000000000000     
  0.75000000000000000       0.12500000000000000        0.0000000000000000     
  0.62500000000000000       0.15625000000000000        0.0000000000000000     
  0.65625000000000000       0.15625000000000000        0.0000000000000000     
  0.68750000000000000       0.15625000000000000        0.0000000000000000     
  0.71875000000000000       0.15625000000000000        0.0000000000000000     
  0.75000000000000000       0.15625000000000000        0.0000000000000000     
  0.62500000000000000       0.18750000000000000        0.0000000000000000     
  0.65625000000000000       0.18750000000000000        0.0000000000000000     
  0.68750000000000000       0.18750000000000000        0.0000000000000000     
  0.71875000000000000       0.18750000000000000        0.0000000000000000     
  0.75000000000000000       0.18750000000000000        0.0000000000000000     
  0.62500000000000000       0.21875000000000000        0.0000000000000000     
  0.65625000000000000       0.21875000000000000        0.0000000000000000     
  0.68750000000000000       0.21875000000000000        0.0000000000000000     
  0.71875000000000000       0.21875000000000000        0.0000000000000000     
  0.75000000000000000       0.21875000000000000        0.0000000000000000     
  0.62500000000000000       0.25000000000000000        0.0000000000000000     
  0.65625000000000000       0.25000000000000000        0.0000000000000000     
  0.68750000000000000       0.25000000000000000        0.0000000000000000     
  0.71875000000000000       0.25000000000000000        0.0000000000000000     
  0.75000000000000000       0.25000000000000000        0.0000000000000000     
  0.75000000000000000       0.12500000000000000        0.0000000000000000     
  0.78125000000000000       0.12500000000000000        0.0000000000000000     
  0.81250000000000000       0.12500000000000000        0.0000000000000000     
  0.84375000000000000       0.12500000000000000        0.0000000000000000     
  0.87500000000000000       0.12500000000000000        0.0000000000000000     
  0.75000000000000000       0.15625000000000000        0.0000000000000000     
  0.78125000000000000       0.15625000000000000        0.0000000000000000     
  0.81250000000000000       0.15625000000000000        0.0000000000000000     
  0.84375000000000000       0.15625000000000000        0.0000000000000000     
  0.87500000000000000       0.15625000000000000        0.0000000000000000     
  0.75000000000000000       0.18750000000000000        0.0000000000000000     
  0.78125000000000000       0.18750000000000000        0.0000000000000000     
  0.81250000000000000       0.18750000000000000        0.0000000000000000     
  0.84375000000000000       0.18750000000000000        0.0000000000000000     
  0.87500000000000000       0.18750000000000000        0.0000000000000000     
  0.75000000000000000       0.21875000000000000        0.0000000000000000     
  0.78125000000000000       0.21875000000000000        0.0000000000000000     
  0.81250000000000000       0.21875000000000000        0.0000000000000000     
  0.84375000000000000       0.21875000000000000        0.0000000000000000     
  0.87500000000000000       0.21875000000000000        0.0000000000000000     
  0.75000000000000000       0.25000000000000000        0.0000000000000000     
  0.78125000000000000       0.25000000000000000        0.0000000000000000     
  0.81250000000000000       0.25000000000000000        0.0000000000000000     
  0.84375000000000000       0.25000000000000000        0.0000000000000000     
  0.87500000000000000       0.25000000000000000        0.0000000000000000     
  0.87500000000000000       0.12500000000000000        0.0000000000000000     
  0.90625000000000000       0.12500000000000000        0.0000000000000000     
  0.93750000000000000       0.12500000000000000        0.0000000000000000     
  0.96875000000000000       0.12500000000000000        0.0000000000000000     
   1.0000000000000000       0.12500000000000000        0.0000000000000000     
  0.87500000000000000       0.15625000000000000        0.0000000000000000     
  0.90625000000000000       0.15625000000000000        0.0000000000000000     
  0.93750000000000000       0.15625000000000000        0.0000000000000000     
  0.96875000000000000       0.15625000000000000        0.0000000000000000     
   1.0000000000000000       0.15625000000000000        0.0000000000000000     
  0.87500000000000000       0.18750000000000000        0.0000000000000000     
  0.90625000000000000       0.18750000000000000        0.0000000000000000     
  0.93750000000000000       0.18750000000000000        0.0000000000000000     
  0.96875000000000000       0.18750000000000000        0.0000000000000000     
   1.0000000000000000       0.18750000000000000        0.0000000000000000     
  0.87500000000000000       0.21875000000000000        0.0000000000000000     
  0.90625000000000000       0.21875000000000000        0.0000000000000000     
  0.93750000000000000       0.21875000000000000        0.0000000000000000     
  0.96875000000000000       0.21875000000000000        0.0000000000000000     
   1.0000000000000000       0.21875000000000000        0.0000000000000000     
  0.87500000000000000       0.25000000000000000        0.0000000000000000     
  0.90625000000000000       0.25000000000000000        0.0000000000000000     
  0.93750000000000000       0.25000000000000000        0.0000000000000000     
  0.96875000000000000       0.25000000000000000        0.0000000000000000     
   1.0000000000000000       0.25000000000000000        0.0000000000000000     
   0.0000000000000000       0.25000000000000000        0.0000000000000000     
   3.1250000000000000E-002  0.25000000000000000        0.0000000000000000     
   6.2500000000000000E-002  0.25000000000000000        0.0000000000000000     
   9.3750000000000000E-002  0.25000000000000000        0.0000000000000000     
  0.12500000000000000       0.25000000000000000        0.0000000000000000     
   0.0000000000000000       0.28125000000000000        0.0000000000000000     
   3.1250000000000000E-002  0.28125000000000000        0.0000000000000000     
   6.2500000000000000E-002  0.28125000000000000        0.0000000000000000     
   9.3750000000000000E-002  0.28125000000000000        0.0000000000000000     
  0.12500000000000000       0.28125000000000000        0.0000000000000000     
   0.0000000000000000       0.31250000000000000        0.0000000000000000     
   3.1250000000000000E-002  0.31250000000000000        0.0000000000000000     
   6.2500000000000000E-002  0.31250000000000000        0.0000000000000000     
   9.3750000000000000E-002  0.31250000000000000        0.0000000000000000     
  0.12500000000000000       0.31250000000000000        0.0000000000000000     
   0.0000000000000000       0.34375000000000000        0.0000000000000000     
   3.1250000000000000E-002  0.34375000000000000        0.0000000000000000     
   6.2500000000000000E-002  0.34375000000000000        0.0000000000000000     
   9.3750000000000000E-002  0.34375000000000000        0.0000000000000000     
  0.12500000000000000       0.34375000000000000        0.0000000000000000     
   0.0000000000000000       0.37500000000000000        0.0000000000000000     
   3.1250000000000000E-002  0.37500000000000000        0.0000000000000000     
   6.2500000000000000E-002  0.37500000000000000        0.0000000000000000     
   9.3750000000000000E-002  0.37500000000000000        0.0000000000000000     
  0.12500000000000000       0.37500000000000000        0.0000000000000000     
  0.12500000000000000       0.25000000000000000        0.0000000000000000     
  0.15625000000000000       0.25000000000000000        0.0000000000000000     
  0.18750000000000000       0.25000000000000000        0.0000000000000000     
  0.21875000000000000       0.25000000000000000        0.0000000000000000     
  0.25000000000000000       0.25000000000000000        0.0000000000000000     
  0.12500000000000000       0.28125000000000000        0.0000000000000000     
  0.15625000000000000       0.28125000000000000        0.0000000000000000     
  0.18750000000000000       0.28125000000000000        0.0000000000000000     
  0.21875000000000000       0.28125000000000000        0.0000000000000000     
  0.25000000000000000       0.28125000000000000        0.0000000000000000     
  0.12500000000000000       0.31250000000000000        0.0000000000000000     
  0.15625000000000000       0.31250000000000000        0.0000000000000000     
  0.18750000000000000       0.31250000000000000        0.0000000000000000     
  0.21875000000000000       0.31250000000000000        0.0000000000000000     
  0.25000000000000000       0.31250000000000000        0.0000000000000000     
  0.12500000000000000       0.34375000000000000        0.0000000000000000     
  0.15625000000000000       0.34375000000000000        0.0000000000000000     
  0.18750000000000000       0.34375000000000000        0.0000000000000000     
  0.21875000000000000       0.34375000000000000        0.0000000000000000     
  0.25000000000000000       0.34375000000000000        0.0000000000000000     
  0.12500000000000000       0.37500000000000000        0.0000000000000000     
  0.15625000000000000       0.37500000000000000        0.0000000000000000     
  0.18750000000000000       0.37500000000000000        0.0000000000000000     
  0.21875000000000000       0.37500000000000000        0.0000000000000000     
  0.25000000000000000       0.37500000000000000        0.0000000000000000     
  0.25000000000000000       0.25000000000000000        0.0000000000000000     
  0.28125000000000000       0.25000000000000000        0.0000000000000000     
  0.31250000000000000       0.25000000000000000        0.0000000000000000     
  0.34375000000000000       0.25000000000000000        0.0000000000000000     
  0.37500000000000000       0.25000000000000000        0.0000000000000000     
  0.25000000000000000       0.28125000000000000        0.0000000000000000     
  0.28125000000000000       0.28125000000000000        0.0000000000000000     
  0.31250000000000000       0.28125000000000000        0.0000000000000000     
  0.34375000000000000       0.28125000000000000        0.0000000000000000     
  0.37500000000000000       0.28125000000000000        0.0000000000000000     
  0.25000000000000000       0.31250000000000000        0.0000000000000000     
  0.28125000000000000       0.31250000000000000        0.0000000000000000     
  0.31250000000000000       0.31250000000000000        0.0000000000000000     
  0.34375000000000000       0.31250000000000000        0.0000000000000000     
  0.37500000000000000       0.31250000000000000        0.0000000000000000     
  0.25000000000000000       0.34375000000000000        0.0000000000000000     
  0.28125000000000000       0.34375000000000000        0.0000000000000000     
  0.31250000000000000       0.34375000000000000        0.0000000000000000     
  0.34375000000000000       0.34375000000000000        0.0000000000000000     
  0.37500000000000000       0.34375000000000000        0.0000000000000000     
  0.25000000000000000       0.37500000000000000        0.0000000000000000     
  0.28125000000000000       0.37500000000000000        0.0000000000000000     
  0.31250000000000000       0.37500000000000000        0.0000000000000000     
  0.34375000000000000       0.37500000000000000        0.0000000000000000     
  0.37500000000000000       0.37500000000000000        0.0000000000000000     
  0.37500000000000000       0.25000000000000000        0.0000000000000000     
  0.40625000000000000       0.25000000000000000        0.0000000000000000     
  0.43750000000000000       0.25000000000000000        0.0000000000000000     
  0.46875000000000000       0.25000000000000000        0.0000000000000000     
  0.50000000000000000       0.25000000000000000        0.0000000000000000     
  0.37500000000000000       0.28125000000000000        0.0000000000000000     
  0.40625000000000000       0.28125000000000000        0.0000000000000000     
  0.43750000000000000       0.28125000000000000        0.0000000000000000     
  0.46875000000000000       0.28125000000000000        0.0000000000000000     
  0.50000000000000000       0.28125000000000000        0.0000000000000000     
  0.37500000000000000       0.31250000000000000        0.0000000000000000     
  0.40625000000000000       0.31250000000000000        0.0000000000000000     
  0.43750000000000000       0.31250000000000000        0.0000000000000000     
  0.46875000000000000       0.31250000000000000        0.0000000000000000     
  0.50000000000000000       0.31250000000000000        0.0000000000000000     
  0.37500000000000000       0.34375000000000000        0.0000000000000000     
  0.40625000000000000       0.34375000000000000        0.0000000000000000     
  0.43750000000000000       0.34375000000000000        0.0000000000000000     
  0.46875000000000000       0.34375000000000000        0.0000000000000000     
  0.50000000000000000       0.34375000000000000        0.0000000000000000     
  0.37500000000000000       0.37500000000000000        0.0000000000000000     
  0.40625000000000000       0.37500000000000000        0.0000000000000000     
  0.43750000000000000       0.37500000000000000        0.0000000000000000     
  0.46875000000000000       0.37500000000000000        0.0000000000000000     
  0.50000000000000000       0.37500000000000000        0.0000000000000000     
  0.50000000000000000       0.25000000000000000        0.0000000000000000     
  0.53125000000000000       0.25000000000000000        0.0000000000000000     
  0.56250000000000000       0.25000000000000000        0.0000000000000000     
  0.59375000000000000       0.25000000000000000        0.0000000000000000     
  0.62500000000000000       0.25000000000000000        0.0000000000000000     
  0.50000000000000000       0.28125000000000000        0.0000000000000000     
  0.53125000000000000       0.28125000000000000        0.0000000000000000     
  0.56250000000000000       0.28125000000000000        0.0000000000000000     
  0.59375000000000000       0.28125000000000000        0.0000000000000000     
  0.62500000000000000       0.28125000000000000        0.0000000000000000     
  0.50000000000000000       0.31250000000000000        0.0000000000000000     
  0.53125000000000000       0.31250000000000000        0.0000000000000000     
  0.56250000000000000       0.31250000000000000        0.0000000000000000     
  0.59375000000000000       0.31250000000000000        0.0000000000000000     
  0.62500000000000000       0.31250000000000000        0.0000000000000000     
  0.50000000000000000       0.34375000000000000        0.0000000000000000     
  0.53125000000000000       0.34375000000000000        0.0000000000000000     
  0.56250000000000000       0.34375000000000000        0.0000000000000000     
  0.59375000000000000       0.34375000000000000        0.0000000000000000     
  0.62500000000000000       0.34375000000000000        0.0000000000000000     
  0.50000000000000000       0.37500000000000000        0.0000000000000000     
  0.53125000000000000       0.37500000000000000        0.0000000000000000     
  0.56250000000000000       0.37500000000000000        0.0000000000000000     
  0.59375000000000000       0.37500000000000000        0.0000000000000000     
  0.62500000000000000       0.37500000000000000        0.0000000000000000     
  0.62500000000000000       0.25000000000000000        0.0000000000000000     
  0.65625000000000000       0.25000000000000000        0.0000000000000000     
  0.68750000000000000       0.25000000000000000        0.0000000000000000     
  0.71875000000000000       0.25000000000000000        0.0000000000000000     
  0.75000000000000000       0.25000000000000000        0.0000000000000000     
  0.62500000000000000       0.28125000000000000        0.0000000000000000     
  0.65625000000000000       0.28125000000000000        0.0000000000000000     
  0.68750000000000000       0.28125000000000000        0.0000000000000000     
  0.71875000000000000       0.28125000000000000        0.0000000000000000     
  0.75000000000000000       0.28125000000000000        0.0000000000000000     
  0.62500000000000000       0.31250000000000000        0.0000000000000000     
  0.65625000000000000       0.31250000000000000        0.0000000000000000     
  0.68750000000000000       0.31250000000000000        0.0000000000000000     
  0.71875000000000000       0.31250000000000000        0.0000000000000000     
  0.75000000000000000       0.31250000000000000        0.0000000000000000     
  0.62500000000000000       0.34375000000000000        0.0000000000000000     
  0.65625000000000000       0.34375000000000000        0.0000000000000000     
  0.68750000000000000       0.34375000000000000        0.0000000000000000     
  0.71875000000000000       0.34375000000000000        0.0000000000000000     
  0.75000000000000000       0.34375000000000000        0.0000000000000000     
  0.62500000000000000       0.37500000000000000        0.0000000000000000     
  0.65625000000000000       0.37500000000000000        0.0000000000000000     
  0.68750000000000000       0.37500000000000000        0.0000000000000000     
  0.71875000000000000       0.37500000000000000        0.0000000000000000     
  0.75000000000000000       0.37500000000000000        0.0000000000000000     
  0.75000000000000000       0.25000000000000000        0.0000000000000000     
  0.78125000000000000       0.25000000000000000        0.0000000000000000     
  0.81250000000000000       0.25000000000000000        0.0000000000000000     
  0.84375000000000000       0.25000000000000000        0.0000000000000000     
  0.87500000000000000       0.25000000000000000        0.0000000000000000     
  0.75000000000000000       0.28125000000000000        0.0000000000000000     
  0.78125000000000000       0.28125000000000000        0.0000000000000000     
  0.81250000000000000       0.28125000000000000        0.0000000000000000     
  0.84375000000000000       0.28125000000000000        0.0000000000000000     
  0.87500000000000000       0.28125000000000000        0.0000000000000000     
  0.75000000000000000       0.31250000000000000        0.0000000000000000     
  0.78125000000000000       0.31250000000000000        0.0000000000000000     
  0.81250000000000000       0.31250000000000000        0.0000000000000000     
  0.84375000000000000       0.31250000000000000        0.0000000000000000     
  0.87500000000000000       0.31250000000000000        0.0000000000000000     
  0.75000000000000000       0.34375000000000000        0.0000000000000000     
  0.78125000000000000       0.34375000000000000        0.0000000000000000     
  0.81250000000000000       0.34375000000000000        0.0000000000000000     
  0.84375000000000000       0.34375000000000000        0.0000000000000000     
  0.87500000000000000       0.34375000000000000        0.0000000000000000     
  0.75000000000000000       0.37500000000000000        0.0000000000000000     
  0.78125000000000000       0.37500000000000000        0.0000000000000000     
  0.81250000000000000       0.37500000000000000        0.0000000000000000     
  0.84375000000000000       0.37500000000000000        0.0000000000000000     
  0.87500000000000000       0.37500000000000000        0.0000000000000000     
  0.87500000000000000       0.25000000000000000        0.0000000000000000     
  0.90625000000000000       0.25000000000000000        0.0000000000000000     
  0.93750000000000000       0.25000000000000000        0.0000000000000000     
  0.96875000000000000       0.25000000000000000        0.0000000000000000     
   1.0000000000000000       0.25000000000000000        0.0000000000000000     
  0.87500000000000000       0.28125000000000000        0.0000000000000000     
  0.90625000000000000       0.28125000000000000        0.0000000000000000     
  0.93750000000000000       0.28125000000000000        0.0000000000000000     
  0.96875000000000000       0.28125000000000000        0.0000000000000000     
   1.0000000000000000       0.28125000000000000        0.0000000000000000     
  0.87500000000000000       0.31250000000000000        0.0000000000000000     
  0.90625000000000000       0.31250000000000000        0.0000000000000000     
  0.93750000000000000       0.31250000000000000        0.0000000000000000     
  0.96875000000000000       0.31250000000000000        0.0000000000000000     
   1.0000000000000000       0.31250000000000000        0.0000000000000000     
  0.87500000000000000       0.34375000000000000        0.0000000000000000     
  0.90625000000000000       0.34375000000000000        0.0000000000000000     
  0.93750000000000000       0.34375000000000000        0.0000000000000000     
  0.96875000000000000       0.34375000000000000        0.0000000000000000     
   1.0000000000000000       0.34375000000000000        0.0000000000000000     
  0.87500000000000000       0.37500000000000000        0.0000000000000000     
  0.90625000000000000       0.37500000000000000        0.0000000000000000     
  0.93750000000000000       0.37500000000000000        0.0000000000000000     
  0.96875000000000000       0.37500000000000000        0.0000000000000000     
   1.0000000000000000       0.37500000000000000        0.0000000000000000     
   0.0000000000000000       0.37500000000000000        0.0000000000000000     
   3.1250000000000000E-002  0.37500000000000000        0.0000000000000000     
   6.2500000000000000E-002  0.37500000000000000        0.0000000000000000     
   9.3750000000000000E-002  0.37500000000000000        0.0000000000000000     
  0.12500000000000000       0.37500000000000000        0.0000000000000000     
   0.0000000000000000       0.40625000000000000        0.0000000000000000     
   3.1250000000000000E-002  0.40625000000000000        0.0000000000000000     
   6.2500000000000000E-002  0.40625000000000000        0.0000000000000000     
   9.3750000000000000E-002  0.40625000000000000        0.0000000000000000     
  0.12500000000000000       0.40625000000000000        0.0000000000000000     
   0.0000000000000000       0.43750000000000000        0.0000000000000000     
   3.1250000000000000E-002  0.43750000000000000        0.0000000000000000     
   6.2500000000000000E-002  0.43750000000000000        0.0000000000000000     
   9.3750000000000000E-002  0.43750000000000000        0.0000000000000000     
  0.12500000000000000       0.43750000000000000        0.0000000000000000     
   0.0000000000000000       0.46875000000000000        0.0000000000000000     
   3.1250000000000000E-002  0.46875000000000000        0.0000000000000000     
   6.2500000000000000E-002  0.46875000000000000        0.0000000000000000     
   9.3750000000000000E-002  0.46875000000000000        0.0000000000000000     
  0.12500000000000000       0.46875000000000000        0.0000000000000000     
   0.0000000000000000       0.50000000000000000        0.0000000000000000     
   3.1250000000000000E-002  0.50000000000000000        0.0000000000000000     
   6.2500000000000000E-002  0.50000000000000000        0.0000000000000000     
   9.3750000000000000E-002  0.50000000000000000        0.0000000000000000     
  0.12500000000000000       0.50000000000000000        0.0000000000000000     
  0.12500000000000000       0.37500000000000000        0.0000000000000000     
  0.15625000000000000       0.37500000000000000        0.0000000000000000     
  0.18750000000000000       0.37500000000000000        0.0000000000000000     
  0.21875000000000000       0.37500000000000000        0.0000000000000000     
  0.25000000000000000       0.37500000000000000        0.0000000000000000     
  0.12500000000000000       0.40625000000000000        0.0000000000000000     
  0.15625000000000000       0.40625000000000000        0.0000000000000000     
  0.18750000000000000       0.40625000000000000        0.0000000000000000     
  0.21875000000000000       0.40625000000000000        0.0000000000000000     
  0.25000000000000000       0.40625000000000000        0.0000000000000000     
  0.12500000000000000       0.43750000000000000        0.0000000000000000     
  0.15625000000000000       0.43750000000000000        0.0000000000000000     
  0.18750000000000000       0.43750000000000000        0.0000000000000000     
  0.21875000000000000       0.43750000000000000        0.0000000000000000     
  0.25000000000000000       0.43750000000000000        0.0000000000000000     
  0.12500000000000000       0.46875000000000000        0.0000000000000000     
  0.15625000000000000       0.46875000000000000        0.0000000000000000     
  0.18750000000000000       0.46875000000000000        0.0000000000000000     
  0.21875000000000000       0.46875000000000000        0.0000000000000000     
  0.25000000000000000       0.46875000000000000        0.0000000000000000     
  0.12500000000000000       0.50000000000000000        0.0000000000000000     
  0.15625000000000000       0.50000000000000000        0.0000000000000000     
  0.18750000000000000       0.50000000000000000        0.0000000000000000     
  0.21875000000000000       0.50000000000000000        0.0000000000000000     
  0.25000000000000000       0.50000000000000000        0.0000000000000000     
  0.25000000000000000       0.37500000000000000        0.0000000000000000     
  0.28125000000000000       0.37500000000000000        0.0000000000000000     
  0.31250000000000000       0.37500000000000000        0.0000000000000000     
  0.34375000000000000       0.37500000000000000        0.0000000000000000     
  0.37500000000000000       0.37500000000000000        0.0000000000000000     
  0.25000000000000000       0.40625000000000000        0.0000000000000000     
  0.28125000000000000       0.40625000000000000        0.0000000000000000     
  0.31250000000000000       0.40625000000000000        0.0000000000000000     
  0.34375000000000000       0.40625000000000000        0.0000000000000000     
  0.37500000000000000       0.40625000000000000        0.0000000000000000     
  0.25000000000000000       0.43750000000000000        0.0000000000000000     
  0.28125000000000000       0.43750000000000000        0.0000000000000000     
  0.31250000000000000       0.43750000000000000        0.0000000000000000     
  0.34375000000000000       0.43750000000000000        0.0000000000000000     
  0.37500000000000000       0.43750000000000000        0.0000000000000000     
  0.25000000000000000       0.46875000000000000        0.0000000000000000     
  0.28125000000000000       0.46875000000000000        0.0000000000000000     
  0.31250000000000000       0.46875000000000000        0.0000000000000000     
  0.34375000000000000       0.46875000000000000        0.0000000000000000     
  0.37500000000000000       0.46875000000000000        0.0000000000000000     
  0.25000000000000000       0.50000000000000000        0.0000000000000000     
  0.28125000000000000       0.50000000000000000        0.0000000000000000     
  0.31250000000000000       0.50000000000000000        0.0000000000000000     
  0.34375000000000000       0.50000000000000000        0.0000000000000000     
  0.37500000000000000       0.50000000000000000        0.0000000000000000     
  0.37500000000000000       0.37500000000000000        0.0000000000000000     
  0.40625000000000000       0.37500000000000000        0.0000000000000000     
  0.43750000000000000       0.37500000000000000        0.0000000000000000     
  0.46875000000000000       0.37500000000000000        0.0000000000000000     
  0.50000000000000000       0.37500000000000000        0.0000000000000000     
  0.37500000000000000       0.40625000000000000        0.0000000000000000     
  0.40625000000000000       0.40625000000000000        0.0000000000000000     
  0.43750000000000000       0.40625000000000000        0.0000000000000000     
  0.46875000000000000       0.40625000000000000        0.0000000000000000     
  0.50000000000000000       0.40625000000000000        0.0000000000000000     
  0.37500000000000000       0.43750000000000000        0.0000000000000000     
  0.40625000000000000       0.43750000000000000        0.0000000000000000     
  0.43750000000000000       0.43750000000000000        0.0000000000000000     
  0.46875000000000000       0.43750000000000000        0.0000000000000000     
  0.50000000000000000       0.43750000000000000        0.0000000000000000     
  0.37500000000000000       0.46875000000000000        0.0000000000000000     
  0.40625000000000000       0.46875000000000000        0.0000000000000000     
  0.43750000000000000       0.46875000000000000        0.0000000000000000     
  0.46875000000000000       0.46875000000000000        0.0000000000000000     
  0.50000000000000000       0.46875000000000000        0.0000000000000000     
  0.37500000000000000       0.50000000000000000        0.0000000000000000     
  0.40625000000000000       0.50000000000000000        0.0000000000000000     
  0.43750000000000000       0.50000000000000000        0.0000000000000000     
  0.46875000000000000       0.50000000000000000        0.0000000000000000     
  0.50000000000000000       0.50000000000000000        0.0000000000000000     
  0.50000000000000000       0.37500000000000000        0.0000000000000000     
  0.53125000000000000       0.37500000000000000        0.0000000000000000     
  0.56250000000000000       0.37500000000000000        0.0000000000000000     
  0.59375000000000000       0.37500000000000000        0.0000000000000000     
  0.62500000000000000       0.37500000000000000        0.0000000000000000     
  0.50000000000000000       0.40625000000000000        0.0000000000000000     
  0.53125000000000000       0.40625000000000000        0.0000000000000000     
  0.56250000000000000       0.40625000000000000        0.0000000000000000     
  0.59375000000000000       0.40625000000000000        0.0000000000000000     
  0.62500000000000000       0.40625000000000000        0.0000000000000000     
  0.50000000000000000       0.43750000000000000        0.0000000000000000     
  0.53125000000000000       0.43750000000000000        0.0000000000000000     
  0.56250000000000000       0.43750000000000000        0.0000000000000000     
  0.59375000000000000       0.43750000000000000        0.0000000000000000     
  0.62500000000000000       0.43750000000000000        0.0000000000000000     
  0.50000000000000000       0.46875000000000000        0.0000000000000000     
  0.53125000000000000       0.46875000000000000        0.0000000000000000     
  0.56250000000000000       0.46875000000000000        0.0000000000000000     
  0.59375000000000000       0.46875000000000000        0.0000000000000000     
  0.62500000000000000       0.46875000000000000        0.0000000000000000     
  0.50000000000000000       0.50000000000000000        0.0000000000000000     
  0.53125000000000000       0.50000000000000000        0.0000000000000000     
  0.56250000000000000       0.50000000000000000        0.0000000000000000     
  0.59375000000000000       0.50000000000000000        0.0000000000000000     
  0.62500000000000000       0.50000000000000000        0.0000000000000000     
  0.62500000000000000       0.37500000000000000        0.0000000000000000     
  0.65625000000000000       0.37500000000000000        0.0000000000000000     
  0.68750000000000000       0.37500000000000000        0.0000000000000000     
  0.71875000000000000       0.37500000000000000        0.0000000000000000     
  0.75000000000000000       0.37500000000000000        0.0000000000000000     
  0.62500000000000000       0.40625000000000000        0.0000000000000000     
  0.65625000000000000       0.40625000000000000        0.0000000000000000     
  0.68750000000000000       0.40625000000000000        0.0000000000000000     
  0.71875000000000000       0.40625000000000000        0.0000000000000000     
  0.75000000000000000       0.40625000000000000        0.0000000000000000     
  0.62500000000000000       0.43750000000000000        0.0000000000000000     
  0.65625000000000000       0.43750000000000000        0.0000000000000000     
  0.68750000000000000       0.43750000000000000        0.0000000000000000     
  0.71875000000000000       0.43750000000000000        0.0000000000000000     
  0.75000000000000000       0.43750000000000000        0.0000000000000000     
  0.62500000000000000       0.46875000000000000        0.0000000000000000     
  0.65625000000000000       0.46875000000000000        0.0000000000000000     
  0.68750000000000000       0.46875000000000000        0.0000000000000000     
  0.71875000000000000       0.46875000000000000        0.0000000000000000     
  0.75000000000000000       0.46875000000000000        0.0000000000000000     
  0.62500000000000000       0.50000000000000000        0.0000000000000000     
  0.65625000000000000       0.50000000000000000        0.0000000000000000     
  0.68750000000000000       0.50000000000000000        0.0000000000000000     
  0.71875000000000000       0.50000000000000000        0.0000000000000000     
  0.75000000000000000       0.50000000000000000        0.0000000000000000     
  0.75000000000000000       0.37500000000000000        0.0000000000000000     
  0.78125000000000000       0.37500000000000000        0.0000000000000000     
  0.81250000000000000       0.37500000000000000        0.0000000000000000     
  0.84375000000000000       0.37500000000000000        0.0000000000000000     
  0.87500000000000000       0.37500000000000000        0.0000000000000000     
  0.75000000000000000       0.40625000000000000        0.0000000000000000     
  0.78125000000000000       0.40625000000000000        0.0000000000000000     
  0.81250000000000000       0.40625000000000000        0.0000000000000000     
  0.84375000000000000       0.40625000000000000        0.0000000000000000     
  0.87500000000000000       0.40625000000000000        0.0000000000000000     
  0.75000000000000000       0.43750000000000000        0.0000000000000000     
  0.78125000000000000       0.43750000000000000        0.0000000000000000     
  0.81250000000000000       0.43750000000000000        0.0000000000000000     
  0.84375000000000000       0.43750000000000000        0.0000000000000000     
  0.87500000000000000       0.43750000000000000        0.0000000000000000     
  0.75000000000000000       0.46875000000000000        0.0000000000000000     
  0.78125000000000000       0.46875000000000000        0.0000000000000000     
  0.81250000000000000       0.46875000000000000        0.0000000000000000     
  0.84375000000000000       0.46875000000000000        0.0000000000000000     
  0.87500000000000000       0.46875000000000000        0.0000000000000000     
  0.75000000000000000       0.50000000000000000        0.0000000000000000     
  0.78125000000000000       0.50000000000000000        0.0000000000000000     
  0.81250000000000000       0.50000000000000000        0.0000000000000000     
  0.84375000000000000       0.50000000000000000        0.0000000000000000     
  0.87500000000000000       0.50000000000000000        0.0000000000000000     
  0.87500000000000000       0.37500000000000000        0.0000000000000000     
  0.90625000000000000       0.37500000000000000        0.0000000000000000     
  0.93750000000000000       0.37500000000000000        0.0000000000000000     
  0.96875000000000000       0.37500000000000000        0.0000000000000000     
   1.0000000000000000       0.37500000000000000        0.0000000000000000     
  0.87500000000000000       0.40625000000000000        0.0000000000000000     
  0.90625000000000000       0.40625000000000000        0.0000000000000000     
  0.93750000000000000       0.40625000000000000        0.0000000000000000     
  0.96875000000000000       0.40625000000000000        0.0000000000000000     
   1.0000000000000000       0.40625000000000000        0.0000000000000000     
  0.87500000000000000       0.43750000000000000        0.0000000000000000     
  0.90625000000000000       0.43750000000000000        0.0000000000000000     
  0.93750000000000000       0.43750000000000000        0.0000000000000000     
  0.96875000000000000       0.43750000000000000        0.0000000000000000     
   1.0000000000000000       0.43750000000000000        0.0000000000000000     
  0.87500000000000000       0.46875000000000000        0.0000000000000000     
  0.90625000000000000       0.46875000000000000        0.0000000000000000     
  0.93750000000000000       0.46875000000000000        0.0000000000000000     
  0.96875000000000000       0.46875000000000000        0.0000000000000000     
   1.0000000000000000       0.46875000000000000        0.0000000000000000     
  0.87500000000000000       0.50000000000000000        0.0000000000000000     
  0.90625000000000000       0.50000000000000000        0.0000000000000000     
  0.93750000000000000       0.50000000000000000        0.0000000000000000     
  0.96875000000000000       0.50000000000000000        0.0000000000000000     
   1.0000000000000000       0.50000000000000000        0.0000000000000000     
   0.0000000000000000       0.50000000000000000        0.0000000000000000     
   3.1250000000000000E-002  0.50000000000000000        0.0000000000000000     
   6.2500000000000000E-002  0.50000000000000000        0.0000000000000000     
   9.3750000000000000E-002  0.50000000000000000        0.0000000000000000     
  0.12500000000000000       0.50000000000000000        0.0000000000000000     
   0.0000000000000000       0.53125000000000000        0.0000000000000000     
   3.1250000000000000E-002  0.53125000000000000        0.0000000000000000     
   6.2500000000000000E-002  0.53125000000000000        0.0000000000000000     
   9.3750000000000000E-002  0.53125000000000000        0.0000000000000000     
  0.12500000000000000       0.53125000000000000        0.0000000000000000     
   0.0000000000000000       0.56250000000000000        0.0000000000000000     
   3.1250000000000000E-002  0.56250000000000000        0.0000000000000000     
   6.2500000000000000E-002  0.56250000000000000        0.0000000000000000     
   9.3750000000000000E-002  0.56250000000000000        0.0000000000000000     
  0.12500000000000000       0.56250000000000000        0.0000000000000000     
   0.0000000000000000       0.59375000000000000        0.0000000000000000     
   3.1250000000000000E-002  0.59375000000000000        0.0000000000000000     
   6.2500000000000000E-002  0.59375000000000000        0.0000000000000000     
   9.3750000000000000E-002  0.59375000000000000        0.0000000000000000     
  0.12500000000000000       0.59375000000000000        0.0000000000000000     
   0.0000000000000000       0.62500000000000000        0.0000000000000000     
   3.1250000000000000E-002  0.62500000000000000        0.0000000000000000     
   6.2500000000000000E-002  0.62500000000000000        0.0000000000000000     
   9.3750000000000000E-002  0.62500000000000000        0.0000000000000000     
  0.12500000000000000       0.62500000000000000        0.0000000000000000     
  0.12500000000000000       0.50000000000000000        0.0000000000000000     
  0.15625000000000000       0.50000000000000000        0.0000000000000000     
  0.18750000000000000       0.50000000000000000        0.0000000000000000     
  0.21875000000000000       0.50000000000000000        0.0000000000000000     
  0.25000000000000000       0.50000000000000000        0.0000000000000000     
  0.12500000000000000       0.53125000000000000        0.0000000000000000     
  0.15625000000000000       0.53125000000000000        0.0000000000000000     
  0.18750000000000000       0.53125000000000000        0.0000000000000000     
  0.21875000000000000       0.53125000000000000        0.0000000000000000     
  0.25000000000000000       0.53125000000000000        0.0000000000000000     
  0.12500000000000000       0.56250000000000000        0.0000000000000000     
  0.15625000000000000       0.56250000000000000        0.0000000000000000     
  0.18750000000000000       0.56250000000000000        0.0000000000000000     
  0.21875000000000000       0.56250000000000000        0.0000000000000000     
  0.25000000000000000       0.56250000000000000        0.0000000000000000     
  0.12500000000000000       0.59375000000000000        0.0000000000000000     
  0.15625000000000000       0.59375000000000000        0.0000000000000000     
  0.18750000000000000       0.59375000000000000        0.0000000000000000     
  0.21875000000000000       0.59375000000000000        0.0000000000000000     
  0.25000000000000000       0.59375000000000000        0.0000000000000000     
  0.12500000000000000       0.62500000000000000        0.0000000000000000     
  0.15625000000000000       0.62500000000000000        0.0000000000000000     
  0.18750000000000000       0.62500000000000000        0.0000000000000000     
  0.21875000000000000       0.62500000000000000        0.0000000000000000     
  0.25000000000000000       0.62500000000000000        0.0000000000000000     
  0.25000000000000000       0.50000000000000000        0.0000000000000000     
  0.28125000000000000       0.50000000000000000        0.0000000000000000     
  0.31250000000000000       0.50000000000000000        0.0000000000000000     
  0.34375000000000000       0.50000000000000000        0.0000000000000000     
  0.37500000000000000       0.50000000000000000        0.0000000000000000     
  0.25000000000000000       0.53125000000000000        0.0000000000000000     
  0.28125000000000000       0.53125000000000000        0.0000000000000000     
  0.31250000000000000       0.53125000000000000        0.0000000000000000     
  0.34375000000000000       0.53125000000000000        0.0000000000000000     
  0.37500000000000000       0.53125000000000000        0.0000000000000000     
  0.25000000000000000       0.56250000000000000        0.0000000000000000     
  0.28125000000000000       0.56250000000000000        0.0000000000000000     
  0.31250000000000000       0.56250000000000000        0.0000000000000000     
  0.34375000000000000       0.56250000000000000        0.0000000000000000     
  0.37500000000000000       0.56250000000000000        0.0000000000000000     
  0.25000000000000000       0.59375000000000000        0.0000000000000000     
  0.28125000000000000       0.59375000000000000        0.0000000000000000     
  0.31250000000000000       0.59375000000000000        0.0000000000000000     
  0.34375000000000000       0.59375000000000000        0.0000000000000000     
  0.37500000000000000       0.59375000000000000        0.0000000000000000     
  0.25000000000000000       0.62500000000000000        0.0000000000000000     
  0.28125000000000000       0.62500000000000000        0.0000000000000000     
  0.31250000000000000       0.62500000000000000        0.0000000000000000     
  0.34375000000000000       0.62500000000000000        0.0000000000000000     
  0.37500000000000000       0.62500000000000000        0.0000000000000000     
  0.37500000000000000       0.50000000000000000        0.0000000000000000     
  0.40625000000000000       0.50000000000000000        0.0000000000000000     
  0.43750000000000000       0.50000000000000000        0.0000000000000000     
  0.46875000000000000       0.50000000000000000        0.0000000000000000     
  0.50000000000000000       0.50000000000000000        0.0000000000000000     
  0.37500000000000000       0.53125000000000000        0.0000000000000000     
  0.40625000000000000       0.53125000000000000        0.0000000000000000     
  0.43750000000000000       0.53125000000000000        0.0000000000000000     
  0.46875000000000000       0.53125000000000000        0.0000000000000000     
  0.50000000000000000       0.53125000000000000        0.0000000000000000     
  0.37500000000000000       0.56250000000000000        0.0000000000000000     
  0.40625000000000000       0.56250000000000000        0.0000000000000000     
  0.43750000000000000       0.56250000000000000        0.0000000000000000     
  0.46875000000000000       0.56250000000000000        0.0000000000000000     
  0.50000000000000000       0.56250000000000000        0.0000000000000000     
  0.37500000000000000       0.59375000000000000        0.0000000000000000     
  0.40625000000000000       0.59375000000000000        0.0000000000000000     
  0.43750000000000000       0.59375000000000000        0.0000000000000000     
  0.46875000000000000       0.59375000000000000        0.0000000000000000     
  0.50000000000000000       0.59375000000000000        0.0000000000000000     
  0.37500000000000000       0.62500000000000000        0.0000000000000000     
  0.40625000000000000       0.62500000000000000        0.0000000000000000     
  0.43750000000000000       0.62500000000000000        0.0000000000000000     
  0.46875000000000000       0.62500000000000000        0.0000000000000000     
  0.50000000000000000       0.62500000000000000        0.0000000000000000     
  0.50000000000000000       0.50000000000000000        0.0000000000000000     
  0.53125000000000000       0.50000000000000000        0.0000000000000000     
  0.56250000000000000       0.50000000000000000        0.0000000000000000     
  0.59375000000000000       0.50000000000000000        0.0000000000000000     
  0.62500000000000000       0.50000000000000000        0.0000000000000000     
  0.50000000000000000       0.53125000000000000        0.0000000000000000     
  0.53125000000000000       0.53125000000000000        0.0000000000000000     
  0.56250000000000000       0.53125000000000000        0.0000000000000000     
  0.59375000000000000       0.53125000000000000        0.0000000000000000     
  0.62500000000000000       0.53125000000000000        0.0000000000000000     
  0.50000000000000000       0.56250000000000000        0.0000000000000000     
  0.53125000000000000       0.56250000000000000        0.0000000000000000     
  0.56250000000000000       0.56250000000000000        0.0000000000000000     
  0.59375000000000000       0.56250000000000000        0.0000000000000000     
  0.62500000000000000       0.56250000000000000        0.0000000000000000     
  0.50000000000000000       0.59375000000000000        0.0000000000000000     
  0.53125000000000000       0.59375000000000000        0.0000000000000000     
  0.56250000000000000       0.59375000000000000        0.0000000000000000     
  0.59375000000000000       0.59375000000000000        0.0000000000000000     
  0.62500000000000000       0.59375000000000000        0.0000000000000000     
  0.50000000000000000       0.62500000000000000        0.0000000000000000     
  0.53125000000000000       0.62500000000000000        0.0000000000000000     
  0.56250000000000000       0.62500000000000000        0.0000000000000000     
  0.59375000000000000       0.62500000000000000        0.0000000000000000     
  0.62500000000000000       0.62500000000000000        0.0000000000000000     
  0.62500000000000000       0.50000000000000000        0.0000000000000000     
  0.65625000000000000       0.50000000000000000        0.0000000000000000     
  0.68750000000000000       0.50000000000000000        0.0000000000000000     
  0.71875000000000000       0.50000000000000000        0.0000000000000000     
  0.75000000000000000       0.50000000000000000        0.0000000000000000     
  0.62500000000000000       0.53125000000000000        0.0000000000000000     
  0.65625000000000000       0.53125000000000000        0.0000000000000000     
  0.68750000000000000       0.53125000000000000        0.0000000000000000     
  0.71875000000000000       0.53125000000000000        0.0000000000000000     
  0.75000000000000000       0.53125000000000000        0.0000000000000000     
  0.62500000000000000       0.56250000000000000        0.0000000000000000     
  0.65625000000000000       0.56250000000000000        0.0000000000000000     
  0.68750000000000000       0.56250000000000000        0.0000000000000000     
  0.71875000000000000       0.56250000000000000        0.0000000000000000     
  0.75000000000000000       0.56250000000000000        0.0000000000000000     
  0.62500000000000000       0.59375000000000000        0.0000000000000000     
  0.65625000000000000       0.59375000000000000        0.0000000000000000     
  0.68750000000000000       0.59375000000000000        0.0000000000000000     
  0.71875000000000000       0.59375000000000000        0.0000000000000000     
  0.75000000000000000       0.59375000000000000        0.0000000000000000     
  0.62500000000000000       0.62500000000000000        0.0000000000000000     
  0.65625000000000000       0.62500000000000000        0.0000000000000000     
  0.68750000000000000       0.62500000000000000        0.0000000000000000     
  0.71875000000000000       0.62500000000000000        0.0000000000000000     
  0.75000000000000000       0.62500000000000000        0.0000000000000000     
  0.75000000000000000       0.50000000000000000        0.0000000000000000     
  0.78125000000000000       0.50000000000000000        0.0000000000000000     
  0.81250000000000000       0.50000000000000000        0.0000000000000000     
  0.84375000000000000       0.50000000000000000        0.0000000000000000     
  0.87500000000000000       0.50000000000000000        0.0000000000000000     
  0.75000000000000000       0.53125000000000000        0.0000000000000000     
  0.78125000000000000       0.53125000000000000        0.0000000000000000     
  0.81250000000000000       0.53125000000000000        0.0000000000000000     
  0.84375000000000000       0.53125000000000000        0.0000000000000000     
  0.87500000000000000       0.53125000000000000        0.0000000000000000     
  0.75000000000000000       0.56250000000000000        0.0000000000000000     
  0.78125000000000000       0.56250000000000000        0.0000000000000000     
  0.81250000000000000       0.56250000000000000        0.0000000000000000     
  0.84375000000000000       0.56250000000000000        0.0000000000000000     
  0.87500000000000000       0.56250000000000000        0.0000000000000000     
  0.75000000000000000       0.59375000000000000        0.0000000000000000     
  0.78125000000000000       0.59375000000000000        0.0000000000000000     
  0.81250000000000000       0.59375000000000000        0.0000000000000000     
  0.84375000000000000       0.59375000000000000        0.0000000000000000     
  0.87500000000000000       0.59375000000000000        0.0000000000000000     
  0.75000000000000000       0.62500000000000000        0.0000000000000000     
  0.78125000000000000       0.62500000000000000        0.0000000000000000     
  0.81250000000000000       0.62500000000000000        0.0000000000000000     
  0.84375000000000000       0.62500000000000000        0.0000000000000000     
  0.87500000000000000       0.62500000000000000        0.0000000000000000     
  0.87500000000000000       0.50000000000000000        0.0000000000000000     
  0.90625000000000000       0.50000000000000000        0.0000000000000000     
  0.93750000000000000       0.50000000000000000        0.0000000000000000     
  0.96875000000000000       0.50000000000000000        0.0000000000000000     
   1.0000000000000000       0.50000000000000000        0.0000000000000000     
  0.87500000000000000       0.53125000000000000        0.0000000000000000     
  0.90625000000000000       0.53125000000000000        0.0000000000000000     
  0.93750000000000000       0.53125000000000000        0.0000000000000000     
  0.96875000000000000       0.53125000000000000        0.0000000000000000     
   1.0000000000000000       0.53125000000000000        0.0000000000000000     
  0.87500000000000000       0.56250000000000000        0.0000000000000000     
  0.90625000000000000       0.56250000000000000        0.0000000000000000     
  0.93750000000000000       0.56250000000000000        0.0000000000000000     
  0.96875000000000000       0.56250000000000000        0.0000000000000000     
   1.0000000000000000       0.56250000000000000        0.0000000000000000     
  0.87500000000000000       0.59375000000000000        0.0000000000000000     
  0.90625000000000000       0.59375000000000000        0.0000000000000000     
  0.93750000000000000       0.59375000000000000        0.0000000000000000     
  0.96875000000000000       0.59375000000000000        0.0000000000000000     
   1.0000000000000000       0.59375000000000000        0.0000000000000000     
  0.87500000000000000       0.62500000000000000        0.0000000000000000     
  0.90625000000000000       0.62500000000000000        0.0000000000000000     
  0.93750000000000000       0.62500000000000000        0.0000000000000000     
  0.96875000000000000       0.62500000000000000        0.0000000000000000     
   1.0000000000000000       0.62500000000000000        0.0000000000000000     
   0.0000000000000000       0.62500000000000000        0.0000000000000000     
   3.1250000000000000E-002  0.62500000000000000        0.0000000000000000     
   6.2500000000000000E-002  0.62500000000000000        0.0000000000000000     
   9.3750000000000000E-002  0.62500000000000000        0.0000000000000000     
  0.12500000000000000       0.62500000000000000        0.0000000000000000     
   0.0000000000000000       0.65625000000000000        0.0000000000000000     
   3.1250000000000000E-002  0.65625000000000000        0.0000000000000000     
   6.2500000000000000E-002  0.65625000000000000        0.0000000000000000     
   9.3750000000000000E-002  0.65625000000000000        0.0000000000000000     
  0.12500000000000000       0.65625000000000000        0.0000000000000000     
   0.0000000000000000       0.68750000000000000        0.0000000000000000     
   3.1250000000000000E-002  0.68750000000000000        0.0000000000000000     
   6.2500000000000000E-002  0.68750000000000000        0.0000000000000000     
   9.3750000000000000E-002  0.68750000000000000        0.0000000000000000     
  0.12500000000000000       0.68750000000000000        0.0000000000000000     
   0.0000000000000000       0.71875000000000000        0.0000000000000000     
   3.1250000000000000E-002  0.71875000000000000        0.0000000000000000     
   6.2500000000000000E-002  0.71875000000000000        0.0000000000000000     
   9.3750000000000000E-002  0.71875000000000000        0.0000000000000000     
  0.12500000000000000       0.71875000000000000        0.0000000000000000     
   0.0000000000000000       0.75000000000000000        0.0000000000000000     
   3.1250000000000000E-002  0.75000000000000000        0.0000000000000000     
   6.2500000000000000E-002  0.75000000000000000        0.0000000000000000     
   9.3750000000000000E-002  0.75000000000000000        0.0000000000000000     
  0.12500000000000000       0.75000000000000000        0.0000000000000000     
  0.12500000000000000       0.62500000000000000        0.0000000000000000     
  0.15625000000000000       0.62500000000000000        0.0000000000000000     
  0.18750000000000000       0.62500000000000000        0.0000000000000000     
  0.21875000000000000       0.62500000000000000        0.0000000000000000     
  0.25000000000000000       0.62500000000000000        0.0000000000000000     
  0.12500000000000000       0.65625000000000000        0.0000000000000000     
  0.15625000000000000       0.65625000000000000        0.0000000000000000     
  0.18750000000000000       0.65625000000000000        0.0000000000000000     
  0.21875000000000000       0.65625000000000000        0.0000000000000000     
  0.25000000000000000       0.65625000000000000        0.0000000000000000     
  0.12500000000000000       0.68750000000000000        0.0000000000000000     
  0.15625000000000000       0.68750000000000000        0.0000000000000000     
  0.18750000000000000       0.68750000000000000        0.0000000000000000     
  0.21875000000000000       0.68750000000000000        0.0000000000000000     
  0.25000000000000000       0.68750000000000000        0.0000000000000000     
  0.12500000000000000       0.71875000000000000        0.0000000000000000     
  0.15625000000000000       0.71875000000000000        0.0000000000000000     
  0.18750000000000000       0.71875000000000000        0.0000000000000000     
  0.21875000000000000       0.71875000000000000        0.0000000000000000     
  0.25000000000000000       0.71875000000000000        0.0000000000000000     
  0.12500000000000000       0.75000000000000000        0.0000000000000000     
  0.15625000000000000       0.75000000000000000        0.0000000000000000     
  0.18750000000000000       0.75000000000000000        0.0000000000000000     
  0.21875000000000000       0.75000000000000000        0.0000000000000000     
  0.25000000000000000       0.75000000000000000        0.0000000000000000     
  0.25000000000000000       0.62500000000000000        0.0000000000000000     
  0.28125000000000000       0.62500000000000000        0.0000000000000000     
  0.31250000000000000       0.62500000000000000        0.0000000000000000     
  0.34375000000000000       0.62500000000000000        0.0000000000000000     
  0.37500000000000000       0.62500000000000000        0.0000000000000000     
  0.25000000000000000       0.65625000000000000        0.0000000000000000     
  0.28125000000000000       0.65625000000000000        0.0000000000000000     
  0.31250000000000000       0.65625000000000000        0.0000000000000000     
  0.34375000000000000       0.65625000000000000        0.0000000000000000     
  0.37500000000000000       0.65625000000000000        0.0000000000000000     
  0.25000000000000000       0.68750000000000000        0.0000000000000000     
  0.28125000000000000       0.68750000000000000        0.0000000000000000     
  0.31250000000000000       0.68750000000000000        0.0000000000000000     
  0.34375000000000000       0.68750000000000000        0.0000000000000000     
  0.37500000000000000       0.68750000000000000        0.0000000000000000     
  0.25000000000000000       0.71875000000000000        0.0000000000000000     
  0.28125000000000000       0.71875000000000000        0.0000000000000000     
  0.31250000000000000       0.71875000000000000        0.0000000000000000     
  0.34375000000000000       0.71875000000000000        0.0000000000000000     
  0.37500000000000000       0.71875000000000000        0.0000000000000000     
  0.25000000000000000       0.75000000000000000        0.0000000000000000     
  0.28125000000000000       0.75000000000000000        0.0000000000000000     
  0.31250000000000000       0.75000000000000000        0.0000000000000000     
  0.34375000000000000       0.75000000000000000        0.0000000000000000     
  0.37500000000000000       0.75000000000000000        0.0000000000000000     
  0.37500000000000000       0.62500000000000000        0.0000000000000000     
  0.40625000000000000       0.62500000000000000        0.0000000000000000     
  0.43750000000000000       0.62500000000000000        0.0000000000000000     
  0.46875000000000000       0.62500000000000000        0.0000000000000000     
  0.50000000000000000       0.62500000000000000        0.0000000000000000     
  0.37500000000000000       0.65625000000000000        0.0000000000000000     
  0.40625000000000000       0.65625000000000000        0.0000000000000000     
  0.43750000000000000       0.65625000000000000        0.0000000000000000     
  0.46875000000000000       0.65625000000000000        0.0000000000000000     
  0.50000000000000000       0.65625000000000000        0.0000000000000000     
  0.37500000000000000       0.68750000000000000        0.0000000000000000     
  0.40625000000000000       0.68750000000000000        0.0000000000000000     
  0.43750000000000000       0.68750000000000000        0.0000000000000000     
  0.46875000000000000       0.68750000000000000        0.0000000000000000     
  0.50000000000000000       0.68750000000000000        0.0000000000000000     
  0.37500000000000000       0.71875000000000000        0.0000000000000000     
  0.40625000000000000       0.71875000000000000        0.0000000000000000     
  0.43750000000000000       0.71875000000000000        0.0000000000000000     
  0.46875000000000000       0.71875000000000000        0.0000000000000000     
  0.50000000000000000       0.71875000000000000        0.0000000000000000     
  0.37500000000000000       0.75000000000000000        0.0000000000000000     
  0.40625000000000000       0.75000000000000000        0.0000000000000000     
  0.43750000000000000       0.75000000000000000        0.0000000000000000     
  0.46875000000000000       0.75000000000000000        0.0000000000000000     
  0.50000000000000000       0.75000000000000000        0.0000000000000000     
  0.50000000000000000       0.62500000000000000        0.0000000000000000     
  0.53125000000000000       0.62500000000000000        0.0000000000000000     
  0.56250000000000000       0.62500000000000000        0.0000000000000000     
  0.59375000000000000       0.62500000000000000        0.0000000000000000     
  0.62500000000000000       0.62500000000000000        0.0000000000000000     
  0.50000000000000000       0.65625000000000000        0.0000000000000000     
  0.53125000000000000       0.65625000000000000        0.0000000000000000     
  0.56250000000000000       0.65625000000000000        0.0000000000000000     
  0.59375000000000000       0.65625000000000000        0.0000000000000000     
  0.62500000000000000       0.65625000000000000        0.0000000000000000     
  0.50000000000000000       0.68750000000000000        0.0000000000000000     
  0.53125000000000000       0.68750000000000000        0.0000000000000000     
  0.56250000000000000       0.68750000000000000        0.0000000000000000     
  0.59375000000000000       0.68750000000000000        0.0000000000000000     
  0.62500000000000000       0.68750000000000000        0.0000000000000000     
  0.50000000000000000       0.71875000000000000        0.0000000000000000     
  0.53125000000000000       0.71875000000000000        0.0000000000000000     
  0.56250000000000000       0.71875000000000000        0.0000000000000000     
  0.59375000000000000       0.71875000000000000        0.0000000000000000     
  0.62500000000000000       0.71875000000000000        0.0000000000000000     
  0.50000000000000000       0.75000000000000000        0.0000000000000000     
  0.53125000000000000       0.75000000000000000        0.0000000000000000     
  0.56250000000000000       0.75000000000000000        0.0000000000000000     
  0.59375000000000000       0.75000000000000000        0.0000000000000000     
  0.62500000000000000       0.75000000000000000        0.0000000000000000     
  0.62500000000000000       0.62500000000000000        0.0000000000000000     
  0.65625000000000000       0.62500000000000000        0.0000000000000000     
  0.68750000000000000       0.62500000000000000        0.0000000000000000     
  0.71875000000000000       0.62500000000000000        0.0000000000000000     
  0.75000000000000000       0.62500000000000000        0.0000000000000000     
  0.62500000000000000       0.65625000000000000        0.0000000000000000     
  0.65625000000000000       0.65625000000000000        0.0000000000000000     
  0.68750000000000000       0.65625000000000000        0.0000000000000000     
  0.71875000000000000       0.65625000000000000        0.0000000000000000     
  0.75000000000000000       0.65625000000000000        0.0000000000000000     
  0.62500000000000000       0.68750000000000000        0.0000000000000000     
  0.65625000000000000       0.68750000000000000        0.0000000000000000     
  0.68750000000000000       0.68750000000000000        0.0000000000000000     
  0.71875000000000000       0.68750000000000000        0.0000000000000000     
  0.75000000000000000       0.68750000000000000        0.0000000000000000     
  0.62500000000000000       0.71875000000000000        0.0000000000000000     
  0.65625000000000000       0.71875000000000000        0.0000000000000000     
  0.68750000000000000       0.71875000000000000        0.0000000000000000     
  0.71875000000000000       0.71875000000000000        0.0000000000000000     
  0.75000000000000000       0.71875000000000000        0.0000000000000000     
  0.62500000000000000       0.75000000000000000        0.0000000000000000     
  0.65625000000000000       0.75000000000000000        0.0000000000000000     
  0.68750000000000000       0.75000000000000000        0.0000000000000000     
  0.71875000000000000       0.75000000000000000        0.0000000000000000     
  0.75000000000000000       0.75000000000000000        0.0000000000000000     
  0.75000000000000000       0.62500000000000000        0.0000000000000000     
  0.78125000000000000       0.62500000000000000        0.0000000000000000     
  0.81250000000000000       0.62500000000000000        0.0000000000000000     
  0.84375000000000000       0.62500000000000000        0.0000000000000000     
  0.87500000000000000       0.62500000000000000        0.0000000000000000     
  0.75000000000000000       0.65625000000000000        0.0000000000000000     
  0.78125000000000000       0.65625000000000000        0.0000000000000000     
  0.81250000000000000       0.65625000000000000        0.0000000000000000     
  0.84375000000000000       0.65625000000000000        0.0000000000000000     
  0.87500000000000000       0.65625000000000000        0.0000000000000000     
  0.75000000000000000       0.68750000000000000        0.0000000000000000     
  0.78125000000000000       0.68750000000000000        0.0000000000000000     
  0.81250000000000000       0.68750000000000000        0.0000000000000000     
  0.84375000000000000       0.68750000000000000        0.0000000000000000     
  0.87500000000000000       0.68750000000000000        0.0000000000000000     
  0.75000000000000000       0.71875000000000000        0.0000000000000000     
  0.78125000000000000       0.71875000000000000        0.0000000000000000     
  0.81250000000000000       0.71875000000000000        0.0000000000000000     
  0.84375000000000000       0.71875000000000000        0.0000000000000000     
  0.87500000000000000       0.71875000000000000        0.0000000000000000     
  0.75000000000000000       0.75000000000000000        0.0000000000000000     
  0.78125000000000000       0.75000000000000000        0.0000000000000000     
  0.81250000000000000       0.75000000000000000        0.0000000000000000     
  0.84375000000000000       0.75000000000000000        0.0000000000000000     
  0.87500000000000000       0.75000000000000000        0.0000000000000000     
  0.87500000000000000       0.62500000000000000        0.0000000000000000     
  0.90625000000000000       0.62500000000000000        0.0000000000000000     
  0.93750000000000000       0.62500000000000000        0.0000000000000000     
  0.96875000000000000       0.62500000000000000        0.0000000000000000     
   1.0000000000000000       0.62500000000000000        0.0000000000000000     
  0.87500000000000000       0.65625000000000000        0.0000000000000000     
  0.90625000000000000       0.65625000000000000        0.0000000000000000     
  0.93750000000000000       0.65625000000000000        0.0000000000000000     
  0.96875000000000000       0.65625000000000000        0.0000000000000000     
   1.0000000000000000       0.65625000000000000        0.0000000000000000     
  0.87500000000000000       0.68750000000000000        0.0000000000000000     
  0.90625000000000000       0.68750000000000000        0.0000000000000000     
  0.93750000000000000       0.68750000000000000        0.0000000000000000     
  0.96875000000000000       0.68750000000000000        0.0000000000000000     
   1.0000000000000000       0.68750000000000000        0.0000000000000000     
  0.87500000000000000       0.71875000000000000        0.0000000000000000     
  0.90625000000000000       0.71875000000000000        0.0000000000000000     
  0.93750000000000000       0.71875000000000000        0.0000000000000000     
  0.96875000000000000       0.71875000000000000        0.0000000000000000     
   1.0000000000000000       0.71875000000000000        0.0000000000000000     
  0.87500000000000000       0.75000000000000000        0.0000000000000000     
  0.90625000000000000       0.75000000000000000        0.0000000000000000     
  0.93750000000000000       0.75000000000000000        0.0000000000000000     
  0.96875000000000000       0.75000000000000000        0.0000000000000000     
   1.0000000000000000       0.75000000000000000        0.0000000000000000     
   0.0000000000000000       0.75000000000000000        0.0000000000000000     
   3.1250000000000000E-002  0.75000000000000000        0.0000000000000000     
   6.2500000000000000E-002  0.75000000000000000        0.0000000000000000     
   9.3750000000000000E-002  0.75000000000000000        0.0000000000000000     
  0.12500000000000000       0.75000000000000000        0.0000000000000000     
   0.0000000000000000       0.78125000000000000        0.0000000000000000     
   3.1250000000000000E-002  0.78125000000000000        0.0000000000000000     
   6.2500000000000000E-002  0.78125000000000000        0.0000000000000000     
   9.3750000000000000E-002  0.78125000000000000        0.0000000000000000     
  0.12500000000000000       0.78125000000000000        0.0000000000000000     
   0.0000000000000000       0.81250000000000000        0.0000000000000000     
   3.1250000000000000E-002  0.81250000000000000        0.0000000000000000     
   6.2500000000000000E-002  0.81250000000000000        0.0000000000000000     
   9.3750000000000000E-002  0.81250000000000000        0.0000000000000000     
  0.12500000000000000       0.81250000000000000        0.0000000000000000     
   0.0000000000000000       0.84375000000000000        0.0000000000000000     
   3.1250000000000000E-002  0.84375000000000000        0.0000000000000000     
   6.2500000000000000E-002  0.84375000000000000        0.0000000000000000     
   9.3750000000000000E-002  0.84375000000000000        0.0000000000000000     
  0.12500000000000000       0.84375000000000000        0.0000000000000000     
   0.0000000000000000       0.87500000000000000        0.0000000000000000     
   3.1250000000000000E-002  0.87500000000000000        0.0000000000000000     
   6.2500000000000000E-002  0.87500000000000000        0.0000000000000000     
   9.3750000000000000E-002  0.87500000000000000        0.0000000000000000     
  0.12500000000000000       0.87500000000000000        0.0000000000000000     
  0.12500000000000000       0.75000000000000000        0.0000000000000000     
  0.15625000000000000       0.75000000000000000        0.0000000000000000     
  0.18750000000000000       0.75000000000000000        0.0000000000000000     
  0.21875000000000000       0.75000000000000000        0.0000000000000000     
  0.25000000000000000       0.75000000000000000        0.0000000000000000     
  0.12500000000000000       0.78125000000000000        0.0000000000000000     
  0.15625000000000000       0.78125000000000000        0.0000000000000000     
  0.18750000000000000       0.78125000000000000        0.0000000000000000     
  0.21875000000000000       0.78125000000000000        0.0000000000000000     
  0.25000000000000000       0.78125000000000000        0.0000000000000000     
  0.12500000000000000       0.81250000000000000        0.0000000000000000     
  0.15625000000000000       0.81250000000000000        0.0000000000000000     
  0.18750000000000000       0.81250000000000000        0.0000000000000000     
  0.21875000000000000       0.81250000000000000        0.0000000000000000     
  0.25000000000000000       0.81250000000000000        0.0000000000000000     
  0.12500000000000000       0.84375000000000000        0.0000000000000000     
  0.15625000000000000       0.84375000000000000        0.0000000000000000     
  0.18750000000000000       0.84375000000000000        0.0000000000000000     
  0.21875000000000000       0.84375000000000000        0.0000000000000000     
  0.25000000000000000       0.84375000000000000        0.0000000000000000     
  0.12500000000000000       0.87500000000000000        0.0000000000000000     
  0.15625000000000000       0.87500000000000000        0.0000000000000000     
  0.18750000000000000       0.87500000000000000        0.0000000000000000     
  0.21875000000000000       0.87500000000000000        0.0000000000000000     
  0.25000000000000000       0.87500000000000000        0.0000000000000000     
  0.25000000000000000       0.75000000000000000        0.0000000000000000     
  0.28125000000000000       0.75000000000000000        0.0000000000000000     
  0.31250000000000000       0.75000000000000000        0.0000000000000000     
  0.34375000000000000       0.75000000000000000        0.0000000000000000     
  0.37500000000000000       0.75000000000000000        0.0000000000000000     
  0.25000000000000000       0.78125000000000000        0.0000000000000000     
  0.28125000000000000       0.78125000000000000        0.0000000000000000     
  0.31250000000000000       0.78125000000000000        0.0000000000000000     
  0.34375000000000000       0.78125000000000000        0.0000000000000000     
  0.37500000000000000       0.78125000000000000        0.0000000000000000     
  0.25000000000000000       0.81250000000000000        0.0000000000000000     
  0.28125000000000000       0.81250000000000000        0.0000000000000000     
  0.31250000000000000       0.81250000000000000        0.0000000000000000     
  0.34375000000000000       0.81250000000000000        0.0000000000000000     
  0.37500000000000000       0.81250000000000000        0.0000000000000000     
  0.25000000000000000       0.84375000000000000        0.0000000000000000     
  0.28125000000000000       0.84375000000000000        0.0000000000000000     
  0.31250000000000000       0.84375000000000000        0.0000000000000000     
  0.34375000000000000       0.84375000000000000        0.0000000000000000     
  0.37500000000000000       0.84375000000000000        0.0000000000000000     
  0.25000000000000000       0.87500000000000000        0.0000000000000000     
  0.28125000000000000       0.87500000000000000        0.0000000000000000     
  0.31250000000000000       0.87500000000000000        0.0000000000000000     
  0.34375000000000000       0.87500000000000000        0.0000000000000000     
  0.37500000000000000       0.87500000000000000        0.0000000000000000     
  0.37500000000000000       0.75000000000000000        0.0000000000000000     
  0.40625000000000000       0.75000000000000000        0.0000000000000000     
  0.43750000000000000       0.75000000000000000        0.0000000000000000     
  0.46875000000000000       0.75000000000000000        0.0000000000000000     
  0.50000000000000000       0.75000000000000000        0.0000000000000000     
  0.37500000000000000       0.78125000000000000        0.0000000000000000     
  0.40625000000000000       0.78125000000000000        0.0000000000000000     
  0.43750000000000000       0.78125000000000000        0.0000000000000000     
  0.46875000000000000       0.78125000000000000        0.0000000000000000     
  0.50000000000000000       0.78125000000000000        0.0000000000000000     
  0.37500000000000000       0.81250000000000000        0.0000000000000000     
  0.40625000000000000       0.81250000000000000        0.0000000000000000     
  0.43750000000000000       0.81250000000000000        0.0000000000000000     
  0.46875000000000000       0.81250000000000000        0.0000000000000000     
  0.50000000000000000       0.81250000000000000        0.0000000000000000     
  0.37500000000000000       0.84375000000000000        0.0000000000000000     
  0.40625000000000000       0.84375000000000000        0.0000000000000000     
  0.43750000000000000       0.84375000000000000        0.0000000000000000     
  0.46875000000000000       0.84375000000000000        0.0000000000000000     
  0.50000000000000000       0.84375000000000000        0.0000000000000000     
  0.37500000000000000       0.87500000000000000        0.0000000000000000     
  0.40625000000000000       0.87500000000000000        0.0000000000000000     
  0.43750000000000000       0.87500000000000000        0.0000000000000000     
  0.46875000000000000       0.87500000000000000        0.0000000000000000     
  0.50000000000000000       0.87500000000000000        0.0000000000000000     
  0.50000000000000000       0.75000000000000000        0.0000000000000000     
  0.53125000000000000       0.75000000000000000        0.0000000000000000     
  0.56250000000000000       0.75000000000000000        0.0000000000000000     
  0.59375000000000000       0.75000000000000000        0.0000000000000000     
  0.62500000000000000       0.75000000000000000        0.0000000000000000     
  0.50000000000000000       0.78125000000000000        0.0000000000000000     
  0.53125000000000000       0.78125000000000000        0.0000000000000000     
  0.56250000000000000       0.78125000000000000        0.0000000000000000     
  0.59375000000000000       0.78125000000000000        0.0000000000000000     
  0.62500000000000000       0.78125000000000000        0.0000000000000000     
  0.50000000000000000       0.81250000000000000        0.0000000000000000     
  0.53125000000000000       0.81250000000000000        0.0000000000000000     
  0.56250000000000000       0.81250000000000000        0.0000000000000000     
  0.59375000000000000       0.81250000000000000        0.0000000000000000     
  0.62500000000000000       0.81250000000000000        0.0000000000000000     
  0.50000000000000000       0.84375000000000000        0.0000000000000000     
  0.53125000000000000       0.84375000000000000        0.0000000000000000     
  0.56250000000000000       0.84375000000000000        0.0000000000000000     
  0.59375000000000000       0.84375000000000000        0.0000000000000000     
  0.62500000000000000       0.84375000000000000        0.0000000000000000     
  0.50000000000000000       0.87500000000000000        0.0000000000000000     
  0.53125000000000000       0.87500000000000000        0.0000000000000000     
  0.56250000000000000       0.87500000000000000        0.0000000000000000     
  0.59375000000000000       0.87500000000000000        0.0000000000000000     
  0.62500000000000000       0.87500000000000000        0.0000000000000000     
  0.62500000000000000       0.75000000000000000        0.0000000000000000     
  0.65625000000000000       0.75000000000000000        0.0000000000000000     
  0.68750000000000000       0.75000000000000000        0.0000000000000000     
  0.71875000000000000       0.75000000000000000        0.0000000000000000     
  0.75000000000000000       0.75000000000000000        0.0000000000000000     
  0.62500000000000000       0.78125000000000000        0.0000000000000000     
  0.65625000000000000       0.78125000000000000        0.0000000000000000     
  0.68750000000000000       0.78125000000000000        0.0000000000000000     
  0.71875000000000000       0.78125000000000000        0.0000000000000000     
  0.75000000000000000       0.78125000000000000        0.0000000000000000     
  0.62500000000000000       0.81250000000000000        0.0000000000000000     
  0.65625000000000000       0.81250000000000000        0.0000000000000000     
  0.68750000000000000       0.81250000000000000        0.0000000000000000     
  0.71875000000000000       0.81250000000000000        0.0000000000000000     
  0.75000000000000000       0.81250000000000000        0.0000000000000000     
  0.62500000000000000       0.84375000000000000        0.0000000000000000     
  0.65625000000000000       0.84375000000000000        0.0000000000000000     
  0.68750000000000000       0.84375000000000000        0.0000000000000000     
  0.71875000000000000       0.84375000000000000        0.0000000000000000     
  0.75000000000000000       0.84375000000000000        0.0000000000000000     
  0.62500000000000000       0.87500000000000000        0.0000000000000000     
  0.65625000000000000       0.87500000000000000        0.0000000000000000     
  0.68750000000000000       0.87500000000000000        0.0000000000000000     
  0.71875000000000000       0.87500000000000000        0.0000000000000000     
  0.75000000000000000       0.87500000000000000        0.0000000000000000     
  0.75000000000000000       0.75000000000000000        0.0000000000000000     
  0.78125000000000000       0.75000000000000000        0.0000000000000000     
  0.81250000000000000       0.75000000000000000        0.0000000000000000     
  0.84375000000000000       0.75000000000000000        0.0000000000000000     
  0.87500000000000000       0.75000000000000000        0.0000000000000000     
  0.75000000000000000       0.78125000000000000        0.0000000000000000     
  0.78125000000000000       0.78125000000000000        0.0000000000000000     
  0.81250000000000000       0.78125000000000000        0.0000000000000000     
  0.84375000000000000       0.78125000000000000        0.0000000000000000     
  0.87500000000000000       0.78125000000000000        0.0000000000000000     
  0.75000000000000000       0.81250000000000000        0.0000000000000000     
  0.78125000000000000       0.81250000000000000        0.0000000000000000     
  0.81250000000000000       0.81250000000000000        0.0000000000000000     
  0.84375000000000000       0.81250000000000000        0.0000000000000000     
  0.87500000000000000       0.81250000000000000        0.0000000000000000     
  0.75000000000000000       0.84375000000000000        0.0000000000000000     
  0.78125000000000000       0.84375000000000000        0.0000000000000000     
  0.81250000000000000       0.84375000000000000        0.0000000000000000     
  0.84375000000000000       0.84375000000000000        0.0000000000000000     
  0.87500000000000000       0.84375000000000000        0.0000000000000000     
  0.75000000000000000       0.87500000000000000        0.0000000000000000     
  0.78125000000000000       0.87500000000000000        0.0000000000000000     
  0.81250000000000000       0.87500000000000000        0.0000000000000000     
  0.84375000000000000       0.87500000000000000        0.0000000000000000     
  0.87500000000000000       0.87500000000000000        0.0000000000000000     
  0.87500000000000000       0.75000000000000000        0.0000000000000000     
  0.90625000000000000       0.75000000000000000        0.0000000000000000     
  0.93750000000000000       0.75000000000000000        0.0000000000000000     
  0.96875000000000000       0.75000000000000000        0.0000000000000000     
   1.0000000000000000       0.75000000000000000        0.0000000000000000     
  0.87500000000000000       0.78125000000000000        0.0000000000000000     
  0.90625000000000000       0.78125000000000000        0.0000000000000000     
  0.93750000000000000       0.78125000000000000        0.0000000000000000     
  0.96875000000000000       0.78125000000000000        0.0000000000000000     
   1.0000000000000000       0.78125000000000000        0.0000000000000000     
  0.87500000000000000       0.81250000000000000        0.0000000000000000     
  0.90625000000000000       0.81250000000000000        0.0000000000000000     
  0.93750000000000000       0.81250000000000000        0.0000000000000000     
  0.96875000000000000       0.81250000000000000        0.0000000000000000     
   1.0000000000000000       0.81250000000000000        0.0000000000000000     
  0.87500000000000000       0.84375000000000000        0.0000000000000000     
  0.90625000000000000       0.84375000000000000        0.0000000000000000     
  0.93750000000000000       0.84375000000000000        0.0000000000000000     
  0.96875000000000000       0.84375000000000000        0.0000000000000000     
   1.0000000000000000       0.84375000000000000        0.0000000000000000     
  0.87500000000000000       0.87500000000000000        0.0000000000000000     
  0.90625000000000000       0.87500000000000000        0.0000000000000000     
  0.93750000000000000       0.87500000000000000        0.0000000000000000     
  0.96875000000000000       0.87500000000000000        0.0000000000000000     
   1.0000000000000000       0.87500000000000000        0.0000000000000000     
   0.0000000000000000       0.87500000000000000        0.0000000000000000     
   3.1250000000000000E-002  0.87500000000000000        0.0000000000000000     
   6.2500000000000000E-002  0.87500000000000000        0.0000000000000000     
   9.3750000000000000E-002  0.87500000000000000        0.0000000000000000     
  0.12500000000000000       0.87500000000000000        0.0000000000000000     
   0.0000000000000000       0.90625000000000000        0.0000000000000000     
   3.1250000000000000E-002  0.90625000000000000        0.0000000000000000     
   6.2500000000000000E-002  0.90625000000000000        0.0000000000000000     
   9.3750000000000000E-002  0.90625000000000000        0.0000000000000000     
  0.12500000000000000       0.90625000000000000        0.0000000000000000     
   0.0000000000000000       0.93750000000000000        0.0000000000000000     
   3.1250000000000000E-002  0.93750000000000000        0.0000000000000000     
   6.2500000000000000E-002  0.93750000000000000        0.0000000000000000     
   9.3750000000000000E-002  0.93750000000000000        0.0000000000000000     
  0.12500000000000000       0.93750000000000000        0.0000000000000000     
   0.0000000000000000       0.96875000000000000        0.0000000000000000     
   3.1250000000000000E-002  0.96875000000000000        0.0000000000000000     
   6.2500000000000000E-002  0.96875000000000000        0.0000000000000000     
   9.3750000000000000E-002  0.96875000000000000        0.0000000000000000     
  0.12500000000000000       0.96875000000000000        0.0000000000000000     
   0.0000000000000000        1.0000000000000000        0.0000000000000000     
   3.1250000000000000E-002   1.0000000000000000        0.0000000000000000     
   6.2500000000000000E-002   1.0000000000000000        0.0000000000000000     
   9.3750000000000000E-002   1.0000000000000000        0.0000000000000000     
  0.12500000000000000        1.0000000000000000        0.0000000000000000     
  0.12500000000000000       0.87500000000000000        0.0000000000000000     
  0.15625000000000000       0.87500000000000000        0.0000000000000000     
  0.18750000000000000       0.87500000000000000        0.0000000000000000     
  0.21875000000000000       0.87500000000000000        0.0000000000000000     
  0.25000000000000000       0.87500000000000000        0.0000000000000000     
  0.12500000000000000       0.90625000000000000        0.0000000000000000     
  0.15625000000000000       0.90625000000000000        0.0000000000000000     
  0.18750000000000000       0.90625000000000000        0.0000000000000000     
  0.21875000000000000       0.90625000000000000        0.0000000000000000     
  0.25000000000000000       0.90625000000000000        0.0000000000000000     
  0.12500000000000000       0.93750000000000000        0.0000000000000000     
  0.15625000000000000       0.93750000000000000        0.0000000000000000     
  0.18750000000000000       0.93750000000000000        0.0000000000000000     
  0.21875000000000000       0.93750000000000000        0.0000000000000000     
  0.25000000000000000       0.93750000000000000        0.0000000000000000     
  0.12500000000000000       0.96875000000000000        0.0000000000000000     
  0.15625000000000000       0.96875000000000000        0.0000000000000000     
  0.18750000000000000       0.96875000000000000        0.0000000000000000     
  0.21875000000000000       0.96875000000000000        0.0000000000000000     
  0.25000000000000000       0.96875000000000000        0.0000000000000000     
  0.12500000000000000        1.0000000000000000        0.0000000000000000     
  0.15625000000000000        1.0000000000000000        0.0000000000000000     
  0.18750000000000000        1.0000000000000000        0.0000000000000000     
  0.21875000000000000        1.0000000000000000        0.0000000000000000     
  0.25000000000000000        1.0000000000000000        0.0000000000000000     
  0.25000000000000000       0.87500000000000000        0.0000000000000000     
  0.28125000000000000       0.87500000000000000        0.0000000000000000     
  0.31250000000000000       0.87500000000000000        0.0000000000000000     
  0.34375000000000000       0.87500000000000000        0.0000000000000000     
  0.37500000000000000       0.87500000000000000        0.0000000000000000     
  0.25000000000000000       0.90625000000000000        0.0000000000000000     
  0.28125000000000000       0.90625000000000000        0.0000000000000000     
  0.31250000000000000       0.90625000000000000        0.0000000000000000     
  0.34375000000000000       0.90625000000000000        0.0000000000000000     
  0.37500000000000000       0.90625000000000000        0.0000000000000000     
  0.25000000000000000       0.93750000000000000        0.0000000000000000     
  0.28125000000000000       0.93750000000000000        0.0000000000000000     
  0.31250000000000000       0.93750000000000000        0.0000000000000000     
  0.34375000000000000       0.93750000000000000        0.0000000000000000     
  0.37500000000000000       0.93750000000000000        0.0000000000000000     
  0.25000000000000000       0.96875000000000000        0.0000000000000000     
  0.28125000000000000       0.96875000000000000        0.0000000000000000     
  0.31250000000000000       0.96875000000000000        0.0000000000000000     
  0.34375000000000000       0.96875000000000000        0.0000000000000000     
  0.37500000000000000       0.96875000000000000        0.0000000000000000     
  0.25000000000000000        1.0000000000000000        0.0000000000000000     
  0.28125000000000000        1.0000000000000000        0.0000000000000000     
  0.31250000000000000        1.0000000000000000        0.0000000000000000     
  0.34375000000000000        1.0000000000000000        0.0000000000000000     
  0.37500000000000000        1.0000000000000000        0.0000000000000000     
  0.37500000000000000       0.87500000000000000        0.0000000000000000     
  0.40625000000000000       0.87500000000000000        0.0000000000000000     
  0.43750000000000000       0.87500000000000000        0.0000000000000000     
  0.46875000000000000       0.87500000000000000        0.0000000000000000     
  0.50000000000000000       0.87500000000000000        0.0000000000000000     
  0.37500000000000000       0.90625000000000000        0.0000000000000000     
  0.40625000000000000       0.90625000000000000        0.0000000000000000     
  0.43750000000000000       0.90625000000000000        0.0000000000000000     
  0.46875000000000000       0.90625000000000000        0.0000000000000000     
  0.50000000000000000       0.90625000000000000        0.0000000000000000     
  0.37500000000000000       0.93750000000000000        0.0000000000000000     
  0.40625000000000000       0.93750000000000000        0.0000000000000000     
  0.43750000000000000       0.93750000000000000        0.0000000000000000     
  0.46875000000000000       0.93750000000000000        0.0000000000000000     
  0.50000000000000000       0.93750000000000000        0.0000000000000000     
  0.37500000000000000       0.96875000000000000        0.0000000000000000     
  0.40625000000000000       0.96875000000000000        0.0000000000000000     
  0.43750000000000000       0.96875000000000000        0.0000000000000000     
  0.46875000000000000       0.96875000000000000        0.0000000000000000     
  0.50000000000000000       0.96875000000000000        0.0000000000000000     
  0.37500000000000000        1.0000000000000000        0.0000000000000000     
  0.40625000000000000        1.0000000000000000        0.0000000000000000     
  0.43750000000000000        1.0000000000000000        0.0000000000000000     
  0.46875000000000000        1.0000000000000000        0.0000000000000000     
  0.50000000000000000        1.0000000000000000        0.0000000000000000     
  0.50000000000000000       0.87500000000000000        0.0000000000000000     
  0.53125000000000000       0.87500000000000000        0.0000000000000000     
  0.56250000000000000       0.87500000000000000        0.0000000000000000     
  0.59375000000000000       0.87500000000000000        0.0000000000000000     
  0.62500000000000000       0.87500000000000000        0.0000000000000000     
  0.50000000000000000       0.90625000000000000        0.0000000000000000     
  0.53125000000000000       0.90625000000000000        0.0000000000000000     
  0.56250000000000000       0.90625000000000000        0.0000000000000000     
  0.59375000000000000       0.90625000000000000        0.0000000000000000     
  0.62500000000000000       0.90625000000000000        0.0000000000000000     
  0.50000000000000000       0.93750000000000000        0.0000000000000000     
  0.53125000000000000       0.93750000000000000        0.0000000000000000     
  0.56250000000000000       0.93750000000000000        0.0000000000000000     
  0.59375000000000000       0.93750000000000000        0.0000000000000000     
  0.62500000000000000       0.93750000000000000        0.0000000000000000     
  0.50000000000000000       0.96875000000000000        0.0000000000000000     
  0.53125000000000000       0.96875000000000000        0.0000000000000000     
  0.56250000000000000       0.96875000000000000        0.0000000000000000     
  0.59375000000000000       0.96875000000000000        0.0000000000000000     
  0.62500000000000000       0.96875000000000000        0.0000000000000000     
  0.50000000000000000        1.0000000000000000        0.0000000000000000     
  0.53125000000000000        1.0000000000000000        0.0000000000000000     
  0.56250000000000000        1.0000000000000000        0.0000000000000000     
  0.59375000000000000        1.0000000000000000        0.0000000000000000     
  0.62500000000000000        1.0000000000000000        0.0000000000000000     
  0.62500000000000000       0.87500000000000000        0.0000000000000000     
  0.65625000000000000       0.87500000000000000        0.0000000000000000     
  0.68750000000000000       0.87500000000000000        0.0000000000000000     
  0.71875000000000000       0.87500000000000000        0.0000000000000000     
  0.75000000000000000       0.87500000000000000        0.0000000000000000     
  0.62500000000000000       0.90625000000000000        0.0000000000000000     
  0.65625000000000000       0.90625000000000000        0.0000000000000000     
  0.68750000000000000       0.90625000000000000        0.0000000000000000     
  0.71875000000000000       0.90625000000000000        0.0000000000000000     
  0.75000000000000000       0.90625000000000000        0.0000000000000000     
  0.62500000000000000       0.93750000000000000        0.0000000000000000     
  0.65625000000000000       0.93750000000000000        0.0000000000000000     
  0.68750000000000000       0.93750000000000000        0.0000000000000000     
  0.71875000000000000       0.93750000000000000        0.0000000000000000     
  0.75000000000000000       0.93750000000000000        0.0000000000000000     
  0.62500000000000000       0.96875000000000000        0.0000000000000000     
  0.65625000000000000       0.96875000000000000        0.0000000000000000     
  0.68750000000000000       0.96875000000000000        0.0000000000000000     
  0.71875000000000000       0.96875000000000000        0.0000000000000000     
  0.75000000000000000       0.96875000000000000        0.0000000000000000     
  0.62500000000000000        1.0000000000000000        0.0000000000000000     
  0.65625000000000000        1.0000000000000000        0.0000000000000000     
  0.68750000000000000        1.0000000000000000        0.0000000000000000     
  0.71875000000000000        1.0000000000000000        0.0000000000000000     
  0.75000000000000000        1.0000000000000000        0.0000000000000000     
  0.75000000000000000       0.87500000000000000        0.0000000000000000     
  0.78125000000000000       0.87500000000000000        0.0000000000000000     
  0.81250000000000000       0.87500000000000000        0.0000000000000000     
  0.84375000000000000       0.87500000000000000        0.0000000000000000     
  0.87500000000000000       0.87500000000000000        0.0000000000000000     
  0.75000000000000000       0.90625000000000000        0.0000000000000000     
  0.78125000000000000       0.90625000000000000        0.0000000000000000     
  0.81250000000000000       0.90625000000000000        0.0000000000000000     
  0.84375000000000000       0.90625000000000000        0.0000000000000000     
  0.87500000000000000       0.90625000000000000        0.0000000000000000     
  0.75000000000000000       0.93750000000000000        0.0000000000000000     
  0.78125000000000000       0.93750000000000000        0.0000000000000000     
  0.81250000000000000       0.93750000000000000        0.0000000000000000     
  0.84375000000000000       0.93750000000000000        0.0000000000000000     
  0.87500000000000000       0.93750000000000000        0.0000000000000000     
  0.75000000000000000       0.96875000000000000        0.0000000000000000     
  0.78125000000000000       0.96875000000000000        0.0000000000000000     
  0.81250000000000000       0.96875000000000000        0.0000000000000000     
  0.84375000000000000       0.96875000000000000        0.0000000000000000     
  0.87500000000000000       0.96875000000000000        0.0000000000000000     
  0.75000000000000000        1.0000000000000000        0.0000000000000000     
  0.78125000000000000        1.0000000000000000        0.0000000000000000     
  0.81250000000000000        1.0000000000000000        0.0000000000000000     
  0.84375000000000000        1.0000000000000000        0.0000000000000000     
  0.87500000000000000        1.0000000000000000        0.0000000000000000     
  0.87500000000000000       0.87500000000000000        0.0000000000000000     
  0.90625000000000000       0.87500000000000000        0.0000000000000000     
  0.93750000000000000       0.87500000000000000        0.0000000000000000     
  0.96875000000000000       0.87500000000000000        0.0000000000000000     
   1.0000000000000000       0.87500000000000000        0.0000000000000000     
  0.87500000000000000       0.90625000000000000        0.0000000000000000     
  0.90625000000000000       0.90625000000000000        0.0000000000000000     
  0.93750000000000000       0.90625000000000000        0.0000000000000000     
  0.96875000000000000       0.90625000000000000        0.0000000000000000     
   1.0000000000000000       0.90625000000000000        0.0000000000000000     
  0.87500000000000000       0.93750000000000000        0.0000000000000000     
  0.90625000000000000       0.93750000000000000        0.0000000000000000     
  0.93750000000000000       0.93750000000000000        0.0000000000000000     
  0.96875000000000000       0.93750000000000000        0.0000000000000000     
   1.0000000000000000       0.93750000000000000        0.0000000000000000     
  0.87500000000000000       0.96875000000000000        0.0000000000000000     
  0.90625000000000000       0.96875000000000000        0.0000000000000000     
  0.93750000000000000       0.96875000000000000        0.0000000000000000     
  0.96875000000000000       0.96875000000000000        0.0000000000000000     
   1.0000000000000000       0.96875000000000000        0.0000000000000000     
  0.87500000000000000        1.0000000000000000        0.0000000000000000     
  0.90625000000000000        1.0000000000000000        0.0000000000000000     
  0.93750000000000000        1.0000000000000000        0.0000000000000000     
  0.96875000000000000        1.0000000000000000        0.0000000000000000     
   1.0000000000000000        1.0000000000000000        0.0000000000000000     
 </DataArray>
 </Points>
 <Cells>
 <DataArray  type="Int32"  Name="connectivity"  format="ascii">
           0           1           6           5
           1           2           7           6
           2           3           8           7
           3           4           9           8
           5           6          11          10
           6           7          12          11
           7           8          13          12
           8           9          14          13
          10          11          16          15
          11          12          17          16
          12          13          18          17
          13          14          19          18
          15          16          21          20
          16          17          22          21
          17          18          23          22
          18          19          24          23
          25          26          31          30
          26          27          32          31
          27          28          33          32
          28          29          34          33
          30          31          36          35
          31          32          37          36
          32          33          38          37
          33          34          39          38
          35          36          41          40
          36          37          42          41
          37          38          43          42
          38          39          44          43
          40          41          46          45
          41          42          47          46
          42          43          48          47
          43          44          49          48
          50          51          56          55
          51          52          57          56
          52          53          58          57
          53          54          59          58
          55          56          61          60
          56          57          62          61
          57          58          63          62
          58          59          64          63
          60          61          66          65
          61          62          67          66
          62          63          68          67
          63          64          69          68
          65          66          71          70
          66          67          72          71
          67          68          73          72
          68          69          74          73
          75          76          81          80
          76          77          82          81
          77          78          83          82
          78          79          84          83
          80          81          86          85
          81          82          87          86
          82          83          88          87
          83          84          89          88
          85          86          91          90
          86          87          92          91
          87          88          93          92
          88          89          94          93
          90          91          96          95
          91          92          97          96
          92          93          98          97
          93          94          99          98
         100         101         106         105
         101         102         107         106
         102         103         108         107
         103         104         109         108
         105         106         111         110
         106         107         112         111
         107         108         113         112
         108         109         114         113
         110         111         116         115
         111         112         117         116
         112         113         118         117
         113         114         119         118
         115         116         121         120
         116         117         122         121
         117         118         123         122
         118         119         124         123
         125         126         131         130
         126         127         132         131
         127         128         133         132
         128         129         134         133
         130         131         136         135
         131         132         137         136
         132         133         138         137
         133         134         139         138
         135         136         141         140
         136         137         142         141
         137         138         143         142
         138         139         144         143
         140         141         146         145
         141         142         147         146
         142         143         148         147
         143         144         149         148
         150         151         156         155
         151         152         157         156
         152         153         158         157
         153         154         159         158
         155         156         161         160
         156         157         162         161
         157         158         163         162
         158         159         164         163
         160         161         166         165
         161         162         167         166
         162         163         168         167
         163         164         169         168
         165         166         171         170
         166         167         172         171
         167         168         173         172
         168         169         174         173
         175         176         181         180
         176         177         182         181
         177         178         183         182
         178         179         184         183
         180         181         186         185
         181         182         187         186
         182         183         188         187
         183         184         189         188
         185         186         191         190
         186         187         192         191
         187         188         193         192
         188         189         194         193
         190         191         196         195
         191         192         197         196
         192         193         198         197
         193         194         199         198
         200         201         206         205
         201         202         207         206
         202         203         208         207
         203         204         209         208
         205         206         211         210
         206         207         212         211
         207         208         213         212
         208         209         214         213
         210         211         216         215
         211         212         217         216
         212         213         218         217
         213         214         219         218
         215         216         221         220
         216         217         222         221
         217         218         223         222
         218         219         224         223
         225         226         231         230
         226         227         232         231
         227         228         233         232
         228         229         234         233
         230         231         236         235
         231         232         237         236
         232         233         238         237
         233         234         239         238
         235         236         241         240
         236         237         242         241
         237         238         243         242
         238         239         244         243
         240         241         246         245
         241         242         247         246
         242         243         248         247
         243         244         249         248
         250         251         256         255
         251         252         257         256
         252         253         258         257
         253         254         259         258
         255         256         261         260
         256         257         262         261
         257         258         263         262
         258         259         264         263
         260         261         266         265
         261         262         267         266
         262         263         268         267
         263         264         269         268
         265         266         271         270
         266         267         272         271
         267         268         273         272
         268         269         274         273
         275         276         281         280
         276         277         282         281
         277         278         283         282
         278         279         284         283
         280         281         286         285
         281         282         287         286
         282         283         288         287
         283         284         289         288
         285         286         291         290
         286         287         292         291
         287         288         293         292
         288         289         294         293
         290         291         296         295
         291         292         297         296
         292         293         298         297
         293         294         299         298
         300         301         306         305
         301         302         307         306
         302         303         308         307
         303         304         309         308
         305         306         311         310
         306         307         312         311
         307         308         313         312
         308         309         314         313
         310         311         316         315
         311         312         317         316
         312         313         318         317
         313         314         319         318
         315         316         321         320
         316         317         322         321
         317         318         323         322
         318         319         324         323
         325         326         331         330
         326         327         332         331
         327         328         333         332
         328         329         334         333
         330         331         336         335
         331         332         337         336
         332         333         338         337
         333         334         339         338
         335         336         341         340
         336         337         342         341
         337         338         343         342
         338         339         344         343
         340         341         346         345
         341         342         347         346
         342         343         348         347
         343         344         349         348
         350         351         356         355
         351         352         357         356
         352         353         358         357
         353         354         359         358
         355         356         361         360
         356         357         362         361
         357         358         363         362
         358         359         364         363
         360         361         366         365
         361         362         367         366
         362         363         368         367
         363         364         369         368
         365         366         371         370
         366         367         372         371
         367         368         373         372
         368         369         374         373
         375         376         381         380
         376         377         382         381
         377         378         383         382
         378         379         384         383
         380         381         386         385
         381         382         387         386
         382         383         388         387
         383         384         389         388
         385         386         391         390
         386         387         392         391
         387         388         393         392
         388         389         394         393
         390         391         396         395
         391         392         397         396
         392         393         398         397
         393         394         399         398
         400         401         406         405
         401         402         407         406
         402         403         408         407
         403         404         409         408
         405         406         411         410
         406         407         412         411
         407         408         413         412
         408         409         414         413
         410         411         416         415
         411         412         417         416
         412         413         418         417
         413         414         419         418
         415         416         421         420
         416         417         422         421
         417         418         423         422
         418         419         424         423
         425         426         431         430
         426         427         432         431
         427         428         433         432
         428         429         434         433
         430         431         436         435
         431         432         437         436
         432         433         438         437
         433         434         439         438
         435         436         441         440
         436         437         442         441
         437         438         443         442
         438         439         444         443
         440         441         446         445
         441         442         447         446
         442         443         448         447
         443         444         449         448
         450         451         456         455
         451         452         457         456
         452         453         458         457
         453         454         459         458
         455         456         461         460
         456         457         462         461
         457         458         463         462
         458         459         464         463
         460         461         466         465
         461         462         467         466
         462         463         468         467
         463         464         469         468
         465         466         471         470
         466         467         472         471
         467         468         473         472
         468         469         474         473
         475         476         481         480
         476         477         482         481
         477         478         483         482
         478         479         484         483
         480         481         486         485
         481         482         487         486
         482         483         488         487
         483         484         489         488
         485         486         491         490
         486         487         492         491
         487         488         493         492
         488         489         494         493
         490         491         496         495
         491         492         497         496
         492         493         498         497
         493         494         499         498
         500         501         506         505
         501         502         507         506
         502         503         508         507
         503         504         509         508
         505         506         511         510
         506         507         512         511
         507         508         513         512
         508         509         514         513
         510         511         516         515
         511         512         517         516
         512         513         518         517
         513         514         519         518
         515         516         521         520
         516         517         522         521
         517         518         523         522
         518         519         524         523
         525         526         531         530
         526         527         532         531
         527         528         533         532
         528         529         534         533
         530         531         536         535
         531         532         537         536
         532         533         538         537
         533         534         539         538
         535         536         541         540
         536         537         542         541
         537         538         543         542
         538         539         544         543
         540         541         546         545
         541         542         547         546
         542         543         548         547
         543         544         549         548
         550         551         556         555
         551         552         557         556
         552         553         558         557
         553         554         559         558
         555         556         561         560
         556         557         562         561
         557         558         563         562
         558         559         564         563
         560         561         566         565
         561         562         567         566
         562         563         568         567
         563         564         569         568
         565         566         571         570
         566         567         572         571
         567         568         573         572
         568         569         574         573
         575         576         581         580
         576         577         582         581
         577         578         583         582
         578         579         584         583
         580         581         586         585
         581         582         587         586
         582         583         588         587
         583         584         589         588
         585         586         591         590
         586         587         592         591
         587         588         593         592
         588         589         594         593
         590         591         596         595
         591         592         597         596
         592         593         598         597
         593         594         599         598
         600         601         606         605
         601         602         607         606
         602         603         608         607
         603         604         609         608
         605         606         611         610
         606         607         612         611
         607         608         613         612
         608         609         614         613
         610         611         616         615
         611         612         617         616
         612         613         618         617
         613         614         619         618
         615         616         621         620
         616         617         622         621
         617         618         623         622
         618         619         624         623
         625         626         631         630
         626         627         632         631
         627         628         633         632
         628         629         634         633
         630         631         636         635
         631         632         637         636
         632         633         638         637
         633         634         639         638
         635         636         641         640
         636         637         642         641
         637         638         643         642
         638         639         644         643
         640         641         646         645
         641         642         647         646
         642         643         648         647
         643         644         649         648
         650         651         656         655
         651         652         657         656
         652         653         658         657
         653         654         659         658
         655         656         661         660
         656         657         662         661
         657         658         663         662
         658         659         664         663
         660         661         666         665
         661         662         667         666
         662         663         668         667
         663         664         669         668
         665         666         671         670
         666         667         672         671
         667         668         673         672
         668         669         674         673
         675         676         681         680
         676         677         682         681
         677         678         683         682
         678         679         684         683
         680         681         686         685
         681         682         687         686
         682         683         688         687
         683         684         689         688
         685         686         691         690
         686         687         692         691
         687         688         693         692
         688         689         694         693
         690         691         696         695
         691         692         697         696
         692         693         698         697
         693         694         699         698
         700         701         706         705
         701         702         707         706
         702         703         708         707
         703         704         709         708
         705         706         711         710
         706         707         712         711
         707         708         713         712
         708         709         714         713
         710         711         716         715
         711         712         717         716
         712         713         718         717
         713         714         719         718
         715         716         721         720
         716         717         722         721
         717         718         723         722
         718         719         724         723
         725         726         731         730
         726         727         732         731
         727         728         733         732
         728         729         734         733
         730         731         736         735
         731         732         737         736
         732         733         738         737
         733         734         739         738
         735         736         741         740
         736         737         742         741
         737         738         743         742
         738         739         744         743
         740         741         746         745
         741         742         747         746
         742         743         748         747
         743         744         749         748
         750         751         756         755
         751         752         757         756
         752         753         758         757
         753         754         759         758
         755         756         761         760
         756         757         762         761
         757         758         763         762
         758         759         764         763
         760         761         766         765
         761         762         767         766
         762         763         768         767
         763         764         769         768
         765         766         771         770
         766         767         772         771
         767         768         773         772
         768         769         774         773
         775         776         781         780
         776         777         782         781
         777         778         783         782
         778         779         784         783
         780         781         786         785
         781         782         787         786
         782         783         788         787
         783         784         789         788
         785         786         791         790
         786         787         792         791
         787         788         793         792
         788         789         794         793
         790         791         796         795
         791         792         797         796
         792         793         798         797
         793         794         799         798
         800         801         806         805
         801         802         807         806
         802         803         808         807
         803         804         809         808
         805         806         811         810
         806         807         812         811
         807         808         813         812
         808         809         814         813
         810         811         816         815
         811         812         817         816
         812         813         818         817
         813         814         819         818
         815         816         821         820
         816         817         822         821
         817         818         823         822
         818         819         824         823
         825         826         831         830
         826         827         832         831
         827         828         833         832
         828         829         834         833
         830         831         836         835
         831         832         837         836
         832         833         838         837
         833         834         839         838
         835         836         841         840
         836         837         842         841
         837         838         843         842
         838         839         844         843
         840         841         846         845
         841         842         847         846
         842         843         848         847
         843         844         849         848
         850         851         856         855
         851         852         857         856
         852         853         858         857
         853         854         859         858
         855         856         861         860
         856         857         862         861
         857         858         863         862
         858         859         864         863
         860         861         866         865
         861         862         867         866
         862         863         868         867
         863         864         869         868
         865         866         871         870
         866         867         872         871
         867         868         873         872
         868         869         874         873
         875         876         881         880
         876         877         882         881
         877         878         883         882
         878         879         884         883
         880         881         886         885
         881         882         887         886
         882         883         888         887
         883         884         889         888
         885         886         891         890
         886         887         892         891
         887         888         893         892
         888         889         894         893
         890         891         896         895
         891         892         897         896
         892         893         898         897
         893         894         899         898
         900         901         906         905
         901         902         907         906
         902         903         908         907
         903         904         909         908
         905         906         911         910
         906         907         912         911
         907         908         913         912
         908         909         914         913
         910         911         916         915
         911         912         917         916
         912         913         918         917
         913         914         919         918
         915         916         921         920
         916         917         922         921
         917         918         923         922
         918         919         924         923
         925         926         931         930
         926         927         932         931
         927         928         933         932
         928         929         934         933
         930         931         936         935
         931         932         937         936
         932         933         938         937
         933         934         939         938
         935         936         941         940
         936         937         942         941
         937         938         943         942
         938         939         944         943
         940         941         946         945
         941         942         947         946
         942         943         948         947
         943         944         949         948
         950         951         956         955
         951         952         957         956
         952         953         958         957
         953         954         959         958
         955         956         961         960
         956         957         962         961
         957         958         963         962
         958         959         964         963
         960         961         966         965
         961         962         967         966
         962         963         968         967
         963         964         969         968
         965         966         971         970
         966         967         972         971
         967         968         973         972
         968         969         974         973
         975         976         981         980
         976         977         982         981
         977         978         983         982
         978         979         984         983
         980         981         986         985
         981         982         987         986
         982         983         988         987
         983         984         989         988
         985         986         991         990
         986         987         992         991
         987         988         993         992
         988         989         994         993
         990         991         996         995
         991         992         997         996
         992         993         998         997
         993         994         999         998
        1000        1001        1006        1005
        1001        1002        1007        1006
        1002        1003        1008        1007
        1003        1004        1009        1008
        1005        1006        1011        1010
        1006        1007        1012        1011
        1007        1008        1013        1012
        1008        1009        1014        1013
        1010        1011        1016        1015
        1011        1012        1017        1016
        1012        1013        1018        1017
        1013        1014        1019        1018
        1015        1016        1021        1020
        1016        1017        1022        1021
        1017        1018        1023        1022
        1018        1019        1024        1023
        1025        1026        1031        1030
        1026        1027        1032        1031
        1027        1028        1033        1032
        1028        1029        1034        1033
        1030        1031        1036        1035
        1031        1032        1037        1036
        1032        1033        1038        1037
        1033        1034        1039        1038
        1035        1036        1041        1040
        1036        1037        1042        1041
        1037        1038        1043        1042
        1038        1039        1044        1043
        1040        1041        1046        1045
        1041        1042        1047        1046
        1042        1043        1048        1047
        1043        1044        1049        1048
        1050        1051        1056        1055
        1051        1052        1057        1056
        1052        1053        1058        1057
        1053        1054        1059        1058
        1055        1056        1061        1060
        1056        1057        1062        1061
        1057        1058        1063        1062
        1058        1059        1064        1063
        1060        1061        1066        1065
        1061        1062        1067        1066
        1062        1063        1068        1067
        1063        1064        1069        1068
        1065        1066        1071        1070
        1066        1067        1072        1071
        1067        1068        1073        1072
        1068        1069        1074        1073
        1075        1076        1081        1080
        1076        1077        1082        1081
        1077        1078        1083        1082
        1078        1079        1084        1083
        1080        1081        1086        1085
        1081        1082        1087        1086
        1082        1083        1088        1087
        1083        1084        1089        1088
        1085        1086        1091        1090
        1086        1087        1092        1091
        1087        1088        1093        1092
        1088        1089        1094        1093
        1090        1091        1096        1095
        1091        1092        1097        1096
        1092        1093        1098        1097
        1093        1094        1099        1098
        1100        1101        1106        1105
        1101        1102        1107        1106
        1102        1103        1108        1107
        1103        1104        1109        1108
        1105        1106        1111        1110
        1106        1107        1112        1111
        1107        1108        1113        1112
        1108        1109        1114        1113
        1110        1111        1116        1115
        1111        1112        1117        1116
        1112        1113        1118        1117
        1113        1114        1119        1118
        1115        1116        1121        1120
        1116        1117        1122        1121
        1117        1118        1123        1122
        1118        1119        1124        1123
        1125        1126        1131        1130
        1126        1127        1132        1131
        1127        1128        1133        1132
        1128        1129        1134        1133
        1130        1131        1136        1135
        1131        1132        1137        1136
        1132        1133        1138        1137
        1133        1134        1139        1138
        1135        1136        1141        1140
        1136        1137        1142        1141
        1137        1138        1143        1142
        1138        1139        1144        1143
        1140        1141        1146        1145
        1141        1142        1147        1146
        1142        1143        1148        1147
        1143        1144        1149        1148
        1150        1151        1156        1155
        1151        1152        1157        1156
        1152        1153        1158        1157
        1153        1154        1159        1158
        1155        1156        1161        1160
        1156        1157        1162        1161
        1157        1158        1163        1162
        1158        1159        1164        1163
        1160        1161        1166        1165
        1161        1162        1167        1166
        1162        1163        1168        1167
        1163        1164        1169        1168
        1165        1166        1171        1170
        1166        1167        1172        1171
        1167        1168        1173        1172
        1168        1169        1174        1173
        1175        1176        1181        1180
        1176        1177        1182        1181
        1177        1178        1183        1182
        1178        1179        1184        1183
        1180        1181        1186        1185
        1181        1182        1187        1186
        1182        1183        1188        1187
        1183        1184        1189        1188
        1185        1186        1191        1190
        1186        1187        1192        1191
        1187        1188        1193        1192
        1188        1189        1194        1193
        1190        1191        1196        1195
        1191        1192        1197        1196
        1192        1193        1198        1197
        1193        1194        1199        1198
        1200        1201        1206        1205
        1201        1202        1207        1206
        1202        1203        1208        1207
        1203        1204        1209        1208
        1205        1206        1211        1210
        1206        1207        1212        1211
        1207        1208        1213        1212
        1208        1209        1214        1213
        1210        1211        1216        1215
        1211        1212        1217        1216
        1212        1213        1218        1217
        1213        1214        1219        1218
        1215        1216        1221        1220
        1216        1217        1222        1221
        1217        1218        1223        1222
        1218        1219        1224        1223
        1225        1226        1231        1230
        1226        1227        1232        1231
        1227        1228        1233        1232
        1228        1229        1234        1233
        1230        1231        1236        1235
        1231        1232        1237        1236
        1232        1233        1238        1237
        1233        1234        1239        1238
        1235        1236        1241        1240
        1236        1237        1242        1241
        1237        1238        1243        1242
        1238        1239        1244        1243
        1240        1241        1246        1245
        1241        1242        1247        1246
        1242        1243        1248        1247
        1243        1244        1249        1248
        1250        1251        1256        1255
        1251        1252        1257        1256
        1252        1253        1258        1257
        1253        1254        1259        1258
        1255        1256        1261        1260
        1256        1257        1262        1261
        1257        1258        1263        1262
        1258        1259        1264        1263
        1260        1261        1266        1265
        1261        1262        1267        1266
        1262        1263        1268        1267
        1263        1264        1269        1268
        1265        1266        1271        1270
        1266        1267        1272        1271
        1267        1268        1273        1272
        1268        1269        1274        1273
        1275        1276        1281        1280
        1276        1277        1282        1281
        1277        1278        1283        1282
        1278        1279        1284        1283
        1280        1281        1286        1285
        1281        1282        1287        1286
        1282        1283        1288        1287
        1283        1284        1289        1288
        1285        1286        1291        1290
        1286        1287        1292        1291
        1287        1288        1293        1292
        1288        1289        1294        1293
        1290        1291        1296        1295
        1291        1292        1297        1296
        1292        1293        1298        1297
        1293        1294        1299        1298
        1300        1301        1306        1305
        1301        1302        1307        1306
        1302        1303        1308        1307
        1303        1304        1309        1308
        1305        1306        1311        1310
        1306        1307        1312        1311
        1307        1308        1313        1312
        1308        1309        1314        1313
        1310        1311        1316        1315
        1311        1312        1317        1316
        1312        1313        1318        1317
        1313        1314        1319        1318
        1315        1316        1321        1320
        1316        1317        1322        1321
        1317        1318        1323        1322
        1318        1319        1324        1323
        1325        1326        1331        1330
        1326        1327        1332        1331
        1327        1328        1333        1332
        1328        1329        1334        1333
        1330        1331        1336        1335
        1331        1332        1337        1336
        1332        1333        1338        1337
        1333        1334        1339        1338
        1335        1336        1341        1340
        1336        1337        1342        1341
        1337        1338        1343        1342
        1338        1339        1344        1343
        1340        1341        1346        1345
        1341        1342        1347        1346
        1342        1343        1348        1347
        1343        1344        1349        1348
        1350        1351        1356        1355
        1351        1352        1357        1356
        1352        1353        1358        1357
        1353        1354        1359        1358
        1355        1356        1361        1360
        1356        1357        1362        1361
        1357        1358        1363        1362
        1358        1359        1364        1363
        1360        1361        1366        1365
        1361        1362        1367        1366
        1362        1363        1368        1367
        1363        1364        1369        1368
        1365        1366        1371        1370
        1366        1367        1372        1371
        1367        1368        1373        1372
        1368        1369        1374        1373
        1375        1376        1381        1380
        1376        1377        1382        1381
        1377        1378        1383        1382
        1378        1379        1384        1383
        1380        1381        1386        1385
        1381        1382        1387        1386
        1382        1383        1388        1387
        1383        1384        1389        1388
        1385        1386        1391        1390
        1386        1387        1392        1391
        1387        1388        1393        1392
        1388        1389        1394        1393
        1390        1391        1396        1395
        1391        1392        1397        1396
        1392        1393        1398        1397
        1393        1394        1399        1398
        1400        1401        1406        1405
        1401        1402        1407        1406
        1402        1403        1408        1407
        1403        1404        1409        1408
        1405        1406        1411        1410
        1406        1407        1412        1411
        1407        1408        1413        1412
        1408        1409        1414        1413
        1410        1411        1416        1415
        1411        1412        1417        1416
        1412        1413        1418        1417
        1413        1414        1419        1418
        1415        1416        1421        1420
        1416        1417        1422        1421
        1417        1418        1423        1422
        1418        1419        1424        1423
        1425        1426        1431        1430
        1426        1427        1432        1431
        1427        1428        1433        1432
        1428        1429        1434        1433
        1430        1431        1436        1435
        1431        1432        1437        1436
        1432        1433        1438        1437
        1433        1434        1439        1438
        1435        1436        1441        1440
        1436        1437        1442        1441
        1437        1438        1443        1442
        1438        1439        1444        1443
        1440        1441        1446        1445
        1441        1442        1447        1446
        1442        1443        1448        1447
        1443        1444        1449        1448
        1450        1451        1456        1455
        1451        1452        1457        1456
        1452        1453        1458        1457
        1453        1454        1459        1458
        1455        1456        1461        1460
        1456        1457        1462        1461
        1457        1458        1463        1462
        1458        1459        1464        1463
        1460        1461        1466        1465
        1461        1462        1467        1466
        1462        1463        1468        1467
        1463        1464        1469        1468
        1465        1466        1471        1470
        1466        1467        1472        1471
        1467        1468        1473        1472
        1468        1469        1474        1473
        1475        1476        1481        1480
        1476        1477        1482        1481
        1477        1478        1483        1482
        1478        1479        1484        1483
        1480        1481        1486        1485
        1481        1482        1487        1486
        1482        1483        1488        1487
        1483        1484        1489        1488
        1485        1486        1491        1490
        1486        1487        1492        1491
        1487        1488        1493        1492
        1488        1489        1494        1493
        1490        1491        1496        1495
        1491        1492        1497        1496
        1492        1493        1498        1497
        1493        1494        1499        1498
        1500        1501        1506        1505
        1501        1502        1507        1506
        1502        1503        1508        1507
        1503        1504        1509        1508
        1505        1506        1511        1510
        1506        1507        1512        1511
        1507        1508        1513        1512
        1508        1509        1514        1513
        1510        1511        1516        1515
        1511        1512        1517        1516
        1512        1513        1518        1517
        1513        1514        1519        1518
        1515        1516        1521        1520
        1516        1517        1522        1521
        1517        1518        1523        1522
        1518        1519        1524        1523
        1525        1526        1531        1530
        1526        1527        1532        1531
        1527        1528        1533        1532
        1528        1529        1534        1533
        1530        1531        1536        1535
        1531        1532        1537        1536
        1532        1533        1538        1537
        1533        1534        1539        1538
        1535        1536        1541        1540
        1536        1537        1542        1541
        1537        1538        1543        1542
        1538        1539        1544        1543
        1540        1541        1546        1545
        1541        1542        1547        1546
        1542        1543        1548        1547
        1543        1544        1549        1548
        1550        1551        1556        1555
        1551        1552        1557        1556
        1552        1553        1558        1557
        1553        1554        1559        1558
        1555        1556        1561        1560
        1556        1557        1562        1561
        1557        1558        1563        1562
        1558        1559        1564        1563
        1560        1561        1566        1565
        1561        1562        1567        1566
        1562        1563        1568        1567
        1563        1564        1569        1568
        1565        1566        1571        1570
        1566        1567        1572        1571
        1567        1568        1573        1572
        1568        1569        1574        1573
        1575        1576        1581        1580
        1576        1577        1582        1581
        1577        1578        1583        1582
        1578        1579        1584        1583
        1580        1581        1586        1585
        1581        1582        1587        1586
        1582        1583        1588        1587
        1583        1584        1589        1588
        1585        1586        1591        1590
        1586        1587        1592        1591
        1587        1588        1593        1592
        1588        1589        1594        1593
        1590        1591        1596        1595
        1591        1592        1597        1596
        1592        1593        1598        1597
        1593        1594        1599        1598
 </DataArray>
 <DataArray  type="Int32"  Name="offsets"  format="ascii"> 
           4
           8
          12
          16
          20
          24
          28
          32
          36
          40
          44
          48
          52
          56
          60
          64
          68
          72
          76
          80
          84
          88
          92
          96
         100
         104
         108
         112
         116
         120
         124
         128
         132
         136
         140
         144
         148
         152
         156
         160
         164
         168
         172
         176
         180
         184
         188
         192
         196
         200
         204
         208
         212
         216
         220
         224
         228
         232
         236
         240
         244
         248
         252
         256
         260
         264
         268
         272
         276
         280
         284
         288
         292
         296
         300
         304
         308
         312
         316
         320
         324
         328
         332
         336
         340
         344
         348
         352
         356
         360
         364
         368
         372
         376
         380
         384
         388
         392
         396
         400
         404
         408
         412
         416
         420
         424
         428
         432
         436
         440
         444
         448
         452
         456
         460
         464
         468
         472
         476
         480
         484
         488
         492
         496
         500
         504
         508
         512
         516
         520
         524
         528
         532
         536
         540
         544
         548
         552
         556
         560
         564
         568
         572
         576
         580
         584
         588
         592
         596
         600
         604
         608
         612
         616
         620
         624
         628
         632
         636
         640
         644
         648
         652
         656
         660
         664
         668
         672
         676
         680
         684
         688
         692
         696
         700
         704
         708
         712
         716
         720
         724
         728
         732
         736
         740
         744
         748
         752
         756
         760
         764
         768
         772
         776
         780
         784
         788
         792
         796
         800
         804
         808
         812
         816
         820
         824
         828
         832
         836
         840
         844
         848
         852
         856
         860
         864
         868
         872
         876
         880
         884
         888
         892
         896
         900
         904
         908
         912
         916
         920
         924
         928
         932
         936
         940
         944
         948
         952
         956
         960
         964
         968
         972
         976
         980
         984
         988
         992
         996
        1000
        1004
        1008
        1012
        1016
        1020
        1024
        1028
        1032
        1036
        1040
        1044
        1048
        1052
        1056
        1060
        1064
        1068
        1072
        1076
        1080
        1084
        1088
        1092
        1096
        1100
        1104
        1108
        1112
        1116
        1120
        1124
        1128
        1132
        1136
        1140
        1144
        1148
        1152
        1156
        1160
        1164
        1168
        1172
        1176
        1180
        1184
        1188
        1192
        1196
        1200
        1204
        1208
        1212
        1216
        1220
        1224
        1228
        1232
        1236
        1240
        1244
        1248
        1252
        1256
        1260
        1264
        1268
        1272
        1276
        1280
        1284
        1288
        1292
        1296
        1300
        1304
        1308
        1312
        1316
        1320
        1324
        1328
        1332
        1336
        1340
        1344
        1348
        1352
        1356
        1360
        1364
        1368
        1372
        1376
        1380
        1384
        1388
        1392
        1396
        1400
        1404
        1408
        1412
        1416
        1420
        1424
        1428
        1432
        1436
        1440
        1444
        1448
        1452
        1456
        1460
        1464
        1468
        1472
        1476
        1480
        1484
        1488
        1492
        1496
        1500
        1504
        1508
        1512
        1516
        1520
        1524
        1528
        1532
        1536
        1540
        1544
        1548
        1552
        1556
        1560
        1564
        1568
        1572
        1576
        1580
        1584
        1588
        1592
        1596
        1600
        1604
        1608
        1612
        1616
        1620
        1624
        1628
        1632
        1636
        1640
        1644
        1648
        1652
        1656
        1660
        1664
        1668
        1672
        1676
        1680
        1684
        1688
        1692
        1696
        1700
        1704
        1708
        1712
        1716
        1720
        1724
        1728
        1732
        1736
        1740
        1744
        1748
        1752
        1756
        1760
        1764
        1768
        1772
        1776
        1780
        1784
        1788
        1792
        1796
        1800
        1804
        1808
        1812
        1816
        1820
        1824
        1828
        1832
        1836
        1840
        1844
        1848
        1852
        1856
        1860
        1864
        1868
        1872
        1876
        1880
        1884
        1888
        1892
        1896
        1900
        1904
        1908
        1912
        1916
        1920
        1924
        1928
        1932
        1936
        1940
        1944
        1948
        1952
        1956
        1960
        1964
        1968
        1972
        1976
        1980
        1984
        1988
        1992
        1996
        2000
        2004
        2008
        2012
        2016
        2020
        2024
        2028
        2032
        2036
        2040
        2044
        2048
        2052
        2056
        2060
        2064
        2068
        2072
        2076
        2080
        2084
        2088
        2092
        2096
        2100
        2104
        2108
        2112
        2116
        2120
        2124
        2128
        2132
        2136
        2140
        2144
        2148
        2152
        2156
        2160
        2164
        2168
        2172
        2176
        2180
        2184
        2188
        2192
        2196
        2200
        2204
        2208
        2212
        2216
        2220
        2224
        2228
        2232
        2236
        2240
        2244
        2248
        2252
        2256
        2260
        2264
        2268
        2272
        2276
        2280
        2284
        2288
        2292
        2296
        2300
        2304
        2308
        2312
        2316
        2320
        2324
        2328
        2332
        2336
        2340
        2344
        2348
        2352
        2356
        2360
        2364
        2368
        2372
        2376
        2380
        2384
        2388
        2392
        2396
        2400
        2404
        2408
        2412
        2416
        2420
        2424
        2428
        2432
        2436
        2440
        2444
        2448
        2452
        2456
        2460
        2464
        2468
        2472
        2476
        2480
        2484
        2488
        2492
        2496
        2500
        2504
        2508
        2512
        2516
        2520
        2524
        2528
        2532
        2536
        2540
        2544
        2548
        2552
        2556
        2560
        2564
        2568
        2572
        2576
        2580
        2584
        2588
        2592
        2596
        2600
        2604
        2608
        2612
        2616
        2620
        2624
        2628
        2632
        2636
        2640
        2644
        2648
        2652
        2656
        2660
        2664
        2668
        2672
        2676
        2680
        2684
        2688
        2692
        2696
        2700
        2704
        2708
        2712
        2716
        2720
        2724
        2728
        2732
        2736
        2740
        2744
        2748
        2752
        2756
        2760
        2764
        2768
        2772
        2776
        2780
        2784
        2788
        2792
        2796
        2800
        2804
        2808
        2812
        2816
        2820
        2824
        2828
        2832
        2836
        2840
        2844
        2848
        2852
        2856
        2860
        2864
        2868
        2872
        2876
        2880
        2884
        2888
        2892
        2896
        2900
        2904
        2908
        2912
        2916
        2920
        2924
        2928
        2932
        2936
        2940
        2944
        2948
        2952
        2956
        2960
        2964
        2968
        2972
        2976
        2980
        2984
        2988
        2992
        2996
        3000
        3004
        3008
        3012
        3016
        3020
        3024
        3028
        3032
        3036
        3040
        3044
        3048
        3052
        3056
        3060
        3064
        3068
        3072
        3076
        3080
        3084
        3088
        3092
        3096
        3100
        3104
        3108
        3112
        3116
        3120
        3124
        3128
        3132
        3136
        3140
        3144
        3148
        3152
        3156
        3160
        3164
        3168
        3172
        3176
        3180
        3184
        3188
        3192
        3196
        3200
        3204
        3208
        3212
        3216
        3220
        3224
        3228
        3232
        3236
        3240
        3244
        3248
        3252
        3256
        3260
        3264
        3268
        3272
        3276
        3280
        3284
        3288
        3292
        3296
        3300
        3304
        3308
        3312
        3316
        3320
        3324
        3328
        3332
        3336
        3340
        3344
        3348
        3352
        3356
        3360
        3364
        3368
        3372
        3376
        3380
        3384
        3388
        3392
        3396
        3400
        3404
        3408
        3412
        3416
        3420
        3424
        3428
        3432
        3436
        3440
        3444
        3448
        3452
        3456
        3460
        3464
        3468
        3472
        3476
        3480
        3484
        3488
        3492
        3496
        3500
        3504
        3508
        3512
        3516
        3520
        3524
        3528
        3532
        3536
        3540
        3544
        3548
        3552
        3556
        3560
        3564
        3568
        3572
        3576
        3580
        3584
        3588
        3592
        3596
        3600
        3604
        3608
        3612
        3616
        3620
        3624
        3628
        3632
        3636
        3640
        3644
        3648
        3652
        3656
        3660
        3664
        3668
        3672
        3676
        3680
        3684
        3688
        3692
        3696
        3700
        3704
        3708
        3712
        3716
        3720
        3724
        3728
        3732
        3736
        3740
        3744
        3748
        3752
        3756
        3760
        3764
        3768
        3772
        3776
        3780
        3784
        3788
        3792
        3796
        3800
        3804
        3808
        3812
        3816
        3820
        3824
        3828
        3832
        3836
        3840
        3844
        3848
        3852
        3856
        3860
        3864
        3868
        3872
        3876
        3880
        3884
        3888
        3892
        3896
        3900
        3904
        3908
        3912
        3916
        3920
        3924
        3928
        3932
        3936
        3940
        3944
        3948
        3952
        3956
        3960
        3964
        3968
        3972
        3976
        3980
        3984
        3988
        3992
        3996
        4000
        4004
        4008
        4012
        4016
        4020
        4024
        4028
        4032
        4036
        4040
        4044
        4048
        4052
        4056
        4060
        4064
        4068
        4072
        4076
        4080
        4084
        4088
        4092
        4096
 </DataArray>
 <DataArray  type="UInt8"  Name="types"  format="ascii">
 9
 9
 9
 9
 9
 9
 9
 9
 9
 9
 9
 9
 9
 9
 9
 9
 9
 9
 9
 9
 9
 9
 9
 9
 9
 9
 9
 9
 9
 9
 9
 9
 9
 9
 9
 9
 9
 9
 9
 9
 9
 9
 9
 9
 9
 9
 9
 9
 9
 9
 9
 9
 9
 9
 9
 9
 9
 9
 9
 9
 9
 9
 9
 9
 9
 9
 9
 9
 9
 9
 9
 9
 9
 9
 9
 9
 9
 9
 9
 9
 9
 9
 9
 9
 9
 9
 9
 9
 9
 9
 9
 9
 9
 9
 9
 9
 9
 9
 9
 9
 9
 9
 9
 9
 9
 9
 9
 9
 9
 9
 9
 9
 9
 9
 9
 9
 9
 9
 9
 9
 9
 9
 9
 9
 9
 9
 9
 9
 9
 9
 9
 9
 9
 9
 9
 9
 9
 9
 9
 9
 9
 9
 9
 9
 9
 9
 9
 9
 9
 9
 9
 9
 9
 9
 9
 9
 9
 9
 9
 9
 9
 9
 9
 9
 9
 9
 9
 9
 9
 9
 9
 9
 9
 9
 9
 9
 9
 9
 9
 9
 9
 9
 9
 9
 9
 9
 9
 9
 9
 9
 9
 9
 9
 9
 9
 9
 9
 9
 9
 9
 9
 9
 9
 9
 9
 9
 9
 9
 9
 9
 9
 9
 9
 9
 9
 9
 9
 9
 9
 9
 9
 9
 9
 9
 9
 9
 9
 9
 9
 9
 9
 9
 9
 9
 9
 9
 9
 9
 9
 9
 9
 9
 9
 9
 9
 9
 9
 9
 9
 9
 9
 9
 9
 9
 9
 9
 9
 9
 9
 9
 9
 9
 9
 9
 9
 9
 9
 9
 9
 9
 9
 9
 9
 9
 9
 9
 9
 9
 9
 9
 9
 9
 9
 9
 9
 9
 9
 9
 9
 9
 9
 9
 9
 9
 9
 9
 9
 9
 9
 9
 9
 9
 9
 9
 9
 9
 9
 9
 9
 9
 9
 9
 9
 9
 9
 9
 9
 9
 9
 9
 9
 9
 9
 9
 9
 9
 9
 9
 9
 9
 9
 9
 9
 9
 9
 9
 9
 9
 9
 9
 9
 9
 9
 9
 9
 9
 9
 9
 9
 9
 9
 9
 9
 9
 9
 9
 9
 9
 9
 9
 9
 9
 9
 9
 9
 9
 9
 9
 9
 9
 9
 9
 9
 9
 9
 9
 9
 9
 9
 9
 9
 9
 9
 9
 9
 9
 9
 9
 9
 9
 9
 9
 9
 9
 9
 9
 9
 9
 9
 9
 9
 9
 9
 9
 9
 9
 9
 9
 9
 9
 9
 9
 9
 9
 9
 9
 9
 9
 9
 9
 9
 9
 9
 9
 9
 9
 9
 9
 9
 9
 9
 9
 9
 9
 9
 9
 9
 9
 9
 9
 9
 9
 9
 9
 9
 9
 9
 9
 9
 9
 9
 9
 9
 9
 9
 9
 9
 9
 9
 9
 9
 9
 9
 9
 9
 9
 9
 9
 9
 9
 9
 9
 9
 9
 9
 9
 9
 9
 9
 9
 9
 9
 9
 9
 9
 9
 9
 9
 9
 9
 9
 9
 9
 9
 9
 9
 9
 9
 9
 9
 9
 9
 9
 9
 9
 9
 9
 9
 9
 9
 9
 9
 9
 9
 9
 9
 9
 9
 9
 9
 9
 9
 9
 9
 9
 9
 9
 9
 9
 9
 9
 9
 9
 9
 9
 9
 9
 9
 9
 9
 9
 9
 9
 9
 9
 9
 9
 9
 9
 9
 9
 9
 9
 9
 9
 9
 9
 9
 9
 9
 9
 9
 9
 9
 9
 9
 9
 9
 9
 9
 9
 9
 9
 9
 9
 9
 9
 9
 9
 9
 9
 9
 9
 9
 9
 9
 9
 9
 9
 9
 9
 9
 9
 9
 9
 9
 9
 9
 9
 9
 9
 9
 9
 9
 9
 9
 9
 9
 9
 9
 9
 9
 9
 9
 9
 9
 9
 9
 9
 9
 9
 9
 9
 9
 9
 9
 9
 9
 9
 9
 9
 9
 9
 9
 9
 9
 9
 9
 9
 9
 9
 9
 9
 9
 9
 9
 9
 9
 9
 9
 9
 9
 9
 9
 9
 9
 9
 9
 9
 9
 9
 9
 9
 9
 9
 9
 9
 9
 9
 9
 9
 9
 9
 9
 9
 9
 9
 9
 9
 9
 9
 9
 9
 9
 9
 9
 9
 9
 9
 9
 9
 9
 9
 9
 9
 9
 9
 9
 9
 9
 9
 9
 9
 9
 9
 9
 9
 9
 9
 9
 9
 9
 9
 9
 9
 9
 9
 9
 9
 9
 9
 9
 9
 9
 9
 9
 9
 9
 9
 9
 9
 9
 9
 9
 9
 9
 9
 9
 9
 9
 9
 9
 9
 9
 9
 9
 9
 9
 9
 9
 9
 9
 9
 9
 9
 9
 9
 9
 9
 9
 9
 9
 9
 9
 9
 9
 9
 9
 9
 9
 9
 9
 9
 9
 9
 9
 9
 9
 9
 9
 9
 9
 9
 9
 9
 9
 9
 9
 9
 9
 9
 9
 9
 9
 9
 9
 9
 9
 9
 9
 9
 9
 9
 9
 9
 9
 9
 9
 9
 9
 9
 9
 9
 9
 9
 9
 9
 9
 9
 9
 9
 9
 9
 9
 9
 9
 9
 9
 9
 9
 9
 9
 9
 9
 9
 9
 9
 9
 9
 9
 9
 9
 9
 9
 9
 9
 9
 9
 9
 9
 9
 9
 9
 9
 9
 9
 9
 9
 9
 9
 9
 9
 9
 9
 9
 9
 9
 9
 9
 9
 9
 9
 9
 9
 9
 9
 9
 9
 9
 9
 9
 9
 9
 9
 9
 9
 9
 9
 9
 9
 9
 9
 9
 9
 9
 9
 9
 9
 9
 9
 9
 9
 9
 9
 9
 9
 9
 9
 9
 9
 9
 9
 9
 9
 9
 9
 9
 9
 9
 9
 9
 9
 9
 9
 9
 9
 9
 9
 9
 9
 9
 9
 9
 9
 9
 9
 9
 9
 9
 9
 9
 9
 9
 9
 9
 9
 9
 9
 9
 9
 9
 9
 9
 9
 9
 9
 9
 9
 9
 9
 9
 9
 9
 9
 9
 9
 9
 9
 9
 9
 9
 9
 9
 9
 9
 9
 9
 9
 9
 9
 9
 9
 9
 9
 9
 9
 9
 9
 9
 9
 9
 9
 9
 9
 9
 9
 9
 9
 9
 9
 9
 9
 9
 9
 9
 9
 9
 9
 9
 9
 9
 9
 9
 9
 9
 9
 9
 9
 9
 9
 9
 9
 9
 9
 </DataArray>
 </Cells> 
 <PointData>
 <DataArray  type="Float64" Name="disp" NumberOfComponents="3" format="ascii">
   0.0000000000000000        0.0000000000000000        0.0000000000000000     
   6.0959406709470490E-003   3.7904393789526445E-003   0.0000000000000000     
   1.1665991995015969E-002   7.3238641851221357E-003   0.0000000000000000     
   1.6710153972206761E-002   1.0600274418508474E-002   0.0000000000000000     
   2.1228426602519421E-002   1.3619670079111659E-002   0.0000000000000000     
   0.0000000000000000        0.0000000000000000        0.0000000000000000     
   4.8911438655236637E-003   3.0221546176871818E-003   0.0000000000000000     
   9.5736380287661377E-003   6.0605547467943608E-003   0.0000000000000000     
   1.4047482489727422E-002   9.1152003873215363E-003   0.0000000000000000     
   1.8312677248407516E-002   1.2186091539268709E-002   0.0000000000000000     
   0.0000000000000000        0.0000000000000000        0.0000000000000000     
   3.9535689210817042E-003   2.4251269329560472E-003   0.0000000000000000     
   7.9106344157916873E-003   5.0629143296550662E-003   0.0000000000000000     
   1.1871196484129948E-002   7.9133621900970563E-003   0.0000000000000000     
   1.5835255126096487E-002   1.0976470514282017E-002   0.0000000000000000     
   0.0000000000000000        0.0000000000000000        0.0000000000000000     
   3.2832158376211729E-003   1.9993563247592419E-003   0.0000000000000000     
   6.6769811560926200E-003   4.3309429337042510E-003   0.0000000000000000     
   1.0181295955414341E-002   6.9947598268350272E-003   0.0000000000000000     
   1.3796160235586339E-002   9.9908070041515706E-003   0.0000000000000000     
   0.0000000000000000        0.0000000000000000        0.0000000000000000     
   2.8800846151420690E-003   1.7448427930967644E-003   0.0000000000000000     
   5.8726782496689367E-003   3.8646405589419161E-003   0.0000000000000000     
   8.9777809035806021E-003   6.3593932975354525E-003   0.0000000000000000     
   1.2195392576877066E-002   9.2291010088773780E-003   0.0000000000000000     
   2.1228426602519421E-002   1.3619670079111659E-002   0.0000000000000000     
   2.5433607805482834E-002   1.6612656537622731E-002   0.0000000000000000     
   2.9538495500625872E-002   1.9809839164732734E-002   0.0000000000000000     
   3.3543089687948544E-002   2.3211217960441670E-002   0.0000000000000000     
   3.7447390367450838E-002   2.6816792924749540E-002   0.0000000000000000     
   1.8312677248407516E-002   1.2186091539268709E-002   0.0000000000000000     
   2.2407389934479931E-002   1.5341584965684597E-002   0.0000000000000000     
   2.6369788177618158E-002   1.8650037429617912E-002   0.0000000000000000     
   3.0199871977822212E-002   2.2111448931068648E-002   0.0000000000000000     
   3.3897641335092092E-002   2.5725819470036812E-002   0.0000000000000000     
   1.5835255126096487E-002   1.0976470514282017E-002   0.0000000000000000     
   1.9731011514097011E-002   1.4211066845664144E-002   0.0000000000000000     
   2.3486666820537221E-002   1.7575978727697637E-002   0.0000000000000000     
   2.7102221045417121E-002   2.1071206160382498E-002   0.0000000000000000     
   3.0577674188736706E-002   2.4696749143718725E-002   0.0000000000000000     
   1.3796160235586339E-002   9.9908070041515706E-003   0.0000000000000000     
   1.7404472544334085E-002   1.3221102177561372E-002   0.0000000000000000     
   2.0889131429383059E-002   1.6587663058971924E-002   0.0000000000000000     
   2.4250136890733263E-002   2.0090489648383225E-002   0.0000000000000000     
   2.7487488928384689E-002   2.3729581945795275E-002   0.0000000000000000     
   1.2195392576877066E-002   9.2291010088773780E-003   0.0000000000000000     
   1.5427773025191150E-002   1.2371690961376285E-002   0.0000000000000000     
   1.8577182004155670E-002   1.5685090423440767E-002   0.0000000000000000     
   2.1643619513770630E-002   1.9169299395070824E-002   0.0000000000000000     
   2.4627085554036029E-002   2.2824317876266459E-002   0.0000000000000000     
   3.7447390367450838E-002   2.6816792924749540E-002   0.0000000000000000     
   4.1255911092041901E-002   3.0621904727781736E-002   0.0000000000000000     
   4.4973165414630867E-002   3.4621894039663662E-002   0.0000000000000000     
   4.8599153335217748E-002   3.8816760860395309E-002   0.0000000000000000     
   5.2133874853802525E-002   4.3206505189976679E-002   0.0000000000000000     
   3.3897641335092092E-002   2.5725819470036812E-002   0.0000000000000000     
   3.7486347011080959E-002   2.9521972447098206E-002   0.0000000000000000     
   4.0989239767442003E-002   3.3528731262828619E-002   0.0000000000000000     
   4.4406319604175196E-002   3.7746095917228058E-002   0.0000000000000000     
   4.7737586521280566E-002   4.2174066410296515E-002   0.0000000000000000     
   3.0577674188736706E-002   2.4696749143718725E-002   0.0000000000000000     
   3.3942478389094081E-002   2.8497157138160516E-002   0.0000000000000000     
   3.7226085785087341E-002   3.2516979604162083E-002   0.0000000000000000     
   4.0428496376716486E-002   3.6756216541723410E-002   0.0000000000000000     
   4.3549710163981514E-002   4.1214867950844510E-002   0.0000000000000000     
   2.7487488928384689E-002   2.3729581945795275E-002   0.0000000000000000     
   3.0624305226081266E-002   2.7547458800968674E-002   0.0000000000000000     
   3.3683703467566904E-002   3.1586639063664046E-002   0.0000000000000000     
   3.6665683652841605E-002   3.5847122733881367E-002   0.0000000000000000     
   3.9570245781905378E-002   4.0328909811620656E-002   0.0000000000000000     
   2.4627085554036029E-002   2.2824317876266459E-002   0.0000000000000000     
   2.7531827522042501E-002   2.6672877435522682E-002   0.0000000000000000     
   3.0362092814880677E-002   3.0737709641334505E-002   0.0000000000000000     
   3.3117881432550560E-002   3.5018814493701922E-002   0.0000000000000000     
   3.5799193375052163E-002   3.9516191992624954E-002   0.0000000000000000     
   5.2133874853802525E-002   4.3206505189976679E-002   0.0000000000000000     
   5.5574203854741572E-002   4.7795716607473566E-002   0.0000000000000000     
   5.8917014222391234E-002   5.2588984691951772E-002   0.0000000000000000     
   6.2162305956751512E-002   5.7586309443411303E-002   0.0000000000000000     
   6.5310079057822421E-002   6.2787690861852152E-002   0.0000000000000000     
   4.7737586521280566E-002   4.2174066410296515E-002   0.0000000000000000     
   5.0978620082138229E-002   4.6806203665695503E-002   0.0000000000000000     
   5.4124999850128350E-002   5.1636068607086534E-002   0.0000000000000000     
   5.7176725825250900E-002   5.6663661234469614E-002   0.0000000000000000     
   6.0133798007505915E-002   6.1888981547844724E-002   0.0000000000000000     
   4.3549710163981514E-002   4.1214867950844510E-002   0.0000000000000000     
   4.6585320537108871E-002   4.5880495490929561E-002   0.0000000000000000     
   4.9530920886324985E-002   5.0740660821382781E-002   0.0000000000000000     
   5.2386511211629870E-002   5.5795363942204135E-002   0.0000000000000000     
   5.5152091513023513E-002   6.1044604853393671E-002   0.0000000000000000     
   3.9570245781905378E-002   4.0328909811620656E-002   0.0000000000000000     
   4.2394305219653462E-002   4.5018592083175754E-002   0.0000000000000000     
   4.5134777330981139E-002   4.9902761334840499E-002   0.0000000000000000     
   4.7791662115888388E-002   5.4981417566614919E-002   0.0000000000000000     
   5.0364959574375208E-002   6.0254560778499000E-002   0.0000000000000000     
   3.5799193375052163E-002   3.9516191992624954E-002   0.0000000000000000     
   3.8405574129772052E-002   4.4220493442434054E-002   0.0000000000000000     
   4.0936569184096813E-002   4.9122370147459717E-002   0.0000000000000000     
   4.3392178538026453E-002   5.4221822107701927E-002   0.0000000000000000     
   4.5772402191560993E-002   5.9518849323160698E-002   0.0000000000000000     
   6.5310079057822421E-002   6.2787690861852152E-002   0.0000000000000000     
   6.8364397281669848E-002   6.8179226618915317E-002   0.0000000000000000     
   7.1329324384359696E-002   7.3747014386241774E-002   0.0000000000000000     
   7.4204860365891939E-002   7.9491054163831565E-002   0.0000000000000000     
   7.6991005226266618E-002   8.5411345951684647E-002   0.0000000000000000     
   6.0133798007505915E-002   6.1888981547844724E-002   0.0000000000000000     
   6.3001426040867919E-002   6.7302680231986128E-002   0.0000000000000000     
   6.5784819569311509E-002   7.2895407971668047E-002   0.0000000000000000     
   6.8483978592836642E-002   7.8667164766890507E-002   0.0000000000000000     
   7.1098903111443332E-002   8.4617950617653495E-002   0.0000000000000000     
   5.5152091513023513E-002   6.1044604853393671E-002   0.0000000000000000     
   5.7833016528782873E-002   6.6481428625132760E-002   0.0000000000000000     
   6.0434640997184909E-002   7.2098880327602810E-002   0.0000000000000000     
   6.2956964918229608E-002   7.7896959960803827E-002   0.0000000000000000     
   6.5399988291916969E-002   8.3875667524735825E-002   0.0000000000000000     
   5.0364959574375208E-002   6.0254560778499000E-002   0.0000000000000000     
   5.2859168745414679E-002   6.5715471798355227E-002   0.0000000000000000     
   5.5278788667979903E-002   7.1357431454046077E-002   0.0000000000000000     
   5.7623819342070844E-002   7.7180439745571539E-002   0.0000000000000000     
   5.9894260767687550E-002   8.3184496672931638E-002   0.0000000000000000     
   4.5772402191560993E-002   5.9518849323160698E-002   0.0000000000000000     
   4.8079882690763340E-002   6.5004809751653500E-002   0.0000000000000000     
   5.0317262581696470E-002   7.0671061350997821E-002   0.0000000000000000     
   5.2484541864360371E-002   7.6517604121193641E-002   0.0000000000000000     
   5.4581720538755041E-002   8.2544438062240974E-002   0.0000000000000000     
   7.6991005226266618E-002   8.5411345951684647E-002   0.0000000000000000     
   7.9680708314141507E-002   9.1500892837395958E-002   0.0000000000000000     
   8.2266918978174397E-002   9.7752697908560351E-002   0.0000000000000000     
   8.4749637218365273E-002  0.10416676116517785        0.0000000000000000     
   8.7128863034714163E-002  0.11074308260724845        0.0000000000000000     
   7.1098903111443332E-002   8.4617950617653495E-002   0.0000000000000000     
   7.3622430385932872E-002   9.0738359010018491E-002   0.0000000000000000     
   7.6047397677106568E-002   9.7018983430046932E-002   0.0000000000000000     
   7.8373804984964393E-002  0.10345982387773887        0.0000000000000000     
   8.0601652309506375E-002  0.11006088035309423        0.0000000000000000     
   6.5399988291916969E-002   8.3875667524735825E-002   0.0000000000000000     
   6.7756850382477488E-002   9.0024157042072089E-002   0.0000000000000000     
   7.0020690454141707E-002   9.6331582535485877E-002   0.0000000000000000     
   7.2191508506909599E-002  0.10279794400497722        0.0000000000000000     
   7.4269304540781150E-002  0.10942324145054610        0.0000000000000000     
   5.9894260767687550E-002   8.3184496672931638E-002   0.0000000000000000     
   6.2083968303775397E-002   8.9358286933556755E-002   0.0000000000000000     
   6.4186797309279842E-002   9.5690495224877173E-002   0.0000000000000000     
   6.6202747784200863E-002  0.10218112154689293        0.0000000000000000     
   6.8131819728538504E-002  0.10883016589960401        0.0000000000000000     
   5.4581720538755041E-002   8.2544438062240974E-002   0.0000000000000000     
   5.6603784149826551E-002   8.8740748684472501E-002   0.0000000000000000     
   5.8545718242520951E-002   9.5095721498220820E-002   0.0000000000000000     
   6.0407522816838234E-002  0.10160935650348601        0.0000000000000000     
   6.2189197872778400E-002  0.10828165370026802        0.0000000000000000     
   8.7128863034714163E-002  0.11074308260724845        0.0000000000000000     
   8.9411120080661557E-002  0.11746405436891706        0.0000000000000000     
   9.1602932009647975E-002  0.12431206858432861        0.0000000000000000     
   9.3704298821673415E-002  0.13128712525348310        0.0000000000000000     
   9.5715220516737878E-002  0.13838922437638052        0.0000000000000000     
   8.0601652309506375E-002  0.11006088035309423        0.0000000000000000     
   8.2739697441474899E-002  0.11680703630370583        0.0000000000000000     
   8.4796698171612353E-002  0.12368317517716634        0.0000000000000000     
   8.6772654499918750E-002  0.13068929697347578        0.0000000000000000     
   8.8667566426394062E-002  0.13782540169263410        0.0000000000000000     
   7.4269304540781150E-002  0.10942324145054610        0.0000000000000000     
   7.6263817065653133E-002  0.11619394015899248        0.0000000000000000     
   7.8184784591422279E-002  0.12309650541711634        0.0000000000000000     
   8.0032207118088589E-002  0.13013093722491764        0.0000000000000000     
   8.1806084645652075E-002  0.13729723558239640        0.0000000000000000     
   6.8131819728538504E-002  0.10883016589960401        0.0000000000000000     
   6.9983478953196260E-002  0.11562476593477704        0.0000000000000000     
   7.1767191269077754E-002  0.12255205930417862        0.0000000000000000     
   7.3482956676182945E-002  0.12961204600780873        0.0000000000000000     
   7.5130775174511860E-002  0.13680472604566740        0.0000000000000000     
   6.2189197872778400E-002  0.10828165370026802        0.0000000000000000     
   6.3898683104104292E-002  0.11509951363105952        0.0000000000000000     
   6.5543918204578791E-002  0.12204983683835320        0.0000000000000000     
   6.7124903174201819E-002  0.12913262332214906        0.0000000000000000     
   6.8641638012973433E-002  0.13634787308244706        0.0000000000000000     
   9.5715220516737878E-002  0.13838922437638052        0.0000000000000000     
   9.7636481379131113E-002  0.14561717117384765        0.0000000000000000     
   9.9468865693142880E-002  0.15296977086671137        0.0000000000000000     
  0.10121237345877317       0.16044702345497167        0.0000000000000000     
  0.10286700467602199       0.16804892893862855        0.0000000000000000     
   8.8667566426394062E-002  0.13782540169263410        0.0000000000000000     
   9.0473447219430222E-002  0.14508364075286245        0.0000000000000000     
   9.2182310147419080E-002  0.15245616557238184        0.0000000000000000     
   9.3794155210360663E-002  0.15994297615119232        0.0000000000000000     
   9.5308982408254958E-002  0.16754407248929384        0.0000000000000000     
   8.1806084645652075E-002  0.13729723558239640        0.0000000000000000     
   8.3493599964649806E-002  0.14458365639967402        0.0000000000000000     
   8.5081935865618935E-002  0.15197845558687198        0.0000000000000000     
   8.6571092348559447E-002  0.15948163314399022        0.0000000000000000     
   8.7961069413471343E-002  0.16709318907102877        0.0000000000000000     
   7.5130775174511860E-002  0.13680472604566740        0.0000000000000000     
   7.6696939614789877E-002  0.14411721811428246        0.0000000000000000     
   7.8167742847742458E-002  0.15153664091018176        0.0000000000000000     
   7.9543184873369518E-002  0.15906299443336541        0.0000000000000000     
   8.0823265691671142E-002  0.16669627868383333        0.0000000000000000     
   6.8641638012973433E-002  0.13634787308244706        0.0000000000000000     
   7.0083466169850422E-002  0.14368432589668767        0.0000000000000000     
   7.1439731093789566E-002  0.15113072154231130        0.0000000000000000     
   7.2710432784790890E-002  0.15868706001931790        0.0000000000000000     
   7.3895571242854341E-002  0.16635334132770749        0.0000000000000000     
   0.0000000000000000        0.0000000000000000        0.0000000000000000     
   2.8800846151420690E-003   1.7448427930967644E-003   0.0000000000000000     
   5.8726782496689367E-003   3.8646405589419161E-003   0.0000000000000000     
   8.9777809035806021E-003   6.3593932975354525E-003   0.0000000000000000     
   1.2195392576877066E-002   9.2291010088773780E-003   0.0000000000000000     
   0.0000000000000000        0.0000000000000000        0.0000000000000000     
   2.6103343529760015E-003   1.5889277603192433E-003   0.0000000000000000     
   5.2897489498548557E-003   3.5566955929709305E-003   0.0000000000000000     
   8.0382437906365619E-003   5.9033034979550604E-003   0.0000000000000000     
   1.0855818875321119E-002   8.6287514752716350E-003   0.0000000000000000     
   0.0000000000000000        0.0000000000000000        0.0000000000000000     
   2.3401241504545801E-003   1.4589526487773067E-003   0.0000000000000000     
   4.7202165099845964E-003   3.2997964233941655E-003   0.0000000000000000     
   7.1402770785900507E-003   5.5225313238505764E-003   0.0000000000000000     
   9.6003058562709395E-003   8.1271573501465379E-003   0.0000000000000000     
   0.0000000000000000        0.0000000000000000        0.0000000000000000     
   2.0694540075778039E-003   1.3549174584709541E-003   0.0000000000000000     
   4.1640809300581604E-003   3.0939430502116209E-003   0.0000000000000000     
   6.2838807674410685E-003   5.2170767752219996E-003   0.0000000000000000     
   8.4288535197265292E-003   7.7243186335020919E-003   0.0000000000000000     
   0.0000000000000000        0.0000000000000000        0.0000000000000000     
   1.7983239243456739E-003   1.2768221894001858E-003   0.0000000000000000     
   3.6213422100755464E-003   2.9391354734232965E-003   0.0000000000000000     
   5.4690548571896180E-003   4.9869398520693310E-003   0.0000000000000000     
   7.3414618656878873E-003   7.4202353253382900E-003   0.0000000000000000     
   1.2195392576877066E-002   9.2291010088773780E-003   0.0000000000000000     
   1.5427773025191150E-002   1.2371690961376285E-002   0.0000000000000000     
   1.8577182004155670E-002   1.5685090423440767E-002   0.0000000000000000     
   2.1643619513770630E-002   1.9169299395070824E-002   0.0000000000000000     
   2.4627085554036029E-002   2.2824317876266459E-002   0.0000000000000000     
   1.0855818875321119E-002   8.6287514752716350E-003   0.0000000000000000     
   1.3689132331314127E-002   1.1650771718897267E-002   0.0000000000000000     
   1.6484842286021185E-002   1.4887096422808579E-002   0.0000000000000000     
   1.9242948739442291E-002   1.8337725587005565E-002   0.0000000000000000     
   2.1963451691577443E-002   2.2002659211488227E-002   0.0000000000000000     
   9.6003058562709395E-003   8.1271573501465379E-003   0.0000000000000000     
   1.2076769837348941E-002   1.1046282971912718E-002   0.0000000000000000     
   1.4546136016145723E-002   1.4212516658779773E-002   0.0000000000000000     
   1.7008404392661297E-002   1.7625858410747704E-002   0.0000000000000000     
   1.9463574966895644E-002   2.1286308227816519E-002   0.0000000000000000     
   8.4288535197265292E-003   7.7243186335020919E-003   0.0000000000000000     
   1.0590685543295586E-002   1.0558224720422629E-002   0.0000000000000000     
   1.2761063194529293E-002   1.3661351131354351E-002   0.0000000000000000     
   1.4939986473427643E-002   1.7033697866297257E-002   0.0000000000000000     
   1.7127455379990643E-002   2.0675264925251343E-002   0.0000000000000000     
   7.3414618656878873E-003   7.4202353253382900E-003   0.0000000000000000     
   9.2308794491540707E-003   1.0186596964427008E-002   0.0000000000000000     
   1.1129623821171891E-002   1.3233599840532313E-002   0.0000000000000000     
   1.3037694981741338E-002   1.6561243953654204E-002   0.0000000000000000     
   1.4955092930862418E-002   2.0169529303792691E-002   0.0000000000000000     
   2.4627085554036029E-002   2.2824317876266459E-002   0.0000000000000000     
   2.7531827522042501E-002   2.6672877435522682E-002   0.0000000000000000     
   3.0362092814880677E-002   3.0737709641334505E-002   0.0000000000000000     
   3.3117881432550560E-002   3.5018814493701922E-002   0.0000000000000000     
   3.5799193375052163E-002   3.9516191992624954E-002   0.0000000000000000     
   2.1963451691577443E-002   2.2002659211488227E-002   0.0000000000000000     
   2.4629900429241385E-002   2.5879924087207854E-002   0.0000000000000000     
   2.7225844239248852E-002   2.9967547005115735E-002   0.0000000000000000     
   2.9751283121599848E-002   3.4265527965211866E-002   0.0000000000000000     
   3.2206217076294369E-002   3.8773866967496247E-002   0.0000000000000000     
   1.9463574966895644E-002   2.1286308227816519E-002   0.0000000000000000     
   2.1883379099941511E-002   2.5175109801409513E-002   0.0000000000000000     
   2.4239548152891609E-002   2.9273506822949994E-002   0.0000000000000000     
   2.6532082125745947E-002   3.3581499292437950E-002   0.0000000000000000     
   2.8760981018504501E-002   3.8099087209873379E-002   0.0000000000000000     
   1.7127455379990643E-002   2.0675264925251343E-002   0.0000000000000000     
   1.9292263534142873E-002   2.4558434578127664E-002   0.0000000000000000     
   2.1403204555808943E-002   2.8655589094837272E-002   0.0000000000000000     
   2.3460278444988845E-002   3.2966728475380166E-002   0.0000000000000000     
   2.5463485201682578E-002   3.7491852719756344E-002   0.0000000000000000     
   1.4955092930862418E-002   2.0169529303792691E-002   0.0000000000000000     
   1.6856553731845476E-002   2.4029898417362302E-002   0.0000000000000000     
   1.8716813448000857E-002   2.8113793820777583E-002   0.0000000000000000     
   2.0535872079328554E-002   3.2421215514038523E-002   0.0000000000000000     
   2.2313729625828584E-002   3.6952163497145141E-002   0.0000000000000000     
   3.5799193375052163E-002   3.9516191992624954E-002   0.0000000000000000     
   3.8405574129772052E-002   4.4220493442434054E-002   0.0000000000000000     
   4.0936569184096813E-002   4.9122370147459717E-002   0.0000000000000000     
   4.3392178538026453E-002   5.4221822107701927E-002   0.0000000000000000     
   4.5772402191560993E-002   5.9518849323160698E-002   0.0000000000000000     
   3.2206217076294369E-002   3.8773866967496247E-002   0.0000000000000000     
   3.4592492582312985E-002   4.3488188915654348E-002   0.0000000000000000     
   3.6911956118636284E-002   4.8404118713371594E-002   0.0000000000000000     
   3.9164607685264259E-002   5.3521656360648033E-002   0.0000000000000000     
   4.1350447282196910E-002   5.8840801857483624E-002   0.0000000000000000     
   2.8760981018504501E-002   3.8099087209873379E-002   0.0000000000000000     
   3.0928425892124672E-002   4.2823667849786459E-002   0.0000000000000000     
   3.3036597807563808E-002   4.7752638486707362E-002   0.0000000000000000     
   3.5085496764821915E-002   5.2885999120636060E-002   0.0000000000000000     
   3.7075122763899002E-002   5.8223749751572587E-002   0.0000000000000000     
   2.5463485201682578E-002   3.7491852719756344E-002   0.0000000000000000     
   2.7413374059207102E-002   4.2226930244830409E-002   0.0000000000000000     
   2.9310494250879400E-002   4.7167929467466972E-002   0.0000000000000000     
   3.1154845776699448E-002   5.2314850387666041E-002   0.0000000000000000     
   3.2946428636667253E-002   5.7667693005427609E-002   0.0000000000000000     
   2.2313729625828584E-002   3.6952163497145141E-002   0.0000000000000000     
   2.4047337083560289E-002   4.1697976100786190E-002   0.0000000000000000     
   2.5733645448583042E-002   4.6649991655650466E-002   0.0000000000000000     
   2.7372654720896838E-002   5.1808210161737964E-002   0.0000000000000000     
   2.8964364900501686E-002   5.7172631619048682E-002   0.0000000000000000     
   4.5772402191560993E-002   5.9518849323160698E-002   0.0000000000000000     
   4.8079882690763340E-002   6.5004809751653500E-002   0.0000000000000000     
   5.0317262581696470E-002   7.0671061350997821E-002   0.0000000000000000     
   5.2484541864360371E-002   7.6517604121193641E-002   0.0000000000000000     
   5.4581720538755041E-002   8.2544438062240974E-002   0.0000000000000000     
   4.1350447282196910E-002   5.8840801857483624E-002   0.0000000000000000     
   4.3470184473566688E-002   6.4350409048179263E-002   0.0000000000000000     
   4.5524528823506043E-002   7.0039331777035849E-002   0.0000000000000000     
   4.7513480332014982E-002   7.5907570044053352E-002   0.0000000000000000     
   4.9437038999093491E-002   8.1955123849231815E-002   0.0000000000000000     
   3.7075122763899002E-002   5.8223749751572587E-002   0.0000000000000000     
   3.9005100202562544E-002   6.3753236251084131E-002   0.0000000000000000     
   4.0875053478580031E-002   6.9461804490737911E-002   0.0000000000000000     
   4.2684982591951491E-002   7.5349454470533928E-002   0.0000000000000000     
   4.4434887542676896E-002   8.1416186190472167E-002   0.0000000000000000     
   3.2946428636667253E-002   5.7667693005427609E-002   0.0000000000000000     
   3.4684629877750894E-002   6.3213291360368129E-002   0.0000000000000000     
   3.6368836546918450E-002   6.8938479492104021E-002   0.0000000000000000     
   3.7999048644169892E-002   7.4843257400635327E-002   0.0000000000000000     
   3.9575266169505255E-002   8.0927625085962060E-002   0.0000000000000000     
   2.8964364900501686E-002   5.7172631619048682E-002   0.0000000000000000     
   3.0508773499131763E-002   6.2730574376031217E-002   0.0000000000000000     
   3.2005878028521270E-002   6.8469356781134208E-002   0.0000000000000000     
   3.3455678488670204E-002   7.4388978834357633E-002   0.0000000000000000     
   3.4858174879578555E-002   8.0489440535701479E-002   0.0000000000000000     
   5.4581720538755041E-002   8.2544438062240974E-002   0.0000000000000000     
   5.6603784149826551E-002   8.8740748684472501E-002   0.0000000000000000     
   5.8545718242520951E-002   9.5095721498220820E-002   0.0000000000000000     
   6.0407522816838234E-002  0.10160935650348601        0.0000000000000000     
   6.2189197872778400E-002  0.10828165370026802        0.0000000000000000     
   4.9437038999093491E-002   8.1955123849231815E-002   0.0000000000000000     
   5.1291276795507566E-002   8.8171932923724897E-002   0.0000000000000000     
   5.3072265692023168E-002   9.4547936998686299E-002   0.0000000000000000     
   5.4780005688640318E-002  0.10108313607411604        0.0000000000000000     
   5.6414496785359008E-002  0.10777753015001408        0.0000000000000000     
   4.4434887542676896E-002   8.1416186190472167E-002   0.0000000000000000     
   4.6121425115695031E-002   8.7652230280219567E-002   0.0000000000000000     
   4.7741252095944660E-002   9.4047817369443037E-002   0.0000000000000000     
   4.9294368483425798E-002  0.10060294745814259        0.0000000000000000     
   5.0780774278138423E-002  0.10731762054631820        0.0000000000000000     
   3.9575266169505255E-002   8.0927625085962060E-002   0.0000000000000000     
   4.1094229110388944E-002   8.7181640753956527E-002   0.0000000000000000     
   4.2552677454285405E-002   9.3595362610491048E-002   0.0000000000000000     
   4.3950611201194659E-002  0.10016879065556568        0.0000000000000000     
   4.5288030351116663E-002  0.10690192488918043        0.0000000000000000     
   3.4858174879578555E-002   8.0489440535701479E-002   0.0000000000000000     
   3.6209688779589314E-002   8.6760164344935720E-002   0.0000000000000000     
   3.7506541767045425E-002   9.3190572721830359E-002   0.0000000000000000     
   3.8748733841946902E-002   9.9780665666385354E-002   0.0000000000000000     
   3.9936265004293731E-002  0.10653044317860071        0.0000000000000000     
   6.2189197872778400E-002  0.10828165370026802        0.0000000000000000     
   6.3898683104104292E-002  0.11509951363105952        0.0000000000000000     
   6.5543918204578791E-002  0.12204983683835320        0.0000000000000000     
   6.7124903174201819E-002  0.12913262332214906        0.0000000000000000     
   6.8641638012973433E-002  0.13634787308244706        0.0000000000000000     
   5.6414496785359008E-002  0.10777753015001408        0.0000000000000000     
   5.7981847351087051E-002  0.11461745686938971        0.0000000000000000     
   5.9488165754732286E-002  0.12158925387525224        0.0000000000000000     
   6.0933451996294706E-002  0.12869292116760164        0.0000000000000000     
   6.2317706075774339E-002  0.13592845874643791        0.0000000000000000     
   5.0780774278138423E-002  0.10731762054631820        0.0000000000000000     
   5.2205389526854315E-002  0.11417786927131747        0.0000000000000000     
   5.3573134276345205E-002  0.12116972627048792        0.0000000000000000     
   5.4884008526611107E-002  0.12829319154382959        0.0000000000000000     
   5.6138012277652020E-002  0.13554826509134246        0.0000000000000000     
   4.5288030351116663E-002  0.10690192488918043        0.0000000000000000     
   4.6569309631406083E-002  0.11378075083684276        0.0000000000000000     
   4.7798823769417527E-002  0.12079125402406024        0.0000000000000000     
   4.8976572765151001E-002  0.12793343445083283        0.0000000000000000     
   5.0102556618606499E-002  0.13520729211716062        0.0000000000000000     
   3.9936265004293731E-002  0.10653044317860071        0.0000000000000000     
   4.1073607664742370E-002  0.11342610156596558        0.0000000000000000     
   4.2165234233949259E-002  0.12045383713596919        0.0000000000000000     
   4.3211144711914395E-002  0.12761364988861146        0.0000000000000000     
   4.4211339098637788E-002  0.13490553982389245        0.0000000000000000     
   6.8641638012973433E-002  0.13634787308244706        0.0000000000000000     
   7.0083466169850422E-002  0.14368432589668767        0.0000000000000000     
   7.1439731093789566E-002  0.15113072154231130        0.0000000000000000     
   7.2710432784790890E-002  0.15868706001931790        0.0000000000000000     
   7.3895571242854341E-002  0.16635334132770749        0.0000000000000000     
   6.2317706075774339E-002  0.13592845874643791        0.0000000000000000     
   6.3634280703029594E-002  0.14328698717275359        0.0000000000000000     
   6.4876528587918911E-002  0.15075962700754106        0.0000000000000000     
   6.6044449730442337E-002  0.15834637825080045        0.0000000000000000     
   6.7138044130599817E-002  0.16604724090253170        0.0000000000000000     
   5.6138012277652020E-002  0.13554826509134246        0.0000000000000000     
   5.7330484287525477E-002  0.14292720936834402        0.0000000000000000     
   5.8456763314289041E-002  0.15042228683015191        0.0000000000000000     
   5.9516849357942658E-002  0.15803349747676598        0.0000000000000000     
   6.0510742418486398E-002  0.16576084130818633        0.0000000000000000     
   5.0102556618606499E-002  0.13520729211716062        0.0000000000000000     
   5.1172076923338111E-002  0.14260499248345906        0.0000000000000000     
   5.2180435272899901E-002  0.15011870101014360        0.0000000000000000     
   5.3127631667291904E-002  0.15774841769721440        0.0000000000000000     
   5.4013666106514077E-002  0.16549414254467140        0.0000000000000000     
   4.4211339098637788E-002  0.13490553982389245        0.0000000000000000     
   4.5159058610467498E-002  0.14232033651809856        0.0000000000000000     
   4.6047544463751575E-002  0.14984886954751636        0.0000000000000000     
   4.6876796658490039E-002  0.15749113891214581        0.0000000000000000     
   4.7646815194682862E-002  0.16524714461198692        0.0000000000000000     
   0.0000000000000000        0.0000000000000000        0.0000000000000000     
   1.7983239243456739E-003   1.2768221894001858E-003   0.0000000000000000     
   3.6213422100755464E-003   2.9391354734232965E-003   0.0000000000000000     
   5.4690548571896180E-003   4.9869398520693310E-003   0.0000000000000000     
   7.3414618656878873E-003   7.4202353253382900E-003   0.0000000000000000     
   0.0000000000000000        0.0000000000000000        0.0000000000000000     
   1.5350120815138695E-003   1.2175513498384406E-003   0.0000000000000000     
   3.0993589542093964E-003   2.8208597436656714E-003   0.0000000000000000     
   4.6930406180865792E-003   4.8099251814816921E-003   0.0000000000000000     
   6.3160570731454193E-003   7.1847476632865021E-003   0.0000000000000000     
   0.0000000000000000        0.0000000000000000        0.0000000000000000     
   1.2877966598380721E-003   1.1699894480591583E-003   0.0000000000000000     
   2.6054897666323512E-003   2.7246019115752264E-003   0.0000000000000000     
   3.9530793203828374E-003   4.6638373905482046E-003   0.0000000000000000     
   5.3305653210895323E-003   6.9876958849780912E-003   0.0000000000000000     
   0.0000000000000000        0.0000000000000000        0.0000000000000000     
   1.0566776593182803E-003   1.1341364840623384E-003   0.0000000000000000     
   2.1397346473444111E-003   2.6503619771519613E-003   0.0000000000000000     
   3.2491709640783926E-003   4.5486764792688674E-003   0.0000000000000000     
   4.3849866095202247E-003   6.8290799904130589E-003   0.0000000000000000     
   0.0000000000000000        0.0000000000000000        0.0000000000000000     
   8.4165507995449514E-004   1.1099924578479815E-003   0.0000000000000000     
   1.7020935963455762E-003   2.5981399403958755E-003   0.0000000000000000     
   2.5813155491732436E-003   4.4644424476436824E-003   0.0000000000000000     
   3.4793209384374967E-003   6.7088999795914036E-003   0.0000000000000000     
   7.3414618656878873E-003   7.4202353253382900E-003   0.0000000000000000     
   9.2308794491540707E-003   1.0186596964427008E-002   0.0000000000000000     
   1.1129623821171891E-002   1.3233599840532313E-002   0.0000000000000000     
   1.3037694981741338E-002   1.6561243953654204E-002   0.0000000000000000     
   1.4955092930862418E-002   2.0169529303792691E-002   0.0000000000000000     
   6.3160570731454193E-003   7.1847476632865021E-003   0.0000000000000000     
   7.9556895691126912E-003   9.8957620140409115E-003   0.0000000000000000     
   9.5992193557151700E-003   1.2893403058705727E-002   0.0000000000000000     
   1.1246646432952857E-002   1.6177670797280951E-002   0.0000000000000000     
   1.2897970800825749E-002   1.9748565229766576E-002   0.0000000000000000     
   5.3305653210895323E-003   6.9876958849780912E-003   0.0000000000000000     
   6.7234539173597462E-003   9.6500821793794080E-003   0.0000000000000000     
   8.1172512578007970E-003   1.2604901058266667E-002   0.0000000000000000     
   9.5119573424126812E-003   1.5852152521639871E-002   0.0000000000000000     
   1.0907572171195401E-002   1.9391836569499027E-002   0.0000000000000000     
   4.3849866095202247E-003   6.8290799904130589E-003   0.0000000000000000     
   5.5341724938952385E-003   9.4495574604424940E-003   0.0000000000000000     
   6.6837195274287676E-003   1.2368093839215132E-002   0.0000000000000000     
   7.8336277101208121E-003   1.5584689126730975E-002   0.0000000000000000     
   8.9838970419713737E-003   1.9099343322990018E-002   0.0000000000000000     
   3.4793209384374967E-003   6.7088999795914036E-003   0.0000000000000000     
   4.3878452987191671E-003   9.2941878572301694E-003   0.0000000000000000     
   5.2986241645990844E-003   1.2182981401551119E-002   0.0000000000000000     
   6.2116575360772501E-003   1.5375280612554254E-002   0.0000000000000000     
   7.1269454131536632E-003   1.8871085490239574E-002   0.0000000000000000     
   1.4955092930862418E-002   2.0169529303792691E-002   0.0000000000000000     
   1.6856553731845476E-002   2.4029898417362302E-002   0.0000000000000000     
   1.8716813448000857E-002   2.8113793820777583E-002   0.0000000000000000     
   2.0535872079328554E-002   3.2421215514038523E-002   0.0000000000000000     
   2.2313729625828584E-002   3.6952163497145141E-002   0.0000000000000000     
   1.2897970800825749E-002   1.9748565229766576E-002   0.0000000000000000     
   1.4536886316959832E-002   2.3579959304518158E-002   0.0000000000000000     
   1.6147086838981081E-002   2.7645725969891229E-002   0.0000000000000000     
   1.7728572366889496E-002   3.1945865225885786E-002   0.0000000000000000     
   1.9281342900685075E-002   3.6480377072501839E-002   0.0000000000000000     
   1.0907572171195401E-002   1.9391836569499027E-002   0.0000000000000000     
   1.2293897913396457E-002   2.3199075224999959E-002   0.0000000000000000     
   1.3660736738263343E-002   2.7248990511298522E-002   0.0000000000000000     
   1.5008088645796062E-002   3.1541582428394721E-002   0.0000000000000000     
   1.6335953635994615E-002   3.6076850976288544E-002   0.0000000000000000     
   8.9838970419713737E-003   1.9099343322990018E-002   0.0000000000000000     
   1.0127588521155350E-002   2.2887246178807705E-002   0.0000000000000000     
   1.1257763145847647E-002   2.6923587444999467E-002   0.0000000000000000     
   1.2374420916048262E-002   3.1208367121565300E-002   0.0000000000000000     
   1.3477561831757195E-002   3.5741585208505205E-002   0.0000000000000000     
   7.1269454131536632E-003   1.8871085490239574E-002   0.0000000000000000     
   8.0379581402365147E-003   2.2644472165941395E-002   0.0000000000000000     
   8.9381660617339903E-003   2.6669516770994054E-002   0.0000000000000000     
   9.8275691776460936E-003   3.0946219305397548E-002   0.0000000000000000     
   1.0706167487972821E-002   3.5474579769151866E-002   0.0000000000000000     
   2.2313729625828584E-002   3.6952163497145141E-002   0.0000000000000000     
   2.4047337083560289E-002   4.1697976100786190E-002   0.0000000000000000     
   2.5733645448583042E-002   4.6649991655650466E-002   0.0000000000000000     
   2.7372654720896838E-002   5.1808210161737964E-002   0.0000000000000000     
   2.8964364900501686E-002   5.7172631619048682E-002   0.0000000000000000     
   1.9281342900685075E-002   3.6480377072501839E-002   0.0000000000000000     
   2.0798736406103253E-002   4.1235217026850526E-002   0.0000000000000000     
   2.2274090848879446E-002   4.6196340606042947E-002   0.0000000000000000     
   2.3707406229013663E-002   5.1363747810079137E-002   0.0000000000000000     
   2.5098682546505893E-002   5.6737438638959081E-002   0.0000000000000000     
   1.6335953635994615E-002   3.6076850976288544E-002   0.0000000000000000     
   1.7635993467755021E-002   4.0837064632220109E-002   0.0000000000000000     
   1.8899869899973300E-002   4.5804491873429561E-002   0.0000000000000000     
   2.0127582932649459E-002   5.0979132699916885E-002   0.0000000000000000     
   2.1319132565783487E-002   5.6360987111682095E-002   0.0000000000000000     
   1.3477561831757195E-002   3.5741585208505205E-002   0.0000000000000000     
   1.4559108268515598E-002   4.0503518916894951E-002   0.0000000000000000     
   1.5610982601864607E-002   4.5474445457810285E-002   0.0000000000000000     
   1.6633184831804235E-002   5.0654364831251200E-002   0.0000000000000000     
   1.7625714958334471E-002   5.6043277037217697E-002   0.0000000000000000     
   1.0706167487972821E-002   3.5474579769151866E-002   0.0000000000000000     
   1.1568080808384980E-002   4.0234579880875046E-002   0.0000000000000000     
   1.2407428954553368E-002   4.5206201359185127E-002   0.0000000000000000     
   1.3224211926477989E-002   5.0389444204082069E-002   0.0000000000000000     
   1.4018429724158843E-002   5.5784308415565906E-002   0.0000000000000000     
   2.8964364900501686E-002   5.7172631619048682E-002   0.0000000000000000     
   3.0508773499131763E-002   6.2730574376031217E-002   0.0000000000000000     
   3.2005878028521270E-002   6.8469356781134208E-002   0.0000000000000000     
   3.3455678488670204E-002   7.4388978834357633E-002   0.0000000000000000     
   3.4858174879578555E-002   8.0489440535701479E-002   0.0000000000000000     
   2.5098682546505893E-002   5.6737438638959081E-002   0.0000000000000000     
   2.6448674345686849E-002   6.2305400736153850E-002   0.0000000000000000     
   2.7758136170887248E-002   6.8055621745134520E-002   0.0000000000000000     
   2.9027068022107073E-002   7.3988101665901085E-002   0.0000000000000000     
   3.0255469899346341E-002   8.0102840498453537E-002   0.0000000000000000     
   2.1319132565783487E-002   5.6360987111682095E-002   0.0000000000000000     
   2.2475475696397875E-002   6.1938085878816405E-002   0.0000000000000000     
   2.3597569221515111E-002   6.7698459771411063E-002   0.0000000000000000     
   2.4685413141135187E-002   7.3642108789466060E-002   0.0000000000000000     
   2.5739007455258110E-002   7.9769032932981418E-002   0.0000000000000000     
   1.7625714958334471E-002   5.6043277037217697E-002   0.0000000000000000     
   1.8589177551264838E-002   6.1628629804018890E-002   0.0000000000000000     
   1.9524177180404865E-002   6.7397870859963835E-002   0.0000000000000000     
   2.0430713845754536E-002   7.3351000205052572E-002   0.0000000000000000     
   2.1308787547313874E-002   7.9488017839285080E-002   0.0000000000000000     
   1.4018429724158843E-002   5.5784308415565906E-002   0.0000000000000000     
   1.4789779910287740E-002   6.1377032511761291E-002   0.0000000000000000     
   1.5537960047556504E-002   6.7153855010792837E-002   0.0000000000000000     
   1.6262970135965130E-002   7.3114775912660593E-002   0.0000000000000000     
   1.6964810175513621E-002   7.9259795217364537E-002   0.0000000000000000     
   3.4858174879578555E-002   8.0489440535701479E-002   0.0000000000000000     
   3.6209688779589314E-002   8.6760164344935720E-002   0.0000000000000000     
   3.7506541767045425E-002   9.3190572721830359E-002   0.0000000000000000     
   3.8748733841946902E-002   9.9780665666385354E-002   0.0000000000000000     
   3.9936265004293731E-002  0.10653044317860071        0.0000000000000000     
   3.0255469899346341E-002   8.0102840498453537E-002   0.0000000000000000     
   3.1439242096050569E-002   8.6388533708045723E-002   0.0000000000000000     
   3.2574284905665274E-002   9.2833876759931447E-002   0.0000000000000000     
   3.3660598328190468E-002   9.9438869654110695E-002   0.0000000000000000     
   3.4698182363626158E-002  0.10620351239058348        0.0000000000000000     
   2.5739007455258110E-002   7.9769032932981418E-002   0.0000000000000000     
   2.6754327032527139E-002   8.6067481498175030E-002   0.0000000000000000     
   2.7727346741585546E-002   9.2525703781264859E-002   0.0000000000000000     
   2.8658066582433327E-002   9.9143699782250877E-002   0.0000000000000000     
   2.9546486555070479E-002  0.10592146950113311        0.0000000000000000     
   2.1308787547313874E-002   7.9488017839285080E-002   0.0000000000000000     
   2.2154943589019042E-002   8.5797007715323656E-002   0.0000000000000000     
   2.2965727274806235E-002   9.2266053785830610E-002   0.0000000000000000     
   2.3741138604675451E-002   9.8895156050805941E-002   0.0000000000000000     
   2.4481177578626695E-002  0.10568431451024962        0.0000000000000000     
   1.6964810175513621E-002   7.9259795217364537E-002   0.0000000000000000     
   1.7641091765526262E-002   8.5577112359491614E-002   0.0000000000000000     
   1.8289426505327340E-002   9.2054926773628698E-002   0.0000000000000000     
   1.8909814394916857E-002   9.8693238459775845E-002   0.0000000000000000     
   1.9502255434294812E-002  0.10549204741793303        0.0000000000000000     
   3.9936265004293731E-002  0.10653044317860071        0.0000000000000000     
   4.1073607664742370E-002  0.11342610156596558        0.0000000000000000     
   4.2165234233949259E-002  0.12045383713596919        0.0000000000000000     
   4.3211144711914395E-002  0.12761364988861146        0.0000000000000000     
   4.4211339098637788E-002  0.13490553982389245        0.0000000000000000     
   3.4698182363626158E-002  0.10620351239058348        0.0000000000000000     
   3.5691704004829267E-002  0.11311430047863257        0.0000000000000000     
   3.6645830244656737E-002  0.12015772942754083        0.0000000000000000     
   3.7560561083108582E-002  0.12733379923730814        0.0000000000000000     
   3.8435896520184795E-002  0.13464250990793461        0.0000000000000000     
   2.9546486555070479E-002  0.10592146950113311        0.0000000000000000     
   3.0397019029632856E-002  0.11284572659479027        0.0000000000000000     
   3.1214076376256301E-002  0.11990318472010111        0.0000000000000000     
   3.1997658594940824E-002  0.12709384387706565        0.0000000000000000     
   3.2747765685686415E-002  0.13441770406568382        0.0000000000000000     
   2.4481177578626695E-002  0.10568431451024962        0.0000000000000000     
   2.5189552739153135E-002  0.11262037991443868        0.0000000000000000     
   2.5869972628747944E-002  0.11969020301365012        0.0000000000000000     
   2.6522437247411122E-002  0.12689378380788391        0.0000000000000000     
   2.7146946595142669E-002  0.13423112229714010        0.0000000000000000     
   1.9502255434294812E-002  0.10549204741793303        0.0000000000000000     
   2.0069305133390111E-002  0.11243826043757782        0.0000000000000000     
   2.0613519002131667E-002  0.11951878430818781        0.0000000000000000     
   2.1134897040519480E-002  0.12673361902976302        0.0000000000000000     
   2.1633439248553550E-002  0.13408276460230339        0.0000000000000000     
   4.4211339098637788E-002  0.13490553982389245        0.0000000000000000     
   4.5159058610467498E-002  0.14232033651809856        0.0000000000000000     
   4.6047544463751575E-002  0.14984886954751636        0.0000000000000000     
   4.6876796658490039E-002  0.15749113891214581        0.0000000000000000     
   4.7646815194682862E-002  0.16524714461198692        0.0000000000000000     
   3.8435896520184795E-002  0.13464250990793461        0.0000000000000000     
   3.9262915190919449E-002  0.14207317481269868        0.0000000000000000     
   4.0032695730346644E-002  0.14961510732487884        0.0000000000000000     
   4.0745238138466380E-002  0.15726830744447506        0.0000000000000000     
   4.1400542415278650E-002  0.16503277517148740        0.0000000000000000     
   3.2747765685686415E-002  0.13441770406568382        0.0000000000000000     
   3.3455132506699820E-002  0.14186344070769533        0.0000000000000000     
   3.4110493916187770E-002  0.14941972922483976        0.0000000000000000     
   3.4713849914150267E-002  0.15708656961711712        0.0000000000000000     
   3.5265200500587311E-002  0.16486396188452743        0.0000000000000000     
   2.7146946595142669E-002  0.13423112229714010        0.0000000000000000     
   2.7735710557808609E-002  0.14169113420308854        0.0000000000000000     
   2.8280939021274945E-002  0.14926273524739914        0.0000000000000000     
   2.8782631985541700E-002  0.15694592543007199        0.0000000000000000     
   2.9240789450608852E-002  0.16474070475110703        0.0000000000000000     
   2.1633439248553550E-002  0.13408276460230339        0.0000000000000000     
   2.2104649344245809E-002  0.14155625529887828        0.0000000000000000     
   2.2544031045608180E-002  0.14914412539255703        0.0000000000000000     
   2.2951584352640667E-002  0.15684637488333963        0.0000000000000000     
   2.3327309265343273E-002  0.16466300377122611        0.0000000000000000     
   0.0000000000000000        0.0000000000000000        0.0000000000000000     
   8.4165507995449514E-004   1.1099924578479815E-003   0.0000000000000000     
   1.7020935963455762E-003   2.5981399403958755E-003   0.0000000000000000     
   2.5813155491732436E-003   4.4644424476436824E-003   0.0000000000000000     
   3.4793209384374967E-003   6.7088999795914036E-003   0.0000000000000000     
   0.0000000000000000        0.0000000000000000        0.0000000000000000     
   6.3382060026302592E-004   1.0939882581364865E-003   0.0000000000000000     
   1.2780236608280558E-003   2.5620781963190506E-003   0.0000000000000000     
   1.9326091816950896E-003   4.4042698145476920E-003   0.0000000000000000     
   2.5975771628641274E-003   6.6205631128224123E-003   0.0000000000000000     
   0.0000000000000000        0.0000000000000000        0.0000000000000000     
   4.2426589876018233E-004   1.0825547736482532E-003   0.0000000000000000     
   8.5298188798405895E-004   2.5363191399335665E-003   0.0000000000000000     
   1.2861479676716295E-003   4.3612930988559404E-003   0.0000000000000000     
   1.7237641378228942E-003   6.5574766504153731E-003   0.0000000000000000     
   0.0000000000000000        0.0000000000000000        0.0000000000000000     
   2.1299097544596454E-004   1.0756920043832822E-003   0.0000000000000000     
   4.2696827781358573E-004   2.5208627712394243E-003   0.0000000000000000     
   6.4193190710286352E-004   4.3355123005684258E-003   0.0000000000000000     
   8.5788186331379795E-004   6.5196405923702875E-003   0.0000000000000000     
   0.0000000000000000        0.0000000000000000        0.0000000000000000     
  -4.1696796275079648E-009   1.0733999503415729E-003   0.0000000000000000     
  -1.7169683363710709E-008   2.5157090902366225E-003   0.0000000000000000     
  -3.9000011208716653E-008   4.3269274196851490E-003   0.0000000000000000     
  -6.9660663162336061E-008   6.5070549386871531E-003   0.0000000000000000     
   3.4793209384374967E-003   6.7088999795914036E-003   0.0000000000000000     
   4.3878452987191671E-003   9.2941878572301694E-003   0.0000000000000000     
   5.2986241645990844E-003   1.2182981401551119E-002   0.0000000000000000     
   6.2116575360772501E-003   1.5375280612554254E-002   0.0000000000000000     
   7.1269454131536632E-003   1.8871085490239574E-002   0.0000000000000000     
   2.5975771628641274E-003   6.6205631128224123E-003   0.0000000000000000     
   3.2699610493325732E-003   9.1780021600953946E-003   0.0000000000000000     
   3.9467942860978303E-003   1.2043631025318819E-002   0.0000000000000000     
   4.6280768731599012E-003   1.5217449708492694E-002   0.0000000000000000     
   5.3138088105187820E-003   1.8699458209617013E-002   0.0000000000000000     
   1.7237641378228942E-003   6.5574766504153731E-003   0.0000000000000000     
   2.1660084632365000E-003   9.0950291593911124E-003   0.0000000000000000     
   2.6130590087110922E-003   1.1944109990562411E-002   0.0000000000000000     
   3.0649157742466716E-003   1.5104719143929269E-002   0.0000000000000000     
   3.5215787598432378E-003   1.8576856619491679E-002   0.0000000000000000     
   8.5788186331379795E-004   6.5196405923702875E-003   0.0000000000000000     
   1.0759875404309470E-003   9.0452688551173367E-003   0.0000000000000000     
   1.2974183324388690E-003   1.1884418297281900E-002   0.0000000000000000     
   1.5221742393375635E-003   1.5037088918863980E-002   0.0000000000000000     
   1.7502552611270308E-003   1.8503280719863579E-002   0.0000000000000000     
  -6.9660663162336061E-008   6.5070549386871531E-003   0.0000000000000000     
  -1.0171908408558887E-007   9.0287212472740554E-003   0.0000000000000000     
  -1.2774271883942047E-007   1.1864555945477280E-002   0.0000000000000000     
  -1.4773156742406295E-007   1.5014559033296829E-002   0.0000000000000000     
  -1.6168562983907755E-007   1.8478730510732698E-002   0.0000000000000000     
   7.1269454131536632E-003   1.8871085490239574E-002   0.0000000000000000     
   8.0379581402365147E-003   2.2644472165941395E-002   0.0000000000000000     
   8.9381660617339903E-003   2.6669516770994054E-002   0.0000000000000000     
   9.8275691776460936E-003   3.0946219305397548E-002   0.0000000000000000     
   1.0706167487972821E-002   3.5474579769151866E-002   0.0000000000000000     
   5.3138088105187820E-003   1.8699458209617013E-002   0.0000000000000000     
   5.9971052830906689E-003   2.2462248359157531E-002   0.0000000000000000     
   6.6710814757917529E-003   2.6478411987580001E-002   0.0000000000000000     
   7.3357373886220340E-003   3.0747949094884420E-002   0.0000000000000000     
   7.9910730215815139E-003   3.5270859681070799E-002   0.0000000000000000     
   3.5215787598432378E-003   1.8576856619491679E-002   0.0000000000000000     
   3.9771284621685369E-003   2.2332069931212613E-002   0.0000000000000000     
   4.4256453778903108E-003   2.6341906593055017E-002   0.0000000000000000     
   4.8671295070085649E-003   3.0606366605018899E-002   0.0000000000000000     
   5.3015808495232956E-003   3.5125449967104268E-002   0.0000000000000000     
   1.7502552611270308E-003   1.8503280719863579E-002   0.0000000000000000     
   1.9780276774701172E-003   2.2253936882106636E-002   0.0000000000000000     
   2.2018577680296691E-003   2.6260000587419105E-002   0.0000000000000000     
   2.4217455328056853E-003   3.0521471835800978E-002   0.0000000000000000     
   2.6376909717981661E-003   3.5038350627252267E-002   0.0000000000000000     
  -1.6168562983907755E-007   1.8478730510732698E-002   0.0000000000000000     
  -1.9707100458877646E-007   2.2227849211839606E-002   0.0000000000000000     
  -2.8135379017847476E-007   2.6232693970672259E-002   0.0000000000000000     
  -4.1453398660628188E-007   3.0493264787230662E-002   0.0000000000000000     
  -5.9661159387391222E-007   3.5009561661514817E-002   0.0000000000000000     
   1.0706167487972821E-002   3.5474579769151866E-002   0.0000000000000000     
   1.1568080808384980E-002   4.0234579880875046E-002   0.0000000000000000     
   1.2407428954553368E-002   4.5206201359185127E-002   0.0000000000000000     
   1.3224211926477989E-002   5.0389444204082069E-002   0.0000000000000000     
   1.4018429724158843E-002   5.5784308415565906E-002   0.0000000000000000     
   7.9910730215815139E-003   3.5270859681070799E-002   0.0000000000000000     
   8.6339513895789151E-003   4.0027577944346873E-002   0.0000000000000000     
   9.2612355075229608E-003   4.4998538082920425E-002   0.0000000000000000     
   9.8729253754136510E-003   5.0183740096791447E-002   0.0000000000000000     
   1.0469020993250987E-002   5.5583183985959933E-002   0.0000000000000000     
   5.3015808495232956E-003   3.5125449967104268E-002   0.0000000000000000     
   5.7277603143131460E-003   3.9879843527496878E-002   0.0000000000000000     
   6.1444288102567649E-003   4.4850234134382529E-002   0.0000000000000000     
   6.5515863373541454E-003   5.0036621787761221E-002   0.0000000000000000     
   6.9492328956052936E-003   5.5439006487632940E-002   0.0000000000000000     
   2.6376909717981661E-003   3.5038350627252267E-002   0.0000000000000000     
   2.8495075825876758E-003   3.9791376630325052E-002   0.0000000000000000     
   3.0570088627547790E-003   4.4761289513571431E-002   0.0000000000000000     
   3.2601948122994739E-003   4.9948089276991410E-002   0.0000000000000000     
   3.4590654312217613E-003   5.5351775920584968E-002   0.0000000000000000     
  -5.9661159387391222E-007   3.5009561661514817E-002   0.0000000000000000     
  -8.0680559749778721E-007   3.9762177252831411E-002   0.0000000000000000     
  -1.0243349829944367E-006   4.4731704220487133E-002   0.0000000000000000     
  -1.2491997503656768E-006   4.9918142564481988E-002   0.0000000000000000     
  -1.4813998996095288E-006   5.5321492284815976E-002   0.0000000000000000     
   1.4018429724158843E-002   5.5784308415565906E-002   0.0000000000000000     
   1.4789779910287740E-002   6.1377032511761291E-002   0.0000000000000000     
   1.5537960047556504E-002   6.7153855010792837E-002   0.0000000000000000     
   1.6262970135965130E-002   7.3114775912660593E-002   0.0000000000000000     
   1.6964810175513621E-002   7.9259795217364537E-002   0.0000000000000000     
   1.0469020993250987E-002   5.5583183985959933E-002   0.0000000000000000     
   1.1048353807091784E-002   6.1181813140748803E-002   0.0000000000000000     
   1.1609755262992858E-002   6.6964570951480965E-002   0.0000000000000000     
   1.2153225360954208E-002   7.2931457418156417E-002   0.0000000000000000     
   1.2678764100975834E-002   7.9082472540775176E-002   0.0000000000000000     
   6.9492328956052936E-003   5.5439006487632940E-002   0.0000000000000000     
   7.3359702753021706E-003   6.1041490829686594E-002   0.0000000000000000     
   7.7104002667367465E-003   6.6828177409611042E-002   0.0000000000000000     
   8.0725228699090133E-003   7.2799066227406298E-002   0.0000000000000000     
   8.4223380848189779E-003   7.8954157283072340E-002   0.0000000000000000     
   3.4590654312217613E-003   5.5351775920584968E-002   0.0000000000000000     
   3.6526293149189053E-003   6.0956065578574678E-002   0.0000000000000000     
   3.8398950587881691E-003   6.6744674385183084E-002   0.0000000000000000     
   4.0208626628295534E-003   7.2717602340410234E-002   0.0000000000000000     
   4.1955321270430567E-003   7.8874849444256059E-002   0.0000000000000000     
  -1.4813998996095288E-006   5.5321492284815976E-002   0.0000000000000000     
  -1.6690740580156205E-006   6.0925537387413041E-002   0.0000000000000000     
  -1.7603608528708693E-006   6.6714061878197117E-002   0.0000000000000000     
  -1.7552602841760070E-006   7.2687065757168212E-002   0.0000000000000000     
  -1.6537723519320906E-006   7.8844549024326305E-002   0.0000000000000000     
   1.6964810175513621E-002   7.9259795217364537E-002   0.0000000000000000     
   1.7641091765526262E-002   8.5577112359491614E-002   0.0000000000000000     
   1.8289426505327340E-002   9.2054926773628698E-002   0.0000000000000000     
   1.8909814394916857E-002   9.8693238459775845E-002   0.0000000000000000     
   1.9502255434294812E-002  0.10549204741793303        0.0000000000000000     
   1.2678764100975834E-002   7.9082472540775176E-002   0.0000000000000000     
   1.3185110893566885E-002   8.5406036625941831E-002   0.0000000000000000     
   1.3671005149236512E-002   9.1890569980261058E-002   0.0000000000000000     
   1.4136446867984711E-002   9.8536072603732788E-002   0.0000000000000000     
   1.4581436049811486E-002  0.10534254449635705        0.0000000000000000     
   8.4223380848189779E-003   7.8954157283072340E-002   0.0000000000000000     
   8.7593403046589881E-003   8.5282021709937386E-002   0.0000000000000000     
   9.0830239226213933E-003   9.1771230641329596E-002   0.0000000000000000     
   9.3933889387061934E-003   9.8421784077248969E-002   0.0000000000000000     
   9.6904353529133885E-003  0.10523368201769551        0.0000000000000000     
   4.1955321270430567E-003   7.8874849444256059E-002   0.0000000000000000     
   4.3637799988025710E-003   8.5205067611478211E-002   0.0000000000000000     
   4.5254828254819865E-003   9.1696908756834339E-002   0.0000000000000000     
   4.6806406070813017E-003   9.8350372880324374E-002   0.0000000000000000     
   4.8292533436005191E-003  0.10516545998194834        0.0000000000000000     
  -1.6537723519320906E-006   7.8844549024326305E-002   0.0000000000000000     
  -1.5700240023656335E-006   8.5175174330564360E-002   0.0000000000000000     
  -1.6181421817104669E-006   9.1667604326775246E-002   0.0000000000000000     
  -1.7981268899632707E-006   9.8321839012959003E-002   0.0000000000000000     
  -2.1099781271245732E-006  0.10513787838911562        0.0000000000000000     
   1.9502255434294812E-002  0.10549204741793303        0.0000000000000000     
   2.0069305133390111E-002  0.11243826043757782        0.0000000000000000     
   2.0613519002131667E-002  0.11951878430818781        0.0000000000000000     
   2.1134897040519480E-002  0.12673361902976302        0.0000000000000000     
   2.1633439248553550E-002  0.13408276460230339        0.0000000000000000     
   1.4581436049811486E-002  0.10534254449635705        0.0000000000000000     
   1.5007330690874413E-002  0.11229680792092804        0.0000000000000000     
   1.5415488787331075E-002  0.11938568514023992        0.0000000000000000     
   1.5805910339181467E-002  0.12660917615429268        0.0000000000000000     
   1.6178595346425594E-002  0.13396728096308630        0.0000000000000000     
   9.6904353529133885E-003  0.10523368201769551        0.0000000000000000     
   9.9746838901366795E-003  0.11219346212120970        0.0000000000000000     
   1.0246655275269767E-002  0.11928766204633211        0.0000000000000000     
   1.0506349508312649E-002  0.12651628179306268        0.0000000000000000     
   1.0753766589265329E-002  0.13387932136140143        0.0000000000000000     
   4.8292533436005191E-003  0.10516545998194834        0.0000000000000000     
   4.9713647311769096E-003  0.11212822303842285        0.0000000000000000     
   5.1070184659477453E-003  0.11922471502646441        0.0000000000000000     
   5.2362145479130286E-003  0.12645493594607302        0.0000000000000000     
   5.3589529770727588E-003  0.13381888579724871        0.0000000000000000     
  -2.1099781271245732E-006  0.10513787838911562        0.0000000000000000     
  -2.6267860048989015E-006  0.11210109067256745        0.0000000000000000     
  -3.4216406349883970E-006  0.11919684408063681        0.0000000000000000     
  -4.4945420173954993E-006  0.12642513861332372        0.0000000000000000     
  -5.8454901521159258E-006  0.13378597427062819        0.0000000000000000     
   2.1633439248553550E-002  0.13408276460230339        0.0000000000000000     
   2.2104649344245809E-002  0.14155625529887828        0.0000000000000000     
   2.2544031045608180E-002  0.14914412539255703        0.0000000000000000     
   2.2951584352640667E-002  0.15684637488333963        0.0000000000000000     
   2.3327309265343273E-002  0.16466300377122611        0.0000000000000000     
   1.6178595346425594E-002  0.13396728096308630        0.0000000000000000     
   1.6532467313183846E-002  0.14145130641970466        0.0000000000000000     
   1.6866449743576626E-002  0.14905255937723155        0.0000000000000000     
   1.7180542637603931E-002  0.15677103983566701        0.0000000000000000     
   1.7474745995265765E-002  0.16460674779501097        0.0000000000000000     
   1.0753766589265329E-002  0.13387932136140143        0.0000000000000000     
   1.0989682911795149E-002  0.14136878999020769        0.0000000000000000     
   1.1214874869569453E-002  0.14897669691834087        0.0000000000000000     
   1.1429342462588244E-002  0.15670304214580089        0.0000000000000000     
   1.1633085690851520E-002  0.16454782567258786        0.0000000000000000     
   5.3589529770727588E-003  0.13381888579724871        0.0000000000000000     
   5.4762961400797103E-003  0.14130870601038736        0.0000000000000000     
   5.5893064235866576E-003  0.14891653801588495        0.0000000000000000     
   5.6979838275936006E-003  0.15664238181374143        0.0000000000000000     
   5.8023283521005421E-003  0.16448623740395676        0.0000000000000000     
  -5.8454901521159258E-006  0.13378597427062819        0.0000000000000000     
  -7.6930019624660197E-006  0.14127105448024374        0.0000000000000000     
  -1.0255594371759739E-005  0.14887208266986382        0.0000000000000000     
  -1.3533267379995187E-005  0.15658905883948848        0.0000000000000000     
  -1.7526020987171549E-005  0.16442198298911764        0.0000000000000000     
   0.0000000000000000        0.0000000000000000        0.0000000000000000     
  -4.1696796275079648E-009   1.0733999503415729E-003   0.0000000000000000     
  -1.7169683363710709E-008   2.5157090902366225E-003   0.0000000000000000     
  -3.9000011208716653E-008   4.3269274196851490E-003   0.0000000000000000     
  -6.9660663162336061E-008   6.5070549386871531E-003   0.0000000000000000     
   0.0000000000000000        0.0000000000000000        0.0000000000000000     
  -2.1300008528269855E-004   1.0756828195085080E-003   0.0000000000000000     
  -4.2700255061205335E-004   2.5208613350988333E-003   0.0000000000000000     
  -6.4200739598806427E-004   4.3355355467709755E-003   0.0000000000000000     
  -8.5801462141073151E-004   6.5197054545249357E-003   0.0000000000000000     
   0.0000000000000000        0.0000000000000000        0.0000000000000000     
  -4.2427732002935320E-004   1.0825448198694709E-003   0.0000000000000000     
  -8.5301596107774673E-004   2.5363227439997274E-003   0.0000000000000000     
  -1.2862159231451810E-003   4.3613337723907688E-003   0.0000000000000000     
  -1.7238772062316552E-003   6.5575779050425949E-003   0.0000000000000000     
   0.0000000000000000        0.0000000000000000        0.0000000000000000     
  -6.3383587391959155E-004   1.0939859514244616E-003   0.0000000000000000     
  -1.2780574010804442E-003   2.5620933169393048E-003   0.0000000000000000     
  -1.9326645814825585E-003   4.4043220965445298E-003   0.0000000000000000     
  -2.5976574151259329E-003   6.6206722902401359E-003   0.0000000000000000     
   0.0000000000000000        0.0000000000000000        0.0000000000000000     
  -8.4167574695341346E-004   1.1100062141734795E-003   0.0000000000000000     
  -1.7021268706201454E-003   2.5981730539175649E-003   0.0000000000000000     
  -2.5813533710001965E-003   4.4645005192322567E-003   0.0000000000000000     
  -3.4793552480935660E-003   6.7089886101175545E-003   0.0000000000000000     
  -6.9660663162336061E-008   6.5070549386871531E-003   0.0000000000000000     
  -1.0171908408558887E-007   9.0287212472740554E-003   0.0000000000000000     
  -1.2774271883942047E-007   1.1864555945477280E-002   0.0000000000000000     
  -1.4773156742406295E-007   1.5014559033296829E-002   0.0000000000000000     
  -1.6168562983907755E-007   1.8478730510732698E-002   0.0000000000000000     
  -8.5801462141073151E-004   6.5197054545249357E-003   0.0000000000000000     
  -1.0761804333640763E-003   9.0453640514007519E-003   0.0000000000000000     
  -1.2976610383321203E-003   1.1884504330438464E-002   0.0000000000000000     
  -1.5224564363148633E-003   1.5037126291638074E-002   0.0000000000000000     
  -1.7505666273123048E-003   1.8503229934999577E-002   0.0000000000000000     
  -1.7238772062316552E-003   6.5575779050425949E-003   0.0000000000000000     
  -2.1661697204645039E-003   9.0951749830368942E-003   0.0000000000000000     
  -2.6132633759710609E-003   1.1944244847455354E-002   0.0000000000000000     
  -3.0651581727513259E-003   1.5104787498297970E-002   0.0000000000000000     
  -3.5218541108052999E-003   1.8576802935564747E-002   0.0000000000000000     
  -2.5976574151259329E-003   6.6206722902401359E-003   0.0000000000000000     
  -3.2700695803853687E-003   9.1781540421824893E-003   0.0000000000000000     
  -3.9469347556356608E-003   1.2043777496527951E-002   0.0000000000000000     
  -4.6282529408768142E-003   1.5217542653276520E-002   0.0000000000000000     
  -5.3140241361088235E-003   1.8699449512428197E-002   0.0000000000000000     
  -3.4793552480935660E-003   6.7089886101175545E-003   0.0000000000000000     
  -4.3878800131266693E-003   9.2943012288375284E-003   0.0000000000000000     
  -5.2986751773259223E-003   1.2183102277656250E-002   0.0000000000000000     
  -6.2117407406913246E-003   1.5375391756573722E-002   0.0000000000000000     
  -7.1270767032228762E-003   1.8871169665589941E-002   0.0000000000000000     
  -1.6168562983907755E-007   1.8478730510732698E-002   0.0000000000000000     
  -1.9707100458877646E-007   2.2227849211839606E-002   0.0000000000000000     
  -2.8135379017847476E-007   2.6232693970672259E-002   0.0000000000000000     
  -4.1453398660628188E-007   3.0493264787230662E-002   0.0000000000000000     
  -5.9661159387391222E-007   3.5009561661514817E-002   0.0000000000000000     
  -1.7505666273123048E-003   1.8503229934999577E-002   0.0000000000000000     
  -1.9784073303007075E-003   2.2253844564733616E-002   0.0000000000000000     
  -2.2023942642563333E-003   2.6259999485050825E-002   0.0000000000000000     
  -2.4225274291791816E-003   3.0521694695951205E-002   0.0000000000000000     
  -2.6388068250692517E-003   3.5038930197434752E-002   0.0000000000000000     
  -3.5218541108052999E-003   1.8576802935564747E-002   0.0000000000000000     
  -3.9774646474633650E-003   2.2331960585110770E-002   0.0000000000000000     
  -4.4261032400559012E-003   2.6341929872791145E-002   0.0000000000000000     
  -4.8677698885829122E-003   3.0606710798605857E-002   0.0000000000000000     
  -5.3024645930443946E-003   3.5126303362554921E-002   0.0000000000000000     
  -5.3140241361088235E-003   1.8699449512428197E-002   0.0000000000000000     
  -5.9973690224925588E-003   2.2462197272971069E-002   0.0000000000000000     
  -6.6714082811888831E-003   2.6478485133893209E-002   0.0000000000000000     
  -7.3361419121978000E-003   3.0748313095194622E-002   0.0000000000000000     
  -7.9915699155193032E-003   3.5271681156875311E-002   0.0000000000000000     
  -7.1270767032228762E-003   1.8871169665589941E-002   0.0000000000000000     
  -8.0381204553882906E-003   2.2644554628314505E-002   0.0000000000000000     
  -8.9383093876552796E-003   2.6669665268357030E-002   0.0000000000000000     
  -9.8276435000238423E-003   3.0946501585717507E-002   0.0000000000000000     
  -1.0706122792493979E-002   3.5475063580395934E-002   0.0000000000000000     
  -5.9661159387391222E-007   3.5009561661514817E-002   0.0000000000000000     
  -8.0680559749778721E-007   3.9762177252831411E-002   0.0000000000000000     
  -1.0243349829944367E-006   4.4731704220487133E-002   0.0000000000000000     
  -1.2491997503656768E-006   4.9918142564481988E-002   0.0000000000000000     
  -1.4813998996095288E-006   5.5321492284815976E-002   0.0000000000000000     
  -2.6388068250692517E-003   3.5038930197434752E-002   0.0000000000000000     
  -2.8510085773515064E-003   3.9792062657126953E-002   0.0000000000000000     
  -3.0589088114509090E-003   4.4761448742653275E-002   0.0000000000000000     
  -3.2625075273674583E-003   4.9947088454013744E-002   0.0000000000000000     
  -3.4618047251011533E-003   5.5348981791208347E-002   0.0000000000000000     
  -5.3024645930443946E-003   3.5126303362554921E-002   0.0000000000000000     
  -5.7289234597834851E-003   3.9880850105322684E-002   0.0000000000000000     
  -6.1458825951433184E-003   4.4850493567593526E-002   0.0000000000000000     
  -6.5533419991238911E-003   5.0035233749367435E-002   0.0000000000000000     
  -6.9513016717252058E-003   5.5435070650644423E-002   0.0000000000000000     
  -7.9915699155193032E-003   3.5271681156875311E-002   0.0000000000000000     
  -8.6345514528934336E-003   4.0028539597418603E-002   0.0000000000000000     
  -9.2619456860602196E-003   4.4998838695307859E-002   0.0000000000000000     
  -9.8737526150196649E-003   5.0182578450543060E-002   0.0000000000000000     
  -1.0469972239771766E-002   5.5579758863124211E-002   0.0000000000000000     
  -1.0706122792493979E-002   3.5475063580395934E-002   0.0000000000000000     
  -1.1567892556681352E-002   4.0235131133414724E-002   0.0000000000000000     
  -1.2407098084201620E-002   4.5206484125796281E-002   0.0000000000000000     
  -1.3223739375054781E-002   5.0389122557540605E-002   0.0000000000000000     
  -1.4017816429240836E-002   5.5783046428647703E-002   0.0000000000000000     
  -1.4813998996095288E-006   5.5321492284815976E-002   0.0000000000000000     
  -1.6690740580156205E-006   6.0925537387413041E-002   0.0000000000000000     
  -1.7603608528708693E-006   6.6714061878197117E-002   0.0000000000000000     
  -1.7552602841760070E-006   7.2687065757168212E-002   0.0000000000000000     
  -1.6537723519320906E-006   7.8844549024326305E-002   0.0000000000000000     
  -3.4618047251011533E-003   5.5348981791208347E-002   0.0000000000000000     
  -3.6557138827158766E-003   6.0951300893254672E-002   0.0000000000000000     
  -3.8431484782755132E-003   6.6738217899170296E-002   0.0000000000000000     
  -4.0241085117800595E-003   7.2709732808955221E-002   0.0000000000000000     
  -4.1985939832295139E-003   7.8865845622609482E-002   0.0000000000000000     
  -6.9513016717252058E-003   5.5435070650644423E-002   0.0000000000000000     
  -7.3382941021419724E-003   6.1034750733152530E-002   0.0000000000000000     
  -7.7128517795688944E-003   6.6819020458619816E-002   0.0000000000000000     
  -8.0749747040059772E-003   7.2787879827046265E-002   0.0000000000000000     
  -8.4246628754532198E-003   7.8941328838431898E-002   0.0000000000000000     
  -1.0469972239771766E-002   5.5579758863124211E-002   0.0000000000000000     
  -1.1049409732336294E-002   6.1175886907106652E-002   0.0000000000000000     
  -1.1610870264733016E-002   6.6956469556545689E-002   0.0000000000000000     
  -1.2154353836961932E-002   7.2921506811441342E-002   0.0000000000000000     
  -1.2679860449023044E-002   7.9070998671793583E-002   0.0000000000000000     
  -1.4017816429240836E-002   5.5783046428647703E-002   0.0000000000000000     
  -1.4789060773298850E-002   6.1374709415116989E-002   0.0000000000000000     
  -1.5537203933767878E-002   6.7150565192947903E-002   0.0000000000000000     
  -1.6262245910647923E-002   7.3110613762140397E-002   0.0000000000000000     
  -1.6964186703938990E-002   7.9254855122694548E-002   0.0000000000000000     
  -1.6537723519320906E-006   7.8844549024326305E-002   0.0000000000000000     
  -1.5700240023656335E-006   8.5175174330564360E-002   0.0000000000000000     
  -1.6181421817104669E-006   9.1667604326775246E-002   0.0000000000000000     
  -1.7981268899632707E-006   9.8321839012959003E-002   0.0000000000000000     
  -2.1099781271245732E-006  0.10513787838911562        0.0000000000000000     
  -4.1985939832295139E-003   7.8865845622609482E-002   0.0000000000000000     
  -4.3666900938487754E-003   8.5195176987745661E-002   0.0000000000000000     
  -4.5284820448627345E-003   9.1686347551976494E-002   0.0000000000000000     
  -4.6839698362713946E-003   9.8339357315301940E-002   0.0000000000000000     
  -4.8331534680747558E-003  0.10515420627772201        0.0000000000000000     
  -8.4246628754532198E-003   7.8941328838431898E-002   0.0000000000000000     
  -8.7615605408296066E-003   8.5267910703572078E-002   0.0000000000000000     
  -9.0853119470541300E-003   9.1756168633262178E-002   0.0000000000000000     
  -9.3959170941267933E-003   9.8406102627502254E-002   0.0000000000000000     
  -9.6933759820475879E-003  0.10521771268629222        0.0000000000000000     
  -1.2679860449023044E-002   7.9070998671793583E-002   0.0000000000000000     
  -1.3186181364944861E-002   8.5393375478043571E-002   0.0000000000000000     
  -1.3672107848755893E-002   9.1877067570632326E-002   0.0000000000000000     
  -1.4137639900456146E-002   9.8522074949559904E-002   0.0000000000000000     
  -1.4582777520045616E-002  0.10532839761482632        0.0000000000000000     
  -1.6964186703938990E-002   7.9254855122694548E-002   0.0000000000000000     
  -1.7640552566194536E-002   8.5571571311160111E-002   0.0000000000000000     
  -1.8288869749968028E-002   9.2049044364086924E-002   0.0000000000000000     
  -1.8909138255259462E-002   9.8687274281474946E-002   0.0000000000000000     
  -1.9501358082068845E-002  0.10548626106332422        0.0000000000000000     
  -2.1099781271245732E-006  0.10513787838911562        0.0000000000000000     
  -2.6267860048989015E-006  0.11210109067256745        0.0000000000000000     
  -3.4216406349883970E-006  0.11919684408063681        0.0000000000000000     
  -4.4945420173954993E-006  0.12642513861332372        0.0000000000000000     
  -5.8454901521159258E-006  0.13378597427062819        0.0000000000000000     
  -4.8331534680747558E-003  0.10515420627772201        0.0000000000000000     
  -4.9762173641430714E-003  0.11211570960088146        0.0000000000000000     
  -5.1133459483465975E-003  0.11920868244642503        0.0000000000000000     
  -5.2445392206853349E-003  0.12643312481435276        0.0000000000000000     
  -5.3697971811592846E-003  0.13378903670466466        0.0000000000000000     
  -9.6933759820475879E-003  0.10521771268629222        0.0000000000000000     
  -9.9783337059719292E-003  0.11217572440060287        0.0000000000000000     
  -1.0251435361055236E-002  0.11926486336140484        0.0000000000000000     
  -1.0512680947297503E-002  0.12648512956869815        0.0000000000000000     
  -1.0762070464698736E-002  0.13383652302248283        0.0000000000000000     
  -1.4582777520045616E-002  0.10532839761482632        0.0000000000000000     
  -1.5008975811491477E-002  0.11228113507173168        0.0000000000000000     
  -1.5417689878760908E-002  0.11936538682557624        0.0000000000000000     
  -1.5808919721853901E-002  0.12658115287635990        0.0000000000000000     
  -1.6182665340770463E-002  0.13392843322408279        0.0000000000000000     
  -1.9501358082068845E-002  0.10548626106332422        0.0000000000000000     
  -2.0068143680701710E-002  0.11243194161426791        0.0000000000000000     
  -2.0612109501463610E-002  0.11951025283893915        0.0000000000000000     
  -2.1133255544354527E-002  0.12672119473733801        0.0000000000000000     
  -2.1631581809374474E-002  0.13406476730946443        0.0000000000000000     
  -5.8454901521159258E-006  0.13378597427062819        0.0000000000000000     
  -7.6930019624660197E-006  0.14127105448024374        0.0000000000000000     
  -1.0255594371759739E-005  0.14887208266986382        0.0000000000000000     
  -1.3533267379995187E-005  0.15658905883948848        0.0000000000000000     
  -1.7526020987171549E-005  0.16442198298911764        0.0000000000000000     
  -5.3697971811592846E-003  0.13378903670466466        0.0000000000000000     
  -5.4905547145734489E-003  0.14126758280471777        0.0000000000000000     
  -5.6082467057328340E-003  0.14885992780186921        0.0000000000000000     
  -5.7228731546374390E-003  0.15656607169611905        0.0000000000000000     
  -5.8344340612872646E-003  0.16438601448746720        0.0000000000000000     
  -1.0762070464698736E-002  0.13383652302248283        0.0000000000000000     
  -1.1000559197995308E-002  0.14131003838875053        0.0000000000000000     
  -1.1229102431923607E-002  0.14889667033349296        0.0000000000000000     
  -1.1447700166483629E-002  0.15659641885671008        0.0000000000000000     
  -1.1656352401675380E-002  0.16440928395840199        0.0000000000000000     
  -1.6182665340770463E-002  0.13392843322408279        0.0000000000000000     
  -1.6537706452228042E-002  0.14139842123234203        0.0000000000000000     
  -1.6872822772944072E-002  0.14898231026473499        0.0000000000000000     
  -1.7188014302918567E-002  0.15668010032126167        0.0000000000000000     
  -1.7483281042151518E-002  0.16449179140192202        0.0000000000000000     
  -2.1631581809374474E-002  0.13406476730946443        0.0000000000000000     
  -2.2101996477271641E-002  0.14153273133549227        0.0000000000000000     
  -2.2539407728794238E-002  0.14911684759559538        0.0000000000000000     
  -2.2943815563942246E-002  0.15681711608977375        0.0000000000000000     
  -2.3315219982715681E-002  0.16463353681802734        0.0000000000000000     
   0.0000000000000000        0.0000000000000000        0.0000000000000000     
  -8.4167574695341346E-004   1.1100062141734795E-003   0.0000000000000000     
  -1.7021268706201454E-003   2.5981730539175649E-003   0.0000000000000000     
  -2.5813533710001965E-003   4.4645005192322567E-003   0.0000000000000000     
  -3.4793552480935660E-003   6.7089886101175545E-003   0.0000000000000000     
   0.0000000000000000        0.0000000000000000        0.0000000000000000     
  -1.0567011675514115E-003   1.1341664096436712E-003   0.0000000000000000     
  -2.1397645096404164E-003   2.6504116981335593E-003   0.0000000000000000     
  -3.2491900262670145E-003   4.5487358654696637E-003   0.0000000000000000     
  -4.3849777174312064E-003   6.8291389116519859E-003   0.0000000000000000     
   0.0000000000000000        0.0000000000000000        0.0000000000000000     
  -1.2878163641341783E-003   1.1700273393621841E-003   0.0000000000000000     
  -2.6055104580848224E-003   2.7246589927863388E-003   0.0000000000000000     
  -3.9530822818519317E-003   4.6638949602724640E-003   0.0000000000000000     
  -5.3305318354355076E-003   6.9877352418205585E-003   0.0000000000000000     
   0.0000000000000000        0.0000000000000000        0.0000000000000000     
  -1.5350213367017135E-003   1.2175890033290174E-003   0.0000000000000000     
  -3.0993647159533629E-003   2.8209149378759027E-003   0.0000000000000000     
  -4.6930301377549489E-003   4.8099778036406566E-003   0.0000000000000000     
  -6.3160176021064690E-003   7.1847776006232792E-003   0.0000000000000000     
   0.0000000000000000        0.0000000000000000        0.0000000000000000     
  -1.7983160852540173E-003   1.2768514015441712E-003   0.0000000000000000     
  -3.6213272832460387E-003   2.9391795334022522E-003   0.0000000000000000     
  -5.4690335939760644E-003   4.9869843955742416E-003   0.0000000000000000     
  -7.3414350174440934E-003   7.4202659880601421E-003   0.0000000000000000     
  -3.4793552480935660E-003   6.7089886101175545E-003   0.0000000000000000     
  -4.3878800131266693E-003   9.2943012288375284E-003   0.0000000000000000     
  -5.2986751773259223E-003   1.2183102277656250E-002   0.0000000000000000     
  -6.2117407406913246E-003   1.5375391756573722E-002   0.0000000000000000     
  -7.1270767032228762E-003   1.8871169665589941E-002   0.0000000000000000     
  -4.3849777174312064E-003   6.8291389116519859E-003   0.0000000000000000     
  -5.5341394599376622E-003   9.4496194859551384E-003   0.0000000000000000     
  -6.6836871305910508E-003   1.2368176237653739E-002   0.0000000000000000     
  -7.8336207293913766E-003   1.5584809166747794E-002   0.0000000000000000     
  -8.9839402563386371E-003   1.9099518273237293E-002   0.0000000000000000     
  -5.3305318354355076E-003   6.9877352418205585E-003   0.0000000000000000     
  -6.7233863620675986E-003   9.6501117564884338E-003   0.0000000000000000     
  -8.1171731049802572E-003   1.2604956423333900E-002   0.0000000000000000     
  -9.5118920641734852E-003   1.5852269242356946E-002   0.0000000000000000     
  -1.0907543239647280E-002   1.9392050213557589E-002   0.0000000000000000     
  -6.3160176021064690E-003   7.1847776006232792E-003   0.0000000000000000     
  -7.9556207195164829E-003   9.8957780404374165E-003   0.0000000000000000     
  -9.5991331004935433E-003   1.2893442834696719E-002   0.0000000000000000     
  -1.1246554745037649E-002   1.6177771983401191E-002   0.0000000000000000     
  -1.2897885653148805E-002   1.9748765486550822E-002   0.0000000000000000     
  -7.3414350174440934E-003   7.4202659880601421E-003   0.0000000000000000     
  -9.2308425322843099E-003   1.0186618337802086E-002   0.0000000000000000     
  -1.1129567117130906E-002   1.3233635471742210E-002   0.0000000000000000     
  -1.3037608771983872E-002   1.6561317389880516E-002   0.0000000000000000     
  -1.4954967496843212E-002   2.0169664092216995E-002   0.0000000000000000     
  -7.1270767032228762E-003   1.8871169665589941E-002   0.0000000000000000     
  -8.0381204553882906E-003   2.2644554628314505E-002   0.0000000000000000     
  -8.9383093876552796E-003   2.6669665268357030E-002   0.0000000000000000     
  -9.8276435000238423E-003   3.0946501585717507E-002   0.0000000000000000     
  -1.0706122792493979E-002   3.5475063580395934E-002   0.0000000000000000     
  -8.9839402563386371E-003   1.9099518273237293E-002   0.0000000000000000     
  -1.0127642735396325E-002   2.2887461978810232E-002   0.0000000000000000     
  -1.1257725190527935E-002   2.6923798705154586E-002   0.0000000000000000     
  -1.2374187621733472E-002   3.1208528452270373E-002   0.0000000000000000     
  -1.3477030029012930E-002   3.5741651220157565E-002   0.0000000000000000     
  -1.0907543239647280E-002   1.9392050213557589E-002   0.0000000000000000     
  -1.2293859651762423E-002   2.3199348652127375E-002   0.0000000000000000     
  -1.3660574320879703E-002   2.7249213873257870E-002   0.0000000000000000     
  -1.5007687246999120E-002   3.1541645876949076E-002   0.0000000000000000     
  -1.6335198430120670E-002   3.6076644663200999E-002   0.0000000000000000     
  -1.2897885653148805E-002   1.9748765486550822E-002   0.0000000000000000     
  -1.4536771204486588E-002   2.3580214648265950E-002   0.0000000000000000     
  -1.6146856778710580E-002   2.7645910772666881E-002   0.0000000000000000     
  -1.7728142375820783E-002   3.1945853859753633E-002   0.0000000000000000     
  -1.9280627995817191E-002   3.6480043909526208E-002   0.0000000000000000     
  -1.4954967496843212E-002   2.0169664092216995E-002   0.0000000000000000     
  -1.6856377393568815E-002   2.4030059967225941E-002   0.0000000000000000     
  -1.8716572564020564E-002   2.8113889403381626E-002   0.0000000000000000     
  -2.0535553008198461E-002   3.2421152400684050E-002   0.0000000000000000     
  -2.2313318726102500E-002   3.6951848959133213E-002   0.0000000000000000     
  -1.0706122792493979E-002   3.5475063580395934E-002   0.0000000000000000     
  -1.1567892556681352E-002   4.0235131133414724E-002   0.0000000000000000     
  -1.2407098084201620E-002   4.5206484125796281E-002   0.0000000000000000     
  -1.3223739375054781E-002   5.0389122557540605E-002   0.0000000000000000     
  -1.4017816429240836E-002   5.5783046428647703E-002   0.0000000000000000     
  -1.3477030029012930E-002   3.5741651220157565E-002   0.0000000000000000     
  -1.4558223518894201E-002   4.0503562725797228E-002   0.0000000000000000     
  -1.5609739197905178E-002   4.5474658686170365E-002   0.0000000000000000     
  -1.6631577066045854E-002   5.0654939101276976E-002   0.0000000000000000     
  -1.7623737123316236E-002   5.6044403971117075E-002   0.0000000000000000     
  -1.6335198430120670E-002   3.6076644663200999E-002   0.0000000000000000     
  -1.7634821087278950E-002   4.0836772387052293E-002   0.0000000000000000     
  -1.8898268435508559E-002   4.5804591203541641E-002   0.0000000000000000     
  -2.0125540474809505E-002   5.0980101112669048E-002   0.0000000000000000     
  -2.1316637205181781E-002   5.6363302114434508E-002   0.0000000000000000     
  -1.9280627995817191E-002   3.6480043909526208E-002   0.0000000000000000     
  -2.0797685261835595E-002   4.1234760117179928E-002   0.0000000000000000     
  -2.2272685797011780E-002   4.6196281677910137E-002   0.0000000000000000     
  -2.3705629601345743E-002   5.1364608591716820E-002   0.0000000000000000     
  -2.5096516674837477E-002   5.6739740858599980E-002   0.0000000000000000     
  -2.2313318726102500E-002   3.6951848959133213E-002   0.0000000000000000     
  -2.4046816042564138E-002   4.1697525916180138E-002   0.0000000000000000     
  -2.5732991282414817E-002   4.6649730109275832E-002   0.0000000000000000     
  -2.7371844445654551E-002   5.1808461538420288E-002   0.0000000000000000     
  -2.8963375532283321E-002   5.7173720203613512E-002   0.0000000000000000     
  -1.4017816429240836E-002   5.5783046428647703E-002   0.0000000000000000     
  -1.4789060773298850E-002   6.1374709415116989E-002   0.0000000000000000     
  -1.5537203933767878E-002   6.7150565192947903E-002   0.0000000000000000     
  -1.6262245910647923E-002   7.3110613762140397E-002   0.0000000000000000     
  -1.6964186703938990E-002   7.9254855122694548E-002   0.0000000000000000     
  -1.7623737123316236E-002   5.6044403971117075E-002   0.0000000000000000     
  -1.8586910009236179E-002   6.1630326721666885E-002   0.0000000000000000     
  -1.9521786363325563E-002   6.7399980778902635E-002   0.0000000000000000     
  -2.0428366185584374E-002   7.3353366142824325E-002   0.0000000000000000     
  -2.1306649476012629E-002   7.9490482813431906E-002   0.0000000000000000     
  -2.1316637205181781E-002   5.6363302114434508E-002   0.0000000000000000     
  -2.2472620224354842E-002   6.1941847291239645E-002   0.0000000000000000     
  -2.3594551130058157E-002   6.7703389725486063E-002   0.0000000000000000     
  -2.4682429922291717E-002   7.3647929417173824E-002   0.0000000000000000     
  -2.5736256601055541E-002   7.9775466366302866E-002   0.0000000000000000     
  -2.5096516674837477E-002   5.6739740858599980E-002   0.0000000000000000     
  -2.6446191418654837E-002   6.2309271123835254E-002   0.0000000000000000     
  -2.7755498233965659E-002   6.8060792032698242E-002   0.0000000000000000     
  -2.9024437120769950E-002   7.3994303585188922E-002   0.0000000000000000     
  -3.0253008079067705E-002   8.0109805781307344E-002   0.0000000000000000     
  -2.8963375532283321E-002   5.7173720203613512E-002   0.0000000000000000     
  -3.0507623592136161E-002   6.2732598219453720E-002   0.0000000000000000     
  -3.2004627675048074E-002   6.8472187700539103E-002   0.0000000000000000     
  -3.3454387781019071E-002   7.4392488646869676E-002   0.0000000000000000     
  -3.4856903910049142E-002   8.0493501058445410E-002   0.0000000000000000     
  -1.6964186703938990E-002   7.9254855122694548E-002   0.0000000000000000     
  -1.7640552566194536E-002   8.5571571311160111E-002   0.0000000000000000     
  -1.8288869749968028E-002   9.2049044364086924E-002   0.0000000000000000     
  -1.8909138255259462E-002   9.8687274281474946E-002   0.0000000000000000     
  -1.9501358082068845E-002  0.10548626106332422        0.0000000000000000     
  -2.1306649476012629E-002   7.9490482813431906E-002   0.0000000000000000     
  -2.2152980325232389E-002   8.5799556976342034E-002   0.0000000000000000     
  -2.2963702823865728E-002   9.2268814817171141E-002   0.0000000000000000     
  -2.3738816971912647E-002   9.8898256335919310E-002   0.0000000000000000     
  -2.4478322769373149E-002  0.10568788153258647        0.0000000000000000     
  -2.5736256601055541E-002   7.9775466366302866E-002   0.0000000000000000     
  -2.6751770822712170E-002   8.6074391247009552E-002   0.0000000000000000     
  -2.7724712243624189E-002   9.2533094733430257E-002   0.0000000000000000     
  -2.8655080863791607E-002   9.9151576825564941E-002   0.0000000000000000     
  -2.9542876683214411E-002  0.10592983752341362        0.0000000000000000     
  -3.0253008079067705E-002   8.0109805781307344E-002   0.0000000000000000     
  -3.1436924058633881E-002   8.6396074123162706E-002   0.0000000000000000     
  -3.2571898009243413E-002   9.2841884112864176E-002   0.0000000000000000     
  -3.3657929930896328E-002   9.9447235750411825E-002   0.0000000000000000     
  -3.4695019823592618E-002  0.10621212903580560        0.0000000000000000     
  -3.4856903910049142E-002   8.0493501058445410E-002   0.0000000000000000     
  -3.6208440032997516E-002   8.6764605604801467E-002   0.0000000000000000     
  -3.7505260120723423E-002   9.3195182955473008E-002   0.0000000000000000     
  -3.8747364173226828E-002   9.9785233110459975E-002   0.0000000000000000     
  -3.9934752190507766E-002  0.10653475606976243        0.0000000000000000     
  -1.9501358082068845E-002  0.10548626106332422        0.0000000000000000     
  -2.0068143680701710E-002  0.11243194161426791        0.0000000000000000     
  -2.0612109501463610E-002  0.11951025283893915        0.0000000000000000     
  -2.1133255544354527E-002  0.12672119473733801        0.0000000000000000     
  -2.1631581809374474E-002  0.13406476730946443        0.0000000000000000     
  -2.4478322769373149E-002  0.10568788153258647        0.0000000000000000     
  -2.5185940898685491E-002  0.11262449842130413        0.0000000000000000     
  -2.5865392042287900E-002  0.11969491501620366        0.0000000000000000     
  -2.6516676200180403E-002  0.12689913131728506        0.0000000000000000     
  -2.7139793372362983E-002  0.13423714732454833        0.0000000000000000     
  -2.9542876683214411E-002  0.10592983752341362        0.0000000000000000     
  -3.0392471050525640E-002  0.11285515988593296        0.0000000000000000     
  -3.1208235314358353E-002  0.11991482697207963        0.0000000000000000     
  -3.1990169474712539E-002  0.12710883878185367        0.0000000000000000     
  -3.2738273531588195E-002  0.13443719531525494        0.0000000000000000     
  -3.4695019823592618E-002  0.10621212903580560        0.0000000000000000     
  -3.5687734136222185E-002  0.11312392600815439        0.0000000000000000     
  -3.6640639317674958E-002  0.12016998870656712        0.0000000000000000     
  -3.7553735367950938E-002  0.12735031713104372        0.0000000000000000     
  -3.8427022287050139E-002  0.13466491128158428        0.0000000000000000     
  -3.9934752190507766E-002  0.10653475606976243        0.0000000000000000     
  -4.1071730155775102E-002  0.11343079678796843        0.0000000000000000     
  -4.2162604052237720E-002  0.12046040021966607        0.0000000000000000     
  -4.3207373879895615E-002  0.12762356636485542        0.0000000000000000     
  -4.4206039638748779E-002  0.13492029522353632        0.0000000000000000     
  -2.1631581809374474E-002  0.13406476730946443        0.0000000000000000     
  -2.2101996477271641E-002  0.14153273133549227        0.0000000000000000     
  -2.2539407728794238E-002  0.14911684759559538        0.0000000000000000     
  -2.2943815563942246E-002  0.15681711608977375        0.0000000000000000     
  -2.3315219982715681E-002  0.16463353681802734        0.0000000000000000     
  -2.7139793372362983E-002  0.13423714732454833        0.0000000000000000     
  -2.7726040283203940E-002  0.14170112755646147        0.0000000000000000     
  -2.8266713657071566E-002  0.14928323653149239        0.0000000000000000     
  -2.8761813493965855E-002  0.15698347424964113        0.0000000000000000     
  -2.9211339793886813E-002  0.16480184071090770        0.0000000000000000     
  -3.2738273531588195E-002  0.13443719531525494        0.0000000000000000     
  -3.3442448880102726E-002  0.14189176875350978        0.0000000000000000     
  -3.4092596915373530E-002  0.14946443127784440        0.0000000000000000     
  -3.4688717637400571E-002  0.15715518288825875        0.0000000000000000     
  -3.5230811046183870E-002  0.16496402358475279        0.0000000000000000     
  -3.8427022287050139E-002  0.13466491128158428        0.0000000000000000     
  -3.9251222267968025E-002  0.14210465492663735        0.0000000000000000     
  -4.0017057503700111E-002  0.14966043183465139        0.0000000000000000     
  -4.0724527994246383E-002  0.15733224200562654        0.0000000000000000     
  -4.1373633739606848E-002  0.16512008543956269        0.0000000000000000     
  -4.4206039638748779E-002  0.13492029522353632        0.0000000000000000     
  -4.5152360446799822E-002  0.14233978607584399        0.0000000000000000     
  -4.6040095422051328E-002  0.14987123820191336        0.0000000000000000     
  -4.6869244564503296E-002  0.15751465160174449        0.0000000000000000     
  -4.7639807874155740E-002  0.16527002627533732        0.0000000000000000     
   0.0000000000000000        0.0000000000000000        0.0000000000000000     
  -1.7983160852540173E-003   1.2768514015441712E-003   0.0000000000000000     
  -3.6213272832460387E-003   2.9391795334022522E-003   0.0000000000000000     
  -5.4690335939760644E-003   4.9869843955742416E-003   0.0000000000000000     
  -7.3414350174440934E-003   7.4202659880601421E-003   0.0000000000000000     
   0.0000000000000000        0.0000000000000000        0.0000000000000000     
  -2.0694306554902790E-003   1.3549352215059191E-003   0.0000000000000000     
  -4.1640478610302980E-003   3.0939727195883203E-003   0.0000000000000000     
  -6.2838516166200580E-003   5.2171124942472051E-003   0.0000000000000000     
  -8.4288419222595563E-003   7.7243545454825733E-003   0.0000000000000000     
   0.0000000000000000        0.0000000000000000        0.0000000000000000     
  -2.3400950931096861E-003   1.4589611507125342E-003   0.0000000000000000     
  -4.7201761503735890E-003   3.2998144366570437E-003   0.0000000000000000     
  -7.1402431717917077E-003   5.5225598578335297E-003   0.0000000000000000     
  -9.6002961573640432E-003   8.1271974142419889E-003   0.0000000000000000     
   0.0000000000000000        0.0000000000000000        0.0000000000000000     
  -2.6103093981122410E-003   1.5889291891640171E-003   0.0000000000000000     
  -5.2897121512759130E-003   3.5567046846084224E-003   0.0000000000000000     
  -8.0382082594910170E-003   5.9033264863332146E-003   0.0000000000000000     
  -1.0855797722757549E-002   8.6287945943383949E-003   0.0000000000000000     
   0.0000000000000000        0.0000000000000000        0.0000000000000000     
  -2.8800735704979409E-003   1.7448393368603675E-003   0.0000000000000000     
  -5.8726558637372675E-003   3.8646434634424546E-003   0.0000000000000000     
  -8.9777468797179790E-003   6.3594123797462614E-003   0.0000000000000000     
  -1.2195346618440076E-002   9.2291460857717895E-003   0.0000000000000000     
  -7.3414350174440934E-003   7.4202659880601421E-003   0.0000000000000000     
  -9.2308425322843099E-003   1.0186618337802086E-002   0.0000000000000000     
  -1.1129567117130906E-002   1.3233635471742210E-002   0.0000000000000000     
  -1.3037608771983872E-002   1.6561317389880516E-002   0.0000000000000000     
  -1.4954967496843212E-002   2.0169664092216995E-002   0.0000000000000000     
  -8.4288419222595563E-003   7.7243545454825733E-003   0.0000000000000000     
  -1.0590683683066364E-002   1.0558259668857707E-002   0.0000000000000000     
  -1.2761041804158041E-002   1.3661388659935896E-002   0.0000000000000000     
  -1.4939916285534593E-002   1.7033741518717140E-002   0.0000000000000000     
  -1.7127307127196015E-002   2.0675318245201441E-002   0.0000000000000000     
  -9.6002961573640432E-003   8.1271974142419889E-003   0.0000000000000000     
  -1.2076776054557918E-002   1.1046329053879544E-002   0.0000000000000000     
  -1.4546123810840654E-002   1.4212556724743308E-002   0.0000000000000000     
  -1.7008339426212254E-002   1.7625880426833281E-002   0.0000000000000000     
  -1.9463422900672721E-002   2.1286300160149468E-002   0.0000000000000000     
  -1.0855797722757549E-002   8.6287945943383949E-003   0.0000000000000000     
  -1.3689119646758972E-002   1.1650826492867594E-002   0.0000000000000000     
  -1.6484813137178742E-002   1.4887139666164444E-002   0.0000000000000000     
  -1.9242878194016867E-002   1.8337734114228944E-002   0.0000000000000000     
  -2.1963314817273330E-002   2.2002609837061097E-002   0.0000000000000000     
  -1.2195346618440076E-002   9.2291460857717895E-003   0.0000000000000000     
  -1.5427714459669528E-002   1.2371751985821860E-002   0.0000000000000000     
  -1.8577109783172310E-002   1.5685137484199304E-002   0.0000000000000000     
  -2.1643532588948411E-002   1.9169302580904123E-002   0.0000000000000000     
  -2.4626982876997841E-002   2.2824247275936314E-002   0.0000000000000000     
  -1.4954967496843212E-002   2.0169664092216995E-002   0.0000000000000000     
  -1.6856377393568815E-002   2.4030059967225941E-002   0.0000000000000000     
  -1.8716572564020564E-002   2.8113889403381626E-002   0.0000000000000000     
  -2.0535553008198461E-002   3.2421152400684050E-002   0.0000000000000000     
  -2.2313318726102500E-002   3.6951848959133213E-002   0.0000000000000000     
  -1.7127307127196015E-002   2.0675318245201441E-002   0.0000000000000000     
  -1.9292051279484679E-002   2.4558479396074393E-002   0.0000000000000000     
  -2.1402985692742949E-002   2.8655585528021613E-002   0.0000000000000000     
  -2.3460110366970821E-002   3.2966636641043101E-002   0.0000000000000000     
  -2.5463425302168306E-002   3.7491632735138850E-002   0.0000000000000000     
  -1.9463422900672721E-002   2.1286300160149468E-002   0.0000000000000000     
  -2.1883165922709742E-002   2.5175067721878344E-002   0.0000000000000000     
  -2.4239360180811013E-002   2.9273434909206385E-002   0.0000000000000000     
  -2.6532005674976537E-002   3.3581401722133579E-002   0.0000000000000000     
  -2.8761102405206310E-002   3.8098968160659948E-002   0.0000000000000000     
  -2.1963314817273330E-002   2.2002609837061097E-002   0.0000000000000000     
  -2.4629721323244012E-002   2.5879824944637791E-002   0.0000000000000000     
  -2.7225696028224763E-002   2.9967437546935923E-002   0.0000000000000000     
  -2.9751238932215606E-002   3.4265447643955498E-002   0.0000000000000000     
  -3.2206350035216512E-002   3.8773855235696507E-002   0.0000000000000000     
  -2.4626982876997841E-002   2.2824247275936314E-002   0.0000000000000000     
  -2.7531717481087480E-002   2.6672751064352733E-002   0.0000000000000000     
  -3.0361993234984203E-002   3.0737593441210243E-002   0.0000000000000000     
  -3.3117810138688017E-002   3.5018774406508843E-002   0.0000000000000000     
  -3.5799168192198916E-002   3.9516293960248527E-002   0.0000000000000000     
  -2.2313318726102500E-002   3.6951848959133213E-002   0.0000000000000000     
  -2.4046816042564138E-002   4.1697525916180138E-002   0.0000000000000000     
  -2.5732991282414817E-002   4.6649730109275832E-002   0.0000000000000000     
  -2.7371844445654551E-002   5.1808461538420288E-002   0.0000000000000000     
  -2.8963375532283321E-002   5.7173720203613512E-002   0.0000000000000000     
  -2.5463425302168306E-002   3.7491632735138850E-002   0.0000000000000000     
  -2.7413439170201778E-002   4.2226589039230877E-002   0.0000000000000000     
  -2.9310660642937626E-002   4.7167520782241186E-002   0.0000000000000000     
  -3.1155089720375843E-002   5.2314427964169817E-002   0.0000000000000000     
  -3.2946726402516439E-002   5.7667310585016722E-002   0.0000000000000000     
  -2.8761102405206310E-002   3.8098968160659948E-002   0.0000000000000000     
  -3.0928780385485709E-002   4.2823468741510100E-002   0.0000000000000000     
  -3.3037169629800113E-002   4.7752237981408721E-002   0.0000000000000000     
  -3.5086270138149515E-002   5.2885275880355749E-002   0.0000000000000000     
  -3.7076081910533944E-002   5.8222582438351225E-002   0.0000000000000000     
  -3.2206350035216512E-002   3.8773855235696507E-002   0.0000000000000000     
  -3.4592839688415929E-002   4.3488165023017840E-002   0.0000000000000000     
  -3.6912518243002290E-002   4.8403881706778361E-002   0.0000000000000000     
  -3.9165385698975590E-002   5.3521005286978098E-002   0.0000000000000000     
  -4.1351442056335834E-002   5.8839535763617029E-002   0.0000000000000000     
  -3.5799168192198916E-002   3.9516293960248527E-002   0.0000000000000000     
  -3.8405617078992448E-002   4.4220677883754056E-002   0.0000000000000000     
  -4.0936706482544154E-002   4.9122451958350161E-002   0.0000000000000000     
  -4.3392436402854041E-002   5.4221616184036855E-002   0.0000000000000000     
  -4.5772806839922103E-002   5.9518170560814133E-002   0.0000000000000000     
  -2.8963375532283321E-002   5.7173720203613512E-002   0.0000000000000000     
  -3.0507623592136161E-002   6.2732598219453720E-002   0.0000000000000000     
  -3.2004627675048074E-002   6.8472187700539103E-002   0.0000000000000000     
  -3.3454387781019071E-002   7.4392488646869676E-002   0.0000000000000000     
  -3.4856903910049142E-002   8.0493501058445410E-002   0.0000000000000000     
  -3.2946726402516439E-002   5.7667310585016722E-002   0.0000000000000000     
  -3.4684944813978734E-002   6.3212996185402215E-002   0.0000000000000000     
  -3.6369119079382055E-002   6.8938312305946603E-002   0.0000000000000000     
  -3.7999249198726402E-002   7.4843258946649893E-002   0.0000000000000000     
  -3.9575335172011783E-002   8.0927836107512030E-002   0.0000000000000000     
  -3.7076081910533944E-002   5.8222582438351225E-002   0.0000000000000000     
  -3.9006183153362489E-002   6.3751632628987934E-002   0.0000000000000000     
  -4.0876152073044278E-002   6.9459901425858686E-002   0.0000000000000000     
  -4.2685988669579303E-002   7.5347388828963441E-002   0.0000000000000000     
  -4.4435692942967592E-002   8.1414094838302239E-002   0.0000000000000000     
  -4.1351442056335834E-002   5.8839535763617029E-002   0.0000000000000000     
  -4.3471338610287402E-002   6.4348507550210876E-002   0.0000000000000000     
  -4.5525726656034722E-002   7.0036955060275310E-002   0.0000000000000000     
  -4.7514606193577752E-002   7.5904878293810402E-002   0.0000000000000000     
  -4.9437977222916533E-002   8.1952277250816052E-002   0.0000000000000000     
  -4.5772806839922103E-002   5.9518170560814133E-002   0.0000000000000000     
  -4.8080411184753508E-002   6.5003620949071014E-002   0.0000000000000000     
  -5.0317842828353394E-002   7.0669473209196532E-002   0.0000000000000000     
  -5.2485101770721777E-002   7.6515727341190679E-002   0.0000000000000000     
  -5.4582188011858643E-002   8.2542383345053455E-002   0.0000000000000000     
  -3.4856903910049142E-002   8.0493501058445410E-002   0.0000000000000000     
  -3.6208440032997516E-002   8.6764605604801467E-002   0.0000000000000000     
  -3.7505260120723423E-002   9.3195182955473008E-002   0.0000000000000000     
  -3.8747364173226828E-002   9.9785233110459975E-002   0.0000000000000000     
  -3.9934752190507766E-002  0.10653475606976243        0.0000000000000000     
  -3.9575335172011783E-002   8.0927836107512030E-002   0.0000000000000000     
  -4.1094195558487291E-002   8.7181952168826765E-002   0.0000000000000000     
  -4.2552648917402021E-002   9.3595515510887711E-002   0.0000000000000000     
  -4.3950695248755965E-002  0.10016852613369490        0.0000000000000000     
  -4.5288334552549145E-002  0.10690098403724831        0.0000000000000000     
  -4.4435692942967592E-002   8.1414094838302239E-002   0.0000000000000000     
  -4.6122067447787421E-002   8.7650080292139443E-002   0.0000000000000000     
  -4.7741914738617094E-002   9.4045406028739342E-002   0.0000000000000000     
  -4.9295234815456633E-002  0.10060007204810201        0.0000000000000000     
  -5.0782027678306009E-002  0.10731407835022737        0.0000000000000000     
  -4.9437977222916533E-002   8.1952277250816052E-002   0.0000000000000000     
  -5.1292055700897884E-002   8.8168989974739501E-002   0.0000000000000000     
  -5.3073057584368637E-002   9.4544854509027942E-002   0.0000000000000000     
  -5.4780982873328790E-002  0.10107987085368131        0.0000000000000000     
  -5.6415831567778359E-002  0.10777403900869964        0.0000000000000000     
  -5.4582188011858643E-002   8.2542383345053455E-002   0.0000000000000000     
  -5.6604160317818696E-002   8.8738681216626994E-002   0.0000000000000000     
  -5.8546077454656641E-002   9.5093860951753456E-002   0.0000000000000000     
  -6.0407939422372478E-002  0.10160792255043284        0.0000000000000000     
  -6.2189746220966201E-002  0.10828086601266515        0.0000000000000000     
  -3.9934752190507766E-002  0.10653475606976243        0.0000000000000000     
  -4.1071730155775102E-002  0.11343079678796843        0.0000000000000000     
  -4.2162604052237720E-002  0.12046040021966607        0.0000000000000000     
  -4.3207373879895615E-002  0.12762356636485542        0.0000000000000000     
  -4.4206039638748779E-002  0.13492029522353632        0.0000000000000000     
  -4.5288334552549145E-002  0.10690098403724831        0.0000000000000000     
  -4.6569736224875286E-002  0.11377949076565748        0.0000000000000000     
  -4.7799069661828147E-002  0.12079064786303198        0.0000000000000000     
  -4.8976334863407710E-002  0.12793445532937181        0.0000000000000000     
  -5.0101531829613993E-002  0.13521091316467687        0.0000000000000000     
  -5.0782027678306009E-002  0.10731407835022737        0.0000000000000000     
  -5.2207029459213600E-002  0.11417372648150395        0.0000000000000000     
  -5.3574976290227720E-002  0.12116531798832021        0.0000000000000000     
  -5.4885868171348398E-002  0.12828885287067612        0.0000000000000000     
  -5.6139705102575627E-002  0.13554433112857175        0.0000000000000000     
  -5.6415831567778359E-002  0.10777403900869964        0.0000000000000000     
  -5.7983609858790024E-002  0.11461350393550786        0.0000000000000000     
  -5.9490323937436466E-002  0.12158441059553080        0.0000000000000000     
  -6.0935973803717680E-002  0.12868675898876850        0.0000000000000000     
  -6.2320559457633679E-002  0.13592054911522089        0.0000000000000000     
  -6.2189746220966201E-002  0.10828086601266515        0.0000000000000000     
  -6.3899477423604578E-002  0.11509882312766917        0.0000000000000000     
  -6.5545112603454372E-002  0.12204792568466370        0.0000000000000000     
  -6.7126651760515563E-002  0.12912817368364876        0.0000000000000000     
  -6.8644094894788177E-002  0.13633956712462433        0.0000000000000000     
  -4.4206039638748779E-002  0.13492029522353632        0.0000000000000000     
  -4.5152360446799822E-002  0.14233978607584399        0.0000000000000000     
  -4.6040095422051328E-002  0.14987123820191336        0.0000000000000000     
  -4.6869244564503296E-002  0.15751465160174449        0.0000000000000000     
  -4.7639807874155740E-002  0.16527002627533732        0.0000000000000000     
  -5.0101531829613993E-002  0.13521091316467687        0.0000000000000000     
  -5.1171230375953551E-002  0.14260780920363991        0.0000000000000000     
  -5.2182000317932957E-002  0.15011293128095349        0.0000000000000000     
  -5.3133841655552211E-002  0.15772627939661760        0.0000000000000000     
  -5.4026754388811320E-002  0.16544785355063221        0.0000000000000000     
  -5.6139705102575627E-002  0.13554433112857175        0.0000000000000000     
  -5.7333199014784668E-002  0.14291937131253526        0.0000000000000000     
  -5.8463061838850798E-002  0.15040159197309494        0.0000000000000000     
  -5.9529293574774017E-002  0.15799099311025075        0.0000000000000000     
  -6.0531894222554304E-002  0.16568757472400272        0.0000000000000000     
  -6.2320559457633679E-002  0.13592054911522089        0.0000000000000000     
  -6.3638266363293172E-002  0.14327447240253000        0.0000000000000000     
  -6.4883279984804837E-002  0.15073722027833769        0.0000000000000000     
  -6.6055600322168687E-002  0.15830879274264403        0.0000000000000000     
  -6.7155227375384721E-002  0.16598918979544894        0.0000000000000000     
  -6.8644094894788177E-002  0.13633956712462433        0.0000000000000000     
  -7.0086432421479036E-002  0.14367311247362410        0.0000000000000000     
  -7.1442654755795074E-002  0.15111981619668177        0.0000000000000000     
  -7.2712761897736233E-002  0.15867967829379731        0.0000000000000000     
  -7.3896753847302543E-002  0.16635269876497077        0.0000000000000000     
   0.0000000000000000        0.0000000000000000        0.0000000000000000     
  -2.8800735704979409E-003   1.7448393368603675E-003   0.0000000000000000     
  -5.8726558637372675E-003   3.8646434634424546E-003   0.0000000000000000     
  -8.9777468797179790E-003   6.3594123797462614E-003   0.0000000000000000     
  -1.2195346618440076E-002   9.2291460857717895E-003   0.0000000000000000     
   0.0000000000000000        0.0000000000000000        0.0000000000000000     
  -3.2832183435611150E-003   1.9993514918302548E-003   0.0000000000000000     
  -6.6769728241577436E-003   4.3309432704532504E-003   0.0000000000000000     
  -1.0181263441789887E-002   6.9947753358689862E-003   0.0000000000000000     
  -1.3796090196457543E-002   9.9908476880774619E-003   0.0000000000000000     
   0.0000000000000000        0.0000000000000000        0.0000000000000000     
  -3.9535744505960878E-003   2.4251255521023493E-003   0.0000000000000000     
  -7.9106285689374296E-003   5.0629166029349162E-003   0.0000000000000000     
  -1.1871162355024023E-002   7.9133731524977033E-003   0.0000000000000000     
  -1.5835175808855871E-002   1.0976495200790705E-002   0.0000000000000000     
   0.0000000000000000        0.0000000000000000        0.0000000000000000     
  -4.8911418916028609E-003   3.0221615176766509E-003   0.0000000000000000     
  -9.5736230980763247E-003   6.0605634608874547E-003   0.0000000000000000     
  -1.4047443619420390E-002   9.1152058296324109E-003   0.0000000000000000     
  -1.8312603455635054E-002   1.2186088623911521E-002   0.0000000000000000     
   0.0000000000000000        0.0000000000000000        0.0000000000000000     
  -6.0959206665814345E-003   3.7904593885531592E-003   0.0000000000000000     
  -1.1665956411574431E-002   7.3238838443108641E-003   0.0000000000000000     
  -1.6710107234978983E-002   1.0600273367273115E-002   0.0000000000000000     
  -2.1228373136795098E-002   1.3619627957439911E-002   0.0000000000000000     
  -1.2195346618440076E-002   9.2291460857717895E-003   0.0000000000000000     
  -1.5427714459669528E-002   1.2371751985821860E-002   0.0000000000000000     
  -1.8577109783172310E-002   1.5685137484199304E-002   0.0000000000000000     
  -2.1643532588948411E-002   1.9169302580904123E-002   0.0000000000000000     
  -2.4626982876997841E-002   2.2824247275936314E-002   0.0000000000000000     
  -1.3796090196457543E-002   9.9908476880774619E-003   0.0000000000000000     
  -1.7404369140655598E-002   1.3221158781273780E-002   0.0000000000000000     
  -2.0889016326878923E-002   1.6587707069653051E-002   0.0000000000000000     
  -2.4250031755127525E-002   2.0090492553215270E-002   0.0000000000000000     
  -2.7487415425401403E-002   2.3729515231960437E-002   0.0000000000000000     
  -1.5835175808855871E-002   1.0976495200790705E-002   0.0000000000000000     
  -1.9730892337083184E-002   1.4211100127754795E-002   0.0000000000000000     
  -2.3486535346356169E-002   1.7576005313330839E-002   0.0000000000000000     
  -2.7102104836674832E-002   2.1071210757518836E-002   0.0000000000000000     
  -3.0577600808039163E-002   2.4696716460318787E-002   0.0000000000000000     
  -1.8312603455635054E-002   1.2186088623911521E-002   0.0000000000000000     
  -2.2407284048952286E-002   1.5341576025264904E-002   0.0000000000000000     
  -2.6369666841604043E-002   1.8650032215232672E-002   0.0000000000000000     
  -3.0199751833590322E-002   2.2111457193814823E-002   0.0000000000000000     
  -3.3897539024911119E-002   2.5725850961011359E-002   0.0000000000000000     
  -2.1228373136795098E-002   1.3619627957439911E-002   0.0000000000000000     
  -2.5433544276262911E-002   1.6612586473804102E-002   0.0000000000000000     
  -2.9538410812622540E-002   1.9809787775358544E-002   0.0000000000000000     
  -3.3542972745873999E-002   2.3211231862103228E-002   0.0000000000000000     
  -3.7447230076017281E-002   2.6816918734038159E-002   0.0000000000000000     
  -2.4626982876997841E-002   2.2824247275936314E-002   0.0000000000000000     
  -2.7531717481087480E-002   2.6672751064352733E-002   0.0000000000000000     
  -3.0361993234984203E-002   3.0737593441210243E-002   0.0000000000000000     
  -3.3117810138688017E-002   3.5018774406508843E-002   0.0000000000000000     
  -3.5799168192198916E-002   3.9516293960248527E-002   0.0000000000000000     
  -2.7487415425401403E-002   2.3729515231960437E-002   0.0000000000000000     
  -3.0624254934988413E-002   2.7547343322307575E-002   0.0000000000000000     
  -3.3683637881176419E-002   3.1586545040675713E-002   0.0000000000000000     
  -3.6665564263965417E-002   3.5847120387064856E-002   0.0000000000000000     
  -3.9570034083355403E-002   4.0329069361474984E-002   0.0000000000000000     
  -3.0577600808039163E-002   2.4696716460318787E-002   0.0000000000000000     
  -3.3942434223695091E-002   2.8497098959786735E-002   0.0000000000000000     
  -3.7226016046888522E-002   3.2516934793978734E-002   0.0000000000000000     
  -4.0428346277619431E-002   3.6756223962894762E-002   0.0000000000000000     
  -4.3549424915887848E-002   4.1214966466534830E-002   0.0000000000000000     
  -3.3897539024911119E-002   2.5725850961011359E-002   0.0000000000000000     
  -3.7486255347207495E-002   2.9522017976790205E-002   0.0000000000000000     
  -4.0989127732120469E-002   3.3528762701119270E-002   0.0000000000000000     
  -4.4406156179650061E-002   3.7746085133998561E-002   0.0000000000000000     
  -4.7737340689796258E-002   4.2173985275428073E-002   0.0000000000000000     
  -3.7447230076017281E-002   2.6816918734038159E-002   0.0000000000000000     
  -4.1255718305525636E-002   3.0622100373317987E-002   0.0000000000000000     
  -4.4972972936872309E-002   3.4622028762097357E-002   0.0000000000000000     
  -4.8598993970057312E-002   3.8816703900376268E-002   0.0000000000000000     
  -5.2133781405080640E-002   4.3206125788154720E-002   0.0000000000000000     
  -3.5799168192198916E-002   3.9516293960248527E-002   0.0000000000000000     
  -3.8405617078992448E-002   4.4220677883754056E-002   0.0000000000000000     
  -4.0936706482544154E-002   4.9122451958350161E-002   0.0000000000000000     
  -4.3392436402854041E-002   5.4221616184036855E-002   0.0000000000000000     
  -4.5772806839922103E-002   5.9518170560814133E-002   0.0000000000000000     
  -3.9570034083355403E-002   4.0329069361474984E-002   0.0000000000000000     
  -4.2394001642956869E-002   4.5018893168397148E-002   0.0000000000000000     
  -4.5134421246380327E-002   4.9903093012322375E-002   0.0000000000000000     
  -4.7791292893625784E-002   5.4981668893250658E-002   0.0000000000000000     
  -5.0364616584693211E-002   6.0254620811182005E-002   0.0000000000000000     
  -4.3549424915887848E-002   4.1214966466534830E-002   0.0000000000000000     
  -4.6584882466050838E-002   4.5880696721625480E-002   0.0000000000000000     
  -4.9530349432465454E-002   5.0740949144893230E-002   0.0000000000000000     
  -5.2385825815131702E-002   5.5795723736338135E-002   0.0000000000000000     
  -5.5151311614049583E-002   6.1045020495960105E-002   0.0000000000000000     
  -4.7737340689796258E-002   4.2173985275428073E-002   0.0000000000000000     
  -5.0978259548274320E-002   4.6806088543439074E-002   0.0000000000000000     
  -5.4124491040799499E-002   5.1636020356062795E-002   0.0000000000000000     
  -5.7176035167371804E-002   5.6663780713299257E-002   0.0000000000000000     
  -6.0132891927991226E-002   6.1889369615148446E-002   0.0000000000000000     
  -5.2133781405080640E-002   4.3206125788154720E-002   0.0000000000000000     
  -5.5574132889627349E-002   4.7795068633837902E-002   0.0000000000000000     
  -5.8916846071382492E-002   5.2588306645831008E-002   0.0000000000000000     
  -6.2161920950346096E-002   5.7585839824134052E-002   0.0000000000000000     
  -6.5309357526518133E-002   6.2787668168747021E-002   0.0000000000000000     
  -4.5772806839922103E-002   5.9518170560814133E-002   0.0000000000000000     
  -4.8080411184753508E-002   6.5003620949071014E-002   0.0000000000000000     
  -5.0317842828353394E-002   7.0669473209196532E-002   0.0000000000000000     
  -5.2485101770721777E-002   7.6515727341190679E-002   0.0000000000000000     
  -5.4582188011858643E-002   8.2542383345053455E-002   0.0000000000000000     
  -5.0364616584693211E-002   6.0254620811182005E-002   0.0000000000000000     
  -5.2858876035213505E-002   6.5715305641661045E-002   0.0000000000000000     
  -5.5278554960817523E-002   7.1357080260232422E-002   0.0000000000000000     
  -5.7623653361505295E-002   7.7179944666896136E-002   0.0000000000000000     
  -5.9894171237276785E-002   8.3183898861652200E-002   0.0000000000000000     
  -5.5151311614049583E-002   6.1045020495960105E-002   0.0000000000000000     
  -5.7832208320120135E-002   6.6481894444073625E-002   0.0000000000000000     
  -6.0433917424244359E-002   7.2099400600993138E-002   0.0000000000000000     
  -6.2956438926422262E-002   7.7897538966718624E-002   0.0000000000000000     
  -6.5399772826653865E-002   8.3876309541250069E-002   0.0000000000000000     
  -6.0132891927991226E-002   6.1889369615148446E-002   0.0000000000000000     
  -6.3000408039473377E-002   6.7303387356308780E-002   0.0000000000000000     
  -6.5783930218633851E-002   7.2896434231478666E-002   0.0000000000000000     
  -6.8483458465472713E-002   7.8668510240658102E-002   0.0000000000000000     
  -7.1098992779989878E-002   8.4619615383847088E-002   0.0000000000000000     
  -6.5309357526518133E-002   6.2787668168747021E-002   0.0000000000000000     
  -6.8363475193273238E-002   6.8179784378366470E-002   0.0000000000000000     
  -7.1328593343986071E-002   7.3748181151689005E-002   0.0000000000000000     
  -7.4204711978656593E-002   7.9492858488714582E-002   0.0000000000000000     
  -7.6991831097284830E-002   8.5413816389443231E-002   0.0000000000000000     
  -5.4582188011858643E-002   8.2542383345053455E-002   0.0000000000000000     
  -5.6604160317818696E-002   8.8738681216626994E-002   0.0000000000000000     
  -5.8546077454656641E-002   9.5093860951753456E-002   0.0000000000000000     
  -6.0407939422372478E-002  0.10160792255043284        0.0000000000000000     
  -6.2189746220966201E-002  0.10828086601266515        0.0000000000000000     
  -5.9894171237276785E-002   8.3183898861652200E-002   0.0000000000000000     
  -6.2083918952958714E-002   8.9357791474783871E-002   0.0000000000000000     
  -6.4186706873377769E-002   9.5690471136574445E-002   0.0000000000000000     
  -6.6202534998533943E-002  0.10218193784702397        0.0000000000000000     
  -6.8131403328427265E-002  0.10883219160613239        0.0000000000000000     
  -6.5399772826653865E-002   8.3876309541250069E-002   0.0000000000000000     
  -6.7756869260726785E-002   9.0024958206192149E-002   0.0000000000000000     
  -7.0020678364428643E-002   9.6332730843149472E-002   0.0000000000000000     
  -7.2191200137759495E-002  0.10279962745212208        0.0000000000000000     
  -7.4268434580719259E-002  0.10942564803310992        0.0000000000000000     
  -7.1098992779989878E-002   8.4619615383847088E-002   0.0000000000000000     
  -7.3623011241122902E-002   9.0740181410851842E-002   0.0000000000000000     
  -7.6047991927809311E-002   9.7020640071478509E-002   0.0000000000000000     
  -7.8373934840049064E-002  0.10346099136572717        0.0000000000000000     
  -8.0600839977842176E-002  0.11006123529359778        0.0000000000000000     
  -7.6991831097284830E-002   8.5413816389443231E-002   0.0000000000000000     
  -7.9682344894147106E-002   9.1503461088762908E-002   0.0000000000000000     
  -8.2268647563519731E-002   9.7754198821561583E-002   0.0000000000000000     
  -8.4750739105402720E-002  0.10416602958783923        0.0000000000000000     
  -8.7128619519796058E-002  0.11073895338759591        0.0000000000000000     
  -6.2189746220966201E-002  0.10828086601266515        0.0000000000000000     
  -6.3899477423604578E-002  0.11509882312766917        0.0000000000000000     
  -6.5545112603454372E-002  0.12204792568466370        0.0000000000000000     
  -6.7126651760515563E-002  0.12912817368364876        0.0000000000000000     
  -6.8644094894788177E-002  0.13633956712462433        0.0000000000000000     
  -6.8131403328427265E-002  0.10883219160613239        0.0000000000000000     
  -6.9982978435302573E-002  0.11562736013614376        0.0000000000000000     
  -7.1766926891404778E-002  0.12255357115930215        0.0000000000000000     
  -7.3483248696733838E-002  0.12961082467560753        0.0000000000000000     
  -7.5131943851289781E-002  0.13679912068505989        0.0000000000000000     
  -7.4268434580719259E-002  0.10942564803310992        0.0000000000000000     
  -7.6262459175529318E-002  0.11619679103908750        0.0000000000000000     
  -7.8183351404411003E-002  0.12309905492302928        0.0000000000000000     
  -8.0031111267364285E-002  0.13013243968493526        0.0000000000000000     
  -8.1805738764389208E-002  0.13729694532480535        0.0000000000000000     
  -8.0600839977842176E-002  0.11006123529359778        0.0000000000000000     
  -8.2737919644284813E-002  0.11680711583650039        0.0000000000000000     
  -8.4794386142473060E-002  0.12368437697584511        0.0000000000000000     
  -8.6770239472406946E-002  0.13069301871163191        0.0000000000000000     
  -8.8665479634086469E-002  0.13783304104386077        0.0000000000000000     
  -8.7128619519796058E-002  0.11073895338759591        0.0000000000000000     
  -8.9409359841569044E-002  0.11745833452838242        0.0000000000000000     
  -9.1600031105590965E-002  0.12430953731774963        0.0000000000000000     
  -9.3700633311861806E-002  0.13129256175569753        0.0000000000000000     
  -9.5711166460381567E-002  0.13840740784222613        0.0000000000000000     
  -6.8644094894788177E-002  0.13633956712462433        0.0000000000000000     
  -7.0086432421479036E-002  0.14367311247362410        0.0000000000000000     
  -7.1442654755795074E-002  0.15111981619668177        0.0000000000000000     
  -7.2712761897736233E-002  0.15867967829379731        0.0000000000000000     
  -7.3896753847302543E-002  0.16635269876497077        0.0000000000000000     
  -7.5131943851289781E-002  0.13679912068505989        0.0000000000000000     
  -7.6697958184818130E-002  0.14411124511068607        0.0000000000000000     
  -7.8166237527064461E-002  0.15153998387551296        0.0000000000000000     
  -7.9536781878028776E-002  0.15908533697954053        0.0000000000000000     
  -8.0809591237711031E-002  0.16674730442276875        0.0000000000000000     
  -8.1805738764389208E-002  0.13729694532480535        0.0000000000000000     
  -8.3493104648786259E-002  0.14458482389858443        0.0000000000000000     
  -8.5079079673855973E-002  0.15198832746221713        0.0000000000000000     
  -8.6563663839598348E-002  0.15950745601570340        0.0000000000000000     
  -8.7946857146013385E-002  0.16714220955904341        0.0000000000000000     
  -8.8665479634086469E-002  0.13783304104386077        0.0000000000000000     
  -9.0471871813383425E-002  0.14509384883731913        0.0000000000000000     
  -9.2181181196169595E-002  0.15246484695679419        0.0000000000000000     
  -9.3793407782444965E-002  0.15994603540228602        0.0000000000000000     
  -9.5308551572209604E-002  0.16753741417379472        0.0000000000000000     
  -9.5711166460381567E-002  0.13840740784222613        0.0000000000000000     
  -9.7634259678609628E-002  0.14563831992689011        0.0000000000000000     
  -9.9472542094005328E-002  0.15296954235924420        0.0000000000000000     
 -0.10122601370656868       0.16040107513928839        0.0000000000000000     
 -0.10289467451629969       0.16793291826702270        0.0000000000000000     
 </DataArray>
 <DataArray  type="Float64" Name="stress" NumberOfComponents="3" format="ascii">
   13416549298.045427        4024964789.4136281        2893991383.6388092     
   11766481598.554436        1890430944.4636872        1715833371.0623760     
   10313698741.351913        413513240.47530651        810748339.85751855     
   9058200726.4378605       -405788322.55151606        178736290.02423739     
   7999987553.8122749       -567473744.61677647       -180202778.43746772     
   10539890039.555357        3161967011.8666072        2225746605.7677660     
   9667563212.2730446        1589569015.5251808        1446713721.9430211     
   8943880792.1550465        512652376.39812756        863146408.76679623     
   8368842779.2013569       -68782905.514554501        475044666.23909026     
   7942449173.4119825       -154736830.21286154        282408494.35990524     
   8337907272.3007956        2501372181.6902385        1712342179.2624459     
   8021585858.0184326        1424589396.1947074        1275687249.8778739     
   7805268415.7762222        681153184.16636109        956890480.41876554     
   7688954945.5741701        271063545.60520124        755951870.88512135     
   7672645447.4122734        194320480.51122808        672871421.27694035     
   6810600996.2817459        2043180298.8845236        1353778104.1228490     
   6828549535.7905951        1395492086.4722669        1202753954.8669348     
   6897861612.2154455        919015663.78000951        1091980554.8134279     
   7018537225.5562935        613751030.80775070        1021457903.9623287     
   7190576375.8131418        479698187.55549049        991186002.31363702     
   5957971211.4982042        1787391363.4494612        1150054380.3489757     
   6088454245.5895376        1502277086.3578601        1227913836.9102039     
   6221660381.4727135        1226239815.2390711        1268416631.9507830     
   6357589619.1477327        959279550.09309447        1271562765.4707139     
   6496241958.6145973        701396290.91992974        1237352237.4699953     
   7999987553.8122749       -567473744.61677647       -180202778.43746772     
   7917636838.0148764       -200097680.55773020       -78316101.047899127     
   7793805290.3086901        29008943.805366993       -9023700.5993597936     
   7628492910.6937199        119846128.47251177        27674422.908154670     
   7421699699.1699648        72413873.443701744        31778269.474639867     
   7942449173.4119825       -154736830.21286154        282408494.35990524     
   7739745781.0529060        16397630.035627842        281113698.07878393     
   7513660390.9258118        109592097.72404957        265120720.72445485     
   7264193003.0306950        124846572.85239840        234429562.29691708     
   6991343617.3675594        62161055.420685768        189040222.79617107     
   7672645447.4122734        194320480.51122808        672871421.27694035     
   7400721080.9710093        184552847.69300890        589510457.82268691     
   7123513550.9024887        157174669.45060253        509347409.16304600     
   6841022857.2067099        112185945.78400564        432382275.29801744     
   6553248999.8836756        49586676.693223000        358615056.22759885     
   7190576375.8131418        479698187.55549049        991186002.31363702     
   6900562737.7691746        304367972.41440725        846874178.18381250     
   6623364770.2387123        171756658.98501754        723656364.71641803     
   6358982473.2217607        81864247.267321348        621532561.91145527     
   6107415846.7183142        34690737.261317492        540502769.76892495     
   6496241958.6145973        701396290.91992974        1237352237.4699953     
   6239270751.4474068        375843004.19982696        1053204859.1621565     
   6013214048.9344902        153338066.32729721        908047587.38456976     
   5818071851.0758476        33881477.302346706        801880422.13723123     
   5653844157.8714781        17473237.124971390        734703363.42014277     
   7421699699.1699648        72413873.443701744        31778269.474639867     
   7219285015.1168289       -18196767.253344059        14871690.099023713     
   7029015815.3398867       -68322460.363076210        2301479.4098256854     
   6850892099.8391466       -77963205.885472775       -5932362.5929505359     
   6684913868.6145964       -47119003.820559025       -9829835.9093076717     
   6991343617.3675594        62161055.420685768        189040222.79617107     
   6808799109.0604382        2882046.6817626953        180730740.86547130     
   6634020144.9956141       -30511814.582832336        176139264.21649030     
   6467006725.1730900       -38020528.373095036        175265792.84921867     
   6307758849.5928679       -19644094.689019203        178110326.76366562     
   6553248999.8836756        49586676.693223000        358615056.22759885     
   6388807914.7376976        21109274.136963367        353792741.70227277     
   6227752433.8001165        3917218.9420409203        352070069.05395639     
   6070082557.0709391       -1989488.8915410042        353447038.28264773     
   5915798284.5501661        3389150.6362230778        357923649.38834846     
   6107415846.7183142        34690737.261317492        540502769.76892495     
   5959311432.1486025        36484915.112258673        534057692.60942227     
   5810212681.7533941        34964640.211548090        530093893.92222488     
   5660119595.5326920        30129912.559186935        528611373.70733207     
   5509032173.4864922        21980732.155178070        529610131.96474314     
   5653844157.8714781        17473237.124971390        734703363.42014277     
   5520309661.2931576        49008969.607647896        721525593.58692098     
   5381400888.8554497        62630449.225687504        710210738.82129860     
   5237117840.5583458        58337675.979082346        700758799.12327230     
   5087460516.4018517        36130649.867839813        693169774.49284685     
   6684913868.6145964       -47119003.820559025       -9829835.9093076717     
   6509317106.0236311       -8322292.7384300232       -4051299.9897439447     
   6328720838.3391914        13809401.365474463        3185975.2439783025     
   6143125065.5612850        19276078.491136312        11881989.791852344     
   5952529787.6899090        8077738.6385824680        22036743.653874014     
   6307758849.5928679       -19644094.689019203        178110326.76366562     
   6132234191.3507662        1057985.5229847431        174690047.68885520     
   5953696965.5651665        11718173.923310995        174042178.23059288     
   5772147172.2360497        12336470.511934757        176166718.38887641     
   5587584811.3634367        2912875.2888886929        181063668.16369906     
   5915798284.5501661        3389150.6362230778        357923649.38834846     
   5744099074.3780661        7122603.0944528580        347622649.12745148     
   5571374234.2124224        7437288.9075396061        341407728.78549320     
   5397623764.0532322        4333208.0754690170        339278888.36247474     
   5222847663.9004946       -2189639.4017493725        341236127.85839617     
   5509032173.4864922        21980732.155178070        529610131.96474314     
   5344911755.1055183        9871559.9759683609        514746504.32604283     
   5181752644.2809601        966746.31814599037        505282626.90867794     
   5019554841.0128174       -4733708.8182857037        501218499.71264887     
   4858318345.3010941       -7229805.4333233833        502554122.73795152     
   5087460516.4018517        36130649.867839813        693169774.49284685     
   4934672233.5331268        9304856.1675245762        676061613.28463531     
   4784832195.7707806       -7693453.8448576927        665666872.60015488     
   4637940403.1148138       -14864280.169315338        661985552.43939853     
   4493996855.5652227       -12207622.805840254        665017652.80237353     
   5952529787.6899090        8077738.6385824680        22036743.653874014     
   5777648239.4974976       -2757579.9275896549        14333285.194689367     
   5604897340.8267059       -6490733.4217071533        10520001.931680430     
   5434277091.6775284       -3121721.8437728882        10596893.864851691     
   5265787492.0499649        7349454.8062143326        14563960.994206348     
   5587584811.3634367        2912875.2888886929        181063668.16369906     
   5424192172.6637249       -2628422.2321307659        175401478.49958250     
   5262184440.6614628       -3553364.0949733257        173465039.16170004     
   5101561615.3566647        138049.70037937164        175254350.15006819     
   4942323696.7493191        8445819.1539196968        180769411.46468353     
   5222847663.9004946       -2189639.4017493725        341236127.85839617     
   5070474149.3508129       -2577851.4804260731        336745173.69448274     
   4918739798.6744251       -835517.31477570534        335815544.98687786     
   4767644611.8713322        3037363.0951972008        338447241.73559374     
   4617188588.9415398        9040789.7494955063        344640263.94061649     
   4858318345.3010941       -7229805.4333233833        502554122.73795152     
   4716494169.5587702       -2605867.6724543571        498364370.77939785     
   4574563414.8655863        1662806.9188802242        497571519.40721816     
   4432526081.2215395        5576218.3406739235        500175568.62142318     
   4290382168.6266322        9134366.5929341316        506176518.42200243     
   4493996855.5652227       -12207622.805840254        665017652.80237353     
   4362252233.2875948       -2712470.8082230091        660259069.75432646     
   4229655289.2349463        3941608.6059975624        658732962.42271972     
   4096206023.4072738        7754615.4368093014        660439330.80756366     
   3961904435.8045826        8726549.6842238903        665378174.90884697     
   5265787492.0499649        7349454.8062143326        14563960.994206348     
   5067844111.8086748        9889699.9240431786        11851634.106515488     
   4868366918.9591312        7317236.3477079868        12558146.785195656     
   4667355913.5013533       -367935.92273664474        16683499.030253900     
   4464811095.4353447       -13165816.887300968        24227690.841661397     
   4942323696.7493191        8445819.1539196968        180769411.46468353     
   4753027334.0477238        8241836.7033960819        176187648.26933083     
   4562679546.8404598        4533105.9006521702        175471880.74622393     
   4371280335.1275148       -2680373.2543597221        178622108.89536706     
   4178829698.9089046       -13398600.761589050        185638332.71676177     
   4617188588.9415398        9040789.7494955063        344640263.94061649     
   4437816832.6535969        6475856.3928208351        338751850.55725276     
   4257876039.9625463        2014135.0257914066        337176588.95203024     
   4077366210.8683977       -4344374.3515596390        339914479.12493330     
   3896287345.3711476       -12599671.739265203        346965521.07597202     
   4290382168.6266322        9134366.5929341316        506176518.42200243     
   4122212607.6262884        4591758.9922721386        499544240.97029710     
   3953956398.3254104       -239676.27683043480        497672271.40261525     
   3785613540.7240024       -5359939.2143597603        500560609.71894717     
   3617184034.8220606       -10769029.820350647        508209255.91929543     
   3961904435.8045826        8726549.6842238903        665378174.90884697     
   3806214658.9657979        2589544.5017857552        658564819.50846529     
   3650920621.9290500       -2228328.0072023869        656958928.09798586     
   3496022324.6943378       -5727067.8427383900        660560500.67740679     
   3341519767.2616582       -7906675.0048241615        669369537.24672997     
   4464811095.4353447       -13165816.887300968        24227690.841661397     
   4290125601.3971300       -16602048.464430809        11297883.818560928     
   4117635800.5247912       -12719302.821973085        6012166.3935627146     
   3947341692.8183613       -1517579.9598197937        8370538.5666565076     
   3779243278.2778044        17003120.121910334        18373000.337842308     
   4178829698.9089046       -13398600.761589050        185638332.71676177     
   4023572676.0037975       -12237838.726461411        175381591.03888631     
   3869842399.9439120       -5987920.5406148434        171364892.87787539     
   3717638870.7292290        5351153.7959210873        173588238.23370984     
   3566962088.3597631        21779384.283183575        182051627.10639605     
   3896287345.3711476       -12599671.739265203        346965521.07597202     
   3756447233.3670316       -8045384.1615085602        338601407.36920387     
   3617464921.8874469       -631761.50197243690        335073291.09804720     
   3479340410.9324102        9641196.2393894196        336381172.26250654     
   3342073700.5019054        22773489.062518597        342525050.86256707     
   3617184034.8220606       -10769029.820350647        508209255.91929543     
   3488749273.4868069       -4024684.7696063519        500957332.80951512     
   3360503366.3554177        3349174.2940139771        497137361.05410218     
   3232446313.4278989        11352547.370546579        496749340.65305007     
   3104578114.7042379        19985434.459920526        499793271.60636795     
   3341519767.2616582       -7906675.0048241615        669369537.24672997     
   3220478796.3631449       -175740.55073070526        662449367.35981178     
   3098957733.3478184        5954886.8473309278        657557102.74601877     
   2976956578.2156849        10485207.189368129        654692743.40534782     
   2854475330.9667406        13415220.475360394        653856289.33779693     
   3779243278.2778044        17003120.121910334        18373000.337842308     
   3611565471.7976208        26887008.162731409        26322928.987797789     
   3435914173.6071362        10192590.502548218        26052895.662573081     
   3252289383.7063456       -33080132.858644485        17562900.362161774     
   3060691102.0952477       -102931161.92088151        852943.08658052818     
   3566962088.3597631        21779384.283183575        182051627.10639605     
   3380771117.8263874        22057152.141234159        180141217.94453239     
   3189429528.2411804        5166189.8265190125        174426672.29757121     
   2992937319.6041546       -28893502.660935521        164907990.16552460     
   2791294491.9152803       -80121925.321205616        151585171.54836121     
   3342073700.5019054        22773489.062518597        342525050.86256707     
   3149986210.1727104        17230130.015020370        334047655.32378531     
   2955570973.4501572        3927616.3230111599        326181948.78998220     
   2758827990.3342428       -17134052.013538718        318927931.26116258     
   2559757260.8249655       -45954874.994620204        312285602.73731834     
   3104578114.7042379        19985434.459920526        499793271.60636795     
   2919210748.8365812        12405941.784062624        488042241.12554628     
   2734338509.2340407        6476869.9919412136        481318725.13979125     
   2549961395.8966155        2198219.0835348368        479622723.64908457     
   2366079408.8243108       -430010.94113695621        482954236.65344679     
   2854475330.9667406        13415220.475360394        653856289.33779693     
   2688444733.8179984        7584587.4483855963        642124975.34982562     
   2525732135.5928411        12813950.833356261        639837001.34699810     
   2366337536.2912817        29103310.630308867        646992367.32930613     
   2210260935.9133077        56452666.839228630        663591073.29675174     
   5957971211.4982042        1787391363.4494612        1150054380.3489757     
   6088454245.5895376        1502277086.3578601        1227913836.9102039     
   6221660381.4727135        1226239815.2390711        1268416631.9507830     
   6357589619.1477327        959279550.09309447        1271562765.4707139     
   6496241958.6145973        701396290.91992974        1237352237.4699953     
   5434642773.1507530        1630392831.9452257        1033482627.0668470     
   5489914978.3479757        1372519954.9577134        1113871431.9815786     
   5547382361.6663570        1121964338.3740673        1167475937.7051613     
   5607044923.1058998        878725982.19428790        1194296144.2375948     
   5668902662.6666012        642804886.41837502        1194332051.5788789     
   4895240536.4399719        1468572160.9319913        936374463.40248442     
   4905508662.2559395        1247002708.9024243        1018676705.7215881     
   4917444042.5223846        1030990771.7077780        1084767011.1790428     
   4931046677.2393055        820536349.34805298        1134645379.7748482     
   4946316566.4067020        615639441.82324862        1168311811.5090044     
   4339764501.3658609        1301929350.4097583        858729889.35588765     
   4335235297.3134317        1125725348.1919935        942329658.13023329     
   4331845424.0407944        953319115.24020386        1020289852.3724291     
   4329594881.5479507        784710651.55439019        1092610472.0824754     
   4328483669.8348989        619899957.13455105        1159291517.2603724     
   3768214667.9284215        1130464400.3785264        800548904.92705739     
   3779094883.5204506        1008687872.8264208        884830289.20751321     
   3790586506.2215896        888949368.97134507        974044461.28531933     
   3802689536.0318370        771248888.81329918        1068191421.1604756     
   3815403972.9511929        655586432.35228312        1167271168.8329825     
   6496241958.6145973        701396290.91992974        1237352237.4699953     
   6239270751.4474068        375843004.19982696        1053204859.1621565     
   6013214048.9344902        153338066.32729721        908047587.38456976     
   5818071851.0758476        33881477.302346706        801880422.13723123     
   5653844157.8714781        17473237.124971390        734703363.42014277     
   5668902662.6666012        642804886.41837502        1194332051.5788789     
   5518840630.0072031        383260519.11713624        1073480034.3488249     
   5392925832.5062313        204206935.67731667        980642909.57477558     
   5291158270.1636829        105644136.09891152        915820677.25672984     
   5213537942.9795618        87572120.381929159        879013337.39469087     
   4946316566.4067020        615639441.82324862        1168311811.5090044     
   4871805953.7572508        412696667.59152198        1102860007.6115799     
   4814675306.7703781        267687112.23505569        1054447882.0959145     
   4774924625.4460793        180610775.75384665        1023075434.9620069     
   4752553909.7843609        151467658.14789939        1008742666.2098590     
   4328483669.8348989        619899957.13455105        1159291517.2603724     
   4298166722.6975479        464151449.62298238        1141344778.9504218     
   4278462471.7269273        343778596.00051606        1129462504.9479837     
   4269370916.9230375        258781396.26714993        1123644695.2530591     
   4270892058.2858777        209159850.42288661        1123891349.8656466     
   3815403972.9511929        655586432.35228312        1167271168.8329825     
   3797922936.8280978        537624865.21151865        1188934348.3653510     
   3784287327.3758841        432481386.97369885        1205686778.1309853     
   3774497144.5945539        340155997.63881922        1217528458.1298881     
   3768552388.4841070        260648697.20688617        1224459388.3620558     
   5653844157.8714781        17473237.124971390        734703363.42014277     
   5520309661.2931576        49008969.607647896        721525593.58692098     
   5381400888.8554497        62630449.225687504        710210738.82129860     
   5237117840.5583458        58337675.979082346        700758799.12327230     
   5087460516.4018517        36130649.867839813        693169774.49284685     
   5213537942.9795618        87572120.381929159        879013337.39469087     
   5077516227.6263304        85397939.539258718        855300691.02517581     
   4939381288.9773417        76179681.044065714        835591095.14397800     
   4799133127.0325956        59917344.896350861        819884549.75109839     
   4656771741.7920933        36610931.096113205        808181054.84653568     
   4752553909.7843609        151467658.14789939        1008742666.2098590     
   4620159648.2868443        117417965.76907158        978299704.62829113     
   4488913216.0572033        87194370.949837923        953999928.95576012     
   4358814613.0954390        60796873.690197706        935843339.19226527     
   4229863839.4015594        38225473.990155935        923829935.33780682     
   4270892058.2858777        209159850.42288661        1123891349.8656466     
   4148239923.2746959        145069048.29708529        1090522634.3962686     
   4029996670.0950303        95674518.942998171        1065437240.2566442     
   3916162298.7468758        60976262.360622644        1048635167.4467785     
   3806736809.2302380        40974278.549962282        1040116415.9666641     
   3768552388.4841070        260648697.20688617        1224459388.3620558     
   3661757052.5898914        168351187.12330437        1191969480.3291075     
   3562631651.0908237        101620125.02354896        1169903029.0466330     
   3471176183.9869065        60455510.907623291        1158260034.5146332     
   3387390651.2781372        44857344.775532365        1157040496.7331088     
   5087460516.4018517        36130649.867839813        693169774.49284685     
   4934672233.5331268        9304856.1675245762        676061613.28463531     
   4784832195.7707806       -7693453.8448576927        665666872.60015488     
   4637940403.1148138       -14864280.169315338        661985552.43939853     
   4493996855.5652227       -12207622.805840254        665017652.80237353     
   4656771741.7920933        36610931.096113205        808181054.84653568     
   4522223857.1051979        15714588.189863682        794992064.57648170     
   4389832725.8643312        2007423.4370329380        787752394.50855708     
   4259598348.0694838       -4510563.1623847485        786462044.64275849     
   4131520723.7206650       -3839371.6083872318        791121014.97908425     
   4229863839.4015594        38225473.990155935        923829935.33780682     
   4111373209.1204863        22603638.745171309        913636709.06883705     
   3994247840.6250830        11532676.119086027        908628702.68038821     
   3878487733.9153490        5012586.1119008064        908805916.17246366     
   3764092888.9912858        3043368.7236170769        914168349.54505992     
   3806736809.2302380        40974278.549962282        1040116415.9666641     
   3702120289.5789785        29972007.833437443        1031995546.7616938     
   3598077540.0530348        20882304.201297045        1028295797.1156435     
   3494608560.6524091        13705167.653547049        1029017167.0285118     
   3391713351.3770957        8440598.1901776791        1034159656.5003014     
   3387390651.2781372        44857344.775532365        1157040496.7331088     
   3294465098.4806838        37819695.454668283        1150068577.6550565     
   3201321824.1481910        30056307.683672428        1146753677.8143237     
   3107960828.2806587        21567181.462548375        1147095797.2109056     
   3014382110.8780894        12352316.791296721        1151094935.8448057     
   4493996855.5652227       -12207622.805840254        665017652.80237353     
   4362252233.2875948       -2712470.8082230091        660259069.75432646     
   4229655289.2349463        3941608.6059975624        658732962.42271972     
   4096206023.4072738        7754615.4368093014        660439330.80756366     
   3961904435.8045826        8726549.6842238903        665378174.90884697     
   4131520723.7206650       -3839371.6083872318        791121014.97908425     
   4007324298.3437276        686728.95651912689        784152897.72975647     
   3882745108.0829763        3936946.5753860474        780905314.24898255     
   3757783152.9384065        5911281.2481868267        781378264.53676999     
   3632438432.9100251        6609732.9749498367        785571748.59311807     
   3764092888.9912858        3043368.7236170769        914168349.54505992     
   3648839112.0925126        3018753.3290576935        905538514.46751976     
   3533672127.2011318        3283444.6258056164        901117271.21065509     
   3418591934.3171401        3837442.6138515472        900904619.77446353     
   3303598533.4405370        4680747.2931966782        904900560.15894783     
   3391713351.3770957        8440598.1901776791        1034159656.5003014     
   3286796674.5339584        4283602.3093938828        1024415919.9676261     
   3182436346.5894160        1981102.7572623491        1019368833.3077375     
   3078632367.5434718        1533099.5337889194        1019018396.5206428     
   2975384737.3961225        2939592.6389671564        1023364609.6063367     
   3014382110.8780894        12352316.791296721        1151094935.8448057     
   2921196985.6680555        4481275.8975232840        1140785114.2300670     
   2829037766.2478294        29920.969767570496        1135660000.5402336     
   2737904452.6174021       -1001747.9919898510        1135719594.7753046     
   2647797044.7767758        1386269.0122549534        1140963896.9352777     
   3961904435.8045826        8726549.6842238903        665378174.90884697     
   3806214658.9657979        2589544.5017857552        658564819.50846529     
   3650920621.9290500       -2228328.0072023869        656958928.09798586     
   3496022324.6943378       -5727067.8427383900        660560500.67740679     
   3341519767.2616582       -7906675.0048241615        669369537.24672997     
   3632438432.9100251        6609732.9749498367        785571748.59311807     
   3490466290.9754419        2162219.2098283768        779244596.42694509     
   3348772910.2411432       -1356090.5543372631        777872124.48548353     
   3207358290.7071323       -3945196.3175429106        781454332.76874304     
   3066222432.3734078       -5605098.0797892809        789991221.27671266     
   3303598533.4405370        4680747.2931966782        904900560.15894783     
   3174621787.0810599        1706053.1466712952        898923136.19160211     
   3045806823.3201170       -729365.67139470577        897647608.68378723     
   2917153642.1577125       -2625509.1610020399        901073977.63550842     
   2788662243.5938430       -3982377.3221524954        909202243.04676116     
   2975384737.3961225        2939592.6389671564        1023364609.6063367     
   2858681147.2826462        1221046.3122991323        1017600438.8024427     
   2742022361.1659603       -348153.35839784145        1016285380.6929014     
   2625408379.0460629       -1768006.3731356859        1019419435.2777082     
   2508839200.9229522       -3038512.7319114208        1027002602.5568652     
   2647797044.7767758        1386269.0122549534        1140963896.9352777     
   2542644371.5802078        707198.70672631264        1135276504.2594688     
   2437419523.7786837       -212453.61533010006        1133785440.5128264     
   2332122501.3721943       -1372687.9539368153        1136490705.6953454     
   2226753304.3607478       -2773504.3090682030        1143392299.8070333     
   3341519767.2616582       -7906675.0048241615        669369537.24672997     
   3220478796.3631449       -175740.55073070526        662449367.35981178     
   3098957733.3478184        5954886.8473309278        657557102.74601877     
   2976956578.2156849        10485207.189368129        654692743.40534782     
   2854475330.9667406        13415220.475360394        653856289.33779693     
   3066222432.3734078       -5605098.0797892809        789991221.27671266     
   2950866631.8600435        481404.20563709736        782189593.10332477     
   2835240237.2023726        5665926.0100438595        777112751.99200630     
   2719343248.4003940        9948467.3334357738        774760697.94275916     
   2603175665.4541049        13329028.175786972        775133430.95557725     
   2788662243.5938430       -3982377.3221524954        909202243.04676116     
   2680982704.2911873        1057020.0422725677        900763570.88815713     
   2573242068.8167324        5892763.5006878376        895746567.58056211     
   2465440337.1704726        10524853.053100705        894151233.12399161     
   2357577509.3524079        14953288.699495196        895977567.51843560     
   2508839200.9229522       -3038512.7319114208        1027002602.5568652     
   2410827013.6565809        1551106.9591877460        1018171300.7142931     
   2312963228.1909060        6635399.3192812204        1013458549.5116898     
   2215247844.5259356        12214364.348391175        1012864348.9490501     
   2117680862.6616640        18288002.046489358        1016388699.0263697     
   2226753304.3607478       -2773504.3090682030        1143392299.8070333     
   2140399559.9562185        1963664.9563724995        1134412782.5817521     
   2054403715.3248899        7893833.4658075571        1130248697.7853806     
   1968765770.4667752        15017001.219293714        1130900045.4179285     
   1883485725.3818569        23333168.216761112        1136366825.4793875     
   2854475330.9667406        13415220.475360394        653856289.33779693     
   2688444733.8179984        7584587.4483855963        642124975.34982562     
   2525732135.5928411        12813950.833356261        639837001.34699810     
   2366337536.2912817        29103310.630308867        646992367.32930613     
   2210260935.9133077        56452666.839228630        663591073.29675174     
   2603175665.4541049        13329028.175786972        775133430.95557725     
   2459802254.3910208        11108809.107405066        767330355.24118304     
   2318387988.1476111        15419072.771258473        766679371.77095747     
   2178932866.7238588        26259819.167317986        773180480.54487908     
   2041436890.1197751        43631048.295607328        786833681.56296289     
   2357577509.3524079        14953288.699495196        895977567.51843560     
   2230314862.2579150        14379556.954607964        890517400.28970945     
   2103652505.8791561        15806794.262186646        889918077.56416392     
   1977590440.2161381        19235000.622242928        894179599.34178627     
   1852128665.2688730        24664176.034781694        903301965.62260532     
   2117680862.6616640        18288002.046489358        1016388699.0263697     
   1999982557.4186602        17396830.989951849        1011686110.4953967     
   1881525688.7874792        13977115.306158185        1009553118.7266219     
   1762310256.7681189        8028854.9950791597        1009989723.7200514     
   1642336261.3605666       -447949.94326841831        1012995925.4756645     
   1883485725.3818569        23333168.216761112        1136366825.4793875     
   1768805339.8732729        20160631.213469386        1130836485.8582463     
   1652007536.8725817        9930035.9031561017        1125584495.2583342     
   1533092316.3797874       -7358617.7141768336        1120610853.6796358     
   1412059678.3948834       -31705329.638531685        1115915561.1221657     
   3768214667.9284215        1130464400.3785264        800548904.92705739     
   3779094883.5204506        1008687872.8264208        884830289.20751321     
   3790586506.2215896        888949368.97134507        974044461.28531933     
   3802689536.0318370        771248888.81329918        1068191421.1604756     
   3815403972.9511929        655586432.35228312        1167271168.8329825     
   3207760216.4530101        962328064.93590307        756681472.86944926     
   3235842600.5876975        868193348.48892283        853045838.45836401     
   3263650251.9753375        773142856.21845448        951330974.10463595     
   3291183170.6159320        677176588.12449789        1051536879.8082650     
   3318441356.5094786        580294544.20705318        1153663555.5692508     
   2685570327.2649879        805671098.17949629        721977555.93651938     
   2722249114.9709225        736596463.34621871        829391073.00171208     
   2757767030.0736561        663652253.16893494        935713342.38426852     
   2792124072.5731869        586838467.64764500        1040944364.0841892     
   2825320242.4695168        506155106.78234887        1145084138.1014733     
   2201645000.3643541        660493500.10930622        696437154.12826812     
   2238314426.6701274        613897217.39830816        813865992.83755744     
   2272936840.5165434        560477559.82278621        927191566.12421703     
   2305512241.9036021        500234527.38274002        1036413873.9882470     
   2336040630.8313041        433168120.07816964        1141532916.4296482     
   1755984235.7511079        526795270.72533238        680060267.44469535     
   1784038535.6853106        500095610.64519149        806470597.96589959     
   1809159683.3040009        463618776.18000853        925765645.32448125     
   1831347678.6071787        417364767.32978338        1037945409.5204401     
   1850602521.5948434        361333584.09451580        1143009890.5537765     
   3815403972.9511929        655586432.35228312        1167271168.8329825     
   3797922936.8280978        537624865.21151865        1188934348.3653510     
   3784287327.3758841        432481386.97369885        1205686778.1309853     
   3774497144.5945539        340155997.63881922        1217528458.1298881     
   3768552388.4841070        260648697.20688617        1224459388.3620558     
   3318441356.5094786        580294544.20705318        1153663555.5692508     
   3293757728.7618151        473073124.98284841        1181992565.0307319     
   3272805868.1253324        378290929.46257961        1207213373.4900727     
   3255585774.6000309        295947957.64624751        1229325980.9472725     
   3242097448.1859088        226044209.53385103        1248330387.4023325     
   2825320242.4695168        506155106.78234887        1145084138.1014733     
   2798584162.4246917        411218877.27292562        1179946374.6724148     
   2775466189.9313474        328343006.26843262        1213502959.0058074     
   2755966324.9894810        257527493.76886714        1245753891.1016538     
   2740084567.5990934        198772339.77423072        1276699170.9599512     
   2336040630.8313041        433168120.07816964        1141532916.4296482     
   2312402237.8167286        352062122.08175206        1182795777.2903972     
   2292268292.7939272        282637617.39125359        1224555534.6781909     
   2275638795.7629037        224894606.00667804        1266812188.5930297     
   2262513746.7236562        178833087.92802310        1309565739.0349128     
   1850602521.5948434        361333584.09451580        1143009890.5537765     
   1835211954.9379215        295602859.40932387        1190540772.8846810     
   1823212176.7130735        241174762.83104515        1240371100.5072224     
   1814603186.9202998        198049294.35968184        1292500873.4214025     
   1809384985.5596006        166226453.99523199        1346930091.6272180     
   3768552388.4841070        260648697.20688617        1224459388.3620558     
   3661757052.5898914        168351187.12330437        1191969480.3291075     
   3562631651.0908237        101620125.02354896        1169903029.0466330     
   3471176183.9869065        60455510.907623291        1158260034.5146332     
   3387390651.2781372        44857344.775532365        1157040496.7331088     
   3242097448.1859088        226044209.53385103        1248330387.4023325     
   3164697051.8997374        151818850.90207088        1231201817.2340779     
   3093357422.8598986        97796049.758074522        1222090785.8326592     
   3028078561.0663972        63975806.101860285        1220997293.1980743     
   2968860466.5192280        50358119.933429360        1227921339.3303246     
   2740084567.5990934        198772339.77423072        1276699170.9599512     
   2685205059.5391335        140556917.17970455        1273054576.9827764     
   2634777151.5766973        97180161.576915622        1275021603.7887964     
   2588800843.7117801        68642072.965863466        1282600251.3780110     
   2547276135.9443860        54942651.346546888        1295790519.7504210     
   2262513746.7236562        178833087.92802310        1309565739.0349128     
   2223281075.5080848        134565385.95620608        1317527759.5752010     
   2186890837.2412171        99772460.480073452        1328695482.9150441     
   2153343031.9230580        74454311.499634862        1343068909.0544410     
   2122637659.5536060        58610939.014884830        1360648037.9933920     
   1809384985.5596006        166226453.99523199        1346930091.6272180     
   1778925099.8065844        133844257.23156953        1364621365.0113523     
   1749698479.8534608        105572946.46754956        1383112423.2114015     
   1721705125.7002313        81412521.703175843        1402403266.2273655     
   1694945037.3468924        61362982.938439012        1422493894.0592408     
   3387390651.2781372        44857344.775532365        1157040496.7331088     
   3294465098.4806838        37819695.454668283        1150068577.6550565     
   3201321824.1481910        30056307.683672428        1146753677.8143237     
   3107960828.2806587        21567181.462548375        1147095797.2109056     
   3014382110.8780894        12352316.791296721        1151094935.8448057     
   2968860466.5192280        50358119.933429360        1227921339.3303246     
   2884720359.6918263        38941098.084106326        1220167354.2409253     
   2800900101.8839231        28590239.633104205        1216525009.7054317     
   2717399693.0955124        19305544.580413580        1216994305.7238450     
   2634219133.3265986        11087012.926049948        1221575242.2961621     
   2547276135.9443860        54942651.346546888        1295790519.7504210     
   2473220393.1344352        39535932.382984519        1287881634.2966278     
   2400022069.8985162        26987278.666189551        1284539010.7133310     
   2327681166.2366271        17296690.196161747        1285762649.0005293     
   2256197682.1487679        10464166.972901225        1291552549.1582255     
   2122637659.5536060        58610939.014884830        1360648037.9933920     
   2059965198.8085063        39604198.351300478        1353211417.8221645     
   1998687728.1919734        25247424.782937527        1350795680.8380215     
   1938805247.7040033        15540618.309787989        1353400827.0409667     
   1880317757.3445981        10483778.931851506        1361026856.4309943     
   1694945037.3468924        61362982.938439012        1422493894.0592408     
   1644954776.7140429        39145895.989057720        1416156704.8175356     
   1596897076.7642922        23370677.983341694        1415295020.0795043     
   1550771937.4976399        14037328.921287775        1419908839.8451490     
   1506579358.9140887        11145848.802900076        1429998164.1144686     
   3014382110.8780894        12352316.791296721        1151094935.8448057     
   2921196985.6680555        4481275.8975232840        1140785114.2300670     
   2829037766.2478294        29920.969767570496        1135660000.5402336     
   2737904452.6174021       -1001747.9919898510        1135719594.7753046     
   2647797044.7767758        1386269.0122549534        1140963896.9352777     
   2634219133.3265986        11087012.926049948        1221575242.2961621     
   2554767903.5255280        5641413.7314306498        1212880727.4245732     
   2476087462.1573067        2765109.3129749298        1209006322.2428594     
   2398177809.2219362        2458099.6706870794        1209952026.7510211     
   2321038944.7194157        4720384.8045698404        1215717840.9490635     
   2256197682.1487679        10464166.972901225        1291552549.1582255     
   2189438638.5137219        7131496.7045457363        1284175704.1133411     
   2123195265.9545755        5517730.0225213766        1281254370.5233047     
   2057467564.4713271        5622866.9268275499        1282788548.3881190     
   1992255534.0639808        7446907.4174690247        1288778237.7077832     
   1880317757.3445981        10483778.931851506        1361026856.4309943     
   1825209190.6326425        8951524.8168832064        1354670044.2963705     
   1770361177.6396334        8287783.0984054804        1352404145.3815722     
   1715773718.3655756        8492553.7764286995        1354229159.6865940     
   1661446812.8104639        9565836.8509417772        1360145087.2114396     
   1506579358.9140887        11145848.802900076        1429998164.1144686     
   1462079559.8822870        11101498.068436146        1424363747.9736633     
   1417585197.2124817        11075268.540626228        1422455646.8176563     
   1373096270.9046764        11067160.219478130        1424273860.6464417     
   1328612780.9588664        11077173.104987144        1429818389.4600255     
   2647797044.7767758        1386269.0122549534        1140963896.9352777     
   2542644371.5802078        707198.70672631264        1135276504.2594688     
   2437419523.7786837       -212453.61533010006        1133785440.5128264     
   2332122501.3721943       -1372687.9539368153        1136490705.6953454     
   2226753304.3607478       -2773504.3090682030        1143392299.8070333     
   2321038944.7194157        4720384.8045698404        1215717840.9490635     
   2226999721.0979142        3124383.4391167164        1209479820.7073448     
   2132988712.0565424        1622430.6740964651        1207805878.3772631     
   2039005917.5953021        214526.50952005386        1210696013.9588146     
   1945051337.7141891       -1099329.0546342134        1218150227.4520037     
   1992255534.0639808        7446907.4174690247        1288778237.7077832     
   1910380471.3960264        5249188.4056254625        1282106710.6160941     
   1828634012.4932940        3480148.6111943722        1280367010.4185121     
   1747016157.3557875        2139788.0341769457        1283559137.1150370     
   1665526905.9834995        1228106.6745623350        1291683090.7056642     
   1661446812.8104639        9565836.8509417772        1360145087.2114396     
   1592786622.4745467        7081613.6062585115        1353157173.9857202     
   1524355425.0889456        5360700.1959655881        1351468836.6365802     
   1456153220.6536589        4403096.6200510859        1355080075.1640148     
   1388180009.1686869        4208802.8785225153        1363990889.5680287     
   1328612780.9588664        11077173.104987144        1429818389.4600255     
   1274218174.3334737        8621659.0410117507        1422631210.8162208     
   1220152949.8434880        7264085.4283933043        1421111357.0314608     
   1166417107.4889157        7004452.2671508193        1425258828.1057503     
   1113010647.2697437        7842759.5572436452        1435073624.0390854     
   2226753304.3607478       -2773504.3090682030        1143392299.8070333     
   2140399559.9562185        1963664.9563724995        1134412782.5817521     
   2054403715.3248899        7893833.4658075571        1130248697.7853806     
   1968765770.4667752        15017001.219293714        1130900045.4179285     
   1883485725.3818569        23333168.216761112        1136366825.4793875     
   1945051337.7141891       -1099329.0546342134        1218150227.4520037     
   1870982389.1108418        4134744.4049347639        1210201256.0668843     
   1797269120.1957555        10554416.825372338        1206772024.9781904     
   1723911530.9689269        18159688.206669331        1207862534.1859303     
   1650909621.4303601        26950558.548839629        1213472783.6900916     
   1665526905.9834995        1228106.6745623350        1291683090.7056642     
   1602897918.5170903        6705633.9289946556        1284762075.0616148     
   1540622390.6539917        13361359.861138225        1282065107.5814970     
   1478700322.3942087        21195284.471000671        1283592188.2653241     
   1417131713.7377419        30207407.758576691        1289343317.1130893     
   1388180009.1686869        4208802.8785225153        1363990889.5680287     
   1336146148.1749613        9676333.5285379291        1358095239.5659359     
   1284463526.6996045        16314662.573122144        1356127945.5952938     
   1233132144.7426138        24123790.012260675        1358089007.6561050     
   1182152002.3039992        33103715.845978796        1363978425.7483706     
   1113010647.2697437        7842759.5572436452        1435073624.0390854     
   1070727078.0844511        13046843.203561962        1430200749.5798507     
   1028792528.3325905        19414324.961317182        1428960539.0195847     
   987206998.01414740        26945204.830465734        1431352992.3582799     
   945970487.12913322        35639482.811044097        1437378109.5959394     
   1883485725.3818569        23333168.216761112        1136366825.4793875     
   1768805339.8732729        20160631.213469386        1130836485.8582463     
   1652007536.8725817        9930035.9031561017        1125584495.2583342     
   1533092316.3797874       -7358617.7141768336        1120610853.6796358     
   1412059678.3948834       -31705329.638531685        1115915561.1221657     
   1650909621.4303601        26950558.548839629        1213472783.6900916     
   1539935437.7574091        23360653.340099156        1206894023.3267214     
   1427953424.9606431        16411317.718638957        1202984154.1708066     
   1314963583.0400705        6102551.6844869852        1201743176.2223325     
   1200965911.9956777       -7565644.7623882294        1203171089.4813082     
   1417131713.7377419        30207407.758576691        1289343317.1130893     
   1316693852.4325004        28249170.504012048        1283010655.7704961     
   1216357750.3717422        26630130.731047034        1281737427.8215811     
   1116123407.5554640        25350288.439680815        1285523633.2663343     
   1015990823.9836638        24409643.629919350        1294369272.1047657     
   1182152002.3039992        33103715.845978796        1363978425.7483706     
   1099080583.8985493        34826182.705210686        1359186383.1895657     
   1017220513.1058714        40586474.940347195        1361844316.2106640     
   936571789.92596900        50384592.551413000        1371952224.8116622     
   857134414.35884380        64220535.538381875        1389510108.9925666     
   945970487.12913322        35639482.811044097        1437378109.5959394     
   887095632.15555406        43091689.943699330        1435421205.5839303     
   830541713.16303933        58280350.346580684        1443304819.3380508     
   776308730.15158844        81205464.019673288        1461028950.8582985     
   724396683.12120843        111867030.96299973        1488593600.1446762     
   1755984235.7511079        526795270.72533238        680060267.44469535     
   1784038535.6853106        500095610.64519149        806470597.96589959     
   1809159683.3040009        463618776.18000853        925765645.32448125     
   1831347678.6071787        417364767.32978338        1037945409.5204401     
   1850602521.5948434        361333584.09451580        1143009890.5537765     
   1326338890.7858088        397901667.23574263        669738401.06839204     
   1339561166.3136394        375528173.06235296        791885174.81528783     
   1350585327.0787210        345827629.67979980        908739636.20296168     
   1359411373.0810533        308800037.08808255        1020301785.2314146     
   1366039304.3206372        264445395.28720251        1126571621.9006453     
   890459822.82901514        267137946.84870455        662363060.18194962     
   894058561.96019101        250653164.98498118        781103820.96609426     
   896194223.88138103        229291459.08797291        896375240.19441843     
   896866808.59258604        203052829.15767986        1008177317.8669220     
   896076316.09380555        171937275.19410181        1116510053.9836047     
   448347031.88072711        134504109.56421813        657934244.78536785     
   447530722.62496519        125470586.41307622        774126536.41831899     
   445986373.71198142        114010264.40452808        888672457.29885089     
   443713985.14177591        100123143.53857388        1001572007.4269630     
   440713556.91434842        83809223.815213293        1112825186.8026557     
   517.94094454032506        155.38228336209752        656451954.87864685     
  -22351.692037724108       -19562.653361872752        770953321.17196202     
  -38223.429478244369       -15954.370534410209        885631287.51625884     
  -47097.271377021898        10980.230765332966        1000485853.9115372     
  -48973.217734069563        61241.150537509049        1115517020.3577969     
   1850602521.5948434        361333584.09451580        1143009890.5537765     
   1835211954.9379215        295602859.40932387        1190540772.8846810     
   1823212176.7130735        241174762.83104515        1240371100.5072224     
   1814603186.9202998        198049294.35968184        1292500873.4214025     
   1809384985.5596006        166226453.99523199        1346930091.6272180     
   1366039304.3206372        264445395.28720251        1126571621.9006453     
   1360319487.1722057        216903496.22616795        1181993013.0512278     
   1357138708.2521827        177825057.92649478        1238356575.6957445     
   1356496967.5605683        147210080.38818443        1295662309.8341961     
   1358394265.0973625        125058563.61123466        1353910215.4665818     
   896076316.09380555        171937275.19410181        1116510053.9836047     
   896149323.31757081        141420824.21633670        1178828245.3829217     
   897909618.56607914        116528666.65438107        1240731334.4784708     
   901357201.83933055        97260802.508235425        1302219321.2702518     
   906492073.13732433        83617231.777898759        1363292205.7582641     
   440713556.91434842        83809223.815213293        1112825186.8026557     
   442701463.37401688        69154843.379829362        1181046469.8797641     
   445524907.65476286        57285589.014703259        1247495376.8554020     
   449183889.75658542        48201460.719833270        1312171907.7295685     
   453678409.67948592        41902458.495222002        1375076062.5022638     
  -48973.217734069563        61241.150537509049        1115517020.3577969     
  -24092.658456188663        105553.71664636648        1188647686.5417542     
  -15424.481766613142        95825.007460742563        1258648702.8265374     
  -22968.687665282592        32055.022981120543        1325520069.2121465     
  -46725.276152564089       -85756.236793874967        1389261785.6985819     
   1809384985.5596006        166226453.99523199        1346930091.6272180     
   1778925099.8065844        133844257.23156953        1364621365.0113523     
   1749698479.8534608        105572946.46754956        1383112423.2114015     
   1721705125.7002313        81412521.703175843        1402403266.2273655     
   1694945037.3468924        61362982.938439012        1422493894.0592408     
   1358394265.0973625        125058563.61123466        1353910215.4665818     
   1332977928.6375401        99987233.251628160        1372845821.4996963     
   1308500098.9710648        78044258.869844735        1393174173.0030324     
   1284960776.0979352        59229640.465880334        1414895269.9765904     
   1262359960.0181518        43543378.039737523        1438009112.4203694     
   906492073.13732433        83617231.777898759        1363292205.7582641     
   887813459.26871753        66365019.811755121        1383128258.9327207     
   869778593.18691134        51258633.801611930        1404950018.2317059     
   852387474.89190388        38298073.747466713        1428757483.6552222     
   835640104.38369703        27483339.649321944        1454550655.2032657     
   453678409.67948592        41902458.495222002        1375076062.5022638     
   443431691.70011646        32977616.911948144        1395468677.3104255     
   433533962.50099993        25216071.262850046        1418439958.8974233     
   423985222.08213735        18617821.547933087        1443989907.2632580     
   414785470.44352770        13182867.767191112        1472118522.4079299     
  -46725.276152564089       -85756.236793874967        1389261785.6985819     
  -167374.06826370166       -174975.44779388857        1409867076.6328101     
  -233793.08666715544       -83428.746434782661        1433643995.0001824     
  -245982.33136515005        188883.86727559357        1460592540.8006999     
  -203941.80235490040        641962.39334713097        1490712714.0343618     
   1694945037.3468924        61362982.938439012        1422493894.0592408     
   1644954776.7140429        39145895.989057720        1416156704.8175356     
   1596897076.7642922        23370677.983341694        1415295020.0795043     
   1550771937.4976399        14037328.921287775        1419908839.8451490     
   1506579358.9140887        11145848.802900076        1429998164.1144686     
   1262359960.0181518        43543378.039737523        1438009112.4203694     
   1227683424.9789813        27758128.250641882        1435332150.5641098     
   1194391720.5035167        16588980.340565443        1437475203.0084779     
   1162484846.5917566        10035934.309502125        1444438269.7534750     
   1131962803.2437027        8098990.1574618816        1456221350.7990983     
   835640104.38369703        27483339.649321944        1454550655.2032657     
   814404465.78664303        17568078.275043249        1454894902.2598271     
   794005927.63389921        10443151.715133697        1459403673.4139678     
   774444489.92546892        6108559.9696010351        1468076968.6656885     
   755720152.66134882        4564303.0384359360        1480914788.0149908     
   414785470.44352770        13182867.767191112        1472118522.4079299     
   405117899.13702565        8575746.0622583181        1474844959.9046843     
   395739698.15544212        4933192.1070540100        1481080431.2959714     
   386650867.49877596        2255205.9015754461        1490824936.5817926     
   377851407.16702670        541787.44581826031        1504078475.7621469     
  -203941.80235490040        641962.39334713097        1490712714.0343618     
  -176274.96986782987        781131.61229429988        1495182323.4986835     
  -406967.93185824732        59101.516316162189        1502505476.6544912     
  -896020.68832182349       -1524127.8945725046        1512682173.5017850     
  -1643433.2392641800       -3968556.6203900920        1525712414.0405645     
   1506579358.9140887        11145848.802900076        1429998164.1144686     
   1462079559.8822870        11101498.068436146        1424363747.9736633     
   1417585197.2124817        11075268.540626228        1422455646.8176563     
   1373096270.9046764        11067160.219478130        1424273860.6464417     
   1328612780.9588664        11077173.104987144        1429818389.4600255     
   1131962803.2437027        8098990.1574618816        1456221350.7990983     
   1097218565.4007514        7045554.8285220861        1450182398.9669394     
   1062507189.6346880        6101659.7558733821        1448154275.6632097     
   1027828675.9455121        5267304.9395154715        1450136980.8879137     
   993183024.33322370        4542490.3794517517        1456130514.6410446     
   755720152.66134882        4564303.0384359360        1480914788.0149908     
   731544371.84620476        2745651.8667038679        1474503297.1588492     
   707428878.82283914        1127960.0009009540        1472387148.3747735     
   683373673.59125245       -288772.55897411704        1474566341.6627624     
   659378756.15144277       -1504545.8129220009        1481040877.0228167     
   377851407.16702670        541787.44581826031        1504078475.7621469     
   365056979.21864593       -1798210.8170192689        1497326442.5493941     
   352350264.77693588       -3845830.7242862284        1495154264.9523427     
   339731263.84189451       -5601072.2759923488        1497561942.9709923     
   327199976.41352165       -7063935.4721360654        1504549476.6053412     
  -1643433.2392641800       -3968556.6203900920        1525712414.0405645     
  -2243612.4819234535       -6586033.2226422345        1518651835.1385758     
  -2728652.5030220756       -8819712.4196915124        1516455625.3959222     
  -3098553.3025624258       -10669594.211546551        1519123784.8126030     
  -3353314.8805419421       -12135678.598199503        1526656313.3886194     
   1328612780.9588664        11077173.104987144        1429818389.4600255     
   1274218174.3334737        8621659.0410117507        1422631210.8162208     
   1220152949.8434880        7264085.4283933043        1421111357.0314608     
   1166417107.4889157        7004452.2671508193        1425258828.1057503     
   1113010647.2697437        7842759.5572436452        1435073624.0390854     
   993183024.33322370        4542490.3794517517        1456130514.6410446     
   953368460.72377348        2723514.6450768113        1449727745.9514813     
   913822032.24062490        1798322.6650385261        1448726176.6467683     
   874543738.88377345        1766914.4393262267        1453125806.7268991     
   835533580.65322304        2629289.9679508805        1462926636.1918745     
   659378756.15144277       -1504545.8129220009        1481040877.0228167     
   633383877.06021225       -2915090.7670190632        1475351063.4435420     
   607595886.08617413       -3636008.6638087034        1474796323.7749145     
   582014783.22932971       -3667299.5032852888        1479376658.0169270     
   556640568.48967886       -3008963.2854506075        1489092066.1695874     
   327199976.41352165       -7063935.4721360654        1504549476.6053412     
   314264423.34279054       -8294157.1952717751        1499501163.2923977     
   301474511.38014412       -9038908.5581249744        1499321798.4158933     
   288830240.52558661       -9298189.5606817305        1504011381.9758322     
   276331610.77911299       -9072000.2029577494        1513569913.9722135     
  -3353314.8805419421       -12135678.598199503        1526656313.3886194     
  -3989900.4284929084       -13413684.639684690        1522178045.4980462     
  -4542091.8774658758       -14410377.017910229        1522302600.5697131     
  -5009889.2274584109       -15125755.732867479        1527029978.6036208     
  -5393292.4784749821       -15559820.784571521        1536360179.5997648     
   1113010647.2697437        7842759.5572436452        1435073624.0390854     
   1070727078.0844511        13046843.203561962        1430200749.5798507     
   1028792528.3325905        19414324.961317182        1428960539.0195847     
   987206998.01414740        26945204.830465734        1431352992.3582799     
   945970487.12913322        35639482.811044097        1437378109.5959394     
   835533580.65322304        2629289.9679508805        1462926636.1918745     
   802405179.01625431        5715169.9914992750        1457914855.6170158     
   769311264.79156959        8916008.0559941232        1456801663.9394670     
   736251837.97917199        12231804.161443681        1459587061.1592183     
   703226898.57904994        15662558.307817549        1466271047.2762852     
   556640568.48967886       -3008963.2854506075        1489092066.1695874     
   533427120.11057973       -1813351.1718091667        1483574425.4544370     
   509933627.12262332       -1551221.0876927376        1482221298.6349394     
   486160089.52580768       -2222573.0331049263        1485032685.7110875     
   462106507.32013428       -3827407.0080454051        1492008586.6828861     
   276331610.77911299       -9072000.2029577494        1513569913.9722135     
   263792901.36743167       -9538720.2863550782        1507179459.0921102     
   250659615.32574385       -11987362.469773144        1505219443.1060004     
   236931752.65406132       -16417926.753173217        1507689866.0138800     
   222609313.35237768       -22830413.136577293        1514590727.8157444     
  -5393292.4784749821       -15559820.784571521        1536360179.5997648     
  -6497477.2131951638       -17460937.352152973        1528729956.5300472     
  -8510770.5990604367       -22392416.090215981        1525796097.3526540     
  -11433172.636063941       -30354256.998739760        1527558602.0675936     
  -15264683.324209241       -41346460.077738278        1534017470.6748695     
   945970487.12913322        35639482.811044097        1437378109.5959394     
   887095632.15555406        43091689.943699330        1435421205.5839303     
   830541713.16303933        58280350.346580684        1443304819.3380508     
   776308730.15158844        81205464.019673288        1461028950.8582985     
   724396683.12120843        111867030.96299973        1488593600.1446762     
   703226898.57904994        15662558.307817549        1466271047.2762852     
   666318914.68995631        19928978.083210170        1465961347.0872362     
   630695506.44946980        28477316.687292278        1473443903.9717960     
   596356673.85759759        41307574.120091319        1488718717.9299731     
   563302416.91433668        58419750.381593511        1511785788.9617622     
   462106507.32013428       -3827407.0080454051        1492008586.6828861     
   441313221.10833287       -4502426.6120916605        1492137003.2622664     
   420768150.21269089       -4350061.8289398253        1498009416.2227407     
   400471294.63319886       -3370312.6586132497        1509625825.5643184     
   380422654.36986589       -1563179.1010990590        1526986231.2869868     
   222609313.35237768       -22830413.136577293        1514590727.8157444     
   212078551.41068345       -30202524.142198846        1513948174.1090226     
   200759644.45268884       -40201785.202155069        1517001356.0908866     
   188652592.47839391       -52828196.316446245        1523750273.7613258     
   175757395.48779917       -68081757.485070422        1534194927.1203446     
  -15264683.324209241       -41346460.077738278        1534017470.6748695     
  -21385094.402990218       -57171314.507109970        1531394859.6275136     
  -29330010.830521002       -79077853.432314351        1530419723.5762250     
  -39099432.606813267       -107066076.85339031        1531092062.5209990     
  -50693359.731859446       -141135984.77031270        1533411876.4618390     
   517.94094454032506        155.38228336209752        656451954.87864685     
  -22351.692037724108       -19562.653361872752        770953321.17196202     
  -38223.429478244369       -15954.370534410209        885631287.51625884     
  -47097.271377021898        10980.230765332966        1000485853.9115372     
  -48973.217734069563        61241.150537509049        1115517020.3577969     
  -448349317.47032011       -134504795.24109602        657921209.69915044     
  -447570028.75113904       -125491933.87855941        774124868.21505499     
  -446055259.33338130       -114027470.18743384        888684530.16667700     
  -443805009.21704692       -100111404.16771926        1001600195.5540172     
  -440819278.40213555       -83743735.819415241        1112871864.3770745     
  -890472072.83305430       -267141621.84991628        662347028.48424256     
  -894092330.37674975       -250656692.47370982        781102875.82627738     
  -896248624.41883385       -229291884.75879788        896394129.98876560     
  -896940954.95930600       -203047198.70518041        1008220790.9717077     
  -896169321.99816680       -171922634.31285733        1116582858.7751029     
  -1326367748.1472583       -397910324.44417751        669729411.23392284     
  -1339589256.5688703       -375513838.43881309        791887344.00562859     
  -1350618318.6858358       -345809198.08462679        908760086.98252404     
  -1359454934.4981549       -308796403.38161838        1020347640.1646088     
  -1366099104.0058272       -264475454.32978812        1126650003.5518832     
  -1756036343.4129319       -526810903.02387959        680068357.94819176     
  -1784060807.3275003       -500063371.77386922        806478272.75310922     
  -1809164342.1343880       -463579410.16492081        925782401.14795244     
  -1831346947.8335938       -417359018.19703370        1037980743.1327207     
  -1850608624.4251175       -361402195.87020761        1143073298.7074151     
  -48973.217734069563        61241.150537509049        1115517020.3577969     
  -24092.658456188663        105553.71664636648        1188647686.5417542     
  -15424.481766613142        95825.007460742563        1258648702.8265374     
  -22968.687665282592        32055.022981120543        1325520069.2121465     
  -46725.276152564089       -85756.236793874967        1389261785.6985819     
  -440819278.40213555       -83743735.819415241        1112871864.3770745     
  -442771301.47784144       -69035804.111027375        1181069861.3660715     
  -445576438.53084683       -57171585.660305589        1247492901.0406520     
  -449234689.56115270       -48151080.467251375        1312140983.4008172     
  -453746054.56875885       -41974288.531864226        1375014108.4465644     
  -896169321.99816680       -171922634.31285733        1116582858.7751029     
  -896227698.46669173       -141389918.38954061        1178871801.3753102     
  -897976090.50722849       -116490587.70626315        1240740479.2458584     
  -901414498.11977696       -97224642.263025284        1302188892.3867478     
  -906542921.30433714       -83592082.059825808        1363217040.7979779     
  -1366099104.0058272       -264475454.32978812        1126650003.5518832     
  -1360393283.6250069       -216956789.11889315        1182053506.5694699     
  -1357214380.4109104       -177861181.13041005        1238391437.4421549     
  -1356562394.3635380       -147188630.36433983        1295663796.1699388     
  -1358437325.4828875       -124939136.82067913        1353870582.7528212     
  -1850608624.4251175       -361402195.87020761        1143073298.7074151     
  -1835268056.9527881       -295736416.29908603        1190614976.9485509     
  -1823291308.2418938       -241283365.93274838        1240445775.6295424     
  -1814678378.2924352       -198043044.77119547        1292565694.7503905     
  -1809429267.1044109       -166015452.81442475        1346974734.3110945     
  -46725.276152564089       -85756.236793874967        1389261785.6985819     
  -167374.06826370166       -174975.44779388857        1409867076.6328101     
  -233793.08666715544       -83428.746434782661        1433643995.0001824     
  -245982.33136515005        188883.86727559357        1460592540.8006999     
  -203941.80235490040        641962.39334713097        1490712714.0343618     
  -453746054.56875885       -41974288.531864226        1375014108.4465644     
  -443703797.76282531       -33164220.988527641        1395508421.0187585     
  -433950939.68472081       -25318815.871287510        1418595044.2899184     
  -424487480.33444613       -18438073.180147469        1444273978.2600441     
  -415313419.71200091       -12521992.915104106        1472545222.9291365     
  -906542921.30433714       -83592082.059825808        1363217040.7979779     
  -887992949.56944132       -66379284.962879956        1383199475.0896783     
  -870076005.06391084       -51276578.630483627        1405194903.3461668     
  -852792087.78774595       -38283963.062639534        1429203325.5674417     
  -836141197.74094605       -27401438.259346336        1455224741.7535045     
  -1358437325.4828875       -124939136.82067913        1353870582.7528212     
  -1333034829.4881108       -99820167.370845616        1372940238.8455701     
  -1308608989.2242362       -77956717.024018764        1393443572.1689274     
  -1285159804.6912634       -59348785.780196071        1415380582.7228935     
  -1262687275.8891902       -43996373.639376879        1438751270.5074682     
  -1809429267.1044109       -166015452.81442475        1346974734.3110945     
  -1778829437.5188353       -133486868.21243167        1364730712.2864323     
  -1749549892.1656978       -105359231.05189538        1383341050.7582004     
  -1721590631.0449982       -81632541.332818627        1402805749.7263980     
  -1694951654.1567349       -62306799.055199981        1423124809.1910264     
  -203941.80235490040        641962.39334713097        1490712714.0343618     
  -176274.96986782987        781131.61229429988        1495182323.4986835     
  -406967.93185824732        59101.516316162189        1502505476.6544912     
  -896020.68832182349       -1524127.8945725046        1512682173.5017850     
  -1643433.2392641800       -3968556.6203900920        1525712414.0405645     
  -415313419.71200091       -12521992.915104106        1472545222.9291365     
  -405626511.43835598       -7762015.0398829579        1474856082.8427856     
  -396513912.14139944       -4916400.4202882797        1480677244.3297751     
  -387975621.82112706       -3985149.0563080609        1490008707.3901081     
  -380011640.47754228       -4968260.9479535818        1502850472.0237784     
  -836141197.74094605       -27401438.259346336        1455224741.7535045     
  -814918596.93513036       -17457716.400547922        1455008244.7372365     
  -794586254.28821075       -10481521.738071978        1458958807.1761639     
  -775144169.80018806       -6472854.2719186246        1467076429.0702884     
  -756592343.47106266       -5431714.0020897388        1479361110.4196093     
  -1262687275.8891902       -43996373.639376879        1438751270.5074682     
  -1228052531.4601886       -28305972.469696283        1435638809.1820364     
  -1194623994.3722920       -16636262.437034190        1437350165.1936555     
  -1162401664.6255057       -8987243.5414070487        1443885338.5423260     
  -1131385542.2198260       -5358915.7827996016        1455244329.2280457     
  -1694951654.1567349       -62306799.055199981        1423124809.1910264     
  -1645028315.0135331       -40306783.247333407        1416747776.1771863     
  -1596627132.3936462       -23380622.517184794        1415851318.3822508     
  -1549748106.2970800       -11528316.864770770        1420435435.8062222     
  -1504391236.7238312       -4749866.2900820374        1430500128.4490995     
  -1643433.2392641800       -3968556.6203900920        1525712414.0405645     
  -2243612.4819234535       -6586033.2226422345        1518651835.1385758     
  -2728652.5030220756       -8819712.4196915124        1516455625.3959222     
  -3098553.3025624258       -10669594.211546551        1519123784.8126030     
  -3353314.8805419421       -12135678.598199503        1526656313.3886194     
  -380011640.47754228       -4968260.9479535818        1502850472.0237784     
  -367732482.93891358       -5474932.9717625082        1496348706.4164882     
  -355418431.58227849       -5865292.2688853294        1494402645.0404446     
  -343069486.40764791       -6139338.8393545747        1497012287.8956451     
  -330685647.41501111       -6297072.6831384003        1504177634.9820936     
  -756592343.47106266       -5431714.0020897388        1479361110.4196093     
  -732315748.94568384       -4092151.3858101368        1473324538.4695296     
  -708084506.00586152       -2903760.7213854492        1471535005.8226087     
  -683898614.65159750       -1866542.0088218451        1473992512.4788432     
  -659758074.88288856       -980495.24810981750        1480697058.4382348     
  -1131385542.2198260       -5358915.7827996016        1455244329.2280457     
  -1095993410.5022383       -2437688.4647955894        1449579331.2976971     
  -1060726875.7737653        64882.222823977470        1447852707.7424142     
  -1025585938.0344092        2148796.2800573111        1450064458.5621989     
  -990570597.28416896        3814053.7069012523        1456214583.7570531     
  -1504391236.7238312       -4749866.2900820374        1430500128.4490995     
  -1458765467.6085761       -511544.20872008801        1425113084.9009914     
  -1413345540.8859944        3040636.5637329221        1423355750.7998617     
  -1368131456.5560892        5906676.0272660851        1425228126.1457117     
  -1323123214.6188545        8086574.1818907261        1430730210.9385386     
  -3353314.8805419421       -12135678.598199503        1526656313.3886194     
  -3989900.4284929084       -13413684.639684690        1522178045.4980462     
  -4542091.8774658758       -14410377.017910229        1522302600.5697131     
  -5009889.2274584109       -15125755.732867479        1527029978.6036208     
  -5393292.4784749821       -15559820.784571521        1536360179.5997648     
  -330685647.41501111       -6297072.6831384003        1504177634.9820936     
  -318664245.86996561       -6572355.6735771000        1499265752.3223839     
  -306683552.15107369       -6983331.4178599566        1499256562.2217293     
  -294743566.25833696       -7529999.9159944504        1504150064.6801291     
  -282844288.19175601       -8212361.1679806709        1513946259.6975844     
  -659758074.88288856       -980495.24810981750        1480697058.4382348     
  -634221915.96822691        3975.8954980671406        1475205608.7634006     
  -608851566.80485249        435747.86814567447        1474916721.2444348     
  -583647027.39276922        314820.66982245445        1479830395.8813400     
  -558608297.73197520       -358805.69946461916        1489946632.6741145     
  -990570597.28416896        3814053.7069012523        1456214583.7570531     
  -950662910.72327745        6315310.0675310493        1449997614.8210988     
  -911046135.83880520        7846860.8400957584        1449283077.6378329     
  -871720272.63076222        8408706.0245661139        1454070972.2072499     
  -832685321.09913874        8000845.6209681630        1464361298.5293596     
  -1323123214.6188545        8086574.1818907261        1430730210.9385386     
  -1267987230.1351159        12361646.842534363        1423641770.4954774     
  -1213267259.2529328        15250007.497992694        1422355631.4019201     
  -1158963301.9723089        16751656.148251832        1426871793.6578631     
  -1105075358.2932456        16866592.793311298        1437190257.2633078     
  -5393292.4784749821       -15559820.784571521        1536360179.5997648     
  -6497477.2131951638       -17460937.352152973        1528729956.5300472     
  -8510770.5990604367       -22392416.090215981        1525796097.3526540     
  -11433172.636063941       -30354256.998739760        1527558602.0675936     
  -15264683.324209241       -41346460.077738278        1534017470.6748695     
  -282844288.19175601       -8212361.1679806709        1513946259.6975844     
  -271967326.79864299       -9941819.1255852282        1506007107.2256031     
  -261537834.52679080       -13162840.820722386        1502548243.5880880     
  -251555811.37619948       -17875426.253397107        1503569668.7850428     
  -242021257.34686920       -24079575.423607767        1509071382.8164668     
  -558608297.73197520       -358805.69946461916        1489946632.6741145     
  -536367547.51920533       -2101812.2395376861        1482237130.2513988     
  -514112626.89781570       -3797584.0842146575        1478791841.6052890     
  -491843535.86780411       -5446121.2334853709        1479610766.7357857     
  -469560274.42917407       -7047423.6873574257        1484693905.6428895     
  -832685321.09913874        8000845.6209681630        1464361298.5293596     
  -799698139.37488687        6059083.3059703410        1457420025.6074347     
  -766235147.71213329        5703354.1193140745        1454526891.4042561     
  -732296346.11087978        6933658.0609901249        1455681895.9198227     
  -697881734.57112718        9749995.1309951544        1460885039.1541336     
  -1105075358.2932456        16866592.793311298        1437190257.2633078     
  -1061959102.3656904        14540867.510933459        1431555793.2937040     
  -1017905396.9697528        15339973.789832234        1429753392.9849870     
  -972914242.10543168        19263911.630007863        1431783056.3371515     
  -926985637.77272987        26312681.031452835        1437644783.3502004     
  -15264683.324209241       -41346460.077738278        1534017470.6748695     
  -21385094.402990218       -57171314.507109970        1531394859.6275136     
  -29330010.830521002       -79077853.432314351        1530419723.5762250     
  -39099432.606813267       -107066076.85339031        1531092062.5209990     
  -50693359.731859446       -141135984.77031270        1533411876.4618390     
  -242021257.34686920       -24079575.423607767        1509071382.8164668     
  -239213382.35235476       -34339462.539154708        1505732271.2018723     
  -237301599.27058408       -47586322.697178453        1506329373.7290182     
  -236285908.10155314       -63820155.897669882        1510862690.3979104     
  -236166308.84526318       -83040962.140629798        1519332221.2085359     
  -469560274.42917407       -7047423.6873574257        1484693905.6428895     
  -451284858.65943271       -9780567.0785151422        1481721442.4697361     
  -432977121.36642104       -12405972.058770567        1484973932.5839984     
  -414637062.55013192       -14923638.628099278        1494451375.9856868     
  -396264682.21056807       -17333566.786517262        1510153772.6747861     
  -697881734.57112718        9749995.1309951544        1460885039.1541336     
  -657599523.32422233        16505371.874811739        1459362373.4311047     
  -616356577.11803639        26463198.482901722        1466353400.1411693     
  -574152895.95254993        39623474.955321968        1481858119.2843363     
  -530988479.82778031        55986201.292023093        1505876530.8605945     
  -926985637.77272987        26312681.031452835        1437644783.3502004     
  -858157376.34671974        44518354.320839584        1438655064.0859773     
  -787439966.52542388        69021188.927849054        1450467776.4005291     
  -714833408.30880857        99821184.852589369        1473082920.2938557     
  -640337701.69689357        136918342.09499314        1506500495.7659569     
  -1756036343.4129319       -526810903.02387959        680068357.94819176     
  -1784060807.3275003       -500063371.77386922        806478272.75310922     
  -1809164342.1343880       -463579410.16492081        925782401.14795244     
  -1831346947.8335938       -417359018.19703370        1037980743.1327207     
  -1850608624.4251175       -361402195.87020761        1143073298.7074151     
  -2201712696.8600230       -660513809.05800688        696462993.39364660     
  -2238338291.4290690       -613881207.24756420        813884706.81333959     
  -2272924564.8052440       -560450868.12755024        927207089.85648584     
  -2305471516.9885478       -500222791.69796550        1036430142.5230856     
  -2335979147.9789805       -433196977.95880955        1141553864.8131385     
  -2685631646.7184777       -805689494.01554334        722012442.33688521     
  -2722268497.5604944       -736594859.33021629        829417411.80407500     
  -2757747635.1244493       -663641180.38468504        935729506.92824590     
  -2792069059.4103422       -586828457.17894936        1040948727.7093982     
  -2825232770.4181752       -506156689.71301043        1145075074.1475317     
  -3207793192.9882984       -962337957.89648950        756716704.77790737     
  -3235851425.7217760       -868204328.02182519        853076387.72531569     
  -3263633553.0920024       -773150346.93632400        951349652.36323321     
  -3291139575.0989790       -677176014.63998640        1051536498.6916592     
  -3318369491.7427025       -580281331.13281155        1153636926.7105944     
  -3768197335.6694832       -1130459200.7008450        800575780.71671355     
  -3779087075.9129148       -1008709613.3223912        884861634.57706177     
  -3790582318.7079053       -888978367.78246772        974067526.16144669     
  -3802683064.0544543       -771265464.08107460        1068193455.4698683     
  -3815389311.9525638       -655570902.21821284        1167239422.5023270     
  -1850608624.4251175       -361402195.87020761        1143073298.7074151     
  -1835268056.9527881       -295736416.29908603        1190614976.9485509     
  -1823291308.2418938       -241283365.93274838        1240445775.6295424     
  -1814678378.2924352       -198043044.77119547        1292565694.7503905     
  -1809429267.1044109       -166015452.81442475        1346974734.3110945     
  -2335979147.9789805       -433196977.95880955        1141553864.8131385     
  -2312403961.1758142       -352143081.80787504        1182842206.9147668     
  -2292316510.6817632       -282714973.35398936        1224624647.3126097     
  -2275716796.4968262       -224912652.59714961        1266901186.0066679     
  -2262604818.6210032       -178736119.53735733        1309671822.9969409     
  -2825232770.4181752       -506156689.71301043        1145075074.1475317     
  -2798551598.9802909       -411253267.39109951        1179965509.6373603     
  -2775482081.3991995       -328388691.25849962        1213555021.2797627     
  -2756024217.6749024       -257562961.31520951        1245843609.0747383     
  -2740178007.8073969       -198776077.56123102        1276831273.0222890     
  -3318369491.7427025       -580281331.13281155        1153636926.7105944     
  -3293710970.3662176       -473066973.04875934        1181984885.1163311     
  -3272788020.3942051       -378304519.64628041        1207236897.5310004     
  -3255600641.8266644       -295993970.92537653        1229392963.9546025     
  -3242148834.6635966       -226135326.88604772        1248453084.3871367     
  -3815389311.9525638       -655570902.21821284        1167239422.5023270     
  -3797882075.3335943       -537584198.78085327        1188900333.3516793     
  -3784234327.6667776       -432462458.51733315        1205670276.0663240     
  -3774446068.9521112       -340205681.42764628        1217549250.6462591     
  -3768517299.1895962       -260813867.51180053        1224537257.0914867     
  -1809429267.1044109       -166015452.81442475        1346974734.3110945     
  -1778829437.5188353       -133486868.21243167        1364730712.2864323     
  -1749549892.1656978       -105359231.05189538        1383341050.7582004     
  -1721590631.0449982       -81632541.332818627        1402805749.7263980     
  -1694951654.1567349       -62306799.055199981        1423124809.1910264     
  -2262604818.6210032       -178736119.53735733        1309671822.9969409     
  -2223135008.7512326       -134338239.76501596        1317615225.4313211     
  -2186563838.1013389       -99602490.725593090        1328788261.0101099     
  -2152891306.6713190       -74528872.419084430        1343190929.7333071     
  -2122117414.4611745       -59117384.845493793        1360823231.6009128     
  -2740178007.8073969       -198776077.56123102        1276831273.0222890     
  -2685051724.3734961       -140472954.63456082        1273120685.7637010     
  -2634402435.1469069       -97093145.732266545        1275015004.2974994     
  -2588230140.1276298       -68636650.854347944        1282514228.6236856     
  -2546534839.3156676       -55103470.000805020        1295618358.7422574     
  -3242148834.6635966       -226135326.88604772        1248453084.3871367     
  -3164579584.3856230       -151891012.82106483        1231247093.2835705     
  -3093065683.3024015       -97831196.071920037        1222021280.6203690     
  -3027607131.4139295       -63955876.638606668        1220775646.3975332     
  -2968203928.7202077       -50265054.521130681        1227510190.6150610     
  -3768517299.1895962       -260813867.51180053        1224537257.0914867     
  -3661718588.7876153       -168592414.32452834        1191994447.9909320     
  -3562553582.5678229       -101816641.74455023        1169807089.9787180     
  -3471022280.5302181       -60486549.771862507        1157975183.0548501     
  -3387124682.6748018       -44602138.406470776        1156498727.2193241     
  -1694951654.1567349       -62306799.055199981        1423124809.1910264     
  -1645028315.0135331       -40306783.247333407        1416747776.1771863     
  -1596627132.3936462       -23380622.517184794        1415851318.3822508     
  -1549748106.2970800       -11528316.864770770        1420435435.8062222     
  -1504391236.7238312       -4749866.2900820374        1430500128.4490995     
  -2122117414.4611745       -59117384.845493793        1360823231.6009128     
  -2059481451.7460833       -40268832.031758904        1353629145.3840702     
  -1997983040.5218925       -25212117.521024346        1351460685.8484211     
  -1937622180.7885995       -13947241.313281178        1354317852.9939661     
  -1878398872.5462041       -6474203.4085342884        1362200646.8207014     
  -2546534839.3156676       -55103470.000805020        1295618358.7422574     
  -2472486105.9935837       -39796336.070678830        1288055925.1935709     
  -2399190319.1299772       -26999023.668810487        1285064169.7883637     
  -2326647478.7248511       -16711532.795212150        1286643092.5266368     
  -2254857584.7782040       -8933863.4498722553        1292792693.4083903     
  -2968203928.7202077       -50265054.521130681        1227510190.6150610     
  -2884042277.7560272       -38889295.364076853        1220028115.6056850     
  -2800248968.2179022       -28741340.960549474        1216661770.2020781     
  -2716824000.1058402       -19821191.310562849        1217411154.4042363     
  -2633767373.4198360       -12128846.414099336        1222276268.2121608     
  -3387124682.6748018       -44602138.406470776        1156498727.2193241     
  -3294149967.0334158       -37547709.911960244        1149545716.6204164     
  -3201158987.7856679       -30439069.396244407        1146253487.0895631     
  -3108151744.9315619       -23276216.859336138        1146622038.6267636     
  -3015128238.4710917       -16059152.301214933        1150651371.2320170     
  -1504391236.7238312       -4749866.2900820374        1430500128.4490995     
  -1458765467.6085761       -511544.20872008801        1425113084.9009914     
  -1413345540.8859944        3040636.5637329221        1423355750.7998617     
  -1368131456.5560892        5906676.0272660851        1425228126.1457117     
  -1323123214.6188545        8086574.1818907261        1430730210.9385386     
  -1878398872.5462041       -6474203.4085342884        1362200646.8207014     
  -1822847870.4237738       -2402000.0493900776        1355821793.2539892     
  -1767675235.0805187        408980.71250486374        1353486359.9509447     
  -1712880966.5164437        1958738.8771350384        1355194346.9115686     
  -1658465064.7315426        2247274.4445127249        1360945754.1358593     
  -2254857584.7782040       -8933863.4498722553        1292792693.4083903     
  -2188199318.7437730       -4673169.5415008068        1285220751.3721550     
  -2122091943.8750210       -2248779.5187268257        1282105940.4162762     
  -2056535460.1719441       -1660693.3815395832        1283448260.5407534     
  -1991529867.6345475       -2908911.1299519539        1289247711.7455928     
  -2633767373.4198360       -12128846.414099336        1222276268.2121608     
  -2554819812.5685744       -7325052.6850552559        1213309959.2554841     
  -2476595667.2694941       -4932644.1299465895        1209214492.1958539     
  -2399094937.5225906       -4951620.7487598658        1209989867.0332716     
  -2322317623.3278680       -7381982.5415140390        1215636083.7677357     
  -3015128238.4710917       -16059152.301214933        1150651371.2320170     
  -2922709351.8981738       -10357649.480046749        1140089416.9039812     
  -2831186405.2639384       -7642613.1211528778        1134812015.2896791     
  -2740559398.5683818       -7914043.2245231867        1134819166.3891165     
  -2650828331.8115091       -11171939.790172219        1140110870.2022908     
  -1323123214.6188545        8086574.1818907261        1430730210.9385386     
  -1267987230.1351159        12361646.842534363        1423641770.4954774     
  -1213267259.2529328        15250007.497992694        1422355631.4019201     
  -1158963301.9723089        16751656.148251832        1426871793.6578631     
  -1105075358.2932456        16866592.793311298        1437190257.2633078     
  -1658465064.7315426        2247274.4445127249        1360945754.1358593     
  -1588966013.6421275        6017334.3228203058        1354011229.7433574     
  -1519776565.3210657        8755384.9732812643        1352439458.1862586     
  -1450896719.7683644        10461426.395868659        1356230439.4645681     
  -1382326476.9840221        11135458.590602279        1365384173.5782790     
  -1991529867.6345475       -2908911.1299519539        1289247711.7455928     
  -1908923602.8368723       -20619.903207063675        1282591249.3757155     
  -1826520529.9743528        2190364.8730173111        1280857991.3271444     
  -1744320649.0469894        3724043.1987179518        1284047937.5998843     
  -1662323960.0547817        4580415.0739051104        1292161088.1939318     
  -2322317623.3278680       -7381982.5415140390        1215636083.7677357     
  -2227859997.7193494       -5752215.8355524540        1209381829.3925502     
  -2133499153.2127910       -4445052.8027870655        1207611230.8245778     
  -2039235089.8081834       -3460493.4431966543        1210324288.0638182     
  -1945067807.5055358       -2798537.7568004131        1217521001.1102717     
  -2650828331.8115091       -11171939.790172219        1140110870.2022908     
  -2545775198.2895675       -11177453.474228501        1134382969.7938662     
  -2440712435.0363836       -11150868.054141998        1132699176.6785593     
  -2335640042.0519524       -11092183.529897213        1135059490.8563659     
  -2230558019.3362718       -11001399.901490450        1141463912.3272929     
  -1105075358.2932456        16866592.793311298        1437190257.2633078     
  -1061959102.3656904        14540867.510933459        1431555793.2937040     
  -1017905396.9697528        15339973.789832234        1429753392.9849870     
  -972914242.10543168        19263911.630007863        1431783056.3371515     
  -926985637.77272987        26312681.031452835        1437644783.3502004     
  -1382326476.9840221        11135458.590602279        1365384173.5782790     
  -1329340263.4710164        7487461.7571457624        1359768411.2467320     
  -1275811581.4183149        5647693.3893504739        1358217999.9087422     
  -1221740430.8259120        5616153.4872168303        1360732939.5643106     
  -1167126811.6938121        7392842.0507506728        1367313230.2134345     
  -1662323960.0547817        4580415.0739051104        1292161088.1939318     
  -1598801253.7201250       -189892.73978912830        1286103216.4169812     
  -1535131059.7744470       -4468575.1834188700        1284343982.9662573     
  -1471313378.2177532       -8255632.2569856644        1286883387.8417652     
  -1407348209.0500407       -11551063.960498691        1293721431.0435076     
  -1945067807.5055358       -2798537.7568004131        1217521001.1102717     
  -1870342073.1130095       -8491195.9798523188        1210560208.8044467     
  -1795863832.0381482       -15008831.928453922        1208131342.1575310     
  -1721633084.2809479       -22351445.602595925        1210234401.1695180     
  -1647649829.8414195       -30519037.002304733        1216869385.8404090     
  -2230558019.3362718       -11001399.901490450        1141463912.3272929     
  -2143962721.6496685       -17416447.963047743        1133139388.4091382     
  -2058009898.2094119       -25973076.845752716        1129580077.4825618     
  -1972699549.0154991       -36671286.549606800        1130785979.5475640     
  -1888031674.0679359       -49511077.074628830        1136757094.6041431     
  -926985637.77272987        26312681.031452835        1437644783.3502004     
  -858157376.34671974        44518354.320839584        1438655064.0859773     
  -787439966.52542388        69021188.927849054        1450467776.4005291     
  -714833408.30880857        99821184.852589369        1473082920.2938557     
  -640337701.69689357        136918342.09499314        1506500495.7659569     
  -1167126811.6938121        7392842.0507506728        1367313230.2134345     
  -1075209557.0672431        22113054.176649094        1368235127.6724834     
  -982679320.70738685        38876538.746837795        1376919694.7447615     
  -889536102.61424375        57683295.761319041        1393366931.4302642     
  -795779902.78781414        78533325.220089555        1417576837.7290039     
  -1407348209.0500407       -11551063.960498691        1293721431.0435076     
  -1301026995.4101744       -2921823.2542305589        1293066084.1201310     
  -1195368966.6990480        3496801.0229105949        1297133644.8444467     
  -1090374122.9166441        7704808.8709657788        1305924113.2164447     
  -986042464.06298459        9702200.2898976803        1319437489.2361231     
  -1647649829.8414195       -30519037.002304733        1216869385.8404090     
  -1535609691.3755288       -30586277.971847057        1213147933.4289289     
  -1425508904.5003917       -37118024.243908226        1211109626.6995919     
  -1317347469.2160127       -50114275.818487942        1210754465.6523969     
  -1211125385.5223777       -69575032.695557714        1212082450.2873275     
  -1888031674.0679359       -49511077.074628830        1136757094.6041431     
  -1778957644.9633002       -60880309.976188779        1128480675.5988710     
  -1673099134.1114407       -82967937.053660989        1118847640.3101933     
  -1570456141.5123456       -115773958.30701494        1107857988.7381008     
  -1471028667.1660218       -159298373.73628163        1095511720.8826060     
  -3768197335.6694832       -1130459200.7008450        800575780.71671355     
  -3779087075.9129148       -1008709613.3223912        884861634.57706177     
  -3790582318.7079053       -888978367.78246772        974067526.16144669     
  -3802683064.0544543       -771265464.08107460        1068193455.4698683     
  -3815389311.9525638       -655570902.21821284        1167239422.5023270     
  -4339700846.6962461       -1301910254.0088739        858745169.14536190     
  -4335206965.7457113       -1125736730.5220847        942348447.40897894     
  -4331847550.0518761       -953344757.89096248        1020305872.8419948     
  -4329622599.6147413       -784734336.11550701        1092617445.4444089     
  -4328532114.4343071       -619905465.19571865        1159283165.2162218     
  -4895160498.0028028       -1468548149.4008410        936380369.05591130     
  -4905471254.5858383       -1247007167.4239774        1018683948.5667995     
  -4917445439.1307154       -1031010945.3199174        1084775784.6924479     
  -4931083051.6374340       -820559483.08866084        1134655877.4328570     
  -4946384092.1059914       -615652780.73020768        1168324226.7880263     
  -5434576289.5891514       -1630372886.8767455        1033481380.4483618     
  -5489879942.4332972       -1372520924.0280695        1113868138.0505235     
  -5547375985.9444237       -1121976930.0693326        1167477261.7128072     
  -5607064420.1225319       -878740905.00053680        1194308751.4352126     
  -5668945244.9676237       -642812848.82168031        1194362607.2177410     
  -5957948221.4552937       -1787384466.4365880        1150048203.3227131     
  -6088433029.2880850       -1502278000.3343601        1227901015.8601503     
  -6221639190.4929991       -1226242712.1392088        1268410303.9030712     
  -6357566705.0700369       -959278601.85113394        1271576067.4514763     
  -6496215573.0191965       -701385669.47013593        1237398306.5053651     
  -3815389311.9525638       -655570902.21821284        1167239422.5023270     
  -3797882075.3335943       -537584198.78085327        1188900333.3516793     
  -3784234327.6667776       -432462458.51733315        1205670276.0663240     
  -3774446068.9521112       -340205681.42764628        1217549250.6462591     
  -3768517299.1895962       -260813867.51180053        1224537257.0914867     
  -4328532114.4343071       -619905465.19571865        1159283165.2162218     
  -4298148571.8596029       -464122284.12352288        1141329449.4202039     
  -4278388986.2694335       -343752292.99977779        1129449288.4244978     
  -4269253357.6637969       -258795491.82447958        1123642682.2291033     
  -4270741686.0426979       -209251880.59763455        1123909630.8340206     
  -4946384092.1059914       -615652780.73020768        1168324226.7880263     
  -4871797035.1897821       -412674959.50744271        1102864004.9755235     
  -4814598403.2904882       -267658555.00774074        1054441860.8983527     
  -4774788196.4081144       -180603567.23110223        1023057794.5565143     
  -4752366414.5426598       -151509996.17752576        1008711805.9500076     
  -5668945244.9676237       -642812848.82168031        1194362607.2177410     
  -5518827465.3241329       -383242224.93261552        1073504000.0176389     
  -5392862578.7299404       -204181244.54122329        980647993.48788857     
  -5291050585.1850567       -105629907.64751005        915794587.62849069     
  -5213391484.6894712       -87588214.251472473        878943782.43944514     
  -6496215573.0191965       -701385669.47013593        1237398306.5053651     
  -6239239862.2626534       -375824080.39903736        1053249434.5465490     
  -6013181512.5877953       -153320361.60022831        908067686.19310510     
  -5818040523.9946251       -33874513.073709011        801853061.44503438     
  -5653816896.4831409       -17486534.819475889        734605560.30233479     
  -3768517299.1895962       -260813867.51180053        1224537257.0914867     
  -3661718588.7876153       -168592414.32452834        1191994447.9909320     
  -3562553582.5678229       -101816641.74455023        1169807089.9787180     
  -3471022280.5302181       -60486549.771862507        1157975183.0548501     
  -3387124682.6748018       -44602138.406470776        1156498727.2193241     
  -4270741686.0426979       -209251880.59763455        1123909630.8340206     
  -4148229878.6650124       -145261519.13319540        1090515232.1277235     
  -4030096283.8562288       -95865199.565102100        1065367247.3273555     
  -3916340901.6163516       -61062921.893355608        1048465676.4329199     
  -3806963731.9453754       -40854686.117953777        1039810519.4444143     
  -4752366414.5426598       -151509996.17752576        1008711805.9500076     
  -4620167330.7104454       -117558472.59227300        978263891.18679833     
  -4489090967.8338470       -87349352.192417622        953953353.14710832     
  -4359137325.9128704       -60882634.977961302        935780191.83093643     
  -4230306404.9475136       -38158320.948904753        923744407.23828304     
  -5213391484.6894712       -87588214.251472473        878943782.43944514     
  -5077530944.9239082       -85483274.701759100        855240425.16815805     
  -4939537634.5006771       -76269099.626497984        835565407.43797481     
  -4799411553.4197826       -59945689.025685072        819918729.24889946     
  -4657152701.6812229       -36513042.899326086        808300390.60092962     
  -5653816896.4831409       -17486534.819475889        734605560.30233479     
  -5520320721.3054047       -49035925.461656809        721444834.07179761     
  -5381436283.8567162       -62624441.867338657        710203410.19995725     
  -5237163584.1370811       -58252084.036528111        700881288.68680763     
  -5087502622.1464977       -35918851.969220161        693478469.53235352     
  -3387124682.6748018       -44602138.406470776        1156498727.2193241     
  -3294149967.0334158       -37547709.911960244        1149545716.6204164     
  -3201158987.7856679       -30439069.396244407        1146253487.0895631     
  -3108151744.9315619       -23276216.859336138        1146622038.6267636     
  -3015128238.4710917       -16059152.301214933        1150651371.2320170     
  -3806963731.9453754       -40854686.117953777        1039810519.4444143     
  -3702279553.2346306       -29778753.653617859        1031602598.4667493     
  -3598310176.9152017       -21085495.826991320        1027813136.3275006     
  -3495055602.9870830       -14774912.638078690        1028442133.0266634     
  -3392515831.4502831       -10847004.086880445        1033489588.5642443     
  -4230306404.9475136       -38158320.948904753        923744407.23828304     
  -4111747969.5378113       -22411446.425863504        913428665.55124092     
  -3994635402.5170970       -11484133.199448109        908289060.47297442     
  -3878968703.8853722       -5376381.2696578503        908325592.00348496     
  -3764747873.6426315       -4088190.6364922523        913538260.14276814     
  -4657152701.6812229       -36513042.899326086        808300390.60092962     
  -4522555215.9429550       -15445788.228695631        795023917.87389123     
  -4390134664.5913582       -1634981.5136146545        787681259.52598894     
  -4259891047.6264162        4919377.2459378242        786272415.55722260     
  -4131824365.0481362        4217288.0499496460        790797385.96759439     
  -5087502622.1464977       -35918851.969220161        693478469.53235352     
  -4934701292.4500694       -8881779.0621266365        676388355.43469882     
  -4784807963.1379795        8461959.2305121422        665989733.48654163     
  -4637822634.2102242        16112362.908700466        662282603.68788135     
  -4493745305.6668024        14069431.972441435        665266966.03871894     
  -3015128238.4710917       -16059152.301214933        1150651371.2320170     
  -2922709351.8981738       -10357649.480046749        1140089416.9039812     
  -2831186405.2639384       -7642613.1211528778        1134812015.2896791     
  -2740559398.5683818       -7914043.2245231867        1134819166.3891165     
  -2650828331.8115091       -11171939.790172219        1140110870.2022908     
  -3392515831.4502831       -10847004.086880445        1033489588.5642443     
  -3287928637.1924582       -8105558.0048835278        1023670951.2751616     
  -3183813908.2040944       -6938996.1544274092        1018611087.9697701     
  -3080171644.4851995       -7347318.5355291367        1018309998.6480733     
  -2977001846.0357604       -9330525.1481621265        1022767683.3100661     
  -3764747873.6426315       -4088190.6364922523        913538260.14276814     
  -3649494596.6428857       -4757468.7765629292        904956993.67339361     
  -3534290310.2433829       -5590048.9174449444        900608722.45766783     
  -3419135014.4441285       -6585931.0591552258        900493446.49559069     
  -3304028709.2451167       -7745115.2016787529        904611165.78715801     
  -4131824365.0481362        4217288.0499496460        790797385.96759439     
  -4007407230.2494531       -313381.79507946968        783947544.09868360     
  -3882615611.3817992       -3595771.4102058411        780804918.75337434     
  -3757449508.4451709       -5629880.7954170704        781369509.93166864     
  -3631908921.4395685       -6415709.9507279396        785641317.63356352     
  -4493745305.6668024        14069431.972441435        665266966.03871894     
  -4361666538.0121708        5226702.9395470619        660642602.55102253     
  -4228789811.6193409       -956163.63268971443        659199676.85688603     
  -4095115126.4883304       -4479167.7443223000        660938188.95630491     
  -3960642482.6191278       -5342309.3953092098        665858138.84928370     
  -2650828331.8115091       -11171939.790172219        1140110870.2022908     
  -2545775198.2895675       -11177453.474228501        1134382969.7938662     
  -2440712435.0363836       -11150868.054141998        1132699176.6785593     
  -2335640042.0519524       -11092183.529897213        1135059490.8563659     
  -2230558019.3362718       -11001399.901490450        1141463912.3272929     
  -2977001846.0357604       -9330525.1481621265        1022767683.3100661     
  -2860664269.9135065       -8143581.1296130419        1016880734.2470542     
  -2744368634.6782656       -7096440.0677827597        1015354835.8059498     
  -2628114940.3300490       -6189101.9626868963        1018189987.9867566     
  -2511903186.8688440       -5421566.8143087626        1025386190.7894704     
  -3304028709.2451167       -7745115.2016787529        904611165.78715801     
  -3175501138.1545663       -5094047.7701230049        898505002.34824777     
  -3047067078.5692945       -2754685.3561702967        897076832.86004078     
  -2918726530.4893060       -727027.95982122421        900326657.32253349     
  -2790479493.9145956        988924.41892707348        908254475.73572981     
  -3631908921.4395685       -6415709.9507279396        785641317.63356352     
  -3490285803.0127473       -2028853.3957715034        779255774.09745097     
  -3348807766.7094669        1874396.0807025433        777865167.84083211     
  -3207474812.5297337        5294038.4786849022        781469498.86370575     
  -3066286940.4735422        8230073.7981971502        790068767.16607261     
  -3960642482.6191278       -5342309.3953092098        665858138.84928370     
  -3805018264.4880538        1052001.9934344292        659133049.49465895     
  -3649590699.0987825        6790804.2428293228        657719840.74832225     
  -3494359786.4513226        11874097.352852821        661618512.61026692     
  -3339325526.5456719        16301881.323518991        670829065.08050096     
  -2230558019.3362718       -11001399.901490450        1141463912.3272929     
  -2143962721.6496685       -17416447.963047743        1133139388.4091382     
  -2058009898.2094119       -25973076.845752716        1129580077.4825618     
  -1972699549.0154991       -36671286.549606800        1130785979.5475640     
  -1888031674.0679359       -49511077.074628830        1136757094.6041431     
  -2511903186.8688440       -5421566.8143087626        1025386190.7894704     
  -2413562585.9006658       -10856269.976093292        1016996131.3274535     
  -2315734478.7019134       -17999285.702614903        1012649474.1135852     
  -2218418865.2725692       -26850613.993840218        1012346219.1478636     
  -2121615745.6126494       -37410254.849808216        1016086366.4302855     
  -2790479493.9145956        988924.41892707348        908254475.73572981     
  -2682455906.0746613       -4084128.7660434246        899950524.61960506     
  -2574814831.5272074       -10432226.259297252        894968165.00819516     
  -2467556270.2722430       -18055368.060847998        893307396.90150023     
  -2360680222.3097706       -26953554.170695066        894968220.29951763     
  -3066286940.4735422        8230073.7981971502        790068767.16607261     
  -2950642682.1716433        2899975.6671129465        782002568.28558958     
  -2835250956.6853094       -3271898.5158392191        776536150.16639018     
  -2720111764.0145273       -10285548.750645638        773669512.80847299     
  -2605225104.1593070       -18140975.037310481        773402656.21183383     
  -3339325526.5456719        16301881.323518991        670829065.08050096     
  -3218122914.1916246        10096043.323367953        663152262.32541156     
  -3097042854.1762018        3481697.5278000832        657353429.58817005     
  -2976085346.4994111       -3541156.0632077456        653432566.86877787     
  -2855250391.1612506       -10972517.449648023        651389674.16723537     
  -1888031674.0679359       -49511077.074628830        1136757094.6041431     
  -1778957644.9633002       -60880309.976188779        1128480675.5988710     
  -1673099134.1114407       -82967937.053660989        1118847640.3101933     
  -1570456141.5123456       -115773958.30701494        1107857988.7381008     
  -1471028667.1660218       -159298373.73628163        1095511720.8826060     
  -2121615745.6126494       -37410254.849808216        1016086366.4302855     
  -2011350769.9111259       -47003403.749712348        1004743217.8307991     
  -1902598837.7081552       -61640030.978136897        995262932.74271929     
  -1795359949.0037498       -81320136.535102904        987645511.16603446     
  -1689634103.7978969       -106043720.42058492        981890953.10076392     
  -2360680222.3097706       -26953554.170695066        894968220.29951763     
  -2240025786.3118925       -32011064.959108233        882544562.65239716     
  -2119181919.0583673       -36437138.228682637        875203248.31149054     
  -1998148620.5491807       -40231773.979393840        872944277.27680385     
  -1876925890.7843461       -43394972.211260438        875767649.54831982     
  -2605225104.1593070       -18140975.037310481        773402656.21183383     
  -2464982694.1656260       -15903293.604405761        761884710.06366384     
  -2322848378.1620803       -7359258.8052750826        758668587.01652026     
  -2178822156.1486545        7491129.3600997925        763754287.07039702     
  -2032904028.1253779        28647870.891689301        777141810.22531140     
  -2855250391.1612506       -10972517.449648023        651389674.16723537     
  -2686221493.4723010        1319910.3144274950        642763660.06460130     
  -2513598215.0192776        25593607.292089105        645658948.85779893     
  -2337380555.8021636        61848573.483384967        660075540.54683542     
  -2157568515.8209710        110084808.88827074        686013435.13169980     
  -5957948221.4552937       -1787384466.4365880        1150048203.3227131     
  -6088433029.2880850       -1502278000.3343601        1227901015.8601503     
  -6221639190.4929991       -1226242712.1392088        1268410303.9030712     
  -6357566705.0700369       -959278601.85113394        1271576067.4514763     
  -6496215573.0191965       -701385669.47013593        1237398306.5053651     
  -6810620360.5310392       -2043186108.1593118        1353770841.9204071     
  -6828540089.2326851       -1395487260.1375027        1202747959.5157304     
  -6897824868.2701006       -919005246.56826615        1091981958.9557796     
  -7018474697.6432877       -613740067.45160294        1021472840.2405542     
  -7190489577.3522472       -479691722.78751302        991220603.37005472     
  -8337936773.7462053       -2501381032.1238613        1712339300.4828854     
  -8021575976.6331549       -1424575168.1774063        1275689743.3451705     
  -7805223926.8195248       -681131795.22902060        956897474.39142334     
  -7688880624.3053131       -271050913.27870417        755962493.62164426     
  -7672546069.0905247       -194332522.32645750        672884801.03583276     
  -10539897461.100788       -3161969238.3302364        2225753579.0101471     
  -9667540691.4894924       -1589541724.4540706        1446726367.3484709     
  -8943836366.1412678       -512622358.12147093        863156850.21000433     
  -8368784485.0561132        68788860.667561531        475045027.59474713     
  -7942385048.2340279        154691931.91302776        282390899.50269896     
  -13416502422.594788       -4024950726.7784362        2894013677.5021930     
  -11766434233.801701       -1890386928.9674954        1715857831.5256310     
  -10313662186.235332       -413476935.24561644        810760086.41152036     
  -9058186279.8956833        405779254.38719749        178720442.15986219     
  -8000006514.7827549        567381639.93094826       -180261101.22934514     
  -6496215573.0191965       -701385669.47013593        1237398306.5053651     
  -6239239862.2626534       -375824080.39903736        1053249434.5465490     
  -6013181512.5877953       -153320361.60022831        908067686.19310510     
  -5818040523.9946251       -33874513.073709011        801853061.44503438     
  -5653816896.4831409       -17486534.819475889        734605560.30233479     
  -7190489577.3522472       -479691722.78751302        991220603.37005472     
  -6900523978.3822403       -304382977.25905514        846897786.15210021     
  -6623369423.1902971       -171777710.99081659        723658415.54127872     
  -6359025911.7764206       -81875923.982800722        621502491.53758943     
  -6107493444.1406136       -34677616.235007763        540430014.14103246     
  -7672546069.0905247       -194332522.32645750        672884801.03583276     
  -7400686801.9020233       -184605486.33913231        589512075.41296387     
  -7123532261.1879702       -157227538.59995699        509339119.39898765     
  -6841082446.9483576       -112198679.10893631        432365932.99390429     
  -6553337359.1831951       -49518907.866071224        358592516.19771248     
  -7942385048.2340279        154691931.91302776        282390899.50269896     
  -7739728332.8220062       -16491607.639266968        281092302.32913989     
  -7513670026.5808067       -109669844.42764711        265109797.76623172     
  -7264210129.5104361       -124842778.45211744        234443385.81397763     
  -6991348641.6108894       -62010409.712669849        189093066.47237602     
  -8000006514.7827549        567381639.93094826       -180261101.22934514     
  -7917648571.1421833        199958658.84053802       -78361533.099374503     
  -7793782719.3688126       -29104628.473886013       -9029549.3569861650     
  -7628408959.4626474       -119808222.01233435        27734849.997810785     
  -7421527291.4236937       -72152121.774801254        31931664.965022787     
  -5653816896.4831409       -17486534.819475889        734605560.30233479     
  -5520320721.3054047       -49035925.461656809        721444834.07179761     
  -5381436283.8567162       -62624441.867338657        710203410.19995725     
  -5237163584.1370811       -58252084.036528111        700881288.68680763     
  -5087502622.1464977       -35918851.969220161        693478469.53235352     
  -6107493444.1406136       -34677616.235007763        540430014.14103246     
  -5959298201.8231001       -36415480.930286646        534023285.94744611     
  -5810117193.6490040       -34867459.436953545        530124647.20724928     
  -5659950419.6183262       -30033551.755017281        528734097.92043608     
  -5508797879.7310629       -21913757.884466648        529851638.08701229     
  -6553337359.1831951       -49518907.866071224        358592516.19771248     
  -6388760800.8839283       -20940571.961857319        353803540.22431815     
  -6227600973.1424446       -3751337.9169201851        352111440.79900265     
  -6069857875.9587431        2048794.2687439919        353516217.92176747     
  -5915531509.3328238       -3540175.4048748016        358017871.59261274     
  -6991348641.6108894       -62010409.712669849        189093066.47237602     
  -6808708518.4878845       -2611198.5563602448        180785596.90241295     
  -6633887622.3370333        30723922.692773819        176163790.97522157     
  -6466885953.1583309        37994954.034744501        175227648.69080046     
  -6307703510.9517784        19201895.469552517        177977170.04915479     
  -7421527291.4236937       -72152121.774801254        31931664.965022787     
  -7219141354.6349792        18572639.286182404        14969455.981729871     
  -7028977141.2327757        68558322.392118454        2281697.7358995308     
  -6851034651.2170887        77804927.543002605       -6131609.7724643908     
  -6685313884.5879192        46312454.738836765       -10270466.543361893     
  -5087502622.1464977       -35918851.969220161        693478469.53235352     
  -4934701292.4500694       -8881779.0621266365        676388355.43469882     
  -4784807963.1379795        8461959.2305121422        665989733.48654163     
  -4637822634.2102242        16112362.908700466        662282603.68788135     
  -4493745305.6668024        14069431.972441435        665266966.03871894     
  -5508797879.7310629       -21913757.884466648        529851638.08701229     
  -5344754122.1944675       -9808152.3017706871        514987666.62978381     
  -5181618033.9755430       -728111.11130571365        505525947.66728020     
  -5019389615.0742846        5326365.6869268417        501466481.19949764     
  -4858068865.4907036        8355278.0929231644        502809267.22644138     
  -5915531509.3328238       -3540175.4048748016        358017871.59261274     
  -5743928865.8268375       -7471099.7078025341        347713762.35358661     
  -5571233560.5718575       -7759818.1807522774        341522665.95451111     
  -5397445593.5678864       -4406330.8237118721        339444582.39538455     
  -5222564964.8149090        2589362.3633151054        341479511.67621332     
  -6307703510.9517784        19201895.469552517        177977170.04915479     
  -6132225523.3471823       -1870621.2802300453        174566642.60610899     
  -5953654542.9269276       -12633161.977817059        173979888.34824115     
  -5771990569.6910124       -13085726.623204708        176216907.27554423     
  -5587233603.6394405       -3228315.2163965702        181277699.38802746     
  -6685313884.5879192        46312454.738836765       -10270466.543361893     
  -6509644094.7554998        6993282.9809503555       -4453692.6126561062     
  -6328880981.0407524       -15348142.502519131        2897614.8484563320     
  -6143024543.4436789       -20711821.711560726        11783455.839965492     
  -5952074781.9642830       -9097754.6461944580        22203830.361888349     
  -4493745305.6668024        14069431.972441435        665266966.03871894     
  -4361666538.0121708        5226702.9395470619        660642602.55102253     
  -4228789811.6193409       -956163.63268971443        659199676.85688603     
  -4095115126.4883304       -4479167.7443223000        660938188.95630491     
  -3960642482.6191278       -5342309.3953092098        665858138.84928370     
  -4858068865.4907036        8355278.0929231644        502809267.22644138     
  -4716085796.1742783        4316816.3502326012        498706085.05248296     
  -4574029829.0139465        521347.42056131363        497931481.60398698     
  -4431900964.0097065       -3031128.6960799694        500485456.88095897     
  -4289699201.1615653       -6340611.9997036457        506368010.88339931     
  -5222564964.8149090        2589362.3633151054        341479511.67621332     
  -5070257191.1741028        3481288.7095837593        337051606.43932533     
  -4918601580.5836658        2199338.2212913036        336099420.85980982     
  -4767598133.0436115       -1256489.1016087532        338622954.93766803     
  -4617246848.5539293       -6886193.2590813637        344622208.67290574     
  -5587233603.6394405       -3228315.2163965702        181277699.38802746     
  -5424180723.0116482        2720120.0176353455        175679166.71154833     
  -5262505066.3285131        4077808.7694733143        173703494.62434709     
  -5102206633.5900393        844751.03911161423        175350683.12643680     
  -4943285424.7962170       -6979053.1734299660        180620732.21780494     
  -5952074781.9642830       -9097754.6461944580        22203830.361888349     
  -5777856391.6869135        2033310.2743587494        14588765.869156549     
  -5605740286.2484798        6156759.0651190281        10743702.897607557     
  -5435726465.6489887        3272591.7260777950        10668641.447262108     
  -5267814929.8884382       -6619191.7427651882        14363581.518102191     
  -3960642482.6191278       -5342309.3953092098        665858138.84928370     
  -3805018264.4880538        1052001.9934344292        659133049.49465895     
  -3649590699.0987825        6790804.2428293228        657719840.74832225     
  -3494359786.4513226        11874097.352852821        661618512.61026692     
  -3339325526.5456719        16301881.323518991        670829065.08050096     
  -4289699201.1615653       -6340611.9997036457        506368010.88339931     
  -4121303777.6507440       -1565223.3126785755        499887999.51292777     
  -3952831730.8023891        3465576.4994595051        498293709.21898627     
  -3784283060.6165047        8751787.4367055893        501585140.00157475     
  -3615657767.0930800        14293409.499073029        509762291.86069322     
  -4617246848.5539293       -6886193.2590813637        344622208.67290574     
  -4437297818.3255205       -4095006.8724150658        338706097.37915051     
  -4256998888.6802368       -137489.09616637230        337249547.63017243     
  -4076350059.6180811        4986360.0696465969        340252559.42597049     
  -3895351331.1390533        11276540.625051022        347715132.76653981     
  -4943285424.7962170       -6979053.1734299660        180620732.21780494     
  -4753000386.5123825       -6537348.6857848167        175587343.09333798     
  -4562092172.7323303       -4018392.5440840721        174587355.98188385     
  -4370560783.4560642        577815.25166916847        177620770.88345459     
  -4178406218.6835809        7251274.7014691830        184687587.79803997     
  -5267814929.8884382       -6619191.7427651882        14363581.518102191     
  -5068411482.2113314       -8892248.7527737617        10531736.655480154     
  -4868111582.9586639       -8177133.8442490101        10307134.274121307     
  -4666915232.1304569       -4473847.0172548294        13689774.374024687     
  -4464822429.7266760        2217611.7283174992        20679656.955193181     
  -3339325526.5456719        16301881.323518991        670829065.08050096     
  -3218122914.1916246        10096043.323367953        663152262.32541156     
  -3097042854.1762018        3481697.5278000832        657353429.58817005     
  -2976085346.4994111       -3541156.0632077456        653432566.86877787     
  -2855250391.1612506       -10972517.449648023        651389674.16723537     
  -3615657767.0930800        14293409.499073029        509762291.86069322     
  -3487788859.3076072        7712537.1693229675        501562265.07508779     
  -3359927725.6315618        1105751.1414835453        496698734.21801394     
  -3232074366.0649529       -5526948.5844719410        495171699.28947735     
  -3104228780.6077714       -12185562.008532763        496981160.28948486     
  -3895351331.1390533        11276540.625051022        347715132.76653981     
  -3756648911.0344691        5570799.0320146084        339125789.88447100     
  -3617839486.8101153        221737.83821129799        335331468.84162956     
  -3478923058.4660025       -4770642.9563920498        336332169.63802046     
  -3339899626.0021210       -9406343.3517696857        342127892.27363420     
  -4178406218.6835809        7251274.7014691830        184687587.79803997     
  -4024703069.3722000        3670828.9114637375        175842836.75357202     
  -3870778137.7118645        829657.61798286438        173251633.45902997     
  -3716631423.7025661       -1272239.1789715290        176913977.91439715     
  -3562262927.3443017       -2634861.4793539047        186829870.11968458     
  -4464822429.7266760        2217611.7283174992        20679656.955193181     
  -4291951334.3208270        2012626.8076138496        11713405.682397025     
  -4118743678.3368049        2929510.4807982445        10459228.070201883     
  -3945199461.7746305        4968262.7478230000        16917124.118622165     
  -3771318684.6343031        8128883.6087157726        31087093.827645380     
  -2855250391.1612506       -10972517.449648023        651389674.16723537     
  -2686221493.4723010        1319910.3144274950        642763660.06460130     
  -2513598215.0192776        25593607.292089105        645658948.85779893     
  -2337380555.8021636        61848573.483384967        660075540.54683542     
  -2157568515.8209710        110084808.88827074        686013435.13169980     
  -3104228780.6077714       -12185562.008532763        496981160.28948486     
  -2912471470.7199321        1501526.7459204197        492624355.62308830     
  -2719933517.5912371        17790759.636554480        493907797.21607268     
  -2526614921.2216864        36682136.663374305        500831485.06843996     
  -2332515681.6112881        58175657.826355696        513395419.18017799     
  -3339899626.0021210       -9406343.3517696857        342127892.27363420     
  -3142216922.8766928        634500.70467436314        338757603.26637977     
  -2946567314.0336361        3898363.8198771477        335146503.88205558     
  -2752950799.4729590        385245.99382519722        331294594.12064570     
  -2561367379.1946511       -9904852.7734663486        327201873.98216575     
  -3562262927.3443017       -2634861.4793539047        186829870.11968458     
  -3375457849.9425883       -1281167.8092920780        181163402.99448240     
  -3193499604.3464785       -16083580.157914162        169375068.85573587     
  -3016388190.5559731       -47042098.525226474        151464867.70345789     
  -2844123608.5710769       -94156722.911217213        127432799.53764728     
  -3771318684.6343031        8128883.6087157726        31087093.827645380     
  -3612194251.9176235       -4245478.7960405350        19841754.807377640     
  -3460730388.5297556       -42155072.296856165       -3406507.8628787030     
  -3316927094.4707332       -105599896.89382350       -38657694.183125094     
  -3180784369.7405396       -194579952.58686590       -85911804.153368726     
 </DataArray>
 <DataArray  type="Float64" Name="VM" NumberOfComponents="1" format="ascii">
   12935553969.141205     
   11340738508.372812     
   10210311579.542274     
   9272929236.5136471     
   8304157352.2001562     
   10130270316.015047     
   9322027191.5676785     
   8826425069.6353741     
   8443630509.3245478     
   8035838191.5726385     
   7982336649.4415731     
   7734983021.9475040     
   7669192880.7719326     
   7669660872.8524446     
   7666457089.7790003     
   6491666300.0145779     
   6586892386.7569885     
   6757448212.1291599     
   6961253436.4215336     
   7171648456.6755400     
   5657812102.6897221     
   5890915328.9596987     
   6116381002.4258213     
   6331751172.5259581     
   6536803347.6467962     
   8304157352.2001562     
   8020705279.6054068     
   7779357084.2252388     
   7569433232.5899706     
   7385964104.0426283     
   8035838191.5726385     
   7746876459.8031454     
   7473588969.4239731     
   7214017515.2339706     
   6968168259.4751806     
   7666457089.7790003     
   7381156810.4933500     
   7101254653.1286726     
   6826827674.3935795     
   6558078356.4390135     
   7171648456.6755400     
   6910982802.2163658     
   6658219719.1106176     
   6409500348.1327972     
   6161679214.7836809     
   6536803347.6467962     
   6328703867.0269022     
   6142788650.8553410     
   5965150440.9897852     
   5786781075.2211418     
   7385964104.0426283     
   7228446472.2707682     
   7063425998.4617758     
   6890212182.1586227     
   6708619082.2295303     
   6968168259.4751806     
   6814552159.8222132     
   6656323712.7438316     
   6493200663.0878410     
   6325131435.2106371     
   6558078356.4390135     
   6407648319.5812702     
   6255587922.1763372     
   6101865042.4401617     
   5946508161.4913549     
   6161679214.7836809     
   6012732471.9917669     
   5865120676.2029963     
   5718882119.0958557     
   5574072726.1217947     
   5786781075.2211418     
   5636264143.3715944     
   5489950493.8772621     
   5347754104.3257084     
   5209721651.2962084     
   6708619082.2295303     
   6513486019.7060909     
   6321829858.0650587     
   6133544270.8460941     
   5948617486.2354746     
   6325131435.2106371     
   6139166011.7797232     
   5955480707.4039402     
   5774056752.4990778     
   5594925265.5497475     
   5946508161.4913549     
   5772030534.2628727     
   5598973831.2429981     
   5427366077.6058865     
   5257271626.3032427     
   5574072726.1217947     
   5413899555.0113754     
   5254663030.1083975     
   5096407977.6163673     
   4939242457.0563622     
   5209721651.2962084     
   5067182464.8669682     
   4925528131.3177023     
   4784801604.0527449     
   4645187102.5831013     
   5948617486.2354746     
   5779080847.2994146     
   5608175125.3544054     
   5435869611.9626894     
   5262177076.6103430     
   5594925265.5497475     
   5434006048.7514505     
   5272529424.3486843     
   5110515524.5851002     
   4948022395.2132664     
   5257271626.3032427     
   5105191241.2626667     
   4953425868.8493643     
   4802041535.5555277     
   4651139635.0842924     
   4939242457.0563622     
   4796114650.4122486     
   4654219465.8859901     
   4513660224.2556791     
   4374576170.2564802     
   4645187102.5831013     
   4510976668.4987335     
   4378939952.0534353     
   4249204601.6672072     
   4121938075.9721885     
   5262177076.6103430     
   5062948120.8011417     
   4864761055.7294636     
   4667629340.8964415     
   4471605448.2686996     
   4948022395.2132664     
   4758706689.1279497     
   4570530957.0581245     
   4383552576.2707090     
   4197877132.2530847     
   4651139635.0842924     
   4473229254.2593441     
   4296743027.8725595     
   4121804611.5341954     
   3948602409.6415906     
   4374576170.2564802     
   4209793701.1181927     
   4046943537.5380001     
   3886241376.8492622     
   3727991392.1464062     
   4121938075.9721885     
   3972221448.7748241     
   3825198936.1821942     
   3681201892.8966784     
   3540678453.8437934     
   4471605448.2686996     
   4298495213.8469954     
   4124023310.0116472     
   3948127321.5673189     
   3770904750.3875790     
   4197877132.2530847     
   4041138798.0023870     
   3884196975.4280949     
   3727113142.9040532     
   3570074933.1247830     
   3948602409.6415906     
   3805934227.6987948     
   3664036103.3296280     
   3523040522.5153027     
   3383169343.0762939     
   3727991392.1464062     
   3596985342.6578021     
   3467445147.0834417     
   3339524108.6039782     
   3213430921.6914773     
   3540678453.8437934     
   3418854657.6847758     
   3298827758.6473169     
   3180728559.0628381     
   3064718601.8705645     
   3770904750.3875790     
   3598486149.4439220     
   3431125980.0886502     
   3269096520.7338414     
   3113433397.4721060     
   3570074933.1247830     
   3384210729.4606662     
   3201137953.7250962     
   3021021186.8910508     
   2844349230.4997511     
   3383169343.0762939     
   3194244642.7588677     
   3007156605.1041040     
   2822027716.7824640     
   2639065990.6206808     
   3213430921.6914773     
   3033197229.3732638     
   2855510851.5635943     
   2680823837.9365993     
   2509797557.1567006     
   3064718601.8705645     
   2905920735.4091301     
   2752325666.7002134     
   2605250362.6567316     
   2466723438.4608588     
   5657812102.6897221     
   5890915328.9596987     
   6116381002.4258213     
   6331751172.5259581     
   6536803347.6467962     
   5151424973.5424805     
   5311317006.0161924     
   5467841444.0578690     
   5618103408.1502628     
   5760637493.9658747     
   4643432085.8310070     
   4755518383.2511826     
   4868728464.4024315     
   4980427552.7549505     
   5088690341.7429981     
   4134097271.6179037     
   4224357221.1458874     
   4320537607.1530838     
   4420981379.2455578     
   4524233687.7608480     
   3624940641.8004346     
   3719658063.0841913     
   3825627451.3716826     
   3942784702.9095783     
   4071036712.3439817     
   6536803347.6467962     
   6328703867.0269022     
   6142788650.8553410     
   5965150440.9897852     
   5786781075.2211418     
   5760637493.9658747     
   5652115971.2613468     
   5559591549.4934025     
   5474003947.5389948     
   5389812568.9814711     
   5088690341.7429981     
   5054021596.4521389     
   5029861745.4789019     
   5011005151.3753128     
   4994250514.9252644     
   4524233687.7608480     
   4539017200.0712366     
   4558468786.0862570     
   4580108543.8851280     
   4602212834.2117567     
   4071036712.3439817     
   4112431881.1320815     
   4151177991.2508593     
   4186375949.9770317     
   4217292847.1869926     
   5786781075.2211418     
   5636264143.3715944     
   5489950493.8772621     
   5347754104.3257084     
   5209721651.2962084     
   5389812568.9814711     
   5248759114.5216656     
   5110934142.1511059     
   4976379162.5223713     
   4845187769.1477127     
   4994250514.9252644     
   4867071331.2155781     
   4743088060.4136620     
   4622268604.9433651     
   4504653814.0952072     
   4602212834.2117567     
   4493871061.8394661     
   4389752649.1336460     
   4289540704.8005872     
   4193145860.5864553     
   4217292847.1869926     
   4133124654.9971275     
   4055447589.2908154     
   3983411372.4401126     
   3916721382.5665760     
   5209721651.2962084     
   5067182464.8669682     
   4925528131.3177023     
   4784801604.0527449     
   4645187102.5831013     
   4845187769.1477127     
   4719716922.0892191     
   4596029225.6339779     
   4474257397.8753929     
   4354647868.1632109     
   4504653814.0952072     
   4394902126.6539116     
   4287761981.0660262     
   4183423903.2413821     
   4082163682.4613762     
   4193145860.5864553     
   4097642908.6798449     
   4005451116.1951165     
   3916785878.4616256     
   3831921345.4128575     
   3916721382.5665760     
   3833837261.5031047     
   3754767220.8007860     
   3679720370.1121073     
   3608943909.4187994     
   4645187102.5831013     
   4510976668.4987335     
   4378939952.0534353     
   4249204601.6672072     
   4121938075.9721885     
   4354647868.1632109     
   4230908160.0896034     
   4109729704.4089365     
   3991292000.2849298     
   3875824057.6586170     
   4082163682.4613762     
   3970267124.1546254     
   3861513158.8839335     
   3756135552.7681394     
   3654429769.6057057     
   3831921345.4128575     
   3733263362.0466752     
   3638535247.3760667     
   3548021312.2775373     
   3462080578.2429042     
   3608943909.4187994     
   3524839464.6866875     
   3445655372.5930610     
   3371711950.8224082     
   3303415867.7656212     
   4121938075.9721885     
   3972221448.7748241     
   3825198936.1821942     
   3681201892.8966784     
   3540678453.8437934     
   3875824057.6586170     
   3741320471.9114804     
   3610273979.7435603     
   3483077525.7333026     
   3360237534.5301256     
   3654429769.6057057     
   3535109438.5435052     
   3420010954.9566445     
   3309570095.7042031     
   3204325924.3929605     
   3462080578.2429042     
   3357841683.2636952     
   3258550186.7654424     
   3164658271.6659651     
   3076704331.8260832     
   3303415867.7656212     
   3214000773.0269876     
   3130166144.7885699     
   3052348586.6688242     
   2981048764.1879644     
   3540678453.8437934     
   3418854657.6847758     
   3298827758.6473169     
   3180728559.0628381     
   3064718601.8705645     
   3360237534.5301256     
   3246791528.5471640     
   3135963605.0008612     
   3027975527.3743935     
   2923097486.1896186     
   3204325924.3929605     
   3101444914.4658346     
   3002254436.6601262     
   2907073737.3707261     
   2816286416.6854920     
   3076704331.8260832     
   2986363714.9459095     
   2900998135.7444158     
   2821009912.6366363     
   2746873950.0890250     
   2981048764.1879644     
   2904787115.8635592     
   2834926131.9977689     
   2771913409.4503150     
   2716266539.0830755     
   3064718601.8705645     
   2905920735.4091301     
   2752325666.7002134     
   2605250362.6567316     
   2466723438.4608588     
   2923097486.1896186     
   2791023590.8864365     
   2665108814.9620314     
   2546496377.2252045     
   2436723197.3488088     
   2816286416.6854920     
   2705827773.0732303     
   2601579188.1477346     
   2504369471.2985563     
   2415195853.3717017     
   2746873950.0890250     
   2652539515.1969037     
   2563518768.1013269     
   2480300444.7395139     
   2403432236.5244570     
   2716266539.0830755     
   2632449813.8643045     
   2552184237.3232579     
   2475684490.4446111     
   2403224958.1578360     
   3624940641.8004346     
   3719658063.0841913     
   3825627451.3716826     
   3942784702.9095783     
   4071036712.3439817     
   3137926669.4899006     
   3255481778.6442337     
   3382452783.5141544     
   3518370650.2399254     
   3662777658.8978882     
   2694710054.9317522     
   2830491861.7201443     
   2973582583.2523828     
   3122900241.5829225     
   3277534171.5385900     
   2298781043.9400344     
   2449481543.2793355     
   2604899131.0440106     
   2763111580.7790709     
   2922689569.3077788     
   1955350506.8590412     
   2119406462.1561155     
   2284812206.9922571     
   2448607704.5129104     
   2608835303.3062158     
   4071036712.3439817     
   4112431881.1320815     
   4151177991.2508593     
   4186375949.9770317     
   4217292847.1869926     
   3662777658.8978882     
   3702130355.2199855     
   3740104529.4677796     
   3775800189.4663243     
   3808466983.1346364     
   3277534171.5385900     
   3320717389.8544226     
   3364147006.7710361     
   3406998967.6431804     
   3448594377.3315206     
   2922689569.3077788     
   2975577281.9135709     
   3030693892.9474831     
   3087356472.0824051     
   3145031745.8186917     
   2608835303.3062158     
   2676761488.1118512     
   2749202892.5040216     
   2825650879.2932196     
   2905752849.9697418     
   4217292847.1869926     
   4133124654.9971275     
   4055447589.2908154     
   3983411372.4401126     
   3916721382.5665760     
   3808466983.1346364     
   3755724892.5075717     
   3708965319.7241492     
   3667714830.6354752     
   3631877561.9799933     
   3448594377.3315206     
   3422668868.2237206     
   3401835801.9383893     
   3385866373.7189236     
   3374744363.1026897     
   3145031745.8186917     
   3141583692.9085307     
   3141743092.1708865     
   3145410349.7277055     
   3152571226.6970944     
   2905752849.9697418     
   2920781453.1042662     
   2937153301.9583049     
   2954815213.5142951     
   2973728946.5923285     
   3916721382.5665760     
   3833837261.5031047     
   3754767220.8007860     
   3679720370.1121073     
   3608943909.4187994     
   3631877561.9799933     
   3560508236.3806515     
   3493648476.1851473     
   3431530028.3783126     
   3374428242.0035400     
   3374744363.1026897     
   3316099883.9917231     
   3262849306.1950560     
   3215228510.6709270     
   3173523627.1635609     
   3152571226.6970944     
   3107569028.4322963     
   3069018615.6674280     
   3037129971.3571644     
   3012171020.0942740     
   2973728946.5923285     
   2942705358.6470671     
   2919329696.4542527     
   2903746768.1215010     
   2896169493.8348737     
   3608943909.4187994     
   3524839464.6866875     
   3445655372.5930610     
   3371711950.8224082     
   3303415867.7656212     
   3374428242.0035400     
   3305404262.8059020     
   3241798725.2836022     
   3183915766.4630718     
   3132123476.8726807     
   3173523627.1635609     
   3118557383.2674122     
   3069382942.9396877     
   3026264183.5751643     
   2989506558.7638478     
   3012171020.0942740     
   2969936548.2687087     
   2933694928.6747494     
   2903651171.6059580     
   2880032614.8641253     
   2896169493.8348737     
   2864961582.4474430     
   2839737755.0895724     
   2820636039.1129766     
   2807803275.2030997     
   3303415867.7656212     
   3214000773.0269876     
   3130166144.7885699     
   3052348586.6688242     
   2981048764.1879644     
   3132123476.8726807     
   3056321944.5257006     
   2987066783.8627234     
   2924801236.2954130     
   2870023361.6192980     
   2989506558.7638478     
   2927617803.7219782     
   2873250700.6989198     
   2826818700.2176995     
   2788775996.4787211     
   2880032614.8641253     
   2831756148.9462013     
   2791938508.6133595     
   2760926662.6035666     
   2739093338.3754005     
   2807803275.2030997     
   2772067657.9276824     
   2745657509.5843449     
   2728826854.0384727     
   2721843870.2761993     
   2981048764.1879644     
   2904787115.8635592     
   2834926131.9977689     
   2771913409.4503150     
   2716266539.0830755     
   2870023361.6192980     
   2808312198.2904062     
   2753218974.1267800     
   2705123056.2499905     
   2664448266.4514179     
   2788775996.4787211     
   2740514372.2658281     
   2698922727.0494370     
   2664298993.5214343     
   2636965201.5513649     
   2739093338.3754005     
   2702909396.2128472     
   2673276294.1911578     
   2650408700.7240915     
   2634531652.1735225     
   2721843870.2761993     
   2696123075.7989459     
   2676677480.7827086     
   2663647381.3962140     
   2657175930.6028957     
   2716266539.0830755     
   2632449813.8643045     
   2552184237.3232579     
   2475684490.4446111     
   2403224958.1578360     
   2664448266.4514179     
   2589546779.8986135     
   2521388177.8535805     
   2460427161.5759616     
   2407140306.2366538     
   2636965201.5513649     
   2575972483.5468779     
   2525152683.7955928     
   2485114299.7375827     
   2456462629.2462702     
   2634531652.1735225     
   2590960648.9535480     
   2561046517.3739719     
   2545442055.5805521     
   2544793327.4280281     
   2657175930.6028957     
   2632844700.4562349     
   2625676727.8347607     
   2636290167.4474382     
   2665325758.7260013     
   1955350506.8590412     
   2119406462.1561155     
   2284812206.9922571     
   2448607704.5129104     
   2608835303.3062158     
   1653903477.1211934     
   1820343088.4986455     
   1988474523.8612454     
   2155601461.4444761     
   2319966120.8828115     
   1393764772.2547047     
   1571126554.5708172     
   1749489837.8126895     
   1926850719.1024599     
   2101958699.0827618     
   1207242440.2624855     
   1399174884.2455368     
   1590682674.3959236     
   1780988535.5166800     
   1969633532.7318807     
   1137008138.5778217     
   1335330322.7004442     
   1533958387.1112218     
   1732892332.0527306     
   1932132158.3348908     
   2608835303.3062158     
   2676761488.1118512     
   2749202892.5040216     
   2825650879.2932196     
   2905752849.9697418     
   2319966120.8828115     
   2407027342.9708080     
   2496536597.1602340     
   2588104956.6241794     
   2681457514.6374016     
   2101958699.0827618     
   2205732844.1173058     
   2309422251.4967380     
   2412791583.6813111     
   2515674517.3353310     
   1969633532.7318807     
   2086807207.1274555     
   2201132906.2827229     
   2312536177.9479828     
   2420965139.7130170     
   1932132158.3348908     
   2058798188.8539505     
   2180043504.6758065     
   2295868106.8266678     
   2406271998.9929729     
   2905752849.9697418     
   2920781453.1042662     
   2937153301.9583049     
   2954815213.5142951     
   2973728946.5923285     
   2681457514.6374016     
   2703269091.0831861     
   2727443001.0290895     
   2753962682.5077481     
   2782820852.9617748     
   2515674517.3353310     
   2544175433.9028130     
   2576084673.9764929     
   2611403873.9216390     
   2650138932.7459893     
   2420965139.7130170     
   2454606761.9945235     
   2492703607.4489951     
   2535258757.4947848     
   2582276426.8246994     
   2406271998.9929729     
   2441961414.6549430     
   2483144247.7864122     
   2529820518.0159421     
   2581990273.4096460     
   2973728946.5923285     
   2942705358.6470671     
   2919329696.4542527     
   2903746768.1215010     
   2896169493.8348737     
   2782820852.9617748     
   2766664789.7819724     
   2757904623.6769171     
   2756630345.6143656     
   2762965706.1817250     
   2650138932.7459893     
   2645640429.0322442     
   2647987876.5003943     
   2657220502.6400981     
   2673389285.9619555     
   2582276426.8246994     
   2585773159.9392467     
   2595280277.1625109     
   2610806192.8406901     
   2632360812.6614976     
   2581990273.4096460     
   2589731901.2674222     
   2602415861.3293395     
   2620042716.1134305     
   2642613675.7628913     
   2896169493.8348737     
   2864961582.4474430     
   2839737755.0895724     
   2820636039.1129766     
   2807803275.2030997     
   2762965706.1817250     
   2739579288.3875518     
   2722852937.5055799     
   2712883601.3643465     
   2709773026.7894850     
   2673389285.9619555     
   2656244729.0132828     
   2646399569.8883228     
   2643905196.5994849     
   2648815001.3744197     
   2632360812.6614976     
   2619138352.1532645     
   2613805541.1586890     
   2616376670.5332408     
   2626866655.5288739     
   2642613675.7628913     
   2630388530.6611123     
   2626589834.4290624     
   2631216753.0853343     
   2644268579.8330112     
   2807803275.2030997     
   2772067657.9276824     
   2745657509.5843449     
   2728826854.0384727     
   2721843870.2761993     
   2709773026.7894850     
   2685415040.2897859     
   2670178495.6075678     
   2664208786.8210506     
   2667656170.9003005     
   2648815001.3744197     
   2633061390.5068703     
   2626112677.5357065     
   2628032528.0263500     
   2638885793.6579933     
   2626866655.5288739     
   2616667478.9694629     
   2614878801.9784007     
   2621515911.4216714     
   2636594393.1856670     
   2644268579.8330112     
   2636516704.5865092     
   2636736327.2447157     
   2644927177.7836118     
   2661089078.0546350     
   2721843870.2761993     
   2696123075.7989459     
   2676677480.7827086     
   2663647381.3962140     
   2657175930.6028957     
   2667656170.9003005     
   2648744614.1835480     
   2636640551.1693873     
   2631424303.4857187     
   2633175156.8320169     
   2638885793.6579933     
   2624594120.8104267     
   2617587756.7971153     
   2617900558.0186267     
   2625565579.2691579     
   2636594393.1856670     
   2624302515.7980123     
   2619739567.7801046     
   2622914853.3907895     
   2633840089.1290588     
   2661089078.0546350     
   2647882076.2031426     
   2642828876.2021298     
   2645942346.5272379     
   2657242969.8289647     
   2657175930.6028957     
   2632844700.4562349     
   2625676727.8347607     
   2636290167.4474382     
   2665325758.7260013     
   2633175156.8320169     
   2622637416.5437412     
   2625592900.3190479     
   2642264902.3086214     
   2672882958.2813592     
   2625565579.2691579     
   2622247723.0183434     
   2628876520.4962339     
   2645495932.7011957     
   2672148828.1624055     
   2633840089.1290588     
   2632187689.6730161     
   2637019313.0924401     
   2648356374.3441081     
   2666224649.8283143     
   2657242969.8289647     
   2652925539.0583305     
   2651668869.4244132     
   2653588965.7840691     
   2658832539.7236981     
   1137008138.5778217     
   1335330322.7004442     
   1533958387.1112218     
   1732892332.0527306     
   1932132158.3348908     
   1207221798.9218471     
   1399181425.8407457     
   1590718575.9974744     
   1781057015.3711324     
   1969738600.8990316     
   1393748098.9394171     
   1571141226.7184265     
   1749543122.5661080     
   1926950280.4482901     
   2102112484.3315542     
   1653910838.4196961     
   1820366010.5311468     
   1988525155.3912976     
   2155691551.1521678     
   2320106686.8201103     
   1955395916.3204846     
   2119437305.1681943     
   2284843388.6345792     
   2448653323.4876094     
   2608907722.7963438     
   1932132158.3348908     
   2058798188.8539505     
   2180043504.6758065     
   2295868106.8266678     
   2406271998.9929729     
   1969738600.8990316     
   2086869269.2903986     
   2201147031.8217120     
   2312496719.5932884     
   2420866177.7143130     
   2102112484.3315542     
   2205836305.7149229     
   2309466640.6196828     
   2412767863.0028992     
   2515573492.2771902     
   2320106686.8201103     
   2407144584.9599810     
   2496619670.3523655     
   2588144022.2669635     
   2681442975.8684340     
   2608907722.7963438     
   2676864834.2207866     
   2749326492.1229844     
   2825787051.1847668     
   2905894868.8365350     
   2406271998.9929729     
   2441961414.6549430     
   2483144247.7864122     
   2529820518.0159421     
   2581990273.4096460     
   2420866177.7143130     
   2454707537.4274797     
   2493030893.4313416     
   2535840062.9996567     
   2583139521.1862874     
   2515573492.2771902     
   2544349762.6265545     
   2576580130.8296227     
   2612266866.8172650     
   2651416341.6949458     
   2681442975.8684340     
   2703474960.3012161     
   2727925006.7031355     
   2754776199.5982037     
   2784021700.9870334     
   2905894868.8365350     
   2920971121.4326935     
   2937446433.4788733     
   2955265177.4004512     
   2974388828.4180870     
   2581990273.4096460     
   2589731901.2674222     
   2602415861.3293395     
   2620042716.1134305     
   2642613675.7628913     
   2583139521.1862874     
   2585932333.1966496     
   2594708719.2936544     
   2609477470.3285604     
   2630251728.8861175     
   2651416341.6949458     
   2646000274.0925441     
   2647419707.5294471     
   2655713224.8734412     
   2670932378.3195910     
   2784021700.9870334     
   2767187994.7421761     
   2757799062.1183071     
   2755943799.5340462     
   2761739874.8859272     
   2974388828.4180870     
   2943290637.7305050     
   2919989654.8474159     
   2904633641.2210727     
   2897423294.8634715     
   2642613675.7628913     
   2630388530.6611123     
   2626589834.4290624     
   2631216753.0853343     
   2644268579.8330112     
   2630251728.8861175     
   2617331120.9678316     
   2612276751.5511174     
   2615103346.8095584     
   2625825845.6559134     
   2670932378.3195910     
   2654310068.9104319     
   2644916220.1438379     
   2642802689.2181153     
   2648023059.8863196     
   2761739874.8859272     
   2739046644.5227876     
   2722873981.9292240     
   2713318210.3881125     
   2710480674.4391847     
   2897423294.8634715     
   2867070393.6956224     
   2842477284.6140666     
   2823778552.7882700     
   2811118421.0646186     
   2644268579.8330112     
   2636516704.5865092     
   2636736327.2447157     
   2644927177.7836118     
   2661089078.0546350     
   2625825845.6559134     
   2615891647.4026742     
   2614435429.1677141     
   2621471591.1014490     
   2637014475.9835200     
   2648023059.8863196     
   2632666846.5058889     
   2626233753.8514123     
   2628787115.3000469     
   2640391227.0431342     
   2710480674.4391847     
   2686500108.5013285     
   2671793368.5973663     
   2666507857.8935175     
   2670796338.5667138     
   2811118421.0646186     
   2775587596.9849429     
   2749552502.9442067     
   2733272846.7232413     
   2727024457.5821781     
   2661089078.0546350     
   2647882076.2031426     
   2642828876.2021298     
   2645942346.5272379     
   2657242969.8289647     
   2637014475.9835200     
   2622123841.0274434     
   2614973497.2484727     
   2615581854.2758512     
   2623969447.4491792     
   2640391227.0431342     
   2622527016.1921873     
   2612058529.4449921     
   2609023792.0740719     
   2613460408.6653748     
   2670796338.5667138     
   2648890080.2753205     
   2634096500.4490814     
   2626482981.6564369     
   2626117593.3762488     
   2727024457.5821781     
   2700271531.9895411     
   2680404008.4178195     
   2667523854.8153296     
   2661738863.3202853     
   2657242969.8289647     
   2652925539.0583305     
   2651668869.4244132     
   2653588965.7840691     
   2658832539.7236981     
   2623969447.4491792     
   2617608985.2416892     
   2618084938.1029139     
   2625441381.3459921     
   2639729161.2062244     
   2613460408.6653748     
   2604963562.2288060     
   2607238833.5290027     
   2620326975.8759737     
   2644267520.8727307     
   2626117593.3762488     
   2613958510.7674408     
   2616769645.9153275     
   2634707186.3222804     
   2667921218.2803540     
   2661738863.3202853     
   2643067328.0969687     
   2644001887.1457620     
   2665000273.6498518     
   2706489278.0764861     
   1955395916.3204846     
   2119437305.1681943     
   2284843388.6345792     
   2448653323.4876094     
   2608907722.7963438     
   2298855749.0884628     
   2449522316.4675012     
   2604912219.2094879     
   2763102365.0170288     
   2922662274.8506880     
   2694786373.8585858     
   2830531488.5359659     
   2973584683.5037913     
   3122863181.9790268     
   3277455584.9232092     
   3137978788.5461612     
   3255510860.3378453     
   3382452438.2679071     
   3518333881.3618956     
   3662696973.1526823     
   3624944214.5834923     
   3719668410.6684079     
   3825633778.5029798     
   3942775996.4909925     
   4071001621.7605820     
   2608907722.7963438     
   2676864834.2207866     
   2749326492.1229844     
   2825787051.1847668     
   2905894868.8365350     
   2922662274.8506880     
   2975612009.6260104     
   3030789850.9271564     
   3087515341.3726349     
   3145256557.4534302     
   3277455584.9232092     
   3320702128.2935081     
   3364201295.6142173     
   3407130361.9480639     
   3448811375.9052696     
   3662696973.1526823     
   3702086336.7001653     
   3740108022.0151553     
   3775861621.8855443     
   3808596483.9273496     
   4071001621.7605820     
   4112380775.6964684     
   4151124713.5613213     
   4186331755.7799625     
   4217266818.4745402     
   2905894868.8365350     
   2920971121.4326935     
   2937446433.4788733     
   2955265177.4004512     
   2974388828.4180870     
   3145256557.4534302     
   3141664150.2280564     
   3141692155.1356063     
   3145239035.5569820     
   3152291667.5121579     
   3448811375.9052696     
   3422654979.1110687     
   3401574728.4536085     
   3385340018.3014960     
   3373934493.8306537     
   3808596483.9273496     
   3755645329.5830026     
   3708643415.0088449     
   3667116246.4053640     
   3630965162.3308926     
   4217266818.4745402     
   4133015937.5815926     
   4055215567.4741049     
   3983016910.1351686     
   3916120258.7533522     
   2974388828.4180870     
   2943290637.7305050     
   2919989654.8474159     
   2904633641.2210727     
   2897423294.8634715     
   3152291667.5121579     
   3107585575.0028982     
   3069452142.3280091     
   3038104721.3204079     
   3013807377.7044234     
   3373934493.8306537     
   3315665785.9275503     
   3262857198.8206086     
   3215748320.7771382     
   3174627032.6098123     
   3630965162.3308926     
   3559839838.2232065     
   3493212708.6006975     
   3431318200.8546524     
   3374434908.8028684     
   3916120258.7533522     
   3833211722.8582954     
   3754010691.4397569     
   3678726591.6536164     
   3607607451.1459093     
   2897423294.8634715     
   2867070393.6956224     
   2842477284.6140666     
   2823778552.7882700     
   2811118421.0646186     
   3013807377.7044234     
   2972063231.6330900     
   2936183718.4990802     
   2906368056.9323177     
   2882838615.7459083     
   3174627032.6098123     
   3119838042.2595673     
   3070813261.2909660     
   3027811733.6576238     
   2991134480.2216077     
   3374434908.8028684     
   3305269567.3798695     
   3241594257.3747826     
   3183712936.8856835     
   3131993549.4200263     
   3607607451.1459093     
   3522992545.1505227     
   3443462231.3385158     
   3369344619.4822927     
   3301054248.4964490     
   2811118421.0646186     
   2775587596.9849429     
   2749552502.9442067     
   2733272846.7232413     
   2727024457.5821781     
   2882838615.7459083     
   2834510499.4279256     
   2794705916.2540350     
   2763778608.5194068     
   2742109616.8873978     
   2991134480.2216077     
   2929005103.9556832     
   2874365038.1196523     
   2827631807.5029626     
   2789264579.7102842     
   3131993549.4200263     
   3055878164.0735316     
   2986189801.9557195     
   2923369565.0215020     
   2867913078.5891685     
   3301054248.4964490     
   3211403926.3743796     
   3127140506.0571327     
   3048689921.5753360     
   2976540011.0006146     
   2727024457.5821781     
   2700271531.9895411     
   2680404008.4178195     
   2667523854.8153296     
   2661738863.3202853     
   2742109616.8873978     
   2706301051.1077871     
   2677536346.3797212     
   2655997948.3654957     
   2641875175.2136755     
   2789264579.7102842     
   2741905602.6858697     
   2701556197.8304787     
   2668499794.2496543     
   2643038301.4329038     
   2867913078.5891685     
   2806909009.4257898     
   2752660961.6055555     
   2705557427.4265084     
   2666028880.9124103     
   2976540011.0006146     
   2900267899.6946964     
   2830279128.8051019     
   2767052160.3556666     
   2711141188.4483814     
   2661738863.3202853     
   2643067328.0969687     
   2644001887.1457620     
   2665000273.6498518     
   2706489278.0764861     
   2641875175.2136755     
   2607017997.5886717     
   2587101996.5641255     
   2582697704.2177558     
   2594320845.8780966     
   2643038301.4329038     
   2589389523.1526856     
   2545734911.4454885     
   2512705630.3238888     
   2490920817.5114126     
   2666028880.9124103     
   2593693849.4970040     
   2526044515.4648008     
   2463671449.1102967     
   2407245914.9864130     
   2711141188.4483814     
   2623070553.2746434     
   2534322578.9514174     
   2445396930.4834671     
   2356991011.6234593     
   3624944214.5834923     
   3719668410.6684079     
   3825633778.5029798     
   3942775996.4909925     
   4071001621.7605820     
   4134054004.6371212     
   4224341687.8306479     
   4320543657.1028242     
   4421003841.1318283     
   4524268416.9837751     
   4643368999.4026346     
   4755488224.3905134     
   4868729675.6551409     
   4980460104.0559082     
   5088755575.6682644     
   5151368813.6861620     
   5311282996.1062136     
   5467832674.1259842     
   5618124269.5275631     
   5760692998.1452236     
   5657789210.2336063     
   5890887849.9133968     
   6116356741.3938198     
   6331738247.2205629     
   6536808841.2158604     
   4071001621.7605820     
   4112380775.6964684     
   4151124713.5613213     
   4186331755.7799625     
   4217266818.4745402     
   4524268416.9837751     
   4539000203.1357660     
   4558403121.4633589     
   4579995027.0795498     
   4602051579.8858366     
   5088755575.6682644     
   5054024670.5447483     
   5029798539.6547623     
   5010869978.4587412     
   4994037376.9228029     
   5760692998.1452236     
   5652124909.4759808     
   5559545560.7557297     
   5473894405.9868622     
   5389630537.9531860     
   6536808841.2158604     
   6328704790.7726803     
   6142774343.9634342     
   5965112298.0319939     
   5786710775.5197401     
   4217266818.4745402     
   4133015937.5815926     
   4055215567.4741049     
   3983016910.1351686     
   3916120258.7533522     
   4602051579.8858366     
   4493773945.7842312     
   4389708683.2903376     
   4289539875.4987693     
   4193176290.4075451     
   4994037376.9228029     
   4866993637.3620920     
   4743156063.0854826     
   4622493142.9960756     
   4505045852.9739094     
   5389630537.9531860     
   5248703884.6621389     
   5111029600.8312035     
   4976649563.7088881     
   4845658493.6446075     
   5786710775.5197401     
   5636230947.9360399     
   5489985018.7215042     
   5347887785.0590515     
   5209987812.2516928     
   3916120258.7533522     
   3833211722.8582954     
   3754010691.4397569     
   3678726591.6536164     
   3607607451.1459093     
   4193176290.4075451     
   4097575277.7936645     
   4005197635.9261394     
   3916257459.3313961     
   3831029219.4215894     
   4505045852.9739094     
   4395210939.1638336     
   4287929105.2251749     
   4183388392.1742201     
   4081863387.7957802     
   4845658493.6446075     
   4720177847.6539898     
   4596458697.4341116     
   4474631256.6968699     
   4354939377.2591915     
   5209987812.2516928     
   5067546785.8909340     
   4926010015.6314106     
   4785419460.9733582     
   4645956271.1356955     
   3607607451.1459093     
   3522992545.1505227     
   3443462231.3385158     
   3369344619.4822927     
   3301054248.4964490     
   3831029219.4215894     
   3731969530.4905596     
   3636939967.1813250     
   3546229843.1438565     
   3460203933.5102234     
   4081863387.7957802     
   3969674113.7070904     
   3860669709.1184778     
   3755086520.3804846     
   3653223193.1738153     
   4354939377.2591915     
   4231049304.1900830     
   4109711045.8709698     
   3991105040.5116940     
   3875461152.0021834     
   4645956271.1356955     
   4511796248.4436731     
   4379754948.8505564     
   4249960367.2758980     
   4122579243.7582350     
   3301054248.4964490     
   3211403926.3743796     
   3127140506.0571327     
   3048689921.5753360     
   2976540011.0006146     
   3460203933.5102234     
   3355936473.5577531     
   3256527390.1367950     
   3162418904.5955267     
   3074137128.2711372     
   3653223193.1738153     
   3534061543.1803484     
   3419133251.3802714     
   3308867988.0306134     
   3203796956.0075693     
   3875461152.0021834     
   3741221259.0472965     
   3610542427.6564593     
   3483817866.6365271     
   3361553967.1101251     
   4122579243.7582350     
   3973101699.8566189     
   3826503391.9646058     
   3683123789.4390898     
   3543421075.1304874     
   2976540011.0006146     
   2900267899.6946964     
   2830279128.8051019     
   2767052160.3556666     
   2711141188.4483814     
   3074137128.2711372     
   2983629219.7633386     
   2897869123.3229699     
   2817280942.8436341     
   2742367084.3997545     
   3203796956.0075693     
   3100703744.8137922     
   3000970384.0980048     
   2904927128.6353912     
   2812972312.3190322     
   3361553967.1101251     
   3247990377.1575980     
   3136623537.6361895     
   3027677245.7174573     
   2921424416.3836598     
   3543421075.1304874     
   3421727648.1887798     
   3301334597.3173356     
   3182370202.3962522     
   3064991261.0741024     
   2711141188.4483814     
   2623070553.2746434     
   2534322578.9514174     
   2445396930.4834671     
   2356991011.6234593     
   2742367084.3997545     
   2642295916.1677322     
   2545201464.5695586     
   2451583643.7065425     
   2362046384.0036483     
   2812972312.3190322     
   2698831105.4729333     
   2590942863.9309473     
   2489964372.3258200     
   2396704342.2631025     
   2921424416.3836598     
   2789013479.3605390     
   2665580308.1162257     
   2552176674.2964625     
   2450225712.0128274     
   3064991261.0741024     
   2908396223.6447072     
   2762931323.7227039     
   2630368019.7707543     
   2513280601.6998901     
   5657789210.2336063     
   5890887849.9133968     
   6116356741.3938198     
   6331738247.2205629     
   6536808841.2158604     
   6491677805.9737997     
   6586881789.2808237     
   6757417784.0911140     
   6961204285.7226143     
   7171581487.4762650     
   7982359141.1246452     
   7734979675.2515144     
   7669161180.6193562     
   7669596704.6765871     
   7666356693.2196035     
   10130281012.436886     
   9322021141.3270969     
   8826397871.2658615     
   8443575554.7809668     
   8035749286.5124111     
   12935530523.660318     
   11340719912.663433     
   10210295058.860519     
   9272909066.1278076     
   8304129404.7938709     
   6536808841.2158604     
   6328704790.7726803     
   6142774343.9634342     
   5965112298.0319939     
   5786710775.5197401     
   7171581487.4762650     
   6910946803.4744596     
   6658215028.5669165     
   6409528776.1564035     
   6161743194.4238005     
   7666356693.2196035     
   7381098183.8949738     
   7101246084.1155500     
   6826877622.7025518     
   6558195966.4694958     
   8035749286.5124111     
   7746809970.7813225     
   7473559482.2570839     
   7214037805.0465851     
   6968251810.1113815     
   8304129404.7938709     
   8020646254.5371313     
   7779286959.8673296     
   7569368455.4504786     
   7385922638.2910223     
   5786710775.5197401     
   5636230947.9360399     
   5489985018.7215042     
   5347887785.0590515     
   5209987812.2516928     
   6161743194.4238005     
   6012744219.1797380     
   5865082262.2380743     
   5718796341.1736794     
   5573943317.3197641     
   6558195966.4694958     
   6407686759.5406790     
   6255526637.9245434     
   6101683035.9275331     
   5946184822.2817945     
   6968251810.1113815     
   6814601229.2998714     
   6656299951.1316833     
   6493064050.8795185     
   6324843063.4687977     
   7385922638.2910223     
   7228492069.8098421     
   7063506947.3251915     
   6890274772.7122602     
   6708613591.7245893     
   5209987812.2516928     
   5067546785.8909340     
   4926010015.6314106     
   4785419460.9733582     
   4645956271.1356955     
   5573943317.3197641     
   5413844064.4760628     
   5254718131.1461401     
   5096610783.4522610     
   4939630037.4131527     
   5946184822.2817945     
   5771704752.4391584     
   5598694940.4151201     
   5427183735.0453882     
   5257236859.8298225     
   6324843063.4687977     
   6138741144.1587734     
   5954977374.9145546     
   5773532097.2006226     
   5594438061.6182499     
   6708613591.7245893     
   6513148120.2092724     
   6321222876.8644571     
   6132728825.0248833     
   5947655461.9010067     
   4645956271.1356955     
   4511796248.4436731     
   4379754948.8505564     
   4249960367.2758980     
   4122579243.7582350     
   4939630037.4131527     
   4796661925.3246660     
   4654883574.0845804     
   4514396832.1348505     
   4375338365.0770063     
   5257236859.8298225     
   5105485529.2467623     
   4954023867.1374130     
   4802915741.3703327     
   4652259023.9738951     
   5594438061.6182499     
   5434067339.1445389     
   5273135158.8121300     
   5111659899.2918854     
   4949696111.1845551     
   5947655461.9010067     
   5778928558.8542910     
   5608852069.3927469     
   5437394899.4349442     
   5264567238.5857706     
   4122579243.7582350     
   3973101699.8566189     
   3826503391.9646058     
   3683123789.4390898     
   3543421075.1304874     
   4375338365.0770063     
   4210505973.5169611     
   4047651097.2356448     
   3886998466.1188636     
   3728865544.6366515     
   4652259023.9738951     
   4473882362.5283403     
   4296820456.8411636     
   4121200824.2853236     
   3947218347.3395867     
   4949696111.1845551     
   4759461748.5014124     
   4570099681.3437376     
   4381663461.1961327     
   4194253020.0125494     
   5264567238.5857706     
   5064004068.1114435     
   4864060933.0807590     
   4664740181.8509245     
   4466075283.0659456     
   3543421075.1304874     
   3421727648.1887798     
   3301334597.3173356     
   3182370202.3962522     
   3064991261.0741024     
   3728865544.6366515     
   3598100113.7819619     
   3468855673.8199005     
   3341265745.4060845     
   3215513778.3919311     
   3947218347.3395867     
   3805047767.7408762     
   3664274334.0780864     
   3525009176.0130520     
   3387440956.3026385     
   4194253020.0125494     
   4038042146.5976114     
   3882806186.9964657     
   3728608048.7065616     
   3575619420.1518197     
   4466075283.0659456     
   4293005941.6189332     
   4120249040.8954573     
   3947794679.5148258     
   3775773633.6633387     
   3064991261.0741024     
   2908396223.6447072     
   2762931323.7227039     
   2630368019.7707543     
   2513280601.6998901     
   3215513778.3919311     
   3035605663.3576927     
   2859821545.3304181     
   2688922963.2761536     
   2523971872.9810963     
   3387440956.3026385     
   3196840858.2799315     
   3005117379.0677171     
   2812306373.8292570     
   2618494641.8760495     
   3575619420.1518197     
   3389373591.9701524     
   3198968464.9103203     
   3004619487.2485948     
   2806925112.2816353     
   3775773633.6633387     
   3610236963.0364628     
   3439851645.8377571     
   3266094423.1660347     
   3091678542.0156364     
 </DataArray>
 <DataArray  type="Float64" Name="strain" NumberOfComponents="3" format="ascii">
  0.20348433102035565        0.0000000000000000       0.12540629329101508     
  0.18665587192025551       -2.7325225585044063E-002   7.4352779412702963E-002
  0.16982741282015537       -4.4676606365504461E-002   3.5132428060492472E-002
  0.15299895372005526       -5.2054142341381240E-002   7.7452392343836211E-003
  0.13617049461995512       -4.9457833512674312E-002  -7.8087870656236014E-003
  0.15985499893325625        0.0000000000000000        9.6449019583269860E-002
  0.15317820846025820       -2.1844999135945554E-002   6.2690927950864242E-002
  0.14650141798726013       -3.6175197687473105E-002   3.7403011046561171E-002
  0.13982462751426206       -4.2990595654582693E-002   2.0585268870360579E-002
  0.13314783704126401       -4.2291193037274272E-002   1.2237701422262562E-002
  0.12645826029656207        0.0000000000000000        7.4201494434705986E-002
  0.12657015065266700       -1.6364772686847041E-002   5.5279780828041199E-002
  0.12668204100877190       -2.7673789009441754E-002   4.1465254151479843E-002
  0.12679393136487682       -3.3927048967784167E-002   3.2757914405021925E-002
  0.12690582172098175       -3.5124552561874238E-002   2.9157761588667414E-002
  0.10329411511027314        0.0000000000000000        5.8663717845323454E-002
  0.10683169849748192       -1.0884546237748528E-002   5.2119338044233840E-002
  0.11036928188469071       -1.9172380331410402E-002   4.7319157375248548E-002
  0.11390686527189949       -2.4863502280985626E-002   4.4263175838367579E-002
  0.11744444865910825       -2.7957912086474197E-002   4.2951393433590938E-002
   9.0362563374389429E-002   0.0000000000000000        4.9835689815122278E-002
   9.3962851994702987E-002  -5.4043197886500163E-003   5.3209599599442173E-002
   9.7563140615016530E-002  -1.0670971653379047E-002   5.4964720717867267E-002
  0.10116342923533007       -1.5799955594187089E-002   5.5101053170397603E-002
  0.10476371785564365       -2.0791271611074157E-002   5.3618596957033131E-002
  0.13617049461995512       -4.9457833512674312E-002  -7.8087870656236014E-003
  0.13296110236970324       -4.2923145532703211E-002  -3.3936977120756287E-003
  0.12975171011945133       -3.8485544054787338E-002  -3.9102702597225772E-004
  0.12654231786919945       -3.6145029078926742E-002   1.1992249926867024E-003
  0.12333292561894757       -3.5901600605121459E-002   1.3770583439010609E-003
  0.13314783704126401       -4.2291193037274272E-002   1.2237701422262562E-002
  0.12891377486737030       -3.8425435071337402E-002   1.2181593583413971E-002
  0.12467971269347662       -3.5741766992561569E-002   1.1488564564726376E-002
  0.12044565051958292       -3.4240188800946827E-002   1.0158614366199741E-002
  0.11621158834568923       -3.3920700496493039E-002   8.1917429878340803E-003
  0.12690582172098175       -3.5124552561874238E-002   2.9157761588667414E-002
  0.12242258711105178       -3.3927724609971566E-002   2.5545453172316435E-002
  0.11793935250112181       -3.2997989930335737E-002   2.2071721063731994E-002
  0.11345611789119181       -3.2335348522966788E-002   1.8736565262914090E-002
  0.10897288328126181       -3.1939800387864661E-002   1.5539985769862617E-002
  0.11744444865910825       -2.7957912086474197E-002   4.2951393433590938E-002
  0.11348753910074755       -2.9430014148605757E-002   3.6697881054631877E-002
  0.10953062954238679       -3.0254212868109937E-002   3.1358442471044780E-002
  0.10557371998402608       -3.0430508244986786E-002   2.6933077682829730E-002
  0.10161681042566531       -2.9958900279236277E-002   2.3421786689986748E-002
  0.10476371785564365       -2.0791271611074157E-002   5.3618596957033131E-002
  0.10210863083645766       -2.4932303687239921E-002   4.5638877230360114E-002
   9.9453543817271700E-002  -2.7510435805884168E-002   3.9348728786664691E-002
   9.6798456798085727E-002  -2.8525667967006792E-002   3.4748151625946688E-002
   9.4143369778899769E-002  -2.7978000170607864E-002   3.1837145748206189E-002
  0.12333292561894757       -3.5901600605121459E-002   1.3770583439010609E-003
  0.12041240075488055       -3.6399704529806551E-002   6.4443990429102760E-004
  0.11749187589081349       -3.6283786749417367E-002   9.9730774425779711E-005
  0.11457135102674648       -3.5553847263953615E-002  -2.5706904569452321E-004
  0.11165082616267941       -3.4209886073415630E-002  -4.2595955606999913E-004
  0.11621158834568923       -3.3920700496493039E-002   8.1917429878340803E-003
  0.11346557491759850       -3.3995961433939487E-002   7.8316654375037570E-003
  0.11071956148950773       -3.3678630968025272E-002   7.6327014493812462E-003
  0.10797354806141699       -3.2968709098750368E-002   7.5948510234661419E-003
  0.10522753463332624       -3.1866195826114663E-002   7.7181141597588432E-003
  0.10897288328126181       -3.1939800387864661E-002   1.5539985769862617E-002
  0.10637458554161014       -3.1592218338072429E-002   1.5331018807098487E-002
  0.10377628780195841       -3.1073475186633236E-002   1.5256369659004777E-002
  0.10117799006230670       -3.0383570933547047E-002   1.5316038325581401E-002
   9.8579692322654983E-002  -2.9522505578813779E-002   1.5510024806828435E-002
  0.10161681042566531       -2.9958900279236277E-002   2.3421786689986748E-002
   9.9139432626915422E-002  -2.9188475242205369E-002   2.3142500013074965E-002
   9.6662054828165506E-002  -2.8468319405241173E-002   2.2970735403296413E-002
   9.4184677029415603E-002  -2.7798432768343678E-002   2.2906492860651058E-002
   9.1707299230665645E-002  -2.7178815331512826E-002   2.2949772385138869E-002
   9.4143369778899769E-002  -2.7978000170607864E-002   3.1837145748206189E-002
   9.1760116173514386E-002  -2.6784732146338322E-002   3.1266109055433242E-002
   8.9376862568129045E-002  -2.5863163623849120E-002   3.0775798682256272E-002
   8.6993608962743690E-002  -2.5213294603140358E-002   3.0366214628675135E-002
   8.4610355357358336E-002  -2.4835125084211929E-002   3.0037356894690032E-002
  0.11165082616267941       -3.4209886073415630E-002  -4.2595955606999913E-004
  0.10853022989741934       -3.2685290409091988E-002  -1.7555633288890427E-004
  0.10540963363215916       -3.1413447502271388E-002   1.3805892723905977E-004
  0.10228903736689907       -3.0394357352954152E-002   5.1488622431360154E-004
   9.9168441101638916E-002  -2.9628019961139840E-002   9.5492555833454063E-004
  0.10522753463332624       -3.1866195826114663E-002   7.7181141597588432E-003
  0.10219861326156451       -3.0643537864704085E-002   7.5699020665170591E-003
   9.9169691889802875E-002  -2.9573181929103978E-002   7.5418277233256920E-003
   9.6140770518041152E-002  -2.8655128019314666E-002   7.6338911301846446E-003
   9.3111849146279513E-002  -2.7889376135335708E-002   7.8460922870936256E-003
   9.8579692322654983E-002  -2.9522505578813779E-002   1.5510024806828435E-002
   9.5699371557495500E-002  -2.8601785320316112E-002   1.5063648128856230E-002
   9.2819050792336003E-002  -2.7732916355936450E-002   1.4794334914038039E-002
   8.9938730027176533E-002  -2.6915898685675010E-002   1.4702085162373906E-002
   8.7058409262016995E-002  -2.6150732309531632E-002   1.4786898873863835E-002
   9.1707299230665645E-002  -2.7178815331512826E-002   2.2949772385138869E-002
   8.9032504785212130E-002  -2.6560032775928118E-002   2.2305681854128522E-002
   8.6357710339758614E-002  -2.5892650782769037E-002   2.1895580499376045E-002
   8.3682915894305043E-002  -2.5176669352035511E-002   2.1719468320881452E-002
   8.1008121448851528E-002  -2.4412088483727529E-002   2.1777345318644566E-002
   8.4610355357358336E-002  -2.4835125084211929E-002   3.0037356894690032E-002
   8.2198012944714488E-002  -2.4518280231540221E-002   2.9296003242334195E-002
   7.9785670532070641E-002  -2.4052385209601533E-002   2.8845564479340044E-002
   7.7373328119426807E-002  -2.3437440018395990E-002   2.8686040605707272E-002
   7.4960985706782918E-002  -2.2673444657923453E-002   2.8817431621436185E-002
   9.9168441101638916E-002  -2.9628019961139840E-002   9.5492555833454063E-004
   9.6307925224596247E-002  -2.8934200862947318E-002   6.2110902510320587E-004
   9.3447409347553634E-002  -2.8132665594495315E-002   4.5586675037281865E-004
   9.0586893470510993E-002  -2.7223414155783852E-002   4.5919873414357326E-004
   8.7726377593468352E-002  -2.6206446546812923E-002   6.3110497641560848E-004
   9.3111849146279513E-002  -2.7889376135335708E-002   7.8460922870936256E-003
   9.0416344988889397E-002  -2.7164767900520803E-002   7.6007307349819087E-003
   8.7720840831499253E-002  -2.6370144938223539E-002   7.5168183636736691E-003
   8.5025336674109178E-002  -2.5505507248443665E-002   7.5943551731696216E-003
   8.2329832516719048E-002  -2.4570854831181266E-002   7.8333411634696204E-003
   8.7058409262016995E-002  -2.6150732309531632E-002   1.4786898873863835E-002
   8.4520791746582336E-002  -2.5395334938094496E-002   1.4592290860094254E-002
   8.1983174231147635E-002  -2.4607624281951720E-002   1.4552006949431373E-002
   7.9445556715712878E-002  -2.3787600341103370E-002   1.4666047141875728E-002
   7.6907939200278191E-002  -2.2935263115549442E-002   1.4934411437426715E-002
   8.1008121448851528E-002  -2.4412088483727529E-002   2.1777345318644566E-002
   7.8621265497675105E-002  -2.3625901975668086E-002   2.1595789400440574E-002
   7.6234409546498696E-002  -2.2845103625679923E-002   2.1561432507646121E-002
   7.3847553595322288E-002  -2.2069693433763131E-002   2.1674274640261670E-002
   7.1460697644145865E-002  -2.1299671399917591E-002   2.1934315798286773E-002
   7.4960985706782918E-002  -2.2673444657923453E-002   2.8817431621436185E-002
   7.2717766242167692E-002  -2.1856469013241689E-002   2.8611226356020814E-002
   7.0474546777552452E-002  -2.1082582969408105E-002   2.8545095038317855E-002
   6.8231327312937184E-002  -2.0351786526422881E-002   2.8619037668327761E-002
   6.5988107848321931E-002  -1.9664079684285851E-002   2.8833054246050038E-002
   8.7726377593468352E-002  -2.6206446546812923E-002   6.3110497641560848E-004
   8.4414620030524357E-002  -2.5174392226975983E-002   5.1357081128233784E-004
   8.1102862467580306E-002  -2.4219880655667186E-002   5.4418636069181181E-004
   7.7791104904636227E-002  -2.3342911832885706E-002   7.2295162464433571E-004
   7.4479347341692259E-002  -2.2543485758631743E-002   1.0498666031386605E-003
   8.2329832516719048E-002  -2.4570854831181266E-002   7.8333411634696204E-003
   7.9175913050611751E-002  -2.3627772725182017E-002   7.6347980916710023E-003
   7.6021993584504399E-002  -2.2737845969191428E-002   7.6037814990030372E-003
   7.2868074118397047E-002  -2.1901074563210235E-002   7.7402913854659056E-003
   6.9714154652289695E-002  -2.1117458507237674E-002   8.0443277510596767E-003
   7.6907939200278191E-002  -2.2935263115549442E-002   1.4934411437426715E-002
   7.3931234595595835E-002  -2.2081153223387634E-002   1.4679246857480954E-002
   7.0954529990913492E-002  -2.1255811282716211E-002   1.4610985521254644E-002
   6.7977825386231094E-002  -2.0459237293534650E-002   1.4729627428747109E-002
   6.5001120781548793E-002  -1.9691431255843495E-002   1.5035172579958789E-002
   7.1460697644145865E-002  -2.1299671399917591E-002   2.1934315798286773E-002
   6.8680584665476774E-002  -2.0534533721593570E-002   2.1646917108712874E-002
   6.5900471686807655E-002  -1.9773776596240890E-002   2.1565798427446662E-002
   6.3120358708138508E-002  -1.9017400023859342E-002   2.1690959754487711E-002
   6.0340245729469430E-002  -1.8265404004449481E-002   2.2022401089836136E-002
   6.5988107848321931E-002  -1.9664079684285851E-002   2.8833054246050038E-002
   6.3423963260254373E-002  -1.8987914219799229E-002   2.8537808845366830E-002
   6.0859818672186844E-002  -1.8291741909765291E-002   2.8468220217579387E-002
   5.8295674084119328E-002  -1.7575562754183996E-002   2.8624288362687628E-002
   5.5731529496051757E-002  -1.6839376753055357E-002   2.9006013280691634E-002
   7.4479347341692259E-002  -2.2543485758631743E-002   1.0498666031386605E-003
   7.1585103598940991E-002  -2.1727328814726166E-002   4.8957496547097357E-004
   6.8690859856189723E-002  -2.0800167382990176E-002   2.6052721038771764E-004
   6.5796616113438455E-002  -1.9762001463422135E-002   3.6272333788844868E-004
   6.2902372370687187E-002  -1.8612831056023849E-002   7.9616334797316668E-004
   6.9714154652289695E-002  -2.1117458507237674E-002   8.0443277510596767E-003
   6.7120733793695597E-002  -2.0321827358793343E-002   7.5998689450184065E-003
   6.4527312935101611E-002  -1.9449010675396478E-002   7.4258120247079340E-003
   6.1933892076507541E-002  -1.8499008457047460E-002   7.5221569901274266E-003
   5.9340471217913471E-002  -1.7471820703745755E-002   7.8889038412771617E-003
   6.5001120781548793E-002  -1.9691431255843495E-002   1.5035172579958789E-002
   6.2647680810258066E-002  -1.8916325902860298E-002   1.4672727652665501E-002
   6.0294240838967311E-002  -1.8097853967803446E-002   1.4519842614248712E-002
   5.7940800867676556E-002  -1.7236015450672229E-002   1.4576517464708616E-002
   5.5587360896385829E-002  -1.6330810351467551E-002   1.4842752204044574E-002
   6.0340245729469430E-002  -1.8265404004449481E-002   2.2022401089836136E-002
   5.8165944648628148E-002  -1.7510824446927475E-002   2.1708151088412321E-002
   5.5991643567786895E-002  -1.6746697260210192E-002   2.1542618979011094E-002
   5.3817342486945585E-002  -1.5973022444297054E-002   2.1525804761632170E-002
   5.1643041406104359E-002  -1.5189799999189180E-002   2.1657708436275944E-002
   5.5731529496051757E-002  -1.6839376753055357E-002   2.9006013280691634E-002
   5.3675525308806066E-002  -1.6105322990994569E-002   2.8706139252258511E-002
   5.1619521121560319E-002  -1.5395540552616910E-002   2.8494141118994148E-002
   4.9563516934314572E-002  -1.4710029437922288E-002   2.8370018880898407E-002
   4.7507512747068881E-002  -1.4048789646911031E-002   2.8333772537971202E-002
   6.2902372370687187E-002  -1.8612831056023849E-002   7.9616334797316668E-004
   6.0058322822480026E-002  -1.7609710556275915E-002   1.1406602561379042E-003
   5.7214273274272864E-002  -1.7009694359659877E-002   1.1289588120448335E-003
   5.4370223726065647E-002  -1.6812782466175805E-002   7.6105901569367695E-004
   5.1526174177858541E-002  -1.7018974875824266E-002   3.6960867085156224E-005
   5.9340471217913471E-002  -1.7471820703745755E-002   7.8889038412771617E-003
   5.6235899536400291E-002  -1.6536236386778036E-002   7.8061194442630710E-003
   5.3131327854887084E-002  -1.5861044477430586E-002   7.5584891328947523E-003
   5.0026756173373918E-002  -1.5446244975703030E-002   7.1460129071727330E-003
   4.6922184491860697E-002  -1.5291837881596493E-002   6.5686907670956529E-003
   5.5587360896385829E-002  -1.6330810351467551E-002   1.4842752204044574E-002
   5.2413619519470073E-002  -1.5462762217279880E-002   1.4475398397364031E-002
   4.9239878142554233E-002  -1.4712394595200601E-002   1.4134551114232563E-002
   4.6066136765638407E-002  -1.4079707485230193E-002   1.3820210354650378E-002
   4.2892395388722526E-002  -1.3564700887368497E-002   1.3532376118617129E-002
   5.1643041406104359E-002  -1.5189799999189180E-002   2.1657708436275944E-002
   4.8591482771689370E-002  -1.4389288047781862E-002   2.1148497115440340E-002
   4.5539924137274305E-002  -1.3563744712971185E-002   2.0857144756057620E-002
   4.2488365502859254E-002  -1.2713169994757498E-002   2.0783651358126997E-002
   3.9436806868444196E-002  -1.1837563893140501E-002   2.0928016921649362E-002
   4.7507512747068881E-002  -1.4048789646911031E-002   2.8333772537971202E-002
   4.4769489293058046E-002  -1.3315813878283567E-002   2.7825415598492442E-002
   4.2031465839047238E-002  -1.2415094830741602E-002   2.7726270058369917E-002
   3.9293442385036487E-002  -1.1346632504284596E-002   2.8036335917603267E-002
   3.6555418931025652E-002  -1.0110426898912728E-002   2.8755613176192574E-002
   9.0362563374389429E-002   0.0000000000000000        4.9835689815122278E-002
   9.3962851994702987E-002  -5.4043197886500163E-003   5.3209599599442173E-002
   9.7563140615016530E-002  -1.0670971653379047E-002   5.4964720717867267E-002
  0.10116342923533007       -1.5799955594187089E-002   5.5101053170397603E-002
  0.10476371785564365       -2.0791271611074157E-002   5.3618596957033131E-002
   8.2425415392786416E-002   0.0000000000000000        4.4784247172896703E-002
   8.4635983197677692E-002  -4.5742423091113234E-003   4.8267762052535072E-002
   8.6846551002568953E-002  -9.0375061687640017E-003   5.0590623967223664E-002
   8.9057118807460228E-002  -1.3389791578958036E-002   5.1752832916962442E-002
   9.1267686612351490E-002  -1.7631098539693427E-002   5.1754388901751422E-002
   7.4244481469339568E-002   0.0000000000000000        4.0576226747440991E-002
   7.5523464159753542E-002  -3.7441648295726297E-003   4.4142657247935486E-002
   7.6802446850167516E-002  -7.4040406841489551E-003   4.7006570484425192E-002
   7.8081429540581490E-002  -1.0979627563728977E-002   4.9167966456910094E-002
   7.9360412230995464E-002  -1.4470925468312700E-002   5.0626845165390191E-002
   6.5819761604048899E-002   0.0000000000000000        3.7211628538755134E-002
   6.6625294880930566E-002  -2.9140873500339368E-003   4.0834285185643443E-002
   6.7430828157812234E-002  -5.7705751995339120E-003   4.4212560269471929E-002
   6.8236361434693901E-002  -8.5694635484999185E-003   4.7346453790240606E-002
   6.9041894711575569E-002  -1.1310752396931979E-002   5.0235965747949474E-002
   5.7151255796914394E-002   0.0000000000000000        3.4690452546839154E-002
   5.7941475361208743E-002  -2.0840098704952431E-003   3.8342645865658907E-002
   5.8731694925503099E-002  -4.1371097149188636E-003   4.2208593322363840E-002
   5.9521914489797455E-002  -6.1592995332708650E-003   4.6288294916953944E-002
   6.0312134054091804E-002  -8.1505793255512490E-003   5.0581750649429241E-002
  0.10476371785564365       -2.0791271611074157E-002   5.3618596957033131E-002
  0.10210863083645766       -2.4932303687239921E-002   4.5638877230360114E-002
   9.9453543817271700E-002  -2.7510435805884168E-002   3.9348728786664691E-002
   9.6798456798085727E-002  -2.8525667967006792E-002   3.4748151625946688E-002
   9.4143369778899769E-002  -2.7978000170607864E-002   3.1837145748206189E-002
   9.1267686612351490E-002  -1.7631098539693427E-002   5.1754388901751422E-002
   9.0064374571201034E-002  -2.1206527831417077E-002   4.6517468155115746E-002
   8.8861062530050605E-002  -2.3561180234575881E-002   4.2494526081573607E-002
   8.7657750488900163E-002  -2.4695055749169890E-002   3.9685562681124963E-002
   8.6454438447749721E-002  -2.4608154375198990E-002   3.8090577953769938E-002
   7.9360412230995464E-002  -1.4470925468312700E-002   5.0626845165390191E-002
   7.9133282557996565E-002  -1.7480751975594219E-002   4.7790600329835127E-002
   7.8906152884997680E-002  -1.9611924663267624E-002   4.5692741557489626E-002
   7.8679023211998753E-002  -2.0864443531332950E-002   4.4333268848353632E-002
   7.8451893538999840E-002  -2.1238308579790144E-002   4.3712182202427223E-002
   6.9041894711575569E-002  -1.1310752396931979E-002   5.0235965747949474E-002
   6.9315354796844225E-002  -1.3754976119771367E-002   4.9458273754518278E-002
   6.9588814882112882E-002  -1.5662669091959371E-002   4.8943375214412631E-002
   6.9862274967381538E-002  -1.7033831313496020E-002   4.8691270127632566E-002
   7.0135735052650194E-002  -1.7868462784381277E-002   4.8701958494178021E-002
   6.0312134054091804E-002  -8.1505793255512490E-003   5.0581750649429241E-002
   6.0610591287744035E-002  -1.0029200263948511E-002   5.1520488429165207E-002
   6.0909048521396239E-002  -1.1713413520651104E-002   5.2246427052342691E-002
   6.1207505755048471E-002  -1.3203219095659116E-002   5.2759566518961812E-002
   6.1505962988700688E-002  -1.4498616988972431E-002   5.3059906829022417E-002
   9.4143369778899769E-002  -2.7978000170607864E-002   3.1837145748206189E-002
   9.1760116173514386E-002  -2.6784732146338322E-002   3.1266109055433242E-002
   8.9376862568129045E-002  -2.5863163623849120E-002   3.0775798682256272E-002
   8.6993608962743690E-002  -2.5213294603140358E-002   3.0366214628675135E-002
   8.4610355357358336E-002  -2.4835125084211929E-002   3.0037356894690032E-002
   8.6454438447749721E-002  -2.4608154375198990E-002   3.8090577953769938E-002
   8.4198280762742550E-002  -2.3964282145810673E-002   3.7063029944424286E-002
   8.1942123077735365E-002  -2.3427245094152279E-002   3.6208947456239045E-002
   7.9685965392728181E-002  -2.2997043220223799E-002   3.5528330489214263E-002
   7.7429807707720982E-002  -2.2673676524025244E-002   3.5021179043349879E-002
   7.8451893538999840E-002  -2.1238308579790144E-002   4.3712182202427223E-002
   7.6415570975935376E-002  -2.1143832145283030E-002   4.2392987200559284E-002
   7.4379248412870858E-002  -2.0991326564455383E-002   4.1339996921416274E-002
   7.2342925849806339E-002  -2.0780791837307237E-002   4.0553211364998162E-002
   7.0306603286741876E-002  -2.0512227963838531E-002   4.0032630531304965E-002
   7.0135735052650194E-002  -1.7868462784381277E-002   4.8701958494178021E-002
   6.8411986813092837E-002  -1.8323382144755391E-002   4.7255980823838306E-002
   6.6688238573535508E-002  -1.8555408034758514E-002   4.6168947077787917E-002
   6.4964490333978150E-002  -1.8564540454390668E-002   4.5440857256027069E-002
   6.3240742094420821E-002  -1.8350779403651818E-002   4.5071711358555443E-002
   6.1505962988700688E-002  -1.4498616988972431E-002   5.3059906829022417E-002
   6.0187528274215002E-002  -1.5502932144227717E-002   5.1652010814261323E-002
   5.8869093559729323E-002  -1.6119489505061639E-002   5.0695797925354100E-002
   5.7550658845243657E-002  -1.6348289071474145E-002   5.0191268162300774E-002
   5.6232224130757957E-002  -1.6189330843465147E-002   5.0138421525101382E-002
   8.4610355357358336E-002  -2.4835125084211929E-002   3.0037356894690032E-002
   8.2198012944714488E-002  -2.4518280231540221E-002   2.9296003242334195E-002
   7.9785670532070641E-002  -2.4052385209601533E-002   2.8845564479340044E-002
   7.7373328119426807E-002  -2.3437440018395990E-002   2.8686040605707272E-002
   7.4960985706782918E-002  -2.2673444657923453E-002   2.8817431621436185E-002
   7.7429807707720982E-002  -2.2673676524025244E-002   3.5021179043349879E-002
   7.5291824677470656E-002  -2.2349209482361597E-002   3.4449656131647542E-002
   7.3153841647220344E-002  -2.1915706572037771E-002   3.4135937095370807E-002
   7.1015858616969990E-002  -2.1373167793053833E-002   3.4080021934519533E-002
   6.8877875586719692E-002  -2.0721593145409778E-002   3.4281910649093653E-002
   7.0306603286741876E-002  -2.0512227963838531E-002   4.0032630531304965E-002
   6.8409868624948911E-002  -2.0180138733182910E-002   3.9590924059649604E-002
   6.6513133963155960E-002  -1.9779027934473985E-002   3.9373910449483490E-002
   6.4616399301362981E-002  -1.9308895567711735E-002   3.9381589700806761E-002
   6.2719664639570016E-002  -1.8769741632896145E-002   3.9613961813619265E-002
   6.3240742094420821E-002  -1.8350779403651818E-002   4.5071711358555443E-002
   6.1552144787149127E-002  -1.8011067984004269E-002   4.4719807026340069E-002
   5.9863547479877433E-002  -1.7642349296910227E-002   4.4559484541677886E-002
   5.8174950172605745E-002  -1.7244623342369592E-002   4.4590743904568846E-002
   5.6486352865334044E-002  -1.6817890120382518E-002   4.4813585115013058E-002
   5.6232224130757957E-002  -1.6189330843465147E-002   5.0138421525101382E-002
   5.4718653164071387E-002  -1.5841997234825614E-002   4.9836305031719111E-002
   5.3205082197384818E-002  -1.5505670659346413E-002   4.9692659371954030E-002
   5.1691511230698234E-002  -1.5180351117027487E-002   4.9707484545805911E-002
   5.0177940264011678E-002  -1.4866038607868837E-002   4.9880780553274912E-002
   7.4960985706782918E-002  -2.2673444657923453E-002   2.8817431621436185E-002
   7.2717766242167692E-002  -2.1856469013241689E-002   2.8611226356020814E-002
   7.0474546777552452E-002  -2.1082582969408105E-002   2.8545095038317855E-002
   6.8231327312937184E-002  -2.0351786526422881E-002   2.8619037668327761E-002
   6.5988107848321931E-002  -1.9664079684285851E-002   2.8833054246050038E-002
   6.8877875586719692E-002  -2.0721593145409778E-002   3.4281910649093653E-002
   6.6785304660946190E-002  -2.0025176009109982E-002   3.3979958901622781E-002
   6.4692733735172675E-002  -1.9348109764158447E-002   3.3839230284122578E-002
   6.2600162809399174E-002  -1.8690394410555585E-002   3.3859724796593368E-002
   6.0507591883625672E-002  -1.8052029948300963E-002   3.4041442439035119E-002
   6.2719664639570016E-002  -1.8769741632896145E-002   3.9613961813619265E-002
   6.0798891434896592E-002  -1.8193883004978269E-002   3.9240002293592521E-002
   5.8878118230223167E-002  -1.7613636558908897E-002   3.9048415085795055E-002
   5.6957345025549749E-002  -1.7029002294688175E-002   3.9039200190226754E-002
   5.5036571820876304E-002  -1.6439980212316074E-002   3.9212357606887738E-002
   5.6486352865334044E-002  -1.6817890120382518E-002   4.4813585115013058E-002
   5.4758526564019000E-002  -1.6362590000846559E-002   4.4391356531930465E-002
   5.3030700262703956E-002  -1.5879163353659374E-002   4.4172649443335293E-002
   5.1302873961388919E-002  -1.5367610178820877E-002   4.4157463849227856E-002
   4.9575047660073868E-002  -1.4827930476331158E-002   4.4345799749607923E-002
   5.0177940264011678E-002  -1.4866038607868837E-002   4.9880780553274912E-002
   4.8664210048313311E-002  -1.4531296996714890E-002   4.9434021616636237E-002
   4.7150479832614986E-002  -1.4144690148409689E-002   4.9211933356743454E-002
   4.5636749616916654E-002  -1.3706218062953510E-002   4.9214515773596534E-002
   4.4123019401218322E-002  -1.3215880740346297E-002   4.9441768867195368E-002
   6.5988107848321931E-002  -1.9664079684285851E-002   2.8833054246050038E-002
   6.3423963260254373E-002  -1.8987914219799229E-002   2.8537808845366830E-002
   6.0859818672186844E-002  -1.8291741909765291E-002   2.8468220217579387E-002
   5.8295674084119328E-002  -1.7575562754183996E-002   2.8624288362687628E-002
   5.5731529496051757E-002  -1.6839376753055357E-002   2.9006013280691634E-002
   6.0507591883625672E-002  -1.8052029948300963E-002   3.4041442439035119E-002
   5.8163627086874892E-002  -1.7416294468046739E-002   3.3767265845167621E-002
   5.5819662290124070E-002  -1.6766466060444671E-002   3.3707792061037620E-002
   5.3475697493373262E-002  -1.6102544725494713E-002   3.3863021086645531E-002
   5.1131732696622412E-002  -1.5424530463196862E-002   3.4232952921990883E-002
   5.5036571820876304E-002  -1.6439980212316074E-002   3.9212357606887738E-002
   5.2901832852284308E-002  -1.5844674716294110E-002   3.8953335901636091E-002
   5.0767093883692251E-002  -1.5241190211123828E-002   3.8898063042964115E-002
   4.8632354915100220E-002  -1.4629526696805263E-002   3.9046539030872032E-002
   4.6497615946508142E-002  -1.4009684173338421E-002   3.9398763865359648E-002
   4.9575047660073868E-002  -1.4827930476331158E-002   4.4345799749607923E-002
   4.7638580556482610E-002  -1.4273054964541579E-002   4.4096019014772517E-002
   4.5702113452891324E-002  -1.3715914361803097E-002   4.4039033163359061E-002
   4.3765646349300059E-002  -1.3156508668115911E-002   4.4174842195367353E-002
   4.1829179245708767E-002  -1.2594837883479953E-002   4.4503446110797491E-002
   4.4123019401218322E-002  -1.3215880740346297E-002   4.9441768867195368E-002
   4.2373870199469837E-002  -1.2701435212788936E-002   4.9195315184576982E-002
   4.0624720997721381E-002  -1.2190638512482255E-002   4.9130702422222478E-002
   3.8875571795972924E-002  -1.1683490639426586E-002   4.9247930580131632E-002
   3.7126422594224467E-002  -1.1179991593621541E-002   4.9546999658304780E-002
   5.5731529496051757E-002  -1.6839376753055357E-002   2.9006013280691634E-002
   5.3675525308806066E-002  -1.6105322990994569E-002   2.8706139252258511E-002
   5.1619521121560319E-002  -1.5395540552616910E-002   2.8494141118994148E-002
   4.9563516934314572E-002  -1.4710029437922288E-002   2.8370018880898407E-002
   4.7507512747068881E-002  -1.4048789646911031E-002   2.8333772537971202E-002
   5.1131732696622412E-002  -1.5424530463196862E-002   3.4232952921990883E-002
   4.9178703509972541E-002  -1.4746309755872933E-002   3.3894882367810741E-002
   4.7225674323322656E-002  -1.4081769085844464E-002   3.3674885919653605E-002
   4.5272645136672722E-002  -1.3430908453111373E-002   3.3572963577519564E-002
   4.3319615950022816E-002  -1.2793727857674075E-002   3.3589115341408349E-002
   4.6497615946508142E-002  -1.4009684173338421E-002   3.9398763865359648E-002
   4.4677759971308427E-002  -1.3387296520751393E-002   3.9033088071820141E-002
   4.2857903996108768E-002  -1.2767997619072199E-002   3.8815684595157690E-002
   4.1038048020909039E-002  -1.2151787468300684E-002   3.8746553435372970E-002
   3.9218192045709324E-002  -1.1538666068437120E-002   3.8825694592465543E-002
   4.1829179245708767E-002  -1.2594837883479953E-002   4.4503446110797491E-002
   4.0172694692813746E-002  -1.2028283285629777E-002   4.4120756364286036E-002
   3.8516210139918697E-002  -1.1454226152299844E-002   4.3916537145506557E-002
   3.6859725587023641E-002  -1.0872666483489826E-002   4.3890788454458839E-002
   3.5203241034128620E-002  -1.0283604279200165E-002   4.4043510291142687E-002
   3.7126422594224467E-002  -1.1179991593621541E-002   4.9546999658304780E-002
   3.5663507674488448E-002  -1.0669270050508217E-002   4.9157887245209253E-002
   3.4200592754752457E-002  -1.0140454685527656E-002   4.8977443570699830E-002
   3.2737677835016452E-002  -9.5935454986789820E-003   4.9005668634776900E-002
   3.1274762915280474E-002  -9.0285424899632649E-003   4.9242562437440129E-002
   4.7507512747068881E-002  -1.4048789646911031E-002   2.8333772537971202E-002
   4.4769489293058046E-002  -1.3315813878283567E-002   2.7825415598492442E-002
   4.2031465839047238E-002  -1.2415094830741602E-002   2.7726270058369917E-002
   3.9293442385036487E-002  -1.1346632504284596E-002   2.8036335917603267E-002
   3.6555418931025652E-002  -1.0110426898912728E-002   2.8755613176192574E-002
   4.3319615950022816E-002  -1.2793727857674075E-002   3.3589115341408349E-002
   4.0941160194313320E-002  -1.2113864453498352E-002   3.3250982060451267E-002
   3.8562704438603893E-002  -1.1334955394550414E-002   3.3222772776741488E-002
   3.6184248682894389E-002  -1.0457000680830660E-002   3.3504487490278095E-002
   3.3805792927184886E-002  -9.4800003123387544E-003   3.4096126201061727E-002
   3.9218192045709324E-002  -1.1538666068437120E-002   3.8825694592465543E-002
   3.7100016586192212E-002  -1.0911915028712776E-002   3.8589087345887410E-002
   3.4981841126675003E-002  -1.0254815958359337E-002   3.8563116694447105E-002
   3.2863665667157753E-002  -9.5673688573766416E-003   3.8747782638144074E-002
   3.0745490207640641E-002  -8.8495737257646701E-003   3.9143085176979564E-002
   3.5203241034128620E-002  -1.0283604279200165E-002   4.4043510291142687E-002
   3.3246058468694578E-002  -9.7099656039274368E-003   4.3839731454800523E-002
   3.1288875903260530E-002  -9.1746765221680932E-003   4.3747301811486949E-002
   2.9331693337826585E-002  -8.6777370339226091E-003   4.3766221361202229E-002
   2.7374510772392453E-002  -8.2191471391906412E-003   4.3896490103945460E-002
   3.1274762915280474E-002  -9.0285424899632649E-003   4.9242562437440129E-002
   2.9379285841820535E-002  -8.5080161791418751E-003   4.9002914387190677E-002
   2.7483808768360582E-002  -8.0945370859769744E-003   4.8775328127861145E-002
   2.5588331694900678E-002  -7.7881052104685523E-003   4.8559803659450881E-002
   2.3692854621440718E-002  -7.5887205526166124E-003   4.8356340981960511E-002
   5.7151255796914394E-002   0.0000000000000000        3.4690452546839154E-002
   5.7941475361208743E-002  -2.0840098704952431E-003   3.8342645865658907E-002
   5.8731694925503099E-002  -4.1371097149188636E-003   4.2208593322363840E-002
   5.9521914489797455E-002  -6.1592995332708650E-003   4.6288294916953944E-002
   6.0312134054091804E-002  -8.1505793255512490E-003   5.0581750649429241E-002
   4.8651029949537322E-002   0.0000000000000000        3.2789530491009466E-002
   4.9589743267350342E-002  -1.7093238614564387E-003   3.6965319666529106E-002
   5.0528456585163355E-002  -3.4325369895691141E-003   4.1224342211200894E-002
   5.1467169902976374E-002  -5.1696393843380269E-003   4.5566598125024817E-002
   5.2405883220789380E-002  -6.9206310457631728E-003   4.9992087408000874E-002
   4.0731149963518981E-002   0.0000000000000000        3.1285694090582510E-002
   4.1687836266117620E-002  -1.3346378524176352E-003   3.5940279830074189E-002
   4.2644522568716259E-002  -2.7279642642193645E-003   4.0547578169984971E-002
   4.3601208871314891E-002  -4.1799792354051853E-003   4.5107589110314865E-002
   4.4557895173913530E-002  -5.6906827659751009E-003   4.9620312651063848E-002
   3.3391615838859370E-002   0.0000000000000000        3.0178943345558287E-002
   3.4235754357510577E-002  -9.5995184337883130E-004   3.5267526356294154E-002
   3.5079892876161797E-002  -2.0233915388696141E-003   4.0178301198716071E-002
   3.5924031394813004E-002  -3.1903190864723445E-003   4.4911267872824040E-002
   3.6768169913464224E-002  -4.4607344861870273E-003   4.9466426378618089E-002
   2.6632427575558469E-002   0.0000000000000000        2.9469278255936798E-002
   2.7233497541529220E-002  -5.8526583434002737E-004   3.4947059245188983E-002
   2.7834567507499974E-002  -1.3188188135198637E-003   4.0116511297394186E-002
   2.8435637473470728E-002  -2.2006589375395038E-003   4.4977634412552404E-002
   2.9036707439441478E-002  -3.2307862063989537E-003   4.9530428590663644E-002
   6.0312134054091804E-002  -8.1505793255512490E-003   5.0581750649429241E-002
   6.0610591287744035E-002  -1.0029200263948511E-002   5.1520488429165207E-002
   6.0909048521396239E-002  -1.1713413520651104E-002   5.2246427052342691E-002
   6.1207505755048471E-002  -1.3203219095659116E-002   5.2759566518961812E-002
   6.1505962988700688E-002  -1.4498616988972431E-002   5.3059906829022417E-002
   5.2405883220789380E-002  -6.9206310457631728E-003   4.9992087408000874E-002
   5.2530596521116010E-002  -8.5842365607616024E-003   5.1219677817998382E-002
   5.2655309821442640E-002  -1.0059180516250333E-002   5.2312579517903149E-002
   5.2780023121769278E-002  -1.1345462912229362E-002   5.3270792507715145E-002
   5.2904736422095894E-002  -1.2443083748698694E-002   5.4094316787434406E-002
   4.4557895173913530E-002  -5.6906827659751009E-003   4.9620312651063848E-002
   4.4586974987380235E-002  -7.1392728575746973E-003   5.1131009569137971E-002
   4.4616054800846960E-002  -8.4049475118495275E-003   5.2585128223584993E-002
   4.4645134614313679E-002  -9.4877067287996199E-003   5.3982668614405004E-002
   4.4674214427780398E-002  -1.0387550508424954E-002   5.5323630741597886E-002
   3.6768169913464224E-002  -4.4607344861870273E-003   4.9466426378618089E-002
   3.6779726686536715E-002  -5.6943091543877750E-003   5.1254483682583875E-002
   3.6791283459609185E-002  -6.7507145074487424E-003   5.3064073169388278E-002
   3.6802840232681669E-002  -7.6299505453698829E-003   5.4895194839031290E-002
   3.6814397005754153E-002  -8.3320172681512292E-003   5.6747848691512892E-002
   2.9036707439441478E-002  -3.2307862063989537E-003   4.9530428590663644E-002
   2.9108851618585407E-002  -4.2493454512008769E-003   5.1590100158336177E-002
   2.9180995797729332E-002  -5.0964815030479487E-003   5.3749414355312976E-002
   2.9253139976873253E-002  -5.7721943619401354E-003   5.6008371181594109E-002
   2.9325284156017185E-002  -6.2764840278774700E-003   5.8366970637179445E-002
   6.1505962988700688E-002  -1.4498616988972431E-002   5.3059906829022417E-002
   6.0187528274215002E-002  -1.5502932144227717E-002   5.1652010814261323E-002
   5.8869093559729323E-002  -1.6119489505061639E-002   5.0695797925354100E-002
   5.7550658845243657E-002  -1.6348289071474145E-002   5.0191268162300774E-002
   5.6232224130757957E-002  -1.6189330843465147E-002   5.0138421525101382E-002
   5.2904736422095894E-002  -1.2443083748698694E-002   5.4094316787434406E-002
   5.1985856610485263E-002  -1.3293171077797504E-002   5.3352078746810049E-002
   5.1066976798874605E-002  -1.3836852951664917E-002   5.2957267386081905E-002
   5.0148096987263982E-002  -1.4074129370300980E-002   5.2909882705249892E-002
   4.9229217175653317E-002  -1.4005000333705650E-002   5.3209924704314071E-002
   4.4674214427780398E-002  -1.0387550508424954E-002   5.5323630741597886E-002
   4.4050633073087042E-002  -1.1083410011367260E-002   5.5165698335920312E-002
   4.3427051718393714E-002  -1.1554216398268227E-002   5.5250936164181176E-002
   4.2803470363700351E-002  -1.1799969669127842E-002   5.5579344226380473E-002
   4.2179889009007029E-002  -1.1820669823946146E-002   5.6150922522518243E-002
   3.6814397005754153E-002  -8.3320172681512292E-003   5.6747848691512892E-002
   3.6381857662020380E-002  -8.8736489449369894E-003   5.7092869581592043E-002
   3.5949318318286586E-002  -9.2715798448715272E-003   5.7576804259651913E-002
   3.5516778974552791E-002  -9.5258099679547091E-003   5.8199652725692448E-002
   3.5084239630819011E-002  -9.6363393141866184E-003   5.8961414979713654E-002
   2.9325284156017185E-002  -6.2764840278774700E-003   5.8366970637179445E-002
   2.8979530377285227E-002  -6.6638878785067641E-003   5.9133592483825263E-002
   2.8633776598553266E-002  -6.9889432914748122E-003   5.9934871672494061E-002
   2.8288022819821311E-002  -7.2516502667815605E-003   6.0770808203185839E-002
   2.7942269041089346E-002  -7.4520088044271460E-003   6.1641402075900437E-002
   5.6232224130757957E-002  -1.6189330843465147E-002   5.0138421525101382E-002
   5.4718653164071387E-002  -1.5841997234825614E-002   4.9836305031719111E-002
   5.3205082197384818E-002  -1.5505670659346413E-002   4.9692659371954030E-002
   5.1691511230698234E-002  -1.5180351117027487E-002   4.9707484545805911E-002
   5.0177940264011678E-002  -1.4866038607868837E-002   4.9880780553274912E-002
   4.9229217175653317E-002  -1.4005000333705650E-002   5.3209924704314071E-002
   4.7883967171109910E-002  -1.3774583497057361E-002   5.2873918683773433E-002
   4.6538717166566525E-002  -1.3527996515534543E-002   5.2716083753902042E-002
   4.5193467162023146E-002  -1.3265239389137339E-002   5.2736419914699947E-002
   4.3848217157479732E-002  -1.2986312117865495E-002   5.2934927166167031E-002
   4.2179889009007029E-002  -1.1820669823946146E-002   5.6150922522518243E-002
   4.1022660223658997E-002  -1.1707169759289100E-002   5.5808204152853869E-002
   3.9865431438310985E-002  -1.1550322371722753E-002   5.5663357130911015E-002
   3.8708202652962972E-002  -1.1350127661247104E-002   5.5716381456689605E-002
   3.7550973867614960E-002  -1.1106585627862153E-002   5.5967277130189771E-002
   3.5084239630819011E-002  -9.6363393141866184E-003   5.8961414979713654E-002
   3.4134732321718604E-002  -9.6397560215208573E-003   5.8639161438960467E-002
   3.3185225012618204E-002  -9.5726482279109085E-003   5.8534479502980928E-002
   3.2235717703517783E-002  -9.4350159333568846E-003   5.8647369171775224E-002
   3.1286210394417376E-002  -9.2268591378587977E-003   5.8977830445343091E-002
   2.7942269041089346E-002  -7.4520088044271460E-003   6.1641402075900437E-002
   2.7220183465288761E-002  -7.5723422837525867E-003   6.1366790542093208E-002
   2.6498097889488162E-002  -7.5949740840991001E-003   6.1329450870111851E-002
   2.5776012313687559E-002  -7.5199042054667365E-003   6.1529383059956456E-002
   2.5053926737886978E-002  -7.3471326478554422E-003   6.1966587111626975E-002
   5.0177940264011678E-002  -1.4866038607868837E-002   4.9880780553274912E-002
   4.8664210048313311E-002  -1.4531296996714890E-002   4.9434021616636237E-002
   4.7150479832614986E-002  -1.4144690148409689E-002   4.9211933356743454E-002
   4.5636749616916654E-002  -1.3706218062953510E-002   4.9214515773596534E-002
   4.4123019401218322E-002  -1.3215880740346297E-002   4.9441768867195368E-002
   4.3848217157479732E-002  -1.2986312117865495E-002   5.2934927166167031E-002
   4.2551257990101649E-002  -1.2679815955437129E-002   5.2558164855064843E-002
   4.1254298822723572E-002  -1.2334352155570286E-002   5.2390273963857238E-002
   3.9957339655345508E-002  -1.1949920718264898E-002   5.2431254492544252E-002
   3.8660380487967411E-002  -1.1526521643520915E-002   5.2681106441126085E-002
   3.7550973867614960E-002  -1.1106585627862153E-002   5.5967277130189771E-002
   3.6454986491705969E-002  -1.0828334914159514E-002   5.5647613844911445E-002
   3.5358999115796985E-002  -1.0524014162730855E-002   5.5521022722676533E-002
   3.4263011739887980E-002  -1.0193623373576176E-002   5.5587503763485160E-002
   3.3167024363979003E-002  -9.8371625466954216E-003   5.5847056967337272E-002
   3.1286210394417376E-002  -9.2268591378587977E-003   5.8977830445343091E-002
   3.0375395553126294E-002  -8.9768538728818258E-003   5.8702368586176057E-002
   2.9464580711835199E-002  -8.7136761698914100E-003   5.8604179633201463E-002
   2.8553765870544114E-002  -8.4373260288873979E-003   5.8683263586419079E-002
   2.7642951029253023E-002  -8.1478034498699559E-003   5.8939620445829052E-002
   2.5053926737886978E-002  -7.3471326478554422E-003   6.1966587111626975E-002
   2.4312485174362602E-002  -7.1253728316041653E-003   6.1722429078858748E-002
   2.3571043610838234E-002  -6.9033381770519722E-003   6.1639744695431778E-002
   2.2829602047313883E-002  -6.6810286841987466E-003   6.1718533961345808E-002
   2.2088160483789504E-002  -6.4584443530445457E-003   6.1958796876601108E-002
   4.4123019401218322E-002  -1.3215880740346297E-002   4.9441768867195368E-002
   4.2373870199469837E-002  -1.2701435212788936E-002   4.9195315184576982E-002
   4.0624720997721381E-002  -1.2190638512482255E-002   4.9130702422222478E-002
   3.8875571795972924E-002  -1.1683490639426586E-002   4.9247930580131632E-002
   3.7126422594224467E-002  -1.1179991593621541E-002   4.9546999658304780E-002
   3.8660380487967411E-002  -1.1526521643520915E-002   5.2681106441126085E-002
   3.7101040101102989E-002  -1.1082925548170960E-002   5.2410792230651607E-002
   3.5541699714238553E-002  -1.0637903049047770E-002   5.2338254729681399E-002
   3.3982359327374104E-002  -1.0191454146151177E-002   5.2463493938215297E-002
   3.2423018940509654E-002  -9.7435788394815148E-003   5.2786509856253494E-002
   3.3167024363979003E-002  -9.8371625466954216E-003   5.5847056967337272E-002
   3.1813428581238978E-002  -9.4644158835530401E-003   5.5557957460030741E-002
   3.0459832798498926E-002  -9.0851675856132297E-003   5.5482570451468857E-002
   2.9106237015758908E-002  -8.6994176528759903E-003   5.5620895941651607E-002
   2.7752641233018849E-002  -8.3071660853414608E-003   5.5972933930578783E-002
   2.7642951029253023E-002  -8.1478034498699559E-003   5.8939620445829052E-002
   2.6511035639877820E-002  -7.8459062189350920E-003   5.8636810872714537E-002
   2.5379120250502596E-002  -7.5324321221786339E-003   5.8563649587585143E-002
   2.4247204861127393E-002  -7.2073811596007759E-003   5.8720136590440647E-002
   2.3115289471752169E-002  -6.8707533312013930E-003   5.9106271881281244E-002
   2.2088160483789504E-002  -6.4584443530445457E-003   6.1958796876601108E-002
   2.1193861277019499E-002  -6.2273965543171717E-003   6.1647352468702898E-002
   2.0299562070249501E-002  -5.9796966587442185E-003   6.1581492138029964E-002
   1.9405262863479506E-002  -5.7153446663253983E-003   6.1761215884582513E-002
   1.8510963656709511E-002  -5.4343405770613251E-003   6.2186523708360364E-002
   3.7126422594224467E-002  -1.1179991593621541E-002   4.9546999658304780E-002
   3.5663507674488448E-002  -1.0669270050508217E-002   4.9157887245209253E-002
   3.4200592754752457E-002  -1.0140454685527656E-002   4.8977443570699830E-002
   3.2737677835016452E-002  -9.5935454986789820E-003   4.9005668634776900E-002
   3.1274762915280474E-002  -9.0285424899632649E-003   4.9242562437440129E-002
   3.2423018940509654E-002  -9.7435788394815148E-003   5.2786509856253494E-002
   3.1162366096489355E-002  -9.2859995388052952E-003   5.2442054429564983E-002
   2.9901713252469063E-002  -8.8104386538892382E-003   5.2293454415721585E-002
   2.8641060408448767E-002  -8.3168961847334792E-003   5.2340709814723649E-002
   2.7380407564428472E-002  -7.8053721313378066E-003   5.2583820626570632E-002
   2.7752641233018849E-002  -8.3071660853414608E-003   5.5972933930578783E-002
   2.6681437138973196E-002  -7.9027290271022066E-003   5.5673023252669970E-002
   2.5610233044927502E-002  -7.4804226222509873E-003   5.5556154661864865E-002
   2.4539028950881808E-002  -7.0402468707876989E-003   5.5622328158164050E-002
   2.3467824856836149E-002  -6.5822017727124316E-003   5.5871543741567206E-002
   2.3115289471752169E-002  -6.8707533312013930E-003   5.9106271881281244E-002
   2.2220720801939996E-002  -6.5194585153991735E-003   5.8850793714523883E-002
   2.1326152132127796E-002  -6.1504065906126532E-003   5.8765544309129399E-002
   2.0431583462315592E-002  -5.7635975568420574E-003   5.8850523665097881E-002
   1.9537014792503422E-002  -5.3590314140870149E-003   5.9105731782429394E-002
   1.8510963656709511E-002  -5.4343405770613251E-003   6.2186523708360364E-002
   1.7780217085389710E-002  -5.1361880036962237E-003   6.1975365815126859E-002
   1.7049470514069923E-002  -4.8203905589743329E-003   6.1921623357515332E-002
   1.6318723942750128E-002  -4.4869482428963083E-003   6.2025296335525462E-002
   1.5587977371430334E-002  -4.1358610554615982E-003   6.2286384749157375E-002
   3.1274762915280474E-002  -9.0285424899632649E-003   4.9242562437440129E-002
   2.9379285841820535E-002  -8.5080161791418751E-003   4.9002914387190677E-002
   2.7483808768360582E-002  -8.0945370859769744E-003   4.8775328127861145E-002
   2.5588331694900678E-002  -7.7881052104685523E-003   4.8559803659450881E-002
   2.3692854621440718E-002  -7.5887205526166124E-003   4.8356340981960511E-002
   2.7380407564428472E-002  -7.8053721313378066E-003   5.2583820626570632E-002
   2.5548787362589656E-002  -7.3103329664520600E-003   5.2298741010824601E-002
   2.3717167160750854E-002  -6.8662451628258986E-003   5.2129313347401618E-002
   2.1885546958912074E-002  -6.4731087204589026E-003   5.2075537636301072E-002
   2.0053926757073237E-002  -6.1309236393515265E-003   5.2137413877523353E-002
   2.3467824856836149E-002  -6.5822017727124316E-003   5.5871543741567206E-002
   2.1803651688021612E-002  -6.1126497537623004E-003   5.5597128416721500E-002
   2.0139478519207134E-002  -5.6379532396745938E-003   5.5541955205601852E-002
   1.8475305350392664E-002  -5.1581122304493066E-003   5.5706024108207824E-002
   1.6811132181578134E-002  -4.6731267260863296E-003   5.6089335124539841E-002
   1.9537014792503422E-002  -5.3590314140870149E-003   5.9105731782429394E-002
   1.8143878818116434E-002  -4.9149665410725685E-003   5.8898076604881180E-002
   1.6750742843729453E-002  -4.4096613165235700E-003   5.9013253702462104E-002
   1.5357606869342419E-002  -3.8431157404396283E-003   5.9451263075172033E-002
   1.3964470894955488E-002  -3.2153298128211882E-003   6.0212104723011223E-002
   1.5587977371430334E-002  -4.1358610554615982E-003   6.2286384749157375E-002
   1.4569468752874071E-002  -3.7172833283827811E-003   6.2201585575303642E-002
   1.3550960134317752E-002  -3.1813693933721854E-003   6.2543208837982200E-002
   1.2532451515761441E-002  -2.5281192504300540E-003   6.3311254537192940E-002
   1.1513942897205143E-002  -1.7575328995560469E-003   6.4505722672935972E-002
   2.6632427575558469E-002   0.0000000000000000        2.9469278255936798E-002
   2.7233497541529220E-002  -5.8526583434002737E-004   3.4947059245188983E-002
   2.7834567507499974E-002  -1.3188188135198637E-003   4.0116511297394186E-002
   2.8435637473470728E-002  -2.2006589375395038E-003   4.4977634412552404E-002
   2.9036707439441478E-002  -3.2307862063989537E-003   4.9530428590663644E-002
   2.0116139843584766E-002   0.0000000000000000        2.9021997379630324E-002
   2.0448378573248892E-002  -4.3900294719564827E-004   3.4315024241995805E-002
   2.0780617302913019E-002  -9.8913280739694204E-004   3.9378717568795005E-002
   2.1112856032577145E-002  -1.6503895806038917E-003   4.4213077360027962E-002
   2.1445094762241275E-002  -2.4227732668164774E-003   4.8818103615694629E-002
   1.3505307312906729E-002   0.0000000000000000        2.8702399274551149E-002
   1.3647710207744943E-002  -2.9274006005126831E-004   3.3847832241864086E-002
   1.3790113102583153E-002  -6.5944680127402299E-004   3.8842927075091467E-002
   1.3932515997421369E-002  -1.1001202236682666E-003   4.3687683774233287E-002
   1.4074918892259583E-002  -1.6147603272339971E-003   4.8382102339289537E-002
   6.7999299835243615E-003   0.0000000000000000        2.8510483940699275E-002
   6.8314924450173717E-003  -1.4647717290688879E-004   3.3545483244793825E-002
   6.8630549065103836E-003  -3.2976079515110611E-004   3.8509139816283539E-002
   6.8946173680033956E-003  -5.4985086673264806E-004   4.3401453655168398E-002
   6.9261798294964066E-003  -8.0674738765152050E-004   4.8222424761448411E-002
   7.8554376588615971E-009   0.0000000000000000        2.8446251378074699E-002
  -2.7471493381937134E-007  -2.1428576250925868E-007   3.3407977250785023E-002
  -5.5728530529868849E-007  -7.4789028182281614E-008   3.8377355792371219E-002
  -8.3985567677702985E-007   4.1849020297399231E-007   4.3354387002833276E-002
  -1.1224260482553712E-006   1.2655519309621652E-006   4.8339070882171195E-002
   2.9036707439441478E-002  -3.2307862063989537E-003   4.9530428590663644E-002
   2.9108851618585407E-002  -4.2493454512008769E-003   5.1590100158336177E-002
   2.9180995797729332E-002  -5.0964815030479487E-003   5.3749414355312976E-002
   2.9253139976873253E-002  -5.7721943619401354E-003   5.6008371181594109E-002
   2.9325284156017185E-002  -6.2764840278774700E-003   5.8366970637179445E-002
   2.1445094762241275E-002  -2.4227732668164774E-003   4.8818103615694629E-002
   2.1587473971739258E-002  -3.1865391654248964E-003   5.1219697232219870E-002
   2.1729853181237237E-002  -3.8219425758193341E-003   5.3662118280148927E-002
   2.1872232390735220E-002  -4.3289834979997688E-003   5.6145366759481827E-002
   2.2014611600233203E-002  -4.7076619319662352E-003   5.8669442670218550E-002
   1.4074918892259583E-002  -1.6147603272339971E-003   4.8382102339289537E-002
   1.4228717934211165E-002  -2.1237328796489090E-003   5.1082557299926612E-002
   1.4382516976162748E-002  -2.5474036485907117E-003   5.3765024494067074E-002
   1.4536316018114332E-002  -2.8857726340593953E-003   5.6429503921710915E-002
   1.4690115060065912E-002  -3.1388398360549762E-003   5.9075995582858115E-002
   6.9261798294964066E-003  -8.0674738765152050E-004   4.8222424761448411E-002
   7.0325835060011353E-003  -1.0609265938729285E-003   5.1178680361456445E-002
   7.1389871825058649E-003  -1.2728647213620932E-003   5.4058132997067423E-002
   7.2453908590105909E-003  -1.4425617701190390E-003   5.6860782668281304E-002
   7.3517945355153214E-003  -1.5700177401437292E-003   5.9586629375098100E-002
  -1.1224260482553712E-006   1.2655519309621652E-006   4.8339070882171195E-002
  -9.2931289083497681E-007   1.8796919030537179E-006   5.1508066416809349E-002
  -7.3619973341393190E-007   1.6742058665121084E-006   5.4541443789149949E-002
  -5.4308657599364592E-007   6.4909382134508862E-007   5.7439202999193015E-002
  -3.4997341857335995E-007  -1.1956442324684291E-006   6.0201344046938554E-002
   2.9325284156017185E-002  -6.2764840278774700E-003   5.8366970637179445E-002
   2.8979530377285227E-002  -6.6638878785067641E-003   5.9133592483825263E-002
   2.8633776598553266E-002  -6.9889432914748122E-003   5.9934871672494061E-002
   2.8288022819821311E-002  -7.2516502667815605E-003   6.0770808203185839E-002
   2.7942269041089346E-002  -7.4520088044271460E-003   6.1641402075900437E-002
   2.2014611600233203E-002  -4.7076619319662352E-003   5.8669442670218550E-002
   2.1716362644367528E-002  -4.9984357556605644E-003   5.9489985598320173E-002
   2.1418113688501855E-002  -5.2417628470245777E-003   6.0370880830131403E-002
   2.1119864732636186E-002  -5.4376432060583377E-003   6.1312128365652252E-002
   2.0821615776770507E-002  -5.5860768327617993E-003   6.2313728204882679E-002
   1.4690115060065912E-002  -3.1388398360549762E-003   5.9075995582858115E-002
   1.4465065888753183E-002  -3.3329836328143351E-003   5.9935557887084566E-002
   1.4240016717440462E-002  -3.4945824025743579E-003   6.0881167456707255E-002
   1.4014967546127730E-002  -3.6236361453350734E-003   6.1912824291726294E-002
   1.3789918374815007E-002  -3.7201448610964527E-003   6.3030528392141516E-002
   7.3517945355153214E-003  -1.5700177401437292E-003   5.9586629375098100E-002
   7.2256401104422007E-003  -1.6675315099681136E-003   6.0470309350118441E-002
   7.0994856853690818E-003  -1.7474019581241655E-003   6.1465731552221674E-002
   6.9733312602959577E-003  -1.8096290846118020E-003   6.2572895981407847E-002
   6.8471768352228396E-003  -1.8542128894311199E-003   6.3791802637676961E-002
  -3.4997341857335995E-007  -1.1956442324684291E-006   6.0201344046938554E-002
  -1.9146905654255850E-006  -2.0793871219129678E-006   6.1094239987421771E-002
  -3.4794077122786773E-006  -2.2151367391060051E-007   6.2124573116674575E-002
  -5.0441248591304687E-006   4.3779761114189769E-006   6.3292343434697002E-002
  -6.6088420059839947E-006   1.1719082234226685E-005   6.4597550941489015E-002
   2.7942269041089346E-002  -7.4520088044271460E-003   6.1641402075900437E-002
   2.7220183465288761E-002  -7.5723422837525867E-003   6.1366790542093208E-002
   2.6498097889488162E-002  -7.5949740840991001E-003   6.1329450870111851E-002
   2.5776012313687559E-002  -7.5199042054667365E-003   6.1529383059956456E-002
   2.5053926737886978E-002  -7.3471326478554422E-003   6.1966587111626975E-002
   2.0821615776770507E-002  -5.5860768327617993E-003   6.2313728204882679E-002
   2.0322599775063142E-002  -5.6757816540508738E-003   6.2197726524444760E-002
   1.9823583773355781E-002  -5.6954755968414914E-003   6.2290592130367375E-002
   1.9324567771648430E-002  -5.6451586611337475E-003   6.2592325022650580E-002
   1.8825551769941065E-002  -5.5248308469274809E-003   6.3102925201294263E-002
   1.3789918374815007E-002  -3.7201448610964527E-003   6.3030528392141516E-002
   1.3485567371735500E-002  -3.7792210243491609E-003   6.3045445764592506E-002
   1.3181216368655985E-002  -3.7959771095839347E-003   6.3240825847938609E-002
   1.2876865365576477E-002  -3.7704131168006605E-003   6.3616668642179838E-002
   1.2572514362496966E-002  -3.7025290459994781E-003   6.4172974147316264E-002
   6.8471768352228396E-003  -1.8542128894311199E-003   6.3791802637676961E-002
   6.7090862553058021E-003  -1.8826603946474896E-003   6.3909948262536320E-002
   6.5709956753887654E-003  -1.8964786223263103E-003   6.4180152022825426E-002
   6.4329050954717226E-003  -1.8956675724676225E-003   6.4602413918544349E-002
   6.2948145155546876E-003  -1.8802272450714960E-003   6.5176733949693033E-002
  -6.6088420059839947E-006   1.1719082234226685E-005   6.4597550941489015E-002
  -6.8435742259353310E-006   1.3900235054244148E-005   6.4791234018276286E-002
  -7.0783064458849326E-006   3.0198649312272730E-006   6.5108570655027953E-002
  -7.3130386658345342E-006  -2.0922028134599292E-005   6.5549560851744015E-002
  -7.5477708857858705E-006  -5.7925444143513971E-005   6.6114204608424459E-002
   2.5053926737886978E-002  -7.3471326478554422E-003   6.1966587111626975E-002
   2.4312485174362602E-002  -7.1253728316041653E-003   6.1722429078858748E-002
   2.3571043610838234E-002  -6.9033381770519722E-003   6.1639744695431778E-002
   2.2829602047313883E-002  -6.6810286841987466E-003   6.1718533961345808E-002
   2.2088160483789504E-002  -6.4584443530445457E-003   6.1958796876601108E-002
   1.8825551769941065E-002  -5.5248308469274809E-003   6.3102925201294263E-002
   1.8251748315869912E-002  -5.3686669131950554E-003   6.2841237288567373E-002
   1.7677944861798765E-002  -5.2108416189088833E-003   6.2753351945405753E-002
   1.7104141407727626E-002  -5.0513549640689697E-003   6.2839269171809597E-002
   1.6530337953656472E-002  -4.8902069486752575E-003   6.3098988967778602E-002
   1.2572514362496966E-002  -3.7025290459994781E-003   6.4172974147316264E-002
   1.2178677938103226E-002  -3.6119609947859593E-003   6.3895142876883471E-002
   1.1784841513709480E-002  -3.5183450607658463E-003   6.3803443096240184E-002
   1.1391005089315745E-002  -3.4216812439391642E-003   6.3897874805386376E-002
   1.0997168664921991E-002  -3.3219695443059138E-003   6.4178438004322061E-002
   6.2948145155546876E-003  -1.8802272450714960E-003   6.5176733949693033E-002
   6.0932740410625285E-003  -1.8552550763768841E-003   6.4884145843807084E-002
   5.8917335665703632E-003  -1.8258485026227834E-003   6.4790018147934850E-002
   5.6901930920782041E-003  -1.7920075238093453E-003   6.4894350862076330E-002
   5.4886526175860406E-003  -1.7537321399365424E-003   6.5197143986231457E-002
  -7.5477708857858705E-006  -5.7925444143513971E-005   6.6114204608424459E-002
  -4.4633752521797132E-006  -9.8549157967753320E-005   6.5808246189338282E-002
  -1.3789796185770253E-006  -1.3335194447974819E-004   6.5713077100489958E-002
   1.7054160150256625E-006  -1.6233380367963041E-004   6.5828697341879461E-002
   4.7898116486318199E-006  -1.8549473556728202E-004   6.6155106913506845E-002
   2.2088160483789504E-002  -6.4584443530445457E-003   6.1958796876601108E-002
   2.1193861277019499E-002  -6.2273965543171717E-003   6.1647352468702898E-002
   2.0299562070249501E-002  -5.9796966587442185E-003   6.1581492138029964E-002
   1.9405262863479506E-002  -5.7153446663253983E-003   6.1761215884582513E-002
   1.8510963656709511E-002  -5.4343405770613251E-003   6.2186523708360364E-002
   1.6530337953656472E-002  -4.8902069486752575E-003   6.3098988967778602E-002
   1.5875856772170842E-002  -4.7214503928675877E-003   6.2821535657897526E-002
   1.5221375590685222E-002  -4.5391381167858152E-003   6.2778134321359966E-002
   1.4566894409199593E-002  -4.3432701204300962E-003   6.2968784958165630E-002
   1.3912413227713964E-002  -4.1338464038002676E-003   6.3393487568314560E-002
   1.0997168664921991E-002  -3.3219695443059138E-003   6.4178438004322061E-002
   1.0570973404838632E-002  -3.2155042314180454E-003   6.3931879415886822E-002
   1.0144778144755279E-002  -3.0985795748276826E-003   6.3907840696912965E-002
   9.7185828846719224E-003  -2.9711955745347369E-003   6.4106321847400172E-002
   9.2923876245885675E-003  -2.8333522305392378E-003   6.4527322867348788E-002
   5.4886526175860406E-003  -1.7537321399365424E-003   6.5197143986231457E-002
   5.2792111750228684E-003  -1.7095580699684823E-003   6.4978383742670565E-002
   5.0697697324596936E-003  -1.6580210328694701E-003   6.4970611264688713E-002
   4.8603282898965188E-003  -1.5991210286392952E-003   6.5173826552286068E-002
   4.6508868473333388E-003  -1.5328580572781941E-003   6.5588029605462589E-002
   4.7898116486318199E-006  -1.8549473556728202E-004   6.6155106913506845E-002
   5.7008272354164280E-007  -2.0361190851894695E-004   6.5961048638248670E-002
  -3.6496462015467995E-006  -2.1746249091117442E-004   6.5966446024687569E-002
  -7.8693751266361092E-006  -2.2704648274383260E-004   6.6171299072823569E-002
  -1.2089104051725419E-005  -2.3236388401715047E-004   6.6575607782656476E-002
   1.8510963656709511E-002  -5.4343405770613251E-003   6.2186523708360364E-002
   1.7780217085389710E-002  -5.1361880036962237E-003   6.1975365815126859E-002
   1.7049470514069923E-002  -4.8203905589743329E-003   6.1921623357515332E-002
   1.6318723942750128E-002  -4.4869482428963083E-003   6.2025296335525462E-002
   1.5587977371430334E-002  -4.1358610554615982E-003   6.2286384749157375E-002
   1.3912413227713964E-002  -4.1338464038002676E-003   6.3393487568314560E-002
   1.3344843800313408E-002  -3.9167730618896168E-003   6.3176310410070685E-002
   1.2777274372912855E-002  -3.6979561896912788E-003   6.3128072104043573E-002
   1.2209704945512314E-002  -3.4773957872051321E-003   6.3248772650232793E-002
   1.1642135518111746E-002  -3.2550918544316243E-003   6.3538412048639026E-002
   9.2923876245885675E-003  -2.8333522305392378E-003   6.4527322867348788E-002
   8.8995187577020421E-003  -2.6973581200830515E-003   6.4288225103025606E-002
   8.5066498908155201E-003  -2.5755218204079958E-003   6.4229589607514043E-002
   8.1137810239289860E-003  -2.4678433315141208E-003   6.4351416380813792E-002
   7.7209121570424658E-003  -2.3743226534014283E-003   6.4653705422925062E-002
   4.6508868473333388E-003  -1.5328580572781941E-003   6.5588029605462589E-002
   4.4442419575556370E-003  -1.4779431782764099E-003   6.5311109893991443E-002
   4.2375970677779300E-003  -1.4530874511249382E-003   6.5226175867926686E-002
   4.0309521780002213E-003  -1.4582908758231936E-003   6.5333227527268140E-002
   3.8243072882225143E-003  -1.4935534523715099E-003   6.5632264872015594E-002
  -1.2089104051725419E-005  -2.3236388401715047E-004   6.6575607782656476E-002
  -2.0986600125821181E-005  -2.5852823646990708E-004   6.6244964782968707E-002
  -2.9884096199927351E-005  -3.3065308184163089E-004   6.6117830885281670E-002
  -3.8781592274033522E-005  -4.4873842013200965E-004   6.6194206089595725E-002
  -4.7679088348129284E-005  -6.1278425134125847E-004   6.6474090395911012E-002
   1.5587977371430334E-002  -4.1358610554615982E-003   6.2286384749157375E-002
   1.4569468752874071E-002  -3.7172833283827811E-003   6.2201585575303642E-002
   1.3550960134317752E-002  -3.1813693933721854E-003   6.2543208837982200E-002
   1.2532451515761441E-002  -2.5281192504300540E-003   6.3311254537192940E-002
   1.1513942897205143E-002  -1.7575328995560469E-003   6.4505722672935972E-002
   1.1642135518111746E-002  -3.2550918544316243E-003   6.3538412048639026E-002
   1.1005670354416554E-002  -2.9994449387296118E-003   6.3524991707113565E-002
   1.0369205190721369E-002  -2.6788555874591446E-003   6.3849235838777829E-002
   9.7327400270261696E-003  -2.2933238006197995E-003   6.4511144443632165E-002
   9.0962748633309776E-003  -1.8428495782117915E-003   6.5510717521676365E-002
   7.7209121570424658E-003  -2.3743226534014283E-003   6.4653705422925062E-002
   7.3777324848660064E-003  -2.2816065490765258E-003   6.4659270141364883E-002
   7.0345528126895471E-003  -2.1763417815457847E-003   6.4913741369652098E-002
   6.6913731405130478E-003  -2.0585283508095485E-003   6.5417119107787136E-002
   6.3481934683365937E-003  -1.9281662568676472E-003   6.6169403355769429E-002
   3.8243072882225143E-003  -1.4935534523715099E-003   6.5632264872015594E-002
   3.6856551442223853E-003  -1.5637681594233982E-003   6.5604420878057651E-002
   3.5470030002222562E-003  -1.6738279756326954E-003   6.5736725430605089E-002
   3.4083508562221293E-003  -1.8237329009994068E-003   6.6029178529657451E-002
   3.2696987122220050E-003  -2.0134829355235029E-003   6.6481780175214930E-002
  -4.7679088348129284E-005  -6.1278425134125847E-004   6.6474090395911012E-002
  -7.0561667514287135E-005  -8.4592976977021506E-004   6.6360443917192258E-002
  -9.3444246680444987E-005  -1.1713141697193008E-003   6.6318188021636415E-002
  -1.1632682584660284E-004  -1.5889374511891055E-003   6.6347322709243289E-002
  -1.3920940501276069E-004  -2.0987996141792475E-003   6.6447847980013020E-002
   7.8554376588615971E-009   0.0000000000000000        2.8446251378074699E-002
  -2.7471493381937134E-007  -2.1428576250925868E-007   3.3407977250785023E-002
  -5.5728530529868849E-007  -7.4789028182281614E-008   3.8377355792371219E-002
  -8.3985567677702985E-007   4.1849020297399231E-007   4.3354387002833276E-002
  -1.1224260482553712E-006   1.2655519309621652E-006   4.8339070882171195E-002
  -6.7999646482998551E-003   0.0000000000000000        2.8509919086963188E-002
  -6.8320408097928536E-003   1.4631791244637191E-004   3.3545410955985719E-002
  -6.8641169712858521E-003   3.2981846020967587E-004   3.8509662973889337E-002
  -6.8961931327788523E-003   5.5050164328991364E-004   4.3402675140674078E-002
  -6.9282692942718499E-003   8.0836746168709041E-004   4.8224447456339893E-002
  -1.3505493104634657E-002   0.0000000000000000        2.8701704567650511E-002
  -1.3648255377243948E-002   2.9285011065525220E-004   3.3847791285805354E-002
  -1.3791017649853242E-002   6.5971170944753750E-004   3.8843745632846510E-002
  -1.3933779922462532E-002   1.1005847963768568E-003   4.3689567608774002E-002
  -1.4076542195071828E-002   1.6154693714432121E-003   4.8385257213587794E-002
  -2.0116577513566752E-002   0.0000000000000000        2.9021607820136658E-002
  -2.0448918417287108E-002   4.3938230886413337E-004   3.4315118240243907E-002
  -2.0781259321007464E-002   9.8960495868539913E-004   3.9379603769242710E-002
  -2.1113600224727823E-002   1.6506679494638016E-003   4.4215064407133048E-002
  -2.1445941128448179E-002   2.4225712811993339E-003   4.8821500153914940E-002
  -2.6633217875096135E-002   0.0000000000000000        2.9469628844421641E-002
  -2.7234029929922327E-002   5.8591450707301367E-004   3.4947391819301399E-002
  -2.7834841984748528E-002   1.3194982079232590E-003   4.0117237383077937E-002
  -2.8435654039574727E-002   2.2007511025507395E-003   4.4979165535751230E-002
  -2.9036466094400921E-002   3.2296731909554613E-003   4.9533176277321317E-002
  -1.1224260482553712E-006   1.2655519309621652E-006   4.8339070882171195E-002
  -9.2931289083497681E-007   1.8796919030537179E-006   5.1508066416809349E-002
  -7.3619973341393190E-007   1.6742058665121084E-006   5.4541443789149949E-002
  -5.4308657599364592E-007   6.4909382134508862E-007   5.7439202999193015E-002
  -3.4997341857335995E-007  -1.1956442324684291E-006   6.0201344046938554E-002
  -6.9282692942718499E-003   8.0836746168709041E-004   4.8224447456339893E-002
  -7.0343426707422203E-003   1.0632597722054177E-003   5.1179693992529765E-002
  -7.1404160472125864E-003   1.2750224316491411E-003   5.4058025711761590E-002
  -7.2464894236829551E-003   1.4436554400182409E-003   5.6859442614035409E-002
  -7.3525628001533255E-003   1.5691587973127238E-003   5.9583944699351125E-002
  -1.4076542195071828E-002   1.6154693714432121E-003   4.8385257213587794E-002
  -1.4230178715830492E-002   2.1246398525077816E-003   5.1084444726263438E-002
  -1.4383815236589159E-002   2.5483706574317565E-003   5.3765420767320528E-002
  -1.4537451757347821E-002   2.8866617862151299E-003   5.6428185336759078E-002
  -1.4691088278106491E-002   3.1395132388579230E-003   5.9072738434579046E-002
  -2.1445941128448179E-002   2.4225712811993339E-003   4.8821500153914940E-002
  -2.1588437448155650E-002   3.1860199328101490E-003   5.1222318618010368E-002
  -2.1730933767863125E-002   3.8217188832143853E-003   5.3663628955826714E-002
  -2.1873430087570599E-002   4.3296681324120258E-003   5.6145431167364014E-002
  -2.2015926407278064E-002   4.7098676804031188E-003   5.8667725252622253E-002
  -2.9036466094400921E-002   3.2296731909554613E-003   4.9533176277321317E-002
  -2.9109118867717707E-002   4.2474000131125077E-003   5.1593315667770541E-002
  -2.9181771641034488E-002   5.0950671089969955E-003   5.3752650277280170E-002
  -2.9254424414351273E-002   5.7726744786089166E-003   5.6011180105850260E-002
  -2.9327077187668058E-002   6.2802221219483076E-003   5.8368905153480762E-002
  -3.4997341857335995E-007  -1.1956442324684291E-006   6.0201344046938554E-002
  -1.9146905654255850E-006  -2.0793871219129678E-006   6.1094239987421771E-002
  -3.4794077122786773E-006  -2.2151367391060051E-007   6.2124573116674575E-002
  -5.0441248591304687E-006   4.3779761114189769E-006   6.3292343434697002E-002
  -6.6088420059839947E-006   1.1719082234226685E-005   6.4597550941489015E-002
  -7.3525628001533255E-003   1.5691587973127238E-003   5.9583944699351125E-002
  -7.2292421911044503E-003   1.6657819723386660E-003   6.0472031577479539E-002
  -7.1059215820555768E-003   1.7477744339021457E-003   6.1472451919229801E-002
  -6.9826009730066980E-003   1.8151361820031059E-003   6.2585205724601911E-002
  -6.8592803639578280E-003   1.8678672166416027E-003   6.3810292993595918E-002
  -1.4691088278106491E-002   3.1395132388579230E-003   5.9072738434579046E-002
  -1.4467986068009623E-002   3.3336433317992069E-003   5.9938643920552731E-002
  -1.4244883857912763E-002   3.4957703814781603E-003   6.0891779145000560E-002
  -1.4021781647815902E-002   3.6258943878947373E-003   6.1932144107922478E-002
  -1.3798679437719036E-002   3.7240153510489579E-003   6.3059738809318533E-002
  -2.2015926407278064E-002   4.7098676804031188E-003   5.8667725252622253E-002
  -2.1718146321280954E-002   5.0015046912597946E-003   5.9494077016641375E-002
  -2.1420366235283844E-002   5.2437663290542027E-003   6.0382554793986853E-002
  -2.1122586149286745E-002   5.4366525937863831E-003   6.1333158584658716E-002
  -2.0824806063289621E-002   5.5801634854563374E-003   6.2345888388656956E-002
  -2.9327077187668058E-002   6.2802221219483076E-003   5.8368905153480762E-002
  -2.8979722950918434E-002   6.6693660507203163E-003   5.9138330865745402E-002
  -2.8632368714168820E-002   6.9917622766302329E-003   5.9944778866188680E-002
  -2.8285014477419209E-002   7.2474107996780140E-003   6.0788249154810584E-002
  -2.7937660240669585E-002   7.4363116198636753E-003   6.1668741731611146E-002
  -6.6088420059839947E-006   1.1719082234226685E-005   6.4597550941489015E-002
  -6.8435742259353310E-006   1.3900235054244148E-005   6.4791234018276286E-002
  -7.0783064458849326E-006   3.0198649312272730E-006   6.5108570655027953E-002
  -7.3130386658345342E-006  -2.0922028134599292E-005   6.5549560851744015E-002
  -7.5477708857858705E-006  -5.7925444143513971E-005   6.6114204608424459E-002
  -6.8592803639578280E-003   1.8678672166416027E-003   6.3810292993595918E-002
  -6.7216317821065189E-003   1.8987656398603975E-003   6.3910430256520712E-002
  -6.5839832002552159E-003   1.9006295537021926E-003   6.4162680587623588E-002
  -6.4463346184039112E-003   1.8734589581671677E-003   6.4567043986904687E-002
  -6.3086860365526038E-003   1.8172538532551519E-003   6.5123520454363731E-002
  -1.3798679437719036E-002   3.7240153510489579E-003   6.3059738809318533E-002
  -1.3494688033582766E-002   3.7836310446665196E-003   6.3050357271946911E-002
  -1.3190696629446486E-002   3.7982392424731875E-003   6.3221548310967102E-002
  -1.2886705225310208E-002   3.7678399444689629E-003   6.3573311926379161E-002
  -1.2582713821173930E-002   3.6924331506538177E-003   6.4105648118183076E-002
  -2.0824806063289621E-002   5.5801634854563374E-003   6.2345888388656956E-002
  -2.0326012328654660E-002   5.6684964494726712E-003   6.2211015064554911E-002
  -1.9827218594019695E-002   5.6958489312442231E-003   6.2285173825058403E-002
  -1.9328424859384727E-002   5.6622209307707443E-003   6.2568364670167465E-002
  -1.8829631124749769E-002   5.5676124480524697E-003   6.3060587599881979E-002
  -2.7937660240669585E-002   7.4363116198636753E-003   6.1668741731611146E-002
  -2.7215604667322216E-002   7.5533618542787742E-003   6.1392403634344742E-002
  -2.6493549093974847E-002   7.5934586200151512E-003   6.1353557129897533E-002
  -2.5771493520627478E-002   7.5566019170725538E-003   6.1552202218269625E-002
  -2.5049437947280109E-002   7.4427917454511217E-003   6.1988338899460982E-002
  -7.5477708857858705E-006  -5.7925444143513971E-005   6.6114204608424459E-002
  -4.4633752521797132E-006  -9.8549157967753320E-005   6.5808246189338282E-002
  -1.3789796185770253E-006  -1.3335194447974819E-004   6.5713077100489958E-002
   1.7054160150256625E-006  -1.6233380367963041E-004   6.5828697341879461E-002
   4.7898116486318199E-006  -1.8549473556728202E-004   6.6155106913506845E-002
  -6.3086860365526038E-003   1.8172538532551519E-003   6.5123520454363731E-002
  -6.1015000507897476E-003   1.7474135318318595E-003   6.4841777278047824E-002
  -5.8943140650268818E-003   1.6793372867633036E-003   6.4757447951752603E-002
  -5.6871280792640255E-003   1.6130251180489965E-003   6.4870532475477957E-002
  -5.4799420935011597E-003   1.5484770256894154E-003   6.5181030849224053E-002
  -1.2582713821173930E-002   3.6924331506538177E-003   6.4105648118183076E-002
  -1.2184801725499014E-002   3.5933762216315834E-003   6.3844063333679618E-002
  -1.1786889629824097E-002   3.4920265180062166E-003   6.3766516918979707E-002
  -1.1388977534149183E-002   3.3883840397776234E-003   6.3873008874083204E-002
  -1.0991065438474262E-002   3.2824487869459462E-003   6.4163539198990177E-002
  -1.8829631124749769E-002   5.5676124480524697E-003   6.3060587599881979E-002
  -1.8254368399379994E-002   5.4393389114312657E-003   6.2815104356233539E-002
  -1.7679105674010209E-002   5.3047157492492267E-003   6.2740284002171284E-002
  -1.7103842948640438E-002   5.1637429615063336E-003   6.2836126537695283E-002
  -1.6528580223270656E-002   5.0164205482025326E-003   6.3102631962805633E-002
  -2.5049437947280109E-002   7.4427917454511217E-003   6.1988338899460982E-002
  -2.4310200072432668E-002   7.2853016012308786E-003   6.1754900345709629E-002
  -2.3570962197585241E-002   7.1174049804921882E-003   6.1678749201327335E-002
  -2.2831724322737813E-002   6.9391018832348789E-003   6.1759885466314175E-002
  -2.2092486447890365E-002   6.7503923094591189E-003   6.1998309140670005E-002
   4.7898116486318199E-006  -1.8549473556728202E-004   6.6155106913506845E-002
   5.7008272354164280E-007  -2.0361190851894695E-004   6.5961048638248670E-002
  -3.6496462015467995E-006  -2.1746249091117442E-004   6.5966446024687569E-002
  -7.8693751266361092E-006  -2.2704648274383260E-004   6.6171299072823569E-002
  -1.2089104051725419E-005  -2.3236388401715047E-004   6.6575607782656476E-002
  -5.4799420935011597E-003   1.5484770256894154E-003   6.5181030849224053E-002
  -5.2782089861315414E-003   1.4837819681235431E-003   6.4968182600636637E-002
  -5.0764758787619282E-003   1.4170289037910358E-003   6.4967784362941608E-002
  -4.8747427713923099E-003   1.3482178326917772E-003   6.5179836136138924E-002
  -4.6730096640226967E-003   1.2773487548257689E-003   6.5604337920228656E-002
  -1.0991065438474262E-002   3.2824487869459462E-003   6.4163539198990177E-002
  -1.0570385145614605E-002   3.1711758447661026E-003   6.3925576379747356E-002
  -1.0149704852754937E-002   3.0515202984933570E-003   6.3913057920592181E-002
  -9.7290245598952649E-003   2.9234821481275534E-003   6.4125983821524735E-002
  -9.3083442670355981E-003   2.7870613936687993E-003   6.4564354082544961E-002
  -1.6528580223270656E-002   5.0164205482025326E-003   6.3102631962805633E-002
  -1.5875958395725615E-002   4.8585697214085719E-003   6.2833229975580954E-002
  -1.5223336568180567E-002   4.6860116931956228E-003   6.2802266697639428E-002
  -1.4570714740635534E-002   4.4987464635632465E-003   6.3009742128980833E-002
  -1.3918092913090485E-002   4.2967740325118298E-003   6.3455656269605587E-002
  -2.2092486447890365E-002   6.7503923094591189E-003   6.1998309140670005E-002
  -2.1194928736464603E-002   6.5459635980511521E-003   6.1691143388137359E-002
  -2.0297371025038841E-002   6.3205030878978746E-003   6.1635410694083209E-002
  -1.9399813313613075E-002   6.0740107789990748E-003   6.1831111058507401E-002
  -1.8502255602187316E-002   5.8064866713547492E-003   6.2278244481410006E-002
  -1.2089104051725419E-005  -2.3236388401715047E-004   6.6575607782656476E-002
  -2.0986600125821181E-005  -2.5852823646990708E-004   6.6244964782968707E-002
  -2.9884096199927351E-005  -3.3065308184163089E-004   6.6117830885281670E-002
  -3.8781592274033522E-005  -4.4873842013200965E-004   6.6194206089595725E-002
  -4.7679088348129284E-005  -6.1278425134125847E-004   6.6474090395911012E-002
  -4.6730096640226967E-003   1.2773487548257689E-003   6.5604337920228656E-002
  -4.4830796843494565E-003   1.1941396485667943E-003   6.5260307979776139E-002
  -4.2931497046762353E-003   1.0883084922885811E-003   6.5110423888817145E-002
  -4.1032197250030064E-003   9.5985528599104586E-004   6.5154685647351857E-002
  -3.9132897453297809E-003   8.0878002967421647E-004   6.5393093255380230E-002
  -9.3083442670355981E-003   2.7870613936687993E-003   6.4564354082544961E-002
  -8.9289500641223998E-003   2.6468075336037317E-003   6.4230275644227286E-002
  -8.5495558612091894E-003   2.5072700664188347E-003   6.4080979802895857E-002
  -8.1701616582959755E-003   2.3684489921142644E-003   6.4116466558550717E-002
  -7.7907674553827806E-003   2.2303443106899135E-003   6.4336735911191878E-002
  -1.3918092913090485E-002   4.2967740325118298E-003   6.3455656269605587E-002
  -1.3358597739444632E-002   4.0994754186406065E-003   6.3154867776322177E-002
  -1.2799102565798791E-002   3.9262316405492340E-003   6.3029498627517763E-002
  -1.2239607392152949E-002   3.7770426982375680E-003   6.3079548823192319E-002
  -1.1680112218507094E-002   3.6519085917055549E-003   6.3305018363345789E-002
  -1.8502255602187316E-002   5.8064866713547492E-003   6.2278244481410006E-002
  -1.7772022710316172E-002   5.5521433036773427E-003   6.2034084376060505E-002
  -1.7041789818445039E-002   5.3451932146793002E-003   6.1955980362682767E-002
  -1.6311556926573899E-002   5.1856364043606218E-003   6.2043932441276567E-002
  -1.5581324034702762E-002   5.0734728727211964E-003   6.2297940611842018E-002
  -4.7679088348129284E-005  -6.1278425134125847E-004   6.6474090395911012E-002
  -7.0561667514287135E-005  -8.4592976977021506E-004   6.6360443917192258E-002
  -9.3444246680444987E-005  -1.1713141697193008E-003   6.6318188021636415E-002
  -1.1632682584660284E-004  -1.5889374511891055E-003   6.6347322709243289E-002
  -1.3920940501276069E-004  -2.0987996141792475E-003   6.6447847980013020E-002
  -3.9132897453297809E-003   8.0878002967421647E-004   6.5393093255380230E-002
  -3.8151923931768056E-003   6.2374253610919528E-004   6.5248398418747799E-002
  -3.7170950410238424E-003   3.9340261806661281E-004   6.5274272861590793E-002
  -3.6189976888708697E-003   1.1776027554660090E-004   6.5470716583909447E-002
  -3.5209003367179040E-003  -2.0318449145084738E-004   6.5837729585703220E-002
  -7.7907674553827806E-003   2.2303443106899135E-003   6.4336735911191878E-002
  -7.4725114755979693E-003   2.0934148419885779E-003   6.4207929173688560E-002
  -7.1542554958131648E-003   1.9581194058525958E-003   6.4348870411973264E-002
  -6.8359995160283691E-003   1.8244580022823385E-003   6.4759559626046431E-002
  -6.5177435362435490E-003   1.6924306312775528E-003   6.5439996815907397E-002
  -1.1680112218507094E-002   3.6519085917055549E-003   6.3305018363345789E-002
  -1.1042518914777765E-002   3.5630871478679743E-003   6.3239036182014541E-002
  -1.0404925611048449E-002   3.5228361936385441E-003   6.3541980672784007E-002
  -9.7673323073191095E-003   3.5311557290181161E-003   6.4213851835654576E-002
  -9.1297390035897878E-003   3.5880457540059529E-003   6.5254649670625761E-002
  -1.5581324034702762E-002   5.0734728727211964E-003   6.2297940611842018E-002
  -1.4525214710716196E-002   5.0327594537475928E-003   6.2341719443725685E-002
  -1.3469105386729643E-002   5.0875529814246034E-003   6.2853603644022926E-002
  -1.2412996062743091E-002   5.2378534557538659E-003   6.3833593212733741E-002
  -1.1356886738756525E-002   5.4836608767343531E-003   6.5281688149858130E-002
  -2.6633217875096135E-002   0.0000000000000000        2.9469628844421641E-002
  -2.7234029929922327E-002   5.8591450707301367E-004   3.4947391819301399E-002
  -2.7834841984748528E-002   1.3194982079232590E-003   4.0117237383077937E-002
  -2.8435654039574727E-002   2.2007511025507395E-003   4.4979165535751230E-002
  -2.9036466094400921E-002   3.2296731909554613E-003   4.9533176277321317E-002
  -3.3392642569043680E-002   0.0000000000000000        3.0180063047058021E-002
  -3.4236232154246662E-002   9.6033800301927388E-004   3.5268337295244714E-002
  -3.5079821739449651E-002   2.0237750219003819E-003   4.0178973893781056E-002
  -3.5923411324652640E-002   3.1903110566433145E-003   4.4911972842667042E-002
  -3.6767000909855622E-002   4.4599461072480752E-003   4.9467334141902672E-002
  -4.0732079975230248E-002   0.0000000000000000        3.1287205834598361E-002
  -4.1688167329357158E-002   1.3347614989655341E-003   3.5941421178176586E-002
  -4.2644254683484061E-002   2.7280518358774953E-003   4.0548278633557325E-002
  -4.3600342037610956E-002   4.1798710107358861E-003   4.5107778200740585E-002
  -4.4556429391737866E-002   5.6902190235407005E-003   4.9619919879726374E-002
  -4.8651530093655859E-002   0.0000000000000000        3.2791057207042652E-002
  -4.9589835455253806E-002   1.7091849949117930E-003   3.6966643468097013E-002
  -5.0528140816851752E-002   3.4323286498546112E-003   4.1225151602406772E-002
  -5.1466446178449719E-002   5.1694309648284541E-003   4.5566581609971901E-002
  -5.2404751540047652E-002   6.9204919398333196E-003   4.9990933490792429E-002
  -5.7150992924320493E-002   0.0000000000000000        3.4691617164390919E-002
  -5.7941236531936620E-002   2.0836084908580537E-003   3.8344004165006010E-002
  -5.8731480139552747E-002   4.1366054638317298E-003   4.2209592800329356E-002
  -5.9521723747168867E-002   6.1589909189210292E-003   4.6288383070360963E-002
  -6.0311967354785001E-002   8.1507648561259388E-003   5.0580374975100831E-002
  -2.9036466094400921E-002   3.2296731909554613E-003   4.9533176277321317E-002
  -2.9109118867717707E-002   4.2474000131125077E-003   5.1593315667770541E-002
  -2.9181771641034488E-002   5.0950671089969955E-003   5.3752650277280170E-002
  -2.9254424414351273E-002   5.7726744786089166E-003   5.6011180105850260E-002
  -2.9327077187668058E-002   6.2802221219483076E-003   5.8368905153480762E-002
  -3.6767000909855622E-002   4.4599461072480752E-003   4.9467334141902672E-002
  -3.6779350610557530E-002   5.6929684424144866E-003   5.1256495632973229E-002
  -3.6791700311259438E-002   6.7496663308423263E-003   5.3067068050213086E-002
  -3.6804050011961353E-002   7.6300397725316358E-003   5.4899051393622271E-002
  -3.6816399712663268E-002   8.3340887674823935E-003   5.6752445663200771E-002
  -4.4556429391737866E-002   5.6902190235407005E-003   4.9619919879726374E-002
  -4.4586260312716022E-002   7.1385368717164629E-003   5.1131838750952278E-002
  -4.4616091233694165E-002   8.4042655526876710E-003   5.2587384255456386E-002
  -4.4645922154672321E-002   9.4874050664543515E-003   5.3986556393238655E-002
  -4.4675753075650464E-002   1.0387955413016469E-002   5.5329355164299196E-002
  -5.2404751540047652E-002   6.9204919398333196E-003   4.9990933490792429E-002
  -5.2529847974193168E-002   8.5841053010184340E-003   5.1219345021707684E-002
  -5.2654944408338684E-002   1.0058864774533020E-002   5.2313598893010016E-002
  -5.2780040842484194E-002   1.1344770360377046E-002   5.3273695104699439E-002
  -5.2905137276629710E-002   1.2441822058550522E-002   5.4099633656775926E-002
  -6.0311967354785001E-002   8.1507648561259388E-003   5.0580374975100831E-002
  -6.0610113594988975E-002   1.0029673730320418E-002   5.1519014445239437E-002
  -6.0908259835192963E-002   1.1713463996378336E-002   5.2245711962874038E-002
  -6.1206406075396950E-002   1.3202135654299781E-002   5.2760467528004562E-002
  -6.1504552315600931E-002   1.4495688704084637E-002   5.3063281140631087E-002
  -2.9327077187668058E-002   6.2802221219483076E-003   5.8368905153480762E-002
  -2.8979722950918434E-002   6.6693660507203163E-003   5.9138330865745402E-002
  -2.8632368714168820E-002   6.9917622766302329E-003   5.9944778866188680E-002
  -2.8285014477419209E-002   7.2474107996780140E-003   6.0788249154810584E-002
  -2.7937660240669585E-002   7.4363116198636753E-003   6.1668741731611146E-002
  -3.6816399712663268E-002   8.3340887674823935E-003   5.6752445663200771E-002
  -3.6380558947028803E-002   8.8767043810058996E-003   5.7096659768690584E-002
  -3.5944718181394351E-002   9.2727776784134758E-003   5.7580824643771435E-002
  -3.5508877415759900E-002   9.5223086597051899E-003   5.8204940288443308E-002
  -3.5073036650125435E-002   9.6252973248809742E-003   5.8969006702706224E-002
  -4.4675753075650464E-002   1.0387955413016469E-002   5.5329355164299196E-002
  -4.4048497299718797E-002   1.1084042711291467E-002   5.5168563049760380E-002
  -4.3421241523787117E-002   1.1553793080196759E-002   5.5250650186224971E-002
  -4.2793985747855430E-002   1.1797206519732352E-002   5.5575616573693039E-002
  -4.2166729971923764E-002   1.1814283029898252E-002   5.6143462212164486E-002
  -5.2905137276629710E-002   1.2441822058550522E-002   5.4099633656775926E-002
  -5.1983538008988396E-002   1.3291381041577035E-002   5.3354040708954720E-002
  -5.1061938741347096E-002   1.3834808481980009E-002   5.2954255493549318E-002
  -5.0140339473705789E-002   1.4072104379759535E-002   5.2900278010559770E-002
  -4.9218740206064475E-002   1.4003268734915527E-002   5.3192108259985979E-002
  -6.1504552315600931E-002   1.4495688704084637E-002   5.3063281140631087E-002
  -6.0185681074837620E-002   1.5498719371862608E-002   5.1653092746273721E-002
  -5.8866809834074302E-002   1.6115823883763279E-002   5.0691640565744447E-002
  -5.7547938593310990E-002   1.6347002239786718E-002   5.0178924599043502E-002
  -5.6229067352547679E-002   1.6192254439932829E-002   5.0114944846170711E-002
  -2.7937660240669585E-002   7.4363116198636753E-003   6.1668741731611146E-002
  -2.7215604667322216E-002   7.5533618542787742E-003   6.1392403634344742E-002
  -2.6493549093974847E-002   7.5934586200151512E-003   6.1353557129897533E-002
  -2.5771493520627478E-002   7.5566019170725538E-003   6.1552202218269625E-002
  -2.5049437947280109E-002   7.4427917454511217E-003   6.1988338899460982E-002
  -3.5073036650125435E-002   9.6252973248809742E-003   5.8969006702706224E-002
  -3.4123346702275931E-002   9.6262600582011013E-003   5.8657262966643038E-002
  -3.3173656754426420E-002   9.5697132439257239E-003   5.8563296386764913E-002
  -3.2223966806576916E-002   9.4556568820549775E-003   5.8687106963071861E-002
  -3.1274276858727398E-002   9.2840909725887821E-003   5.9028694695563724E-002
  -4.2166729971923764E-002   1.1814283029898252E-002   5.6143462212164486E-002
  -4.1009120086206337E-002   1.1699158262123272E-002   5.5815756758388069E-002
  -3.9851510200488903E-002   1.1545967867836378E-002   5.5686114024162431E-002
  -3.8693900314771462E-002   1.1354711847037388E-002   5.5754534009487600E-002
  -3.7536290429054042E-002   1.1125390199726484E-002   5.6021016714363582E-002
  -4.9218740206064475E-002   1.4003268734915527E-002   5.3192108259985979E-002
  -4.7872924819113399E-002   1.3772056466045521E-002   5.2867885009579681E-002
  -4.6527109432162289E-002   1.3522222491747019E-002   5.2722010042090053E-002
  -4.5181294045211186E-002   1.3253766812019820E-002   5.2754483357516910E-002
  -4.3835478658260110E-002   1.2966689426864193E-002   5.2965304955860298E-002
  -5.6229067352547679E-002   1.6192254439932829E-002   5.0114944846170711E-002
  -5.4714760900997125E-002   1.5844954669967742E-002   4.9813647720218041E-002
  -5.3200454449446571E-002   1.5498477115657598E-002   4.9670984440547739E-002
  -5.1686147997896018E-002   1.5152821777002208E-002   4.9686955007159757E-002
  -5.0171841546345450E-002   1.4807988654001875E-002   4.9861559420054075E-002
  -2.5049437947280109E-002   7.4427917454511217E-003   6.1988338899460982E-002
  -2.4310200072432668E-002   7.2853016012308786E-003   6.1754900345709629E-002
  -2.3570962197585241E-002   7.1174049804921882E-003   6.1678749201327335E-002
  -2.2831724322737813E-002   6.9391018832348789E-003   6.1759885466314175E-002
  -2.2092486447890365E-002   6.7503923094591189E-003   6.1998309140670005E-002
  -3.1274276858727398E-002   9.2840909725887821E-003   5.9028694695563724E-002
  -3.0368787840149281E-002   9.0742060179623690E-003   5.8752277707672870E-002
  -2.9463298821571171E-002   8.8451925206110074E-003   5.8651075597874268E-002
  -2.8557809802993071E-002   8.5970504805344700E-003   5.8725088366167980E-002
  -2.7652320784414940E-002   8.3297798977329252E-003   5.8974316012553901E-002
  -3.7536290429054042E-002   1.1125390199726484E-002   5.6021016714363582E-002
  -3.6446622798022049E-002   1.0863110434693853E-002   5.5692899226126712E-002
  -3.5356955166990049E-002   1.0572980060729657E-002   5.5557924084705307E-002
  -3.4267287535958035E-002   1.0254999077834059E-002   5.5616091290099312E-002
  -3.3177619904926028E-002   9.9091674860068701E-003   5.5867400842309026E-002
  -4.3835478658260110E-002   1.2966689426864193E-002   5.2965304955860298E-002
  -4.2543704946050961E-002   1.2652014851425284E-002   5.2576764901070980E-002
  -4.1251931233841840E-002   1.2300767600848363E-002   5.2399294661820334E-002
  -3.9960157521632712E-002   1.1912947675133623E-002   5.2432894238108430E-002
  -3.8668383809423564E-002   1.1488555074280773E-002   5.2677563629935212E-002
  -5.0171841546345450E-002   1.4807988654001875E-002   4.9861559420054075E-002
  -4.8660034284236001E-002   1.4440919268156757E-002   4.9403874732505848E-002
  -4.7148227022126545E-002   1.4028555140967146E-002   4.9175187329219425E-002
  -4.5636419760017088E-002   1.3570896272433191E-002   4.9175497210195047E-002
  -4.4124612497907625E-002   1.3067942662554677E-002   4.9404804375432598E-002
  -2.2092486447890365E-002   6.7503923094591189E-003   6.1998309140670005E-002
  -2.1194928736464603E-002   6.5459635980511521E-003   6.1691143388137359E-002
  -2.0297371025038841E-002   6.3205030878978746E-003   6.1635410694083209E-002
  -1.9399813313613075E-002   6.0740107789990748E-003   6.1831111058507401E-002
  -1.8502255602187316E-002   5.8064866713547492E-003   6.2278244481410006E-002
  -2.7652320784414940E-002   8.3297798977329252E-003   5.8974316012553901E-002
  -2.6512853565649558E-002   8.0451189735909756E-003   5.8673819955545492E-002
  -2.5373386346884165E-002   7.7448059094933491E-003   5.8605709854737870E-002
  -2.4233919128118748E-002   7.4288407054396328E-003   5.8769985710131284E-002
  -2.3094451909353383E-002   7.0972233614301494E-003   5.9166647521725430E-002
  -3.3177619904926028E-002   9.9091674860068701E-003   5.5867400842309026E-002
  -3.1815290281098502E-002   9.5442743491309101E-003   5.5578954139614334E-002
  -3.0452960657270968E-002   9.1691087310887195E-003   5.5503846290842922E-002
  -2.9090631033443417E-002   8.7836706318802481E-003   5.5642077295994991E-002
  -2.7728301409615887E-002   8.3879600515056607E-003   5.5993647155070381E-002
  -3.8668383809423564E-002   1.1488555074280773E-002   5.2677563629935212E-002
  -3.7102238882811396E-002   1.1043429724670872E-002   5.2406545940343843E-002
  -3.5536093956199249E-002   1.0593411552684170E-002   5.2329820002398372E-002
  -3.3969949029587075E-002   1.0138500558320974E-002   5.2447385816098792E-002
  -3.2403804102974929E-002   9.6786967415810055E-003   5.2759243381445109E-002
  -4.4124612497907625E-002   1.3067942662554677E-002   4.9404804375432598E-002
  -4.2373699370788317E-002   1.2542585100210696E-002   4.9156595357734201E-002
  -4.0622786243669017E-002   1.2017714374279551E-002   4.9083630989404242E-002
  -3.8871873116549716E-002   1.1493330484761474E-002   4.9185911270442528E-002
  -3.7120959989430408E-002   1.0969433431656517E-002   4.9463436200849364E-002
  -1.8502255602187316E-002   5.8064866713547492E-003   6.2278244481410006E-002
  -1.7772022710316172E-002   5.5521433036773427E-003   6.2034084376060505E-002
  -1.7041789818445039E-002   5.3451932146793002E-003   6.1955980362682767E-002
  -1.6311556926573899E-002   5.1856364043606218E-003   6.2043932441276567E-002
  -1.5581324034702762E-002   5.0734728727211964E-003   6.2297940611842018E-002
  -2.3094451909353383E-002   7.0972233614301494E-003   5.9166647521725430E-002
  -2.2193108366636002E-002   6.7714923466408450E-003   5.8923297820691722E-002
  -2.1291764823918667E-002   6.4731861302474158E-003   5.8856113329378831E-002
  -2.0390421281201287E-002   6.2023047122498412E-003   5.8965094047786791E-002
  -1.9489077738483955E-002   5.9588480926482390E-003   5.9250239975915497E-002
  -2.7728301409615887E-002   8.3879600515056607E-003   5.5993647155070381E-002
  -2.6645738098303139E-002   7.9908413896041391E-003   5.5731139378069186E-002
  -2.5563174786990356E-002   7.6011790458152539E-003   5.5654905928537821E-002
  -2.4480611475677625E-002   7.2189730201390051E-003   5.5764946806476492E-002
  -2.3398048164364853E-002   6.8442233125752261E-003   5.6061262011885327E-002
  -3.2403804102974929E-002   9.6786967415810055E-003   5.2759243381445109E-002
  -3.1129911905317564E-002   9.2101904325675096E-003   5.2457609048192695E-002
  -2.9856019707660199E-002   8.7291719613831753E-003   5.2352358160159679E-002
  -2.8582127510002820E-002   8.2356413280281413E-003   5.2443490717345775E-002
  -2.7308235312345469E-002   7.7295985325020189E-003   5.2731006719751061E-002
  -3.7120959989430408E-002   1.0969433431656517E-002   4.9463436200849364E-002
  -3.5645629787679239E-002   1.0429539475530880E-002   4.9102706831062659E-002
  -3.4170299585928099E-002   9.8571648769511799E-003   4.8948470024244350E-002
  -3.2694969384176951E-002   9.2523096359173815E-003   4.9000725780394438E-002
  -3.1219639182425790E-002   8.6149737524292003E-003   4.9259474099512868E-002
  -1.5581324034702762E-002   5.0734728727211964E-003   6.2297940611842018E-002
  -1.4525214710716196E-002   5.0327594537475928E-003   6.2341719443725685E-002
  -1.3469105386729643E-002   5.0875529814246034E-003   6.2853603644022926E-002
  -1.2412996062743091E-002   5.2378534557538659E-003   6.3833593212733741E-002
  -1.1356886738756525E-002   5.4836608767343531E-003   6.5281688149858130E-002
  -1.9489077738483955E-002   5.9588480926482390E-003   5.9250239975915497E-002
  -1.8030724555337298E-002   5.7445986882803668E-003   5.9290188865807614E-002
  -1.6572371372190638E-002   5.5613389159842319E-003   5.9666520105606330E-002
  -1.5114018189043990E-002   5.4090687757598691E-003   6.0379233695311452E-002
  -1.3655665005897349E-002   5.2877882676072296E-003   6.1428329634923506E-002
  -2.3398048164364853E-002   6.8442233125752261E-003   5.6061262011885327E-002
  -2.1669174140565087E-002   6.4564379228136959E-003   5.6032863645205683E-002
  -1.9940300116765352E-002   6.0351248505437494E-003   5.6209124609926026E-002
  -1.8211426092965562E-002   5.5802840957659833E-003   5.6590044906045939E-002
  -1.6482552069165900E-002   5.0919156584798841E-003   5.7175624533565339E-002
  -2.7308235312345469E-002   7.7295985325020189E-003   5.2731006719751061E-002
  -2.5440563466399575E-002   7.1682771573468584E-003   5.2569743781920246E-002
  -2.3572891620453656E-002   6.5089107851034889E-003   5.2481417156982318E-002
  -2.1705219774507772E-002   5.7514994157719310E-003   5.2466026844937196E-002
  -1.9837547928561843E-002   4.8960430493525942E-003   5.2523572845784197E-002
  -3.1219639182425790E-002   8.6149737524292003E-003   4.9259474099512868E-002
  -2.9344892532840727E-002   7.8801163918800210E-003   4.8900829275951074E-002
  -2.7470145883255706E-002   6.9826967196628537E-003   4.8483397746775042E-002
  -2.5595399233670685E-002   5.9227147357781458E-003   4.8007179511984369E-002
  -2.3720652584085622E-002   4.7001704402254152E-003   4.7472174571579595E-002
  -5.7150992924320493E-002   0.0000000000000000        3.4691617164390919E-002
  -5.7941236531936620E-002   2.0836084908580537E-003   3.8344004165006010E-002
  -5.8731480139552747E-002   4.1366054638317298E-003   4.2209592800329356E-002
  -5.9521723747168867E-002   6.1589909189210292E-003   4.6288383070360963E-002
  -6.0311967354785001E-002   8.1507648561259388E-003   5.0580374975100831E-002
  -6.5818796174893071E-002   0.0000000000000000        3.7212290662965684E-002
  -6.6624765776484768E-002   2.9137559866938114E-003   4.0835099387722423E-002
  -6.7430735378076451E-002   5.7701584520766722E-003   4.4213254489819775E-002
  -6.8236704979668147E-002   8.5692073961485867E-003   4.7346755969257720E-002
  -6.9042674581259858E-002   1.1310902818909556E-002   5.0235603826036278E-002
  -7.4243267553042516E-002   0.0000000000000000        4.0576482659089488E-002
  -7.5522818405977424E-002   3.7439034825295704E-003   4.4142971104561314E-002
  -7.6802369258912345E-002   7.4037114403216215E-003   4.7006950670006077E-002
  -7.8081920111847253E-002   1.0979423873376155E-002   4.9168421355423805E-002
  -7.9361470964782160E-002   1.4471040781693166E-002   5.0627383160814478E-002
  -8.2424407058768800E-002   0.0000000000000000        4.4784193152762344E-002
  -8.4635394420414609E-002   4.5740509783653285E-003   4.8267619315522682E-002
  -8.6846381782060389E-002   9.0372644285665708E-003   5.0590681340888309E-002
  -8.9057369143706183E-002   1.3389640350603712E-002   5.1753379228859218E-002
  -9.1268356505351991E-002   1.7631178744476780E-002   5.1755712979435445E-002
  -9.0362214692071952E-002   0.0000000000000000        4.9835422143984238E-002
  -9.3962493819796281E-002   5.4041984742010871E-003   5.3209044020606514E-002
  -9.7562772947520610E-002   1.0670817416811515E-002   5.4964446502466423E-002
 -0.10116305207524494        1.5799856827831284E-002   5.5101629589563973E-002
 -0.10476333120296927        2.0791316707260386E-002   5.3620593281899158E-002
  -6.0311967354785001E-002   8.1507648561259388E-003   5.0580374975100831E-002
  -6.0610113594988975E-002   1.0029673730320418E-002   5.1519014445239437E-002
  -6.0908259835192963E-002   1.1713463996378336E-002   5.2245711962874038E-002
  -6.1206406075396950E-002   1.3202135654299781E-002   5.2760467528004562E-002
  -6.1504552315600931E-002   1.4495688704084637E-002   5.3063281140631087E-002
  -6.9042674581259858E-002   1.1310902818909556E-002   5.0235603826036278E-002
  -6.9315198110375759E-002   1.3755371457239297E-002   4.9457609474875507E-002
  -6.9587721639491673E-002   1.5662740048017539E-002   4.8942802498394909E-002
  -6.9860245168607560E-002   1.7033008591244330E-002   4.8691182896594479E-002
  -7.0132768697723460E-002   1.7866177086919580E-002   4.8702750669474229E-002
  -7.9361470964782160E-002   1.4471040781693166E-002   5.0627383160814478E-002
  -7.9133242455625821E-002   1.7481069184158197E-002   4.7790773548939347E-002
  -7.8905013946469427E-002   1.9612016099656758E-002   4.5692480638928619E-002
  -7.8676785437313060E-002   2.0863881528188868E-002   4.4332504430782287E-002
  -7.8448556928156693E-002   2.1236665469754532E-002   4.3710844924500329E-002
  -9.1268356505351991E-002   1.7631178744476780E-002   5.1755712979435445E-002
  -9.0064246630739128E-002   2.1206766911077070E-002   4.6518506667431021E-002
  -8.8860136756126237E-002   2.3561292151295984E-002   4.2494746384475174E-002
  -8.7656026881513388E-002   2.4694754465133445E-002   3.9684432130567930E-002
  -8.6451917006900483E-002   2.4607153852589478E-002   3.8087563905709290E-002
 -0.10476333120296927        2.0791316707260386E-002   5.3620593281899158E-002
 -0.10210821063571569        2.4932464637995977E-002   4.5640808830350453E-002
  -9.9453090068462119E-002   2.7510568202935171E-002   3.9349599735034553E-002
  -9.6797969501208544E-002   2.8525627402077976E-002   3.4746965995951493E-002
  -9.4142848933954970E-002   2.7977642235424441E-002   3.1832907613101175E-002
  -6.1504552315600931E-002   1.4495688704084637E-002   5.3063281140631087E-002
  -6.0185681074837620E-002   1.5498719371862608E-002   5.1653092746273721E-002
  -5.8866809834074302E-002   1.6115823883763279E-002   5.0691640565744447E-002
  -5.7547938593310990E-002   1.6347002239786718E-002   5.0178924599043502E-002
  -5.6229067352547679E-002   1.6192254439932829E-002   5.0114944846170711E-002
  -7.0132768697723460E-002   1.7866177086919580E-002   4.8702750669474229E-002
  -6.8410857048750898E-002   1.8320124074438473E-002   4.7255660058868013E-002
  -6.6688945399778293E-002   1.8552728093196105E-002   4.6165914050852075E-002
  -6.4967033750805744E-002   1.8563989143192496E-002   4.5433512645426527E-002
  -6.3245122101833154E-002   1.8353907224427646E-002   4.5058455842591286E-002
  -7.8448556928156693E-002   2.1236665469754532E-002   4.3710844924500329E-002
  -7.6414996482212727E-002   2.1141528777014341E-002   4.2391435284761261E-002
  -7.4381436036268692E-002   2.0989632302628940E-002   4.1337978636374693E-002
  -7.2347875590324698E-002   2.0780976046598329E-002   4.0550474979340577E-002
  -7.0314315144380704E-002   2.0515560008922490E-002   4.0028924313658933E-002
  -8.6451917006900483E-002   2.4607153852589478E-002   3.8087563905709290E-002
  -8.4198099375223004E-002   2.3962933479590224E-002   3.7060418423953516E-002
  -8.1944281743545455E-002   2.3426536512061752E-002   3.6207834322312241E-002
  -7.9690464111867948E-002   2.2997962950004162E-002   3.5529811600785645E-002
  -7.7436646480190427E-002   2.2677212793417348E-002   3.5026350259373618E-002
  -9.4142848933954970E-002   2.7977642235424441E-002   3.1832907613101175E-002
  -9.1760165727781798E-002   2.6784338182166079E-002   3.1262609476444561E-002
  -8.9377482521608584E-002   2.5863440721494605E-002   3.0775481108664814E-002
  -8.6994799315435370E-002   2.5214949853409933E-002   3.0371522509761665E-002
  -8.4612116109262184E-002   2.4838865577912150E-002   3.0050733679735320E-002
  -5.6229067352547679E-002   1.6192254439932829E-002   5.0114944846170711E-002
  -5.4714760900997125E-002   1.5844954669967742E-002   4.9813647720218041E-002
  -5.3200454449446571E-002   1.5498477115657598E-002   4.9670984440547739E-002
  -5.1686147997896018E-002   1.5152821777002208E-002   4.9686955007159757E-002
  -5.0171841546345450E-002   1.4807988654001875E-002   4.9861559420054075E-002
  -6.3245122101833154E-002   1.8353907224427646E-002   4.5058455842591286E-002
  -6.1555765452309091E-002   1.8015085205279523E-002   4.4702779266892471E-002
  -5.9866408802785070E-002   1.7640125954126153E-002   4.4538569240858361E-002
  -5.8177052153260994E-002   1.7229029470967439E-002   4.4565825764488746E-002
  -5.6487695503736987E-002   1.6781795755803408E-002   4.4784548837783919E-002
  -7.0314315144380704E-002   2.0515560008922490E-002   4.0028924313658933E-002
  -6.8417075593500867E-002   2.0185215740591331E-002   3.9581908840553771E-002
  -6.6519836042621044E-002   1.9781774792594683E-002   3.9359192620495559E-002
  -6.4622596491741249E-002   1.9305237164932564E-002   3.9360775653484351E-002
  -6.2725356940861399E-002   1.8755602857604955E-002   3.9586657939519952E-002
  -7.7436646480190427E-002   2.2677212793417348E-002   3.5026350259373618E-002
  -7.5298691324572439E-002   2.2355346275903180E-002   3.4451036441201954E-002
  -7.3160736168954563E-002   2.1923423631063213E-002   3.4132854579459519E-002
  -7.1022781013336631E-002   2.1381444858897713E-002   3.4071804674146312E-002
  -6.8884825857718684E-002   2.0729409959406510E-002   3.4267886725262424E-002
  -8.4612116109262184E-002   2.4838865577912150E-002   3.0050733679735320E-002
  -8.2200612645523863E-002   2.4525476811214905E-002   2.9310162068836951E-002
  -7.9789109181785556E-002   2.4065072469531767E-002   2.8859555117750138E-002
  -7.7377605718047235E-002   2.3457652552862793E-002   2.8698912826474861E-002
  -7.4966102254308914E-002   2.2703217061208036E-002   2.8828235195011154E-002
  -5.0171841546345450E-002   1.4807988654001875E-002   4.9861559420054075E-002
  -4.8660034284236001E-002   1.4440919268156757E-002   4.9403874732505848E-002
  -4.7148227022126545E-002   1.4028555140967146E-002   4.9175187329219425E-002
  -4.5636419760017088E-002   1.3570896272433191E-002   4.9175497210195047E-002
  -4.4124612497907625E-002   1.3067942662554677E-002   4.9404804375432598E-002
  -5.6487695503736987E-002   1.6781795755803408E-002   4.4784548837783919E-002
  -5.4758282829849882E-002   1.6304550552547564E-002   4.4359074555257005E-002
  -5.3028870155962769E-002   1.5803419605113347E-002   4.4139813812023372E-002
  -5.1299457482075678E-002   1.5278402913500511E-002   4.4126766608083179E-002
  -4.9570044808188531E-002   1.4729500477709434E-002   4.4319932943436197E-002
  -6.2725356940861399E-002   1.8755602857604955E-002   3.9586657939519952E-002
  -6.0801122600165278E-002   1.8168181836938378E-002   3.9214803059180389E-002
  -5.8876888259469157E-002   1.7578284069259497E-002   3.9026377973165605E-002
  -5.6952653918773029E-002   1.6985909554568055E-002   3.9021382681475598E-002
  -5.5028419578076887E-002   1.6391058292864275E-002   3.9199817184110183E-002
  -6.8884825857718684E-002   2.0729409959406510E-002   3.4267886725262424E-002
  -6.6788553595182154E-002   2.0031813121329272E-002   3.3971060244276291E-002
  -6.4692281332645624E-002   1.9353148533405563E-002   3.3834879812646219E-002
  -6.2596009070109093E-002   1.8693416195635568E-002   3.3859345430372306E-002
  -6.0499736807572507E-002   1.8052616108019046E-002   3.4044457097454420E-002
  -7.4966102254308914E-002   2.2703217061208036E-002   2.8828235195011154E-002
  -7.2720575814900587E-002   2.1895444405719972E-002   2.8627846110544308E-002
  -7.0475049375492232E-002   2.1128012997551876E-002   2.8565319330465064E-002
  -6.8229522936083906E-002   2.0400922836702952E-002   2.8640654854773212E-002
  -6.5983996496675579E-002   1.9714173923173817E-002   2.8853852683468961E-002
  -4.4124612497907625E-002   1.3067942662554677E-002   4.9404804375432598E-002
  -4.2373699370788317E-002   1.2542585100210696E-002   4.9156595357734201E-002
  -4.0622786243669017E-002   1.2017714374279551E-002   4.9083630989404242E-002
  -3.8871873116549716E-002   1.1493330484761474E-002   4.9185911270442528E-002
  -3.7120959989430408E-002   1.0969433431656517E-002   4.9463436200849364E-002
  -4.9570044808188531E-002   1.4729500477709434E-002   4.4319932943436197E-002
  -4.7637019926243709E-002   1.4167594997407315E-002   4.4064831817372349E-002
  -4.5703995044298854E-002   1.3603569172261618E-002   4.3998709551591159E-002
  -4.3770970162354046E-002   1.3037423002272130E-002   4.4121566146092785E-002
  -4.1837945280409183E-002   1.2469156487439070E-002   4.4433401600877054E-002
  -5.5028419578076887E-002   1.6391058292864275E-002   3.9199817184110183E-002
  -5.2899548730392154E-002   1.5792604894604115E-002   3.8935216768424069E-002
  -5.0770677882707393E-002   1.5189423970243636E-002   3.8873329423935100E-002
  -4.8641807035022661E-002   1.4581515519782843E-002   3.9014155150643118E-002
  -4.6512936187337893E-002   1.3968879543221763E-002   3.9357693948548295E-002
  -6.0499736807572507E-002   1.8052616108019046E-002   3.4044457097454420E-002
  -5.8161285783233596E-002   1.7417614791800880E-002   3.3767750210889541E-002
  -5.5822834758894622E-002   1.6775278768225706E-002   3.3707490606436061E-002
  -5.3484383734555656E-002   1.6125608037293418E-002   3.3863678284093916E-002
  -5.1145932710216689E-002   1.5468602599004330E-002   3.4236313243863149E-002
  -6.5983996496675579E-002   1.9714173923173817E-002   2.8853852683468961E-002
  -6.3422231084768063E-002   1.9042624688997506E-002   2.8562432144768557E-002
  -6.0860465672860520E-002   1.8361133566207735E-002   2.8501193099093963E-002
  -5.8298700260952976E-002   1.7669700554804161E-002   2.8670135546444903E-002
  -5.5736934849045461E-002   1.6968325654787009E-002   2.9069259486821708E-002
  -3.7120959989430408E-002   1.0969433431656517E-002   4.9463436200849364E-002
  -3.5645629787679239E-002   1.0429539475530880E-002   4.9102706831062659E-002
  -3.4170299585928099E-002   9.8571648769511799E-003   4.8948470024244350E-002
  -3.2694969384176951E-002   9.2523096359173815E-003   4.9000725780394438E-002
  -3.1219639182425790E-002   8.6149737524292003E-003   4.9259474099512868E-002
  -4.1837945280409183E-002   1.2469156487439070E-002   4.4433401600877054E-002
  -4.0171761748463958E-002   1.1886875096568439E-002   4.4069832357522987E-002
  -3.8505578216518815E-002   1.1278684298465985E-002   4.3881477211588693E-002
  -3.6839394684573618E-002   1.0644584093132174E-002   4.3868336163074090E-002
  -3.5173211152628447E-002   9.9845744805664438E-003   4.4030409211979038E-002
  -4.6512936187337893E-002   1.3968879543221763E-002   3.9357693948548295E-002
  -4.4687177790747469E-002   1.3344210717605914E-002   3.8997856066849551E-002
  -4.2861419394156969E-002   1.2700203719981082E-002   3.8781953817021791E-002
  -4.1035660997566475E-002   1.2036858550347081E-002   3.8709987199065009E-002
  -3.9209902600976038E-002   1.1354175208703937E-002   3.8781956212979099E-002
  -5.1145932710216689E-002   1.5468602599004330E-002   3.4236313243863149E-002
  -4.9191877914529621E-002   1.4801546338643431E-002   3.3886777959042214E-002
  -4.7237823118842628E-002   1.4121723141495894E-002   3.3649899840543576E-002
  -4.5283768323155560E-002   1.3429133007561876E-002   3.3525678888367161E-002
  -4.3329713527468568E-002   1.2723775936841361E-002   3.3514115102512801E-002
  -5.5736934849045461E-002   1.6968325654787009E-002   2.9069259486821708E-002
  -5.3685862119810579E-002   1.6258881959680921E-002   2.8736598034101168E-002
  -5.1634789390575697E-002   1.5543242563011012E-002   2.8485315282154033E-002
  -4.9583716661340815E-002   1.4821407464776927E-002   2.8315411230980372E-002
  -4.7532643932105934E-002   1.4093376664978785E-002   2.8226885880580199E-002
  -3.1219639182425790E-002   8.6149737524292003E-003   4.9259474099512868E-002
  -2.9344892532840727E-002   7.8801163918800210E-003   4.8900829275951074E-002
  -2.7470145883255706E-002   6.9826967196628537E-003   4.8483397746775042E-002
  -2.5595399233670685E-002   5.9227147357781458E-003   4.8007179511984369E-002
  -2.3720652584085622E-002   4.7001704402254152E-003   4.7472174571579595E-002
  -3.5173211152628447E-002   9.9845744805664438E-003   4.4030409211979038E-002
  -3.3287495813103536E-002   9.2733637870604235E-003   4.3538872772667964E-002
  -3.1401780473578569E-002   8.4856603389051599E-003   4.3128060418851172E-002
  -2.9516065134053651E-002   7.6214641361003685E-003   4.2797972150528163E-002
  -2.7630349794528691E-002   6.6807751786464031E-003   4.2548607967699770E-002
  -3.9209902600976038E-002   1.1354175208703937E-002   3.8781956212979099E-002
  -3.7173707780402666E-002   1.0666611182240993E-002   3.8243597714937211E-002
  -3.5137512959829378E-002   9.9886239581471262E-003   3.7925474093497925E-002
  -3.3101318139256042E-002   9.3202135364226727E-003   3.7827585348661499E-002
  -3.1065123318682802E-002   8.6613799170673911E-003   3.7949931480427190E-002
  -4.3329713527468568E-002   1.2723775936841361E-002   3.3514115102512801E-002
  -4.1003528434738402E-002   1.2059858577421367E-002   3.3015004102758767E-002
  -3.8677343342008300E-002   1.1491587577389151E-002   3.2875638770715879E-002
  -3.6351158249278072E-002   1.1018962936744935E-002   3.3096019106383871E-002
  -3.4024973156548080E-002   1.0641984655488379E-002   3.3676145109763495E-002
  -4.7532643932105934E-002   1.4093376664978785E-002   2.8226885880580199E-002
  -4.4776957776110488E-002   1.3453105972601964E-002   2.7853091936132723E-002
  -4.2021271620115069E-002   1.2994551196631204E-002   2.7978554450504622E-002
  -3.9265585464119651E-002   1.2717712337067234E-002   2.8603273423696202E-002
  -3.6509899308124205E-002   1.2622589393909367E-002   2.9727248855706989E-002
  -9.0362214692071952E-002   0.0000000000000000        4.9835422143984238E-002
  -9.3962493819796281E-002   5.4041984742010871E-003   5.3209044020606514E-002
  -9.7562772947520610E-002   1.0670817416811515E-002   5.4964446502466423E-002
 -0.10116305207524494        1.5799856827831284E-002   5.5101629589563973E-002
 -0.10476333120296927        2.0791316707260386E-002   5.3620593281899158E-002
 -0.10329440880138743        0.0000000000000000        5.8663403149884302E-002
 -0.10683156518652390        1.0884579443871712E-002   5.2119078245681648E-002
 -0.11036872157166035        1.9172370231879399E-002   4.7319218221417110E-002
 -0.11390587795679678        2.4863372364023056E-002   4.4263823077090682E-002
 -0.11744303434193323        2.7957585840302689E-002   4.2952892812702370E-002
 -0.12645870773515078        0.0000000000000000        7.4201369687591695E-002
 -0.12657005710299887        1.6364960413542330E-002   5.5279888878290717E-002
 -0.12668140647084697        2.7673923046947282E-002   4.1465557223628345E-002
 -0.12679275583869504        3.3926887900214829E-002   3.2758374723604586E-002
 -0.12690410520654313        3.5123854973344998E-002   2.9158341378219422E-002
 -0.15985511149336196        0.0000000000000000        9.6449321757106368E-002
 -0.15317796956922120        2.1845341383212959E-002   6.2691475918433742E-002
 -0.14650082764508043        3.6175475862015152E-002   3.7403463509100190E-002
 -0.13982368572093970        4.2990403436406595E-002   2.0585284529105709E-002
 -0.13314654379679894        4.2290124106387272E-002   1.2236938978450289E-002
 -0.20348362007602094        0.0000000000000000       0.12540725935842836     
 -0.18665530258519089        2.7325722352883584E-002   7.4353839366110674E-002
 -0.16982698509436078        4.4677028677083050E-002   3.5132937077832549E-002
 -0.15299866760353070        5.2053918972598374E-002   7.7445524935940285E-003
 -0.13617035011270065        4.9456393239429575E-002  -7.8113143866049561E-003
 -0.10476333120296927        2.0791316707260386E-002   5.3620593281899158E-002
 -0.10210821063571569        2.4932464637995977E-002   4.5640808830350453E-002
  -9.9453090068462119E-002   2.7510568202935171E-002   3.9349599735034553E-002
  -9.6797969501208544E-002   2.8525627402077976E-002   3.4746965995951493E-002
  -9.4142848933954970E-002   2.7977642235424441E-002   3.1832907613101175E-002
 -0.11744303434193323        2.7957585840302689E-002   4.2952892812702370E-002
 -0.11348681808674206        2.9429570270926946E-002   3.6698904066591008E-002
 -0.10953060183155088        3.0253885266104542E-002   3.1358531340122078E-002
 -0.10557438557635968        3.0430530825835425E-002   2.6931774633295543E-002
 -0.10161816932116852        2.9959506950119605E-002   2.3418633946111406E-002
 -0.12690410520654313        3.5123854973344998E-002   2.9158341378219422E-002
 -0.12242175260000474        3.3926675903857915E-002   2.5545523267895102E-002
 -0.11793939999346638        3.2997202329273896E-002   2.2071361840622798E-002
 -0.11345704738692795        3.2335434249592850E-002   1.8735857096402520E-002
 -0.10897469478038957        3.1941371664814790E-002   1.5539009035234207E-002
 -0.13314654379679894        4.2290124106387272E-002   1.2236938978450289E-002
 -0.12891301417550377        3.8423781536788909E-002   1.2180666434262728E-002
 -0.12467948455420855        3.5740519392443250E-002   1.1488091236536708E-002
 -0.12044595493291334        3.4240337673350218E-002   1.0159213385272365E-002
 -0.11621242531161813        3.3923236379509947E-002   8.1940328804696282E-003
 -0.13617035011270065        4.9456393239429575E-002  -7.8113143866049561E-003
 -0.13296060281323907        4.2920887169719882E-002  -3.3956664343062284E-003
 -0.12975085551377744        3.8483836455612631E-002  -3.9128047213606715E-004
 -0.12654110821431580        3.6145241097107671E-002   1.2018434999051340E-003
 -0.12333136091485422        3.5905101094205111E-002   1.3837054818176542E-003
  -9.4142848933954970E-002   2.7977642235424441E-002   3.1832907613101175E-002
  -9.1760165727781798E-002   2.6784338182166079E-002   3.1262609476444561E-002
  -8.9377482521608584E-002   2.5863440721494605E-002   3.0775481108664814E-002
  -8.6994799315435370E-002   2.5214949853409933E-002   3.0371522509761665E-002
  -8.4612116109262184E-002   2.4838865577912150E-002   3.0050733679735320E-002
 -0.10161816932116852        2.9959506950119605E-002   2.3418633946111406E-002
  -9.9139559292400231E-002   2.9189566326944055E-002   2.3141009057722664E-002
  -9.6660949263631973E-002   2.8469461644295795E-002   2.2972068045647470E-002
  -9.4182339234863688E-002   2.7799192902174679E-002   2.2911810909885564E-002
  -9.1703729206095388E-002   2.7178760100580873E-002   2.2960237650437199E-002
 -0.10897469478038957        3.1941371664814790E-002   1.5539009035234207E-002
 -0.10637464382158951        3.1594794471722018E-002   1.5331486743053787E-002
 -0.10377459286278948        3.1075482567096885E-002   1.5258162434623449E-002
 -0.10117454190398943        3.0383435950939449E-002   1.5319036109943257E-002
  -9.8574490945189358E-002   2.9518654623249541E-002   1.5514107769013220E-002
 -0.11621242531161813        3.3923236379509947E-002   8.1940328804696282E-003
 -0.11346541931534961        3.4000022616500085E-002   7.8340425324378953E-003
 -0.11071841331908108        3.3681503489898061E-002   7.6337642755929351E-003
 -0.10797140732281257        3.2967678999704063E-002   7.5931981099346870E-003
 -0.10522440132654406        3.1858549145918097E-002   7.7123440354633747E-003
 -0.12333136091485422        3.5905101094205111E-002   1.3837054818176542E-003
 -0.12041188577368056        3.6405250761277930E-002   6.4867642587496110E-004
 -0.11749241063250686        3.6287524412699189E-002   9.8873568555646330E-005
 -0.11457293549133316        3.5551922048468819E-002  -2.6570309014012361E-004
 -0.11165346035015949        3.4198443668586875E-002  -4.4505355021234871E-004
  -8.4612116109262184E-002   2.4838865577912150E-002   3.0050733679735320E-002
  -8.2200612645523863E-002   2.4525476811214905E-002   2.9310162068836951E-002
  -7.9789109181785556E-002   2.4065072469531767E-002   2.8859555117750138E-002
  -7.7377605718047235E-002   2.3457652552862793E-002   2.8698912826474861E-002
  -7.4966102254308914E-002   2.2703217061208036E-002   2.8828235195011154E-002
  -9.1703729206095388E-002   2.7178760100580873E-002   2.2960237650437199E-002
  -8.9030194608398949E-002   2.6560301405942829E-002   2.2316132220623966E-002
  -8.6356660010702524E-002   2.5895954984689287E-002   2.1906124398915476E-002
  -8.3683125413006057E-002   2.5185720836820209E-002   2.1730214185311566E-002
  -8.1009590815309673E-002   2.4429598962335569E-002   2.1788401579812461E-002
  -9.8574490945189358E-002   2.9518654623249541E-002   1.5514107769013220E-002
  -9.5694792265241621E-002   2.8595126000670816E-002   1.5067596368655421E-002
  -9.2815093585293870E-002   2.7726837499846752E-002   1.4799315524695482E-002
  -8.9935394905346216E-002   2.6913789120777569E-002   1.4709265237133329E-002
  -8.7055696225398382E-002   2.6155980863463130E-002   1.4797445505969245E-002
 -0.10522440132654406        3.1858549145918097E-002   7.7123440354633747E-003
 -0.10219440561605189        3.0629950595398744E-002   7.5645545129313894E-003
  -9.9164409905559719E-002   2.9557720015004355E-002   7.5391284950904504E-003
  -9.6134414195067519E-002   2.8641857404734985E-002   7.6360659819402505E-003
  -9.3104418484575360E-002   2.7882362764590593E-002   7.8553669734811905E-003
 -0.11165346035015949        3.4198443668586875E-002  -4.4505355021234871E-004
 -0.10852903466082975        3.2664775190126671E-002  -1.9299334654843125E-004
 -0.10540460897149995        3.1388602530161777E-002   1.2556331009977439E-004
 -0.10228018328217017        3.0369925688692383E-002   5.1061641973183802E-004
  -9.9155757592840399E-002   2.9608744665718167E-002   9.6216598234849515E-004
  -7.4966102254308914E-002   2.2703217061208036E-002   2.8828235195011154E-002
  -7.2720575814900587E-002   2.1895444405719972E-002   2.8627846110544308E-002
  -7.0475049375492232E-002   2.1128012997551876E-002   2.8565319330465064E-002
  -6.8229522936083906E-002   2.0400922836702952E-002   2.8640654854773212E-002
  -6.5983996496675579E-002   1.9714173923173817E-002   2.8853852683468961E-002
  -8.1009590815309673E-002   2.4429598962335569E-002   2.1788401579812461E-002
  -7.8623014017989129E-002   2.3652375920041935E-002   2.1610597018940927E-002
  -7.6236437220668585E-002   2.2878838268745753E-002   2.1577030869506103E-002
  -7.3849860423348040E-002   2.2108986008447198E-002   2.1687703131508224E-002
  -7.1463283626027566E-002   2.1342819139146096E-002   2.1942613804947303E-002
  -8.7055696225398382E-002   2.6155980863463130E-002   1.4797445505969245E-002
  -8.4521692963116304E-002   2.5409307434363579E-002   1.4605569612370764E-002
  -8.1987689700834226E-002   2.4629663539939853E-002   1.4564308237258426E-002
  -7.9453686438552162E-002   2.3817049180191247E-002   1.4673661380632280E-002
  -7.6919683176270084E-002   2.2971464355118293E-002   1.4933629042492583E-002
  -9.3104418484575360E-002   2.7882362764590593E-002   7.8553669734811905E-003
  -9.0416612650282308E-002   2.7166238948685494E-002   7.6127638908337607E-003
  -8.7728806815989255E-002   2.6380488811133786E-002   7.5271514337217071E-003
  -8.5041000981696216E-002   2.5525112351935393E-002   7.5985296021455952E-003
  -8.2353195147403135E-002   2.4600109571090586E-002   7.8268983961048803E-003
  -9.9155757592840399E-002   2.9608744665718167E-002   9.6216598234849515E-004
  -9.6307773079487013E-002   2.8923170463007214E-002   6.3217985433011714E-004
  -9.3459788566133600E-002   2.8131314082327719E-002   4.6556045889632747E-004
  -9.0611804052780201E-002   2.7233175523679570E-002   4.6230779604802472E-004
  -8.7763819539426802E-002   2.6228754787062769E-002   6.2242186578442826E-004
  -6.5983996496675579E-002   1.9714173923173817E-002   2.8853852683468961E-002
  -6.3422231084768063E-002   1.9042624688997506E-002   2.8562432144768557E-002
  -6.0860465672860520E-002   1.8361133566207735E-002   2.8501193099093963E-002
  -5.8298700260952976E-002   1.7669700554804161E-002   2.8670135546444903E-002
  -5.5736934849045461E-002   1.6968325654787009E-002   2.9069259486821708E-002
  -7.1463283626027566E-002   2.1342819139146096E-002   2.1942613804947303E-002
  -6.8680570177615669E-002   2.0580431833042409E-002   2.1661813312226871E-002
  -6.5897856729203785E-002   1.9821918262336272E-002   2.1592727399489406E-002
  -6.3115143280791944E-002   1.9067278427027618E-002   2.1735356066734907E-002
  -6.0332429832380033E-002   1.8316512327116619E-002   2.2089699313963373E-002
  -7.6919683176270084E-002   2.2971464355118293E-002   1.4933629042492583E-002
  -7.3934488604396609E-002   2.2118238977087354E-002   1.4677264219763189E-002
  -7.0949294032523119E-002   2.1282702958465079E-002   1.4614147063974139E-002
  -6.7964099460649588E-002   2.0464856299251183E-002   1.4744277575125388E-002
  -6.4978904888776140E-002   1.9664698999446117E-002   1.5067655753216724E-002
  -8.2353195147403135E-002   2.4600109571090586E-002   7.8268983961048803E-003
  -7.9183986365110787E-002   2.3656046121132167E-002   7.6087848673779788E-003
  -7.6014777582818424E-002   2.2743487654593584E-002   7.5654520925483009E-003
  -7.2845568800526075E-002   2.1862434171474807E-002   7.6969000716163661E-003
  -6.9676360018233699E-002   2.1012885671775727E-002   8.0031288045817328E-003
  -8.7763819539426802E-002   2.6228754787062769E-002   6.2242186578442826E-004
  -8.4429063459758313E-002   2.5193853265177091E-002   4.5637525507080667E-004
  -8.1094307380089825E-002   2.4204272350722505E-002   4.4664248521192329E-004
  -7.7759551300421337E-002   2.3260012043698035E-002   5.9322355620773648E-004
  -7.4424795220752848E-002   2.2361072344105337E-002   8.9611846805837114E-004
  -5.5736934849045461E-002   1.6968325654787009E-002   2.9069259486821708E-002
  -5.3685862119810579E-002   1.6258881959680921E-002   2.8736598034101168E-002
  -5.1634789390575697E-002   1.5543242563011012E-002   2.8485315282154033E-002
  -4.9583716661340815E-002   1.4821407464776927E-002   2.8315411230980372E-002
  -4.7532643932105934E-002   1.4093376664978785E-002   2.8226885880580199E-002
  -6.0332429832380033E-002   1.8316512327116619E-002   2.2089699313963373E-002
  -5.8168377007640062E-002   1.7567486582693415E-002   2.1734364819920471E-002
  -5.6004324182900113E-002   1.6818067813849202E-002   2.1523611816113938E-002
  -5.3840271358160191E-002   1.6068256020583566E-002   2.1457440302544019E-002
  -5.1676218533420193E-002   1.5318051202896643E-002   2.1535850279211011E-002
  -6.4978904888776140E-002   1.9664698999446117E-002   1.5067655753216724E-002
  -6.2638669179067893E-002   1.8876091205705922E-002   1.4695450894993745E-002
  -6.0298433469359647E-002   1.8092893064687435E-002   1.4531030316470614E-002
  -5.7958197759651414E-002   1.7315104576390145E-002   1.4574394017647554E-002
  -5.5617962049943168E-002   1.6542725740814446E-002   1.4825541998524150E-002
  -6.9676360018233699E-002   2.1012885671775727E-002   8.0031288045817328E-003
  -6.7096738634093989E-002   2.0184695828718728E-002   7.6198562593214544E-003
  -6.4517117249954320E-002   1.9367718315525702E-002   7.5075707832246326E-003
  -6.1937495865814582E-002   1.8561953132196642E-002   7.6662723762905439E-003
  -5.9357874481674920E-002   1.7767400278732276E-002   8.0959610385196654E-003
  -7.4424795220752848E-002   2.2361072344105337E-002   8.9611846805837114E-004
  -7.1542585372718515E-002   2.1493300451731034E-002   5.0758091290387108E-004
  -6.8660375524684070E-002   2.0642543566363997E-002   4.5323321637541492E-004
  -6.5778165676649625E-002   1.9808801688003537E-002   7.3307537847362714E-004
  -6.2895955828615291E-002   1.8992074816650106E-002   1.3471073991979665E-003
  -4.7532643932105934E-002   1.4093376664978785E-002   2.8226885880580199E-002
  -4.4776957776110488E-002   1.3453105972601964E-002   2.7853091936132723E-002
  -4.2021271620115069E-002   1.2994551196631204E-002   2.7978554450504622E-002
  -3.9265585464119651E-002   1.2717712337067234E-002   2.8603273423696202E-002
  -3.6509899308124205E-002   1.2622589393909367E-002   2.9727248855706989E-002
  -5.1676218533420193E-002   1.5318051202896643E-002   2.1535850279211011E-002
  -4.8548698812395139E-002   1.4587382799365001E-002   2.1347055410333826E-002
  -4.5421179091370056E-002   1.3896180248565426E-002   2.1402671212696484E-002
  -4.2293659370344974E-002   1.3244443550498003E-002   2.1702697686299066E-002
  -3.9166139649319920E-002   1.2632172705162370E-002   2.2247134831141047E-002
  -5.5617962049943168E-002   1.6542725740814446E-002   1.4825541998524150E-002
  -5.2373454551468253E-002   1.5721659626128037E-002   1.4679496141543125E-002
  -4.9128947052993324E-002   1.4797809300499468E-002   1.4523015168222408E-002
  -4.5884439554518437E-002   1.3771174763928546E-002   1.4356099078561314E-002
  -4.2639932056043522E-002   1.2641756016415484E-002   1.4178747872560515E-002
  -5.9357874481674920E-002   1.7767400278732276E-002   8.0959610385196654E-003
  -5.6251224993330011E-002   1.6855936452891407E-002   7.8504141297609034E-003
  -5.3144575504985067E-002   1.5699438352433821E-002   7.3395863170818872E-003
  -5.0037926016640082E-002   1.4297905977359424E-002   6.5634776004831752E-003
  -4.6931276528295200E-002   1.2651339327668432E-002   5.5220879799647155E-003
  -6.2895955828615291E-002   1.8992074816650106E-002   1.3471073991979665E-003
  -6.0182010137980191E-002   1.7990213279654110E-002   8.5980937498636445E-004
  -5.7468064447344980E-002   1.6601067404367842E-002  -1.4761534072474380E-004
  -5.4754118756709769E-002   1.4824637190789941E-002  -1.6751667479354207E-003
  -5.2040173066074669E-002   1.2660922638921601E-002  -3.7228448466459785E-003
 </DataArray>
 </PointData>
 </Piece>
 <Piece  NumberOfPoints="          1600 "  NumberOfCells="         1024 ">
 <Points>
 <DataArray  type="Float64" NumberOfComponents="3"  format="ascii" >
  0.50000000000000000        0.0000000000000000        0.0000000000000000     
  0.53125000000000000        0.0000000000000000        0.0000000000000000     
  0.56250000000000000        0.0000000000000000        0.0000000000000000     
  0.59375000000000000        0.0000000000000000        0.0000000000000000     
  0.62500000000000000        0.0000000000000000        0.0000000000000000     
  0.50000000000000000        3.1250000000000000E-002   0.0000000000000000     
  0.53125000000000000        3.1250000000000000E-002   0.0000000000000000     
  0.56250000000000000        3.1250000000000000E-002   0.0000000000000000     
  0.59375000000000000        3.1250000000000000E-002   0.0000000000000000     
  0.62500000000000000        3.1250000000000000E-002   0.0000000000000000     
  0.50000000000000000        6.2500000000000000E-002   0.0000000000000000     
  0.53125000000000000        6.2500000000000000E-002   0.0000000000000000     
  0.56250000000000000        6.2500000000000000E-002   0.0000000000000000     
  0.59375000000000000        6.2500000000000000E-002   0.0000000000000000     
  0.62500000000000000        6.2500000000000000E-002   0.0000000000000000     
  0.50000000000000000        9.3750000000000000E-002   0.0000000000000000     
  0.53125000000000000        9.3750000000000000E-002   0.0000000000000000     
  0.56250000000000000        9.3750000000000000E-002   0.0000000000000000     
  0.59375000000000000        9.3750000000000000E-002   0.0000000000000000     
  0.62500000000000000        9.3750000000000000E-002   0.0000000000000000     
  0.50000000000000000       0.12500000000000000        0.0000000000000000     
  0.53125000000000000       0.12500000000000000        0.0000000000000000     
  0.56250000000000000       0.12500000000000000        0.0000000000000000     
  0.59375000000000000       0.12500000000000000        0.0000000000000000     
  0.62500000000000000       0.12500000000000000        0.0000000000000000     
  0.62500000000000000        0.0000000000000000        0.0000000000000000     
  0.65625000000000000        0.0000000000000000        0.0000000000000000     
  0.68750000000000000        0.0000000000000000        0.0000000000000000     
  0.71875000000000000        0.0000000000000000        0.0000000000000000     
  0.75000000000000000        0.0000000000000000        0.0000000000000000     
  0.62500000000000000        3.1250000000000000E-002   0.0000000000000000     
  0.65625000000000000        3.1250000000000000E-002   0.0000000000000000     
  0.68750000000000000        3.1250000000000000E-002   0.0000000000000000     
  0.71875000000000000        3.1250000000000000E-002   0.0000000000000000     
  0.75000000000000000        3.1250000000000000E-002   0.0000000000000000     
  0.62500000000000000        6.2500000000000000E-002   0.0000000000000000     
  0.65625000000000000        6.2500000000000000E-002   0.0000000000000000     
  0.68750000000000000        6.2500000000000000E-002   0.0000000000000000     
  0.71875000000000000        6.2500000000000000E-002   0.0000000000000000     
  0.75000000000000000        6.2500000000000000E-002   0.0000000000000000     
  0.62500000000000000        9.3750000000000000E-002   0.0000000000000000     
  0.65625000000000000        9.3750000000000000E-002   0.0000000000000000     
  0.68750000000000000        9.3750000000000000E-002   0.0000000000000000     
  0.71875000000000000        9.3750000000000000E-002   0.0000000000000000     
  0.75000000000000000        9.3750000000000000E-002   0.0000000000000000     
  0.62500000000000000       0.12500000000000000        0.0000000000000000     
  0.65625000000000000       0.12500000000000000        0.0000000000000000     
  0.68750000000000000       0.12500000000000000        0.0000000000000000     
  0.71875000000000000       0.12500000000000000        0.0000000000000000     
  0.75000000000000000       0.12500000000000000        0.0000000000000000     
  0.75000000000000000        0.0000000000000000        0.0000000000000000     
  0.78125000000000000        0.0000000000000000        0.0000000000000000     
  0.81250000000000000        0.0000000000000000        0.0000000000000000     
  0.84375000000000000        0.0000000000000000        0.0000000000000000     
  0.87500000000000000        0.0000000000000000        0.0000000000000000     
  0.75000000000000000        3.1250000000000000E-002   0.0000000000000000     
  0.78125000000000000        3.1250000000000000E-002   0.0000000000000000     
  0.81250000000000000        3.1250000000000000E-002   0.0000000000000000     
  0.84375000000000000        3.1250000000000000E-002   0.0000000000000000     
  0.87500000000000000        3.1250000000000000E-002   0.0000000000000000     
  0.75000000000000000        6.2500000000000000E-002   0.0000000000000000     
  0.78125000000000000        6.2500000000000000E-002   0.0000000000000000     
  0.81250000000000000        6.2500000000000000E-002   0.0000000000000000     
  0.84375000000000000        6.2500000000000000E-002   0.0000000000000000     
  0.87500000000000000        6.2500000000000000E-002   0.0000000000000000     
  0.75000000000000000        9.3750000000000000E-002   0.0000000000000000     
  0.78125000000000000        9.3750000000000000E-002   0.0000000000000000     
  0.81250000000000000        9.3750000000000000E-002   0.0000000000000000     
  0.84375000000000000        9.3750000000000000E-002   0.0000000000000000     
  0.87500000000000000        9.3750000000000000E-002   0.0000000000000000     
  0.75000000000000000       0.12500000000000000        0.0000000000000000     
  0.78125000000000000       0.12500000000000000        0.0000000000000000     
  0.81250000000000000       0.12500000000000000        0.0000000000000000     
  0.84375000000000000       0.12500000000000000        0.0000000000000000     
  0.87500000000000000       0.12500000000000000        0.0000000000000000     
  0.87500000000000000        0.0000000000000000        0.0000000000000000     
  0.90625000000000000        0.0000000000000000        0.0000000000000000     
  0.93750000000000000        0.0000000000000000        0.0000000000000000     
  0.96875000000000000        0.0000000000000000        0.0000000000000000     
   1.0000000000000000        0.0000000000000000        0.0000000000000000     
  0.87500000000000000        3.1250000000000000E-002   0.0000000000000000     
  0.90625000000000000        3.1250000000000000E-002   0.0000000000000000     
  0.93750000000000000        3.1250000000000000E-002   0.0000000000000000     
  0.96875000000000000        3.1250000000000000E-002   0.0000000000000000     
   1.0000000000000000        3.1250000000000000E-002   0.0000000000000000     
  0.87500000000000000        6.2500000000000000E-002   0.0000000000000000     
  0.90625000000000000        6.2500000000000000E-002   0.0000000000000000     
  0.93750000000000000        6.2500000000000000E-002   0.0000000000000000     
  0.96875000000000000        6.2500000000000000E-002   0.0000000000000000     
   1.0000000000000000        6.2500000000000000E-002   0.0000000000000000     
  0.87500000000000000        9.3750000000000000E-002   0.0000000000000000     
  0.90625000000000000        9.3750000000000000E-002   0.0000000000000000     
  0.93750000000000000        9.3750000000000000E-002   0.0000000000000000     
  0.96875000000000000        9.3750000000000000E-002   0.0000000000000000     
   1.0000000000000000        9.3750000000000000E-002   0.0000000000000000     
  0.87500000000000000       0.12500000000000000        0.0000000000000000     
  0.90625000000000000       0.12500000000000000        0.0000000000000000     
  0.93750000000000000       0.12500000000000000        0.0000000000000000     
  0.96875000000000000       0.12500000000000000        0.0000000000000000     
   1.0000000000000000       0.12500000000000000        0.0000000000000000     
   1.0000000000000000        0.0000000000000000        0.0000000000000000     
   1.0312500000000000        0.0000000000000000        0.0000000000000000     
   1.0625000000000000        0.0000000000000000        0.0000000000000000     
   1.0937500000000000        0.0000000000000000        0.0000000000000000     
   1.1250000000000000        0.0000000000000000        0.0000000000000000     
   1.0000000000000000        3.1250000000000000E-002   0.0000000000000000     
   1.0312500000000000        3.1250000000000000E-002   0.0000000000000000     
   1.0625000000000000        3.1250000000000000E-002   0.0000000000000000     
   1.0937500000000000        3.1250000000000000E-002   0.0000000000000000     
   1.1250000000000000        3.1250000000000000E-002   0.0000000000000000     
   1.0000000000000000        6.2500000000000000E-002   0.0000000000000000     
   1.0312500000000000        6.2500000000000000E-002   0.0000000000000000     
   1.0625000000000000        6.2500000000000000E-002   0.0000000000000000     
   1.0937500000000000        6.2500000000000000E-002   0.0000000000000000     
   1.1250000000000000        6.2500000000000000E-002   0.0000000000000000     
   1.0000000000000000        9.3750000000000000E-002   0.0000000000000000     
   1.0312500000000000        9.3750000000000000E-002   0.0000000000000000     
   1.0625000000000000        9.3750000000000000E-002   0.0000000000000000     
   1.0937500000000000        9.3750000000000000E-002   0.0000000000000000     
   1.1250000000000000        9.3750000000000000E-002   0.0000000000000000     
   1.0000000000000000       0.12500000000000000        0.0000000000000000     
   1.0312500000000000       0.12500000000000000        0.0000000000000000     
   1.0625000000000000       0.12500000000000000        0.0000000000000000     
   1.0937500000000000       0.12500000000000000        0.0000000000000000     
   1.1250000000000000       0.12500000000000000        0.0000000000000000     
   1.1250000000000000        0.0000000000000000        0.0000000000000000     
   1.1562500000000000        0.0000000000000000        0.0000000000000000     
   1.1875000000000000        0.0000000000000000        0.0000000000000000     
   1.2187500000000000        0.0000000000000000        0.0000000000000000     
   1.2500000000000000        0.0000000000000000        0.0000000000000000     
   1.1250000000000000        3.1250000000000000E-002   0.0000000000000000     
   1.1562500000000000        3.1250000000000000E-002   0.0000000000000000     
   1.1875000000000000        3.1250000000000000E-002   0.0000000000000000     
   1.2187500000000000        3.1250000000000000E-002   0.0000000000000000     
   1.2500000000000000        3.1250000000000000E-002   0.0000000000000000     
   1.1250000000000000        6.2500000000000000E-002   0.0000000000000000     
   1.1562500000000000        6.2500000000000000E-002   0.0000000000000000     
   1.1875000000000000        6.2500000000000000E-002   0.0000000000000000     
   1.2187500000000000        6.2500000000000000E-002   0.0000000000000000     
   1.2500000000000000        6.2500000000000000E-002   0.0000000000000000     
   1.1250000000000000        9.3750000000000000E-002   0.0000000000000000     
   1.1562500000000000        9.3750000000000000E-002   0.0000000000000000     
   1.1875000000000000        9.3750000000000000E-002   0.0000000000000000     
   1.2187500000000000        9.3750000000000000E-002   0.0000000000000000     
   1.2500000000000000        9.3750000000000000E-002   0.0000000000000000     
   1.1250000000000000       0.12500000000000000        0.0000000000000000     
   1.1562500000000000       0.12500000000000000        0.0000000000000000     
   1.1875000000000000       0.12500000000000000        0.0000000000000000     
   1.2187500000000000       0.12500000000000000        0.0000000000000000     
   1.2500000000000000       0.12500000000000000        0.0000000000000000     
   1.2500000000000000        0.0000000000000000        0.0000000000000000     
   1.2812500000000000        0.0000000000000000        0.0000000000000000     
   1.3125000000000000        0.0000000000000000        0.0000000000000000     
   1.3437500000000000        0.0000000000000000        0.0000000000000000     
   1.3750000000000000        0.0000000000000000        0.0000000000000000     
   1.2500000000000000        3.1250000000000000E-002   0.0000000000000000     
   1.2812500000000000        3.1250000000000000E-002   0.0000000000000000     
   1.3125000000000000        3.1250000000000000E-002   0.0000000000000000     
   1.3437500000000000        3.1250000000000000E-002   0.0000000000000000     
   1.3750000000000000        3.1250000000000000E-002   0.0000000000000000     
   1.2500000000000000        6.2500000000000000E-002   0.0000000000000000     
   1.2812500000000000        6.2500000000000000E-002   0.0000000000000000     
   1.3125000000000000        6.2500000000000000E-002   0.0000000000000000     
   1.3437500000000000        6.2500000000000000E-002   0.0000000000000000     
   1.3750000000000000        6.2500000000000000E-002   0.0000000000000000     
   1.2500000000000000        9.3750000000000000E-002   0.0000000000000000     
   1.2812500000000000        9.3750000000000000E-002   0.0000000000000000     
   1.3125000000000000        9.3750000000000000E-002   0.0000000000000000     
   1.3437500000000000        9.3750000000000000E-002   0.0000000000000000     
   1.3750000000000000        9.3750000000000000E-002   0.0000000000000000     
   1.2500000000000000       0.12500000000000000        0.0000000000000000     
   1.2812500000000000       0.12500000000000000        0.0000000000000000     
   1.3125000000000000       0.12500000000000000        0.0000000000000000     
   1.3437500000000000       0.12500000000000000        0.0000000000000000     
   1.3750000000000000       0.12500000000000000        0.0000000000000000     
   1.3750000000000000        0.0000000000000000        0.0000000000000000     
   1.4062500000000000        0.0000000000000000        0.0000000000000000     
   1.4375000000000000        0.0000000000000000        0.0000000000000000     
   1.4687500000000000        0.0000000000000000        0.0000000000000000     
   1.5000000000000000        0.0000000000000000        0.0000000000000000     
   1.3750000000000000        3.1250000000000000E-002   0.0000000000000000     
   1.4062500000000000        3.1250000000000000E-002   0.0000000000000000     
   1.4375000000000000        3.1250000000000000E-002   0.0000000000000000     
   1.4687500000000000        3.1250000000000000E-002   0.0000000000000000     
   1.5000000000000000        3.1250000000000000E-002   0.0000000000000000     
   1.3750000000000000        6.2500000000000000E-002   0.0000000000000000     
   1.4062500000000000        6.2500000000000000E-002   0.0000000000000000     
   1.4375000000000000        6.2500000000000000E-002   0.0000000000000000     
   1.4687500000000000        6.2500000000000000E-002   0.0000000000000000     
   1.5000000000000000        6.2500000000000000E-002   0.0000000000000000     
   1.3750000000000000        9.3750000000000000E-002   0.0000000000000000     
   1.4062500000000000        9.3750000000000000E-002   0.0000000000000000     
   1.4375000000000000        9.3750000000000000E-002   0.0000000000000000     
   1.4687500000000000        9.3750000000000000E-002   0.0000000000000000     
   1.5000000000000000        9.3750000000000000E-002   0.0000000000000000     
   1.3750000000000000       0.12500000000000000        0.0000000000000000     
   1.4062500000000000       0.12500000000000000        0.0000000000000000     
   1.4375000000000000       0.12500000000000000        0.0000000000000000     
   1.4687500000000000       0.12500000000000000        0.0000000000000000     
   1.5000000000000000       0.12500000000000000        0.0000000000000000     
  0.50000000000000000       0.12500000000000000        0.0000000000000000     
  0.53125000000000000       0.12500000000000000        0.0000000000000000     
  0.56250000000000000       0.12500000000000000        0.0000000000000000     
  0.59375000000000000       0.12500000000000000        0.0000000000000000     
  0.62500000000000000       0.12500000000000000        0.0000000000000000     
  0.50000000000000000       0.15625000000000000        0.0000000000000000     
  0.53125000000000000       0.15625000000000000        0.0000000000000000     
  0.56250000000000000       0.15625000000000000        0.0000000000000000     
  0.59375000000000000       0.15625000000000000        0.0000000000000000     
  0.62500000000000000       0.15625000000000000        0.0000000000000000     
  0.50000000000000000       0.18750000000000000        0.0000000000000000     
  0.53125000000000000       0.18750000000000000        0.0000000000000000     
  0.56250000000000000       0.18750000000000000        0.0000000000000000     
  0.59375000000000000       0.18750000000000000        0.0000000000000000     
  0.62500000000000000       0.18750000000000000        0.0000000000000000     
  0.50000000000000000       0.21875000000000000        0.0000000000000000     
  0.53125000000000000       0.21875000000000000        0.0000000000000000     
  0.56250000000000000       0.21875000000000000        0.0000000000000000     
  0.59375000000000000       0.21875000000000000        0.0000000000000000     
  0.62500000000000000       0.21875000000000000        0.0000000000000000     
  0.50000000000000000       0.25000000000000000        0.0000000000000000     
  0.53125000000000000       0.25000000000000000        0.0000000000000000     
  0.56250000000000000       0.25000000000000000        0.0000000000000000     
  0.59375000000000000       0.25000000000000000        0.0000000000000000     
  0.62500000000000000       0.25000000000000000        0.0000000000000000     
  0.62500000000000000       0.12500000000000000        0.0000000000000000     
  0.65625000000000000       0.12500000000000000        0.0000000000000000     
  0.68750000000000000       0.12500000000000000        0.0000000000000000     
  0.71875000000000000       0.12500000000000000        0.0000000000000000     
  0.75000000000000000       0.12500000000000000        0.0000000000000000     
  0.62500000000000000       0.15625000000000000        0.0000000000000000     
  0.65625000000000000       0.15625000000000000        0.0000000000000000     
  0.68750000000000000       0.15625000000000000        0.0000000000000000     
  0.71875000000000000       0.15625000000000000        0.0000000000000000     
  0.75000000000000000       0.15625000000000000        0.0000000000000000     
  0.62500000000000000       0.18750000000000000        0.0000000000000000     
  0.65625000000000000       0.18750000000000000        0.0000000000000000     
  0.68750000000000000       0.18750000000000000        0.0000000000000000     
  0.71875000000000000       0.18750000000000000        0.0000000000000000     
  0.75000000000000000       0.18750000000000000        0.0000000000000000     
  0.62500000000000000       0.21875000000000000        0.0000000000000000     
  0.65625000000000000       0.21875000000000000        0.0000000000000000     
  0.68750000000000000       0.21875000000000000        0.0000000000000000     
  0.71875000000000000       0.21875000000000000        0.0000000000000000     
  0.75000000000000000       0.21875000000000000        0.0000000000000000     
  0.62500000000000000       0.25000000000000000        0.0000000000000000     
  0.65625000000000000       0.25000000000000000        0.0000000000000000     
  0.68750000000000000       0.25000000000000000        0.0000000000000000     
  0.71875000000000000       0.25000000000000000        0.0000000000000000     
  0.75000000000000000       0.25000000000000000        0.0000000000000000     
  0.75000000000000000       0.12500000000000000        0.0000000000000000     
  0.78125000000000000       0.12500000000000000        0.0000000000000000     
  0.81250000000000000       0.12500000000000000        0.0000000000000000     
  0.84375000000000000       0.12500000000000000        0.0000000000000000     
  0.87500000000000000       0.12500000000000000        0.0000000000000000     
  0.75000000000000000       0.15625000000000000        0.0000000000000000     
  0.78125000000000000       0.15625000000000000        0.0000000000000000     
  0.81250000000000000       0.15625000000000000        0.0000000000000000     
  0.84375000000000000       0.15625000000000000        0.0000000000000000     
  0.87500000000000000       0.15625000000000000        0.0000000000000000     
  0.75000000000000000       0.18750000000000000        0.0000000000000000     
  0.78125000000000000       0.18750000000000000        0.0000000000000000     
  0.81250000000000000       0.18750000000000000        0.0000000000000000     
  0.84375000000000000       0.18750000000000000        0.0000000000000000     
  0.87500000000000000       0.18750000000000000        0.0000000000000000     
  0.75000000000000000       0.21875000000000000        0.0000000000000000     
  0.78125000000000000       0.21875000000000000        0.0000000000000000     
  0.81250000000000000       0.21875000000000000        0.0000000000000000     
  0.84375000000000000       0.21875000000000000        0.0000000000000000     
  0.87500000000000000       0.21875000000000000        0.0000000000000000     
  0.75000000000000000       0.25000000000000000        0.0000000000000000     
  0.78125000000000000       0.25000000000000000        0.0000000000000000     
  0.81250000000000000       0.25000000000000000        0.0000000000000000     
  0.84375000000000000       0.25000000000000000        0.0000000000000000     
  0.87500000000000000       0.25000000000000000        0.0000000000000000     
  0.87500000000000000       0.12500000000000000        0.0000000000000000     
  0.90625000000000000       0.12500000000000000        0.0000000000000000     
  0.93750000000000000       0.12500000000000000        0.0000000000000000     
  0.96875000000000000       0.12500000000000000        0.0000000000000000     
   1.0000000000000000       0.12500000000000000        0.0000000000000000     
  0.87500000000000000       0.15625000000000000        0.0000000000000000     
  0.90625000000000000       0.15625000000000000        0.0000000000000000     
  0.93750000000000000       0.15625000000000000        0.0000000000000000     
  0.96875000000000000       0.15625000000000000        0.0000000000000000     
   1.0000000000000000       0.15625000000000000        0.0000000000000000     
  0.87500000000000000       0.18750000000000000        0.0000000000000000     
  0.90625000000000000       0.18750000000000000        0.0000000000000000     
  0.93750000000000000       0.18750000000000000        0.0000000000000000     
  0.96875000000000000       0.18750000000000000        0.0000000000000000     
   1.0000000000000000       0.18750000000000000        0.0000000000000000     
  0.87500000000000000       0.21875000000000000        0.0000000000000000     
  0.90625000000000000       0.21875000000000000        0.0000000000000000     
  0.93750000000000000       0.21875000000000000        0.0000000000000000     
  0.96875000000000000       0.21875000000000000        0.0000000000000000     
   1.0000000000000000       0.21875000000000000        0.0000000000000000     
  0.87500000000000000       0.25000000000000000        0.0000000000000000     
  0.90625000000000000       0.25000000000000000        0.0000000000000000     
  0.93750000000000000       0.25000000000000000        0.0000000000000000     
  0.96875000000000000       0.25000000000000000        0.0000000000000000     
   1.0000000000000000       0.25000000000000000        0.0000000000000000     
   1.0000000000000000       0.12500000000000000        0.0000000000000000     
   1.0312500000000000       0.12500000000000000        0.0000000000000000     
   1.0625000000000000       0.12500000000000000        0.0000000000000000     
   1.0937500000000000       0.12500000000000000        0.0000000000000000     
   1.1250000000000000       0.12500000000000000        0.0000000000000000     
   1.0000000000000000       0.15625000000000000        0.0000000000000000     
   1.0312500000000000       0.15625000000000000        0.0000000000000000     
   1.0625000000000000       0.15625000000000000        0.0000000000000000     
   1.0937500000000000       0.15625000000000000        0.0000000000000000     
   1.1250000000000000       0.15625000000000000        0.0000000000000000     
   1.0000000000000000       0.18750000000000000        0.0000000000000000     
   1.0312500000000000       0.18750000000000000        0.0000000000000000     
   1.0625000000000000       0.18750000000000000        0.0000000000000000     
   1.0937500000000000       0.18750000000000000        0.0000000000000000     
   1.1250000000000000       0.18750000000000000        0.0000000000000000     
   1.0000000000000000       0.21875000000000000        0.0000000000000000     
   1.0312500000000000       0.21875000000000000        0.0000000000000000     
   1.0625000000000000       0.21875000000000000        0.0000000000000000     
   1.0937500000000000       0.21875000000000000        0.0000000000000000     
   1.1250000000000000       0.21875000000000000        0.0000000000000000     
   1.0000000000000000       0.25000000000000000        0.0000000000000000     
   1.0312500000000000       0.25000000000000000        0.0000000000000000     
   1.0625000000000000       0.25000000000000000        0.0000000000000000     
   1.0937500000000000       0.25000000000000000        0.0000000000000000     
   1.1250000000000000       0.25000000000000000        0.0000000000000000     
   1.1250000000000000       0.12500000000000000        0.0000000000000000     
   1.1562500000000000       0.12500000000000000        0.0000000000000000     
   1.1875000000000000       0.12500000000000000        0.0000000000000000     
   1.2187500000000000       0.12500000000000000        0.0000000000000000     
   1.2500000000000000       0.12500000000000000        0.0000000000000000     
   1.1250000000000000       0.15625000000000000        0.0000000000000000     
   1.1562500000000000       0.15625000000000000        0.0000000000000000     
   1.1875000000000000       0.15625000000000000        0.0000000000000000     
   1.2187500000000000       0.15625000000000000        0.0000000000000000     
   1.2500000000000000       0.15625000000000000        0.0000000000000000     
   1.1250000000000000       0.18750000000000000        0.0000000000000000     
   1.1562500000000000       0.18750000000000000        0.0000000000000000     
   1.1875000000000000       0.18750000000000000        0.0000000000000000     
   1.2187500000000000       0.18750000000000000        0.0000000000000000     
   1.2500000000000000       0.18750000000000000        0.0000000000000000     
   1.1250000000000000       0.21875000000000000        0.0000000000000000     
   1.1562500000000000       0.21875000000000000        0.0000000000000000     
   1.1875000000000000       0.21875000000000000        0.0000000000000000     
   1.2187500000000000       0.21875000000000000        0.0000000000000000     
   1.2500000000000000       0.21875000000000000        0.0000000000000000     
   1.1250000000000000       0.25000000000000000        0.0000000000000000     
   1.1562500000000000       0.25000000000000000        0.0000000000000000     
   1.1875000000000000       0.25000000000000000        0.0000000000000000     
   1.2187500000000000       0.25000000000000000        0.0000000000000000     
   1.2500000000000000       0.25000000000000000        0.0000000000000000     
   1.2500000000000000       0.12500000000000000        0.0000000000000000     
   1.2812500000000000       0.12500000000000000        0.0000000000000000     
   1.3125000000000000       0.12500000000000000        0.0000000000000000     
   1.3437500000000000       0.12500000000000000        0.0000000000000000     
   1.3750000000000000       0.12500000000000000        0.0000000000000000     
   1.2500000000000000       0.15625000000000000        0.0000000000000000     
   1.2812500000000000       0.15625000000000000        0.0000000000000000     
   1.3125000000000000       0.15625000000000000        0.0000000000000000     
   1.3437500000000000       0.15625000000000000        0.0000000000000000     
   1.3750000000000000       0.15625000000000000        0.0000000000000000     
   1.2500000000000000       0.18750000000000000        0.0000000000000000     
   1.2812500000000000       0.18750000000000000        0.0000000000000000     
   1.3125000000000000       0.18750000000000000        0.0000000000000000     
   1.3437500000000000       0.18750000000000000        0.0000000000000000     
   1.3750000000000000       0.18750000000000000        0.0000000000000000     
   1.2500000000000000       0.21875000000000000        0.0000000000000000     
   1.2812500000000000       0.21875000000000000        0.0000000000000000     
   1.3125000000000000       0.21875000000000000        0.0000000000000000     
   1.3437500000000000       0.21875000000000000        0.0000000000000000     
   1.3750000000000000       0.21875000000000000        0.0000000000000000     
   1.2500000000000000       0.25000000000000000        0.0000000000000000     
   1.2812500000000000       0.25000000000000000        0.0000000000000000     
   1.3125000000000000       0.25000000000000000        0.0000000000000000     
   1.3437500000000000       0.25000000000000000        0.0000000000000000     
   1.3750000000000000       0.25000000000000000        0.0000000000000000     
   1.3750000000000000       0.12500000000000000        0.0000000000000000     
   1.4062500000000000       0.12500000000000000        0.0000000000000000     
   1.4375000000000000       0.12500000000000000        0.0000000000000000     
   1.4687500000000000       0.12500000000000000        0.0000000000000000     
   1.5000000000000000       0.12500000000000000        0.0000000000000000     
   1.3750000000000000       0.15625000000000000        0.0000000000000000     
   1.4062500000000000       0.15625000000000000        0.0000000000000000     
   1.4375000000000000       0.15625000000000000        0.0000000000000000     
   1.4687500000000000       0.15625000000000000        0.0000000000000000     
   1.5000000000000000       0.15625000000000000        0.0000000000000000     
   1.3750000000000000       0.18750000000000000        0.0000000000000000     
   1.4062500000000000       0.18750000000000000        0.0000000000000000     
   1.4375000000000000       0.18750000000000000        0.0000000000000000     
   1.4687500000000000       0.18750000000000000        0.0000000000000000     
   1.5000000000000000       0.18750000000000000        0.0000000000000000     
   1.3750000000000000       0.21875000000000000        0.0000000000000000     
   1.4062500000000000       0.21875000000000000        0.0000000000000000     
   1.4375000000000000       0.21875000000000000        0.0000000000000000     
   1.4687500000000000       0.21875000000000000        0.0000000000000000     
   1.5000000000000000       0.21875000000000000        0.0000000000000000     
   1.3750000000000000       0.25000000000000000        0.0000000000000000     
   1.4062500000000000       0.25000000000000000        0.0000000000000000     
   1.4375000000000000       0.25000000000000000        0.0000000000000000     
   1.4687500000000000       0.25000000000000000        0.0000000000000000     
   1.5000000000000000       0.25000000000000000        0.0000000000000000     
  0.50000000000000000       0.25000000000000000        0.0000000000000000     
  0.53125000000000000       0.25000000000000000        0.0000000000000000     
  0.56250000000000000       0.25000000000000000        0.0000000000000000     
  0.59375000000000000       0.25000000000000000        0.0000000000000000     
  0.62500000000000000       0.25000000000000000        0.0000000000000000     
  0.50000000000000000       0.28125000000000000        0.0000000000000000     
  0.53125000000000000       0.28125000000000000        0.0000000000000000     
  0.56250000000000000       0.28125000000000000        0.0000000000000000     
  0.59375000000000000       0.28125000000000000        0.0000000000000000     
  0.62500000000000000       0.28125000000000000        0.0000000000000000     
  0.50000000000000000       0.31250000000000000        0.0000000000000000     
  0.53125000000000000       0.31250000000000000        0.0000000000000000     
  0.56250000000000000       0.31250000000000000        0.0000000000000000     
  0.59375000000000000       0.31250000000000000        0.0000000000000000     
  0.62500000000000000       0.31250000000000000        0.0000000000000000     
  0.50000000000000000       0.34375000000000000        0.0000000000000000     
  0.53125000000000000       0.34375000000000000        0.0000000000000000     
  0.56250000000000000       0.34375000000000000        0.0000000000000000     
  0.59375000000000000       0.34375000000000000        0.0000000000000000     
  0.62500000000000000       0.34375000000000000        0.0000000000000000     
  0.50000000000000000       0.37500000000000000        0.0000000000000000     
  0.53125000000000000       0.37500000000000000        0.0000000000000000     
  0.56250000000000000       0.37500000000000000        0.0000000000000000     
  0.59375000000000000       0.37500000000000000        0.0000000000000000     
  0.62500000000000000       0.37500000000000000        0.0000000000000000     
  0.62500000000000000       0.25000000000000000        0.0000000000000000     
  0.65625000000000000       0.25000000000000000        0.0000000000000000     
  0.68750000000000000       0.25000000000000000        0.0000000000000000     
  0.71875000000000000       0.25000000000000000        0.0000000000000000     
  0.75000000000000000       0.25000000000000000        0.0000000000000000     
  0.62500000000000000       0.28125000000000000        0.0000000000000000     
  0.65625000000000000       0.28125000000000000        0.0000000000000000     
  0.68750000000000000       0.28125000000000000        0.0000000000000000     
  0.71875000000000000       0.28125000000000000        0.0000000000000000     
  0.75000000000000000       0.28125000000000000        0.0000000000000000     
  0.62500000000000000       0.31250000000000000        0.0000000000000000     
  0.65625000000000000       0.31250000000000000        0.0000000000000000     
  0.68750000000000000       0.31250000000000000        0.0000000000000000     
  0.71875000000000000       0.31250000000000000        0.0000000000000000     
  0.75000000000000000       0.31250000000000000        0.0000000000000000     
  0.62500000000000000       0.34375000000000000        0.0000000000000000     
  0.65625000000000000       0.34375000000000000        0.0000000000000000     
  0.68750000000000000       0.34375000000000000        0.0000000000000000     
  0.71875000000000000       0.34375000000000000        0.0000000000000000     
  0.75000000000000000       0.34375000000000000        0.0000000000000000     
  0.62500000000000000       0.37500000000000000        0.0000000000000000     
  0.65625000000000000       0.37500000000000000        0.0000000000000000     
  0.68750000000000000       0.37500000000000000        0.0000000000000000     
  0.71875000000000000       0.37500000000000000        0.0000000000000000     
  0.75000000000000000       0.37500000000000000        0.0000000000000000     
  0.75000000000000000       0.25000000000000000        0.0000000000000000     
  0.78125000000000000       0.25000000000000000        0.0000000000000000     
  0.81250000000000000       0.25000000000000000        0.0000000000000000     
  0.84375000000000000       0.25000000000000000        0.0000000000000000     
  0.87500000000000000       0.25000000000000000        0.0000000000000000     
  0.75000000000000000       0.28125000000000000        0.0000000000000000     
  0.78125000000000000       0.28125000000000000        0.0000000000000000     
  0.81250000000000000       0.28125000000000000        0.0000000000000000     
  0.84375000000000000       0.28125000000000000        0.0000000000000000     
  0.87500000000000000       0.28125000000000000        0.0000000000000000     
  0.75000000000000000       0.31250000000000000        0.0000000000000000     
  0.78125000000000000       0.31250000000000000        0.0000000000000000     
  0.81250000000000000       0.31250000000000000        0.0000000000000000     
  0.84375000000000000       0.31250000000000000        0.0000000000000000     
  0.87500000000000000       0.31250000000000000        0.0000000000000000     
  0.75000000000000000       0.34375000000000000        0.0000000000000000     
  0.78125000000000000       0.34375000000000000        0.0000000000000000     
  0.81250000000000000       0.34375000000000000        0.0000000000000000     
  0.84375000000000000       0.34375000000000000        0.0000000000000000     
  0.87500000000000000       0.34375000000000000        0.0000000000000000     
  0.75000000000000000       0.37500000000000000        0.0000000000000000     
  0.78125000000000000       0.37500000000000000        0.0000000000000000     
  0.81250000000000000       0.37500000000000000        0.0000000000000000     
  0.84375000000000000       0.37500000000000000        0.0000000000000000     
  0.87500000000000000       0.37500000000000000        0.0000000000000000     
  0.87500000000000000       0.25000000000000000        0.0000000000000000     
  0.90625000000000000       0.25000000000000000        0.0000000000000000     
  0.93750000000000000       0.25000000000000000        0.0000000000000000     
  0.96875000000000000       0.25000000000000000        0.0000000000000000     
   1.0000000000000000       0.25000000000000000        0.0000000000000000     
  0.87500000000000000       0.28125000000000000        0.0000000000000000     
  0.90625000000000000       0.28125000000000000        0.0000000000000000     
  0.93750000000000000       0.28125000000000000        0.0000000000000000     
  0.96875000000000000       0.28125000000000000        0.0000000000000000     
   1.0000000000000000       0.28125000000000000        0.0000000000000000     
  0.87500000000000000       0.31250000000000000        0.0000000000000000     
  0.90625000000000000       0.31250000000000000        0.0000000000000000     
  0.93750000000000000       0.31250000000000000        0.0000000000000000     
  0.96875000000000000       0.31250000000000000        0.0000000000000000     
   1.0000000000000000       0.31250000000000000        0.0000000000000000     
  0.87500000000000000       0.34375000000000000        0.0000000000000000     
  0.90625000000000000       0.34375000000000000        0.0000000000000000     
  0.93750000000000000       0.34375000000000000        0.0000000000000000     
  0.96875000000000000       0.34375000000000000        0.0000000000000000     
   1.0000000000000000       0.34375000000000000        0.0000000000000000     
  0.87500000000000000       0.37500000000000000        0.0000000000000000     
  0.90625000000000000       0.37500000000000000        0.0000000000000000     
  0.93750000000000000       0.37500000000000000        0.0000000000000000     
  0.96875000000000000       0.37500000000000000        0.0000000000000000     
   1.0000000000000000       0.37500000000000000        0.0000000000000000     
   1.0000000000000000       0.25000000000000000        0.0000000000000000     
   1.0312500000000000       0.25000000000000000        0.0000000000000000     
   1.0625000000000000       0.25000000000000000        0.0000000000000000     
   1.0937500000000000       0.25000000000000000        0.0000000000000000     
   1.1250000000000000       0.25000000000000000        0.0000000000000000     
   1.0000000000000000       0.28125000000000000        0.0000000000000000     
   1.0312500000000000       0.28125000000000000        0.0000000000000000     
   1.0625000000000000       0.28125000000000000        0.0000000000000000     
   1.0937500000000000       0.28125000000000000        0.0000000000000000     
   1.1250000000000000       0.28125000000000000        0.0000000000000000     
   1.0000000000000000       0.31250000000000000        0.0000000000000000     
   1.0312500000000000       0.31250000000000000        0.0000000000000000     
   1.0625000000000000       0.31250000000000000        0.0000000000000000     
   1.0937500000000000       0.31250000000000000        0.0000000000000000     
   1.1250000000000000       0.31250000000000000        0.0000000000000000     
   1.0000000000000000       0.34375000000000000        0.0000000000000000     
   1.0312500000000000       0.34375000000000000        0.0000000000000000     
   1.0625000000000000       0.34375000000000000        0.0000000000000000     
   1.0937500000000000       0.34375000000000000        0.0000000000000000     
   1.1250000000000000       0.34375000000000000        0.0000000000000000     
   1.0000000000000000       0.37500000000000000        0.0000000000000000     
   1.0312500000000000       0.37500000000000000        0.0000000000000000     
   1.0625000000000000       0.37500000000000000        0.0000000000000000     
   1.0937500000000000       0.37500000000000000        0.0000000000000000     
   1.1250000000000000       0.37500000000000000        0.0000000000000000     
   1.1250000000000000       0.25000000000000000        0.0000000000000000     
   1.1562500000000000       0.25000000000000000        0.0000000000000000     
   1.1875000000000000       0.25000000000000000        0.0000000000000000     
   1.2187500000000000       0.25000000000000000        0.0000000000000000     
   1.2500000000000000       0.25000000000000000        0.0000000000000000     
   1.1250000000000000       0.28125000000000000        0.0000000000000000     
   1.1562500000000000       0.28125000000000000        0.0000000000000000     
   1.1875000000000000       0.28125000000000000        0.0000000000000000     
   1.2187500000000000       0.28125000000000000        0.0000000000000000     
   1.2500000000000000       0.28125000000000000        0.0000000000000000     
   1.1250000000000000       0.31250000000000000        0.0000000000000000     
   1.1562500000000000       0.31250000000000000        0.0000000000000000     
   1.1875000000000000       0.31250000000000000        0.0000000000000000     
   1.2187500000000000       0.31250000000000000        0.0000000000000000     
   1.2500000000000000       0.31250000000000000        0.0000000000000000     
   1.1250000000000000       0.34375000000000000        0.0000000000000000     
   1.1562500000000000       0.34375000000000000        0.0000000000000000     
   1.1875000000000000       0.34375000000000000        0.0000000000000000     
   1.2187500000000000       0.34375000000000000        0.0000000000000000     
   1.2500000000000000       0.34375000000000000        0.0000000000000000     
   1.1250000000000000       0.37500000000000000        0.0000000000000000     
   1.1562500000000000       0.37500000000000000        0.0000000000000000     
   1.1875000000000000       0.37500000000000000        0.0000000000000000     
   1.2187500000000000       0.37500000000000000        0.0000000000000000     
   1.2500000000000000       0.37500000000000000        0.0000000000000000     
   1.2500000000000000       0.25000000000000000        0.0000000000000000     
   1.2812500000000000       0.25000000000000000        0.0000000000000000     
   1.3125000000000000       0.25000000000000000        0.0000000000000000     
   1.3437500000000000       0.25000000000000000        0.0000000000000000     
   1.3750000000000000       0.25000000000000000        0.0000000000000000     
   1.2500000000000000       0.28125000000000000        0.0000000000000000     
   1.2812500000000000       0.28125000000000000        0.0000000000000000     
   1.3125000000000000       0.28125000000000000        0.0000000000000000     
   1.3437500000000000       0.28125000000000000        0.0000000000000000     
   1.3750000000000000       0.28125000000000000        0.0000000000000000     
   1.2500000000000000       0.31250000000000000        0.0000000000000000     
   1.2812500000000000       0.31250000000000000        0.0000000000000000     
   1.3125000000000000       0.31250000000000000        0.0000000000000000     
   1.3437500000000000       0.31250000000000000        0.0000000000000000     
   1.3750000000000000       0.31250000000000000        0.0000000000000000     
   1.2500000000000000       0.34375000000000000        0.0000000000000000     
   1.2812500000000000       0.34375000000000000        0.0000000000000000     
   1.3125000000000000       0.34375000000000000        0.0000000000000000     
   1.3437500000000000       0.34375000000000000        0.0000000000000000     
   1.3750000000000000       0.34375000000000000        0.0000000000000000     
   1.2500000000000000       0.37500000000000000        0.0000000000000000     
   1.2812500000000000       0.37500000000000000        0.0000000000000000     
   1.3125000000000000       0.37500000000000000        0.0000000000000000     
   1.3437500000000000       0.37500000000000000        0.0000000000000000     
   1.3750000000000000       0.37500000000000000        0.0000000000000000     
   1.3750000000000000       0.25000000000000000        0.0000000000000000     
   1.4062500000000000       0.25000000000000000        0.0000000000000000     
   1.4375000000000000       0.25000000000000000        0.0000000000000000     
   1.4687500000000000       0.25000000000000000        0.0000000000000000     
   1.5000000000000000       0.25000000000000000        0.0000000000000000     
   1.3750000000000000       0.28125000000000000        0.0000000000000000     
   1.4062500000000000       0.28125000000000000        0.0000000000000000     
   1.4375000000000000       0.28125000000000000        0.0000000000000000     
   1.4687500000000000       0.28125000000000000        0.0000000000000000     
   1.5000000000000000       0.28125000000000000        0.0000000000000000     
   1.3750000000000000       0.31250000000000000        0.0000000000000000     
   1.4062500000000000       0.31250000000000000        0.0000000000000000     
   1.4375000000000000       0.31250000000000000        0.0000000000000000     
   1.4687500000000000       0.31250000000000000        0.0000000000000000     
   1.5000000000000000       0.31250000000000000        0.0000000000000000     
   1.3750000000000000       0.34375000000000000        0.0000000000000000     
   1.4062500000000000       0.34375000000000000        0.0000000000000000     
   1.4375000000000000       0.34375000000000000        0.0000000000000000     
   1.4687500000000000       0.34375000000000000        0.0000000000000000     
   1.5000000000000000       0.34375000000000000        0.0000000000000000     
   1.3750000000000000       0.37500000000000000        0.0000000000000000     
   1.4062500000000000       0.37500000000000000        0.0000000000000000     
   1.4375000000000000       0.37500000000000000        0.0000000000000000     
   1.4687500000000000       0.37500000000000000        0.0000000000000000     
   1.5000000000000000       0.37500000000000000        0.0000000000000000     
  0.50000000000000000       0.37500000000000000        0.0000000000000000     
  0.53125000000000000       0.37500000000000000        0.0000000000000000     
  0.56250000000000000       0.37500000000000000        0.0000000000000000     
  0.59375000000000000       0.37500000000000000        0.0000000000000000     
  0.62500000000000000       0.37500000000000000        0.0000000000000000     
  0.50000000000000000       0.40625000000000000        0.0000000000000000     
  0.53125000000000000       0.40625000000000000        0.0000000000000000     
  0.56250000000000000       0.40625000000000000        0.0000000000000000     
  0.59375000000000000       0.40625000000000000        0.0000000000000000     
  0.62500000000000000       0.40625000000000000        0.0000000000000000     
  0.50000000000000000       0.43750000000000000        0.0000000000000000     
  0.53125000000000000       0.43750000000000000        0.0000000000000000     
  0.56250000000000000       0.43750000000000000        0.0000000000000000     
  0.59375000000000000       0.43750000000000000        0.0000000000000000     
  0.62500000000000000       0.43750000000000000        0.0000000000000000     
  0.50000000000000000       0.46875000000000000        0.0000000000000000     
  0.53125000000000000       0.46875000000000000        0.0000000000000000     
  0.56250000000000000       0.46875000000000000        0.0000000000000000     
  0.59375000000000000       0.46875000000000000        0.0000000000000000     
  0.62500000000000000       0.46875000000000000        0.0000000000000000     
  0.50000000000000000       0.50000000000000000        0.0000000000000000     
  0.53125000000000000       0.50000000000000000        0.0000000000000000     
  0.56250000000000000       0.50000000000000000        0.0000000000000000     
  0.59375000000000000       0.50000000000000000        0.0000000000000000     
  0.62500000000000000       0.50000000000000000        0.0000000000000000     
  0.62500000000000000       0.37500000000000000        0.0000000000000000     
  0.65625000000000000       0.37500000000000000        0.0000000000000000     
  0.68750000000000000       0.37500000000000000        0.0000000000000000     
  0.71875000000000000       0.37500000000000000        0.0000000000000000     
  0.75000000000000000       0.37500000000000000        0.0000000000000000     
  0.62500000000000000       0.40625000000000000        0.0000000000000000     
  0.65625000000000000       0.40625000000000000        0.0000000000000000     
  0.68750000000000000       0.40625000000000000        0.0000000000000000     
  0.71875000000000000       0.40625000000000000        0.0000000000000000     
  0.75000000000000000       0.40625000000000000        0.0000000000000000     
  0.62500000000000000       0.43750000000000000        0.0000000000000000     
  0.65625000000000000       0.43750000000000000        0.0000000000000000     
  0.68750000000000000       0.43750000000000000        0.0000000000000000     
  0.71875000000000000       0.43750000000000000        0.0000000000000000     
  0.75000000000000000       0.43750000000000000        0.0000000000000000     
  0.62500000000000000       0.46875000000000000        0.0000000000000000     
  0.65625000000000000       0.46875000000000000        0.0000000000000000     
  0.68750000000000000       0.46875000000000000        0.0000000000000000     
  0.71875000000000000       0.46875000000000000        0.0000000000000000     
  0.75000000000000000       0.46875000000000000        0.0000000000000000     
  0.62500000000000000       0.50000000000000000        0.0000000000000000     
  0.65625000000000000       0.50000000000000000        0.0000000000000000     
  0.68750000000000000       0.50000000000000000        0.0000000000000000     
  0.71875000000000000       0.50000000000000000        0.0000000000000000     
  0.75000000000000000       0.50000000000000000        0.0000000000000000     
  0.75000000000000000       0.37500000000000000        0.0000000000000000     
  0.78125000000000000       0.37500000000000000        0.0000000000000000     
  0.81250000000000000       0.37500000000000000        0.0000000000000000     
  0.84375000000000000       0.37500000000000000        0.0000000000000000     
  0.87500000000000000       0.37500000000000000        0.0000000000000000     
  0.75000000000000000       0.40625000000000000        0.0000000000000000     
  0.78125000000000000       0.40625000000000000        0.0000000000000000     
  0.81250000000000000       0.40625000000000000        0.0000000000000000     
  0.84375000000000000       0.40625000000000000        0.0000000000000000     
  0.87500000000000000       0.40625000000000000        0.0000000000000000     
  0.75000000000000000       0.43750000000000000        0.0000000000000000     
  0.78125000000000000       0.43750000000000000        0.0000000000000000     
  0.81250000000000000       0.43750000000000000        0.0000000000000000     
  0.84375000000000000       0.43750000000000000        0.0000000000000000     
  0.87500000000000000       0.43750000000000000        0.0000000000000000     
  0.75000000000000000       0.46875000000000000        0.0000000000000000     
  0.78125000000000000       0.46875000000000000        0.0000000000000000     
  0.81250000000000000       0.46875000000000000        0.0000000000000000     
  0.84375000000000000       0.46875000000000000        0.0000000000000000     
  0.87500000000000000       0.46875000000000000        0.0000000000000000     
  0.75000000000000000       0.50000000000000000        0.0000000000000000     
  0.78125000000000000       0.50000000000000000        0.0000000000000000     
  0.81250000000000000       0.50000000000000000        0.0000000000000000     
  0.84375000000000000       0.50000000000000000        0.0000000000000000     
  0.87500000000000000       0.50000000000000000        0.0000000000000000     
  0.87500000000000000       0.37500000000000000        0.0000000000000000     
  0.90625000000000000       0.37500000000000000        0.0000000000000000     
  0.93750000000000000       0.37500000000000000        0.0000000000000000     
  0.96875000000000000       0.37500000000000000        0.0000000000000000     
   1.0000000000000000       0.37500000000000000        0.0000000000000000     
  0.87500000000000000       0.40625000000000000        0.0000000000000000     
  0.90625000000000000       0.40625000000000000        0.0000000000000000     
  0.93750000000000000       0.40625000000000000        0.0000000000000000     
  0.96875000000000000       0.40625000000000000        0.0000000000000000     
   1.0000000000000000       0.40625000000000000        0.0000000000000000     
  0.87500000000000000       0.43750000000000000        0.0000000000000000     
  0.90625000000000000       0.43750000000000000        0.0000000000000000     
  0.93750000000000000       0.43750000000000000        0.0000000000000000     
  0.96875000000000000       0.43750000000000000        0.0000000000000000     
   1.0000000000000000       0.43750000000000000        0.0000000000000000     
  0.87500000000000000       0.46875000000000000        0.0000000000000000     
  0.90625000000000000       0.46875000000000000        0.0000000000000000     
  0.93750000000000000       0.46875000000000000        0.0000000000000000     
  0.96875000000000000       0.46875000000000000        0.0000000000000000     
   1.0000000000000000       0.46875000000000000        0.0000000000000000     
  0.87500000000000000       0.50000000000000000        0.0000000000000000     
  0.90625000000000000       0.50000000000000000        0.0000000000000000     
  0.93750000000000000       0.50000000000000000        0.0000000000000000     
  0.96875000000000000       0.50000000000000000        0.0000000000000000     
   1.0000000000000000       0.50000000000000000        0.0000000000000000     
   1.0000000000000000       0.37500000000000000        0.0000000000000000     
   1.0312500000000000       0.37500000000000000        0.0000000000000000     
   1.0625000000000000       0.37500000000000000        0.0000000000000000     
   1.0937500000000000       0.37500000000000000        0.0000000000000000     
   1.1250000000000000       0.37500000000000000        0.0000000000000000     
   1.0000000000000000       0.40625000000000000        0.0000000000000000     
   1.0312500000000000       0.40625000000000000        0.0000000000000000     
   1.0625000000000000       0.40625000000000000        0.0000000000000000     
   1.0937500000000000       0.40625000000000000        0.0000000000000000     
   1.1250000000000000       0.40625000000000000        0.0000000000000000     
   1.0000000000000000       0.43750000000000000        0.0000000000000000     
   1.0312500000000000       0.43750000000000000        0.0000000000000000     
   1.0625000000000000       0.43750000000000000        0.0000000000000000     
   1.0937500000000000       0.43750000000000000        0.0000000000000000     
   1.1250000000000000       0.43750000000000000        0.0000000000000000     
   1.0000000000000000       0.46875000000000000        0.0000000000000000     
   1.0312500000000000       0.46875000000000000        0.0000000000000000     
   1.0625000000000000       0.46875000000000000        0.0000000000000000     
   1.0937500000000000       0.46875000000000000        0.0000000000000000     
   1.1250000000000000       0.46875000000000000        0.0000000000000000     
   1.0000000000000000       0.50000000000000000        0.0000000000000000     
   1.0312500000000000       0.50000000000000000        0.0000000000000000     
   1.0625000000000000       0.50000000000000000        0.0000000000000000     
   1.0937500000000000       0.50000000000000000        0.0000000000000000     
   1.1250000000000000       0.50000000000000000        0.0000000000000000     
   1.1250000000000000       0.37500000000000000        0.0000000000000000     
   1.1562500000000000       0.37500000000000000        0.0000000000000000     
   1.1875000000000000       0.37500000000000000        0.0000000000000000     
   1.2187500000000000       0.37500000000000000        0.0000000000000000     
   1.2500000000000000       0.37500000000000000        0.0000000000000000     
   1.1250000000000000       0.40625000000000000        0.0000000000000000     
   1.1562500000000000       0.40625000000000000        0.0000000000000000     
   1.1875000000000000       0.40625000000000000        0.0000000000000000     
   1.2187500000000000       0.40625000000000000        0.0000000000000000     
   1.2500000000000000       0.40625000000000000        0.0000000000000000     
   1.1250000000000000       0.43750000000000000        0.0000000000000000     
   1.1562500000000000       0.43750000000000000        0.0000000000000000     
   1.1875000000000000       0.43750000000000000        0.0000000000000000     
   1.2187500000000000       0.43750000000000000        0.0000000000000000     
   1.2500000000000000       0.43750000000000000        0.0000000000000000     
   1.1250000000000000       0.46875000000000000        0.0000000000000000     
   1.1562500000000000       0.46875000000000000        0.0000000000000000     
   1.1875000000000000       0.46875000000000000        0.0000000000000000     
   1.2187500000000000       0.46875000000000000        0.0000000000000000     
   1.2500000000000000       0.46875000000000000        0.0000000000000000     
   1.1250000000000000       0.50000000000000000        0.0000000000000000     
   1.1562500000000000       0.50000000000000000        0.0000000000000000     
   1.1875000000000000       0.50000000000000000        0.0000000000000000     
   1.2187500000000000       0.50000000000000000        0.0000000000000000     
   1.2500000000000000       0.50000000000000000        0.0000000000000000     
   1.2500000000000000       0.37500000000000000        0.0000000000000000     
   1.2812500000000000       0.37500000000000000        0.0000000000000000     
   1.3125000000000000       0.37500000000000000        0.0000000000000000     
   1.3437500000000000       0.37500000000000000        0.0000000000000000     
   1.3750000000000000       0.37500000000000000        0.0000000000000000     
   1.2500000000000000       0.40625000000000000        0.0000000000000000     
   1.2812500000000000       0.40625000000000000        0.0000000000000000     
   1.3125000000000000       0.40625000000000000        0.0000000000000000     
   1.3437500000000000       0.40625000000000000        0.0000000000000000     
   1.3750000000000000       0.40625000000000000        0.0000000000000000     
   1.2500000000000000       0.43750000000000000        0.0000000000000000     
   1.2812500000000000       0.43750000000000000        0.0000000000000000     
   1.3125000000000000       0.43750000000000000        0.0000000000000000     
   1.3437500000000000       0.43750000000000000        0.0000000000000000     
   1.3750000000000000       0.43750000000000000        0.0000000000000000     
   1.2500000000000000       0.46875000000000000        0.0000000000000000     
   1.2812500000000000       0.46875000000000000        0.0000000000000000     
   1.3125000000000000       0.46875000000000000        0.0000000000000000     
   1.3437500000000000       0.46875000000000000        0.0000000000000000     
   1.3750000000000000       0.46875000000000000        0.0000000000000000     
   1.2500000000000000       0.50000000000000000        0.0000000000000000     
   1.2812500000000000       0.50000000000000000        0.0000000000000000     
   1.3125000000000000       0.50000000000000000        0.0000000000000000     
   1.3437500000000000       0.50000000000000000        0.0000000000000000     
   1.3750000000000000       0.50000000000000000        0.0000000000000000     
   1.3750000000000000       0.37500000000000000        0.0000000000000000     
   1.4062500000000000       0.37500000000000000        0.0000000000000000     
   1.4375000000000000       0.37500000000000000        0.0000000000000000     
   1.4687500000000000       0.37500000000000000        0.0000000000000000     
   1.5000000000000000       0.37500000000000000        0.0000000000000000     
   1.3750000000000000       0.40625000000000000        0.0000000000000000     
   1.4062500000000000       0.40625000000000000        0.0000000000000000     
   1.4375000000000000       0.40625000000000000        0.0000000000000000     
   1.4687500000000000       0.40625000000000000        0.0000000000000000     
   1.5000000000000000       0.40625000000000000        0.0000000000000000     
   1.3750000000000000       0.43750000000000000        0.0000000000000000     
   1.4062500000000000       0.43750000000000000        0.0000000000000000     
   1.4375000000000000       0.43750000000000000        0.0000000000000000     
   1.4687500000000000       0.43750000000000000        0.0000000000000000     
   1.5000000000000000       0.43750000000000000        0.0000000000000000     
   1.3750000000000000       0.46875000000000000        0.0000000000000000     
   1.4062500000000000       0.46875000000000000        0.0000000000000000     
   1.4375000000000000       0.46875000000000000        0.0000000000000000     
   1.4687500000000000       0.46875000000000000        0.0000000000000000     
   1.5000000000000000       0.46875000000000000        0.0000000000000000     
   1.3750000000000000       0.50000000000000000        0.0000000000000000     
   1.4062500000000000       0.50000000000000000        0.0000000000000000     
   1.4375000000000000       0.50000000000000000        0.0000000000000000     
   1.4687500000000000       0.50000000000000000        0.0000000000000000     
   1.5000000000000000       0.50000000000000000        0.0000000000000000     
  0.50000000000000000       0.50000000000000000        0.0000000000000000     
  0.53125000000000000       0.50000000000000000        0.0000000000000000     
  0.56250000000000000       0.50000000000000000        0.0000000000000000     
  0.59375000000000000       0.50000000000000000        0.0000000000000000     
  0.62500000000000000       0.50000000000000000        0.0000000000000000     
  0.50000000000000000       0.53125000000000000        0.0000000000000000     
  0.53125000000000000       0.53125000000000000        0.0000000000000000     
  0.56250000000000000       0.53125000000000000        0.0000000000000000     
  0.59375000000000000       0.53125000000000000        0.0000000000000000     
  0.62500000000000000       0.53125000000000000        0.0000000000000000     
  0.50000000000000000       0.56250000000000000        0.0000000000000000     
  0.53125000000000000       0.56250000000000000        0.0000000000000000     
  0.56250000000000000       0.56250000000000000        0.0000000000000000     
  0.59375000000000000       0.56250000000000000        0.0000000000000000     
  0.62500000000000000       0.56250000000000000        0.0000000000000000     
  0.50000000000000000       0.59375000000000000        0.0000000000000000     
  0.53125000000000000       0.59375000000000000        0.0000000000000000     
  0.56250000000000000       0.59375000000000000        0.0000000000000000     
  0.59375000000000000       0.59375000000000000        0.0000000000000000     
  0.62500000000000000       0.59375000000000000        0.0000000000000000     
  0.50000000000000000       0.62500000000000000        0.0000000000000000     
  0.53125000000000000       0.62500000000000000        0.0000000000000000     
  0.56250000000000000       0.62500000000000000        0.0000000000000000     
  0.59375000000000000       0.62500000000000000        0.0000000000000000     
  0.62500000000000000       0.62500000000000000        0.0000000000000000     
  0.62500000000000000       0.50000000000000000        0.0000000000000000     
  0.65625000000000000       0.50000000000000000        0.0000000000000000     
  0.68750000000000000       0.50000000000000000        0.0000000000000000     
  0.71875000000000000       0.50000000000000000        0.0000000000000000     
  0.75000000000000000       0.50000000000000000        0.0000000000000000     
  0.62500000000000000       0.53125000000000000        0.0000000000000000     
  0.65625000000000000       0.53125000000000000        0.0000000000000000     
  0.68750000000000000       0.53125000000000000        0.0000000000000000     
  0.71875000000000000       0.53125000000000000        0.0000000000000000     
  0.75000000000000000       0.53125000000000000        0.0000000000000000     
  0.62500000000000000       0.56250000000000000        0.0000000000000000     
  0.65625000000000000       0.56250000000000000        0.0000000000000000     
  0.68750000000000000       0.56250000000000000        0.0000000000000000     
  0.71875000000000000       0.56250000000000000        0.0000000000000000     
  0.75000000000000000       0.56250000000000000        0.0000000000000000     
  0.62500000000000000       0.59375000000000000        0.0000000000000000     
  0.65625000000000000       0.59375000000000000        0.0000000000000000     
  0.68750000000000000       0.59375000000000000        0.0000000000000000     
  0.71875000000000000       0.59375000000000000        0.0000000000000000     
  0.75000000000000000       0.59375000000000000        0.0000000000000000     
  0.62500000000000000       0.62500000000000000        0.0000000000000000     
  0.65625000000000000       0.62500000000000000        0.0000000000000000     
  0.68750000000000000       0.62500000000000000        0.0000000000000000     
  0.71875000000000000       0.62500000000000000        0.0000000000000000     
  0.75000000000000000       0.62500000000000000        0.0000000000000000     
  0.75000000000000000       0.50000000000000000        0.0000000000000000     
  0.78125000000000000       0.50000000000000000        0.0000000000000000     
  0.81250000000000000       0.50000000000000000        0.0000000000000000     
  0.84375000000000000       0.50000000000000000        0.0000000000000000     
  0.87500000000000000       0.50000000000000000        0.0000000000000000     
  0.75000000000000000       0.53125000000000000        0.0000000000000000     
  0.78125000000000000       0.53125000000000000        0.0000000000000000     
  0.81250000000000000       0.53125000000000000        0.0000000000000000     
  0.84375000000000000       0.53125000000000000        0.0000000000000000     
  0.87500000000000000       0.53125000000000000        0.0000000000000000     
  0.75000000000000000       0.56250000000000000        0.0000000000000000     
  0.78125000000000000       0.56250000000000000        0.0000000000000000     
  0.81250000000000000       0.56250000000000000        0.0000000000000000     
  0.84375000000000000       0.56250000000000000        0.0000000000000000     
  0.87500000000000000       0.56250000000000000        0.0000000000000000     
  0.75000000000000000       0.59375000000000000        0.0000000000000000     
  0.78125000000000000       0.59375000000000000        0.0000000000000000     
  0.81250000000000000       0.59375000000000000        0.0000000000000000     
  0.84375000000000000       0.59375000000000000        0.0000000000000000     
  0.87500000000000000       0.59375000000000000        0.0000000000000000     
  0.75000000000000000       0.62500000000000000        0.0000000000000000     
  0.78125000000000000       0.62500000000000000        0.0000000000000000     
  0.81250000000000000       0.62500000000000000        0.0000000000000000     
  0.84375000000000000       0.62500000000000000        0.0000000000000000     
  0.87500000000000000       0.62500000000000000        0.0000000000000000     
  0.87500000000000000       0.50000000000000000        0.0000000000000000     
  0.90625000000000000       0.50000000000000000        0.0000000000000000     
  0.93750000000000000       0.50000000000000000        0.0000000000000000     
  0.96875000000000000       0.50000000000000000        0.0000000000000000     
   1.0000000000000000       0.50000000000000000        0.0000000000000000     
  0.87500000000000000       0.53125000000000000        0.0000000000000000     
  0.90625000000000000       0.53125000000000000        0.0000000000000000     
  0.93750000000000000       0.53125000000000000        0.0000000000000000     
  0.96875000000000000       0.53125000000000000        0.0000000000000000     
   1.0000000000000000       0.53125000000000000        0.0000000000000000     
  0.87500000000000000       0.56250000000000000        0.0000000000000000     
  0.90625000000000000       0.56250000000000000        0.0000000000000000     
  0.93750000000000000       0.56250000000000000        0.0000000000000000     
  0.96875000000000000       0.56250000000000000        0.0000000000000000     
   1.0000000000000000       0.56250000000000000        0.0000000000000000     
  0.87500000000000000       0.59375000000000000        0.0000000000000000     
  0.90625000000000000       0.59375000000000000        0.0000000000000000     
  0.93750000000000000       0.59375000000000000        0.0000000000000000     
  0.96875000000000000       0.59375000000000000        0.0000000000000000     
   1.0000000000000000       0.59375000000000000        0.0000000000000000     
  0.87500000000000000       0.62500000000000000        0.0000000000000000     
  0.90625000000000000       0.62500000000000000        0.0000000000000000     
  0.93750000000000000       0.62500000000000000        0.0000000000000000     
  0.96875000000000000       0.62500000000000000        0.0000000000000000     
   1.0000000000000000       0.62500000000000000        0.0000000000000000     
   1.0000000000000000       0.50000000000000000        0.0000000000000000     
   1.0312500000000000       0.50000000000000000        0.0000000000000000     
   1.0625000000000000       0.50000000000000000        0.0000000000000000     
   1.0937500000000000       0.50000000000000000        0.0000000000000000     
   1.1250000000000000       0.50000000000000000        0.0000000000000000     
   1.0000000000000000       0.53125000000000000        0.0000000000000000     
   1.0312500000000000       0.53125000000000000        0.0000000000000000     
   1.0625000000000000       0.53125000000000000        0.0000000000000000     
   1.0937500000000000       0.53125000000000000        0.0000000000000000     
   1.1250000000000000       0.53125000000000000        0.0000000000000000     
   1.0000000000000000       0.56250000000000000        0.0000000000000000     
   1.0312500000000000       0.56250000000000000        0.0000000000000000     
   1.0625000000000000       0.56250000000000000        0.0000000000000000     
   1.0937500000000000       0.56250000000000000        0.0000000000000000     
   1.1250000000000000       0.56250000000000000        0.0000000000000000     
   1.0000000000000000       0.59375000000000000        0.0000000000000000     
   1.0312500000000000       0.59375000000000000        0.0000000000000000     
   1.0625000000000000       0.59375000000000000        0.0000000000000000     
   1.0937500000000000       0.59375000000000000        0.0000000000000000     
   1.1250000000000000       0.59375000000000000        0.0000000000000000     
   1.0000000000000000       0.62500000000000000        0.0000000000000000     
   1.0312500000000000       0.62500000000000000        0.0000000000000000     
   1.0625000000000000       0.62500000000000000        0.0000000000000000     
   1.0937500000000000       0.62500000000000000        0.0000000000000000     
   1.1250000000000000       0.62500000000000000        0.0000000000000000     
   1.1250000000000000       0.50000000000000000        0.0000000000000000     
   1.1562500000000000       0.50000000000000000        0.0000000000000000     
   1.1875000000000000       0.50000000000000000        0.0000000000000000     
   1.2187500000000000       0.50000000000000000        0.0000000000000000     
   1.2500000000000000       0.50000000000000000        0.0000000000000000     
   1.1250000000000000       0.53125000000000000        0.0000000000000000     
   1.1562500000000000       0.53125000000000000        0.0000000000000000     
   1.1875000000000000       0.53125000000000000        0.0000000000000000     
   1.2187500000000000       0.53125000000000000        0.0000000000000000     
   1.2500000000000000       0.53125000000000000        0.0000000000000000     
   1.1250000000000000       0.56250000000000000        0.0000000000000000     
   1.1562500000000000       0.56250000000000000        0.0000000000000000     
   1.1875000000000000       0.56250000000000000        0.0000000000000000     
   1.2187500000000000       0.56250000000000000        0.0000000000000000     
   1.2500000000000000       0.56250000000000000        0.0000000000000000     
   1.1250000000000000       0.59375000000000000        0.0000000000000000     
   1.1562500000000000       0.59375000000000000        0.0000000000000000     
   1.1875000000000000       0.59375000000000000        0.0000000000000000     
   1.2187500000000000       0.59375000000000000        0.0000000000000000     
   1.2500000000000000       0.59375000000000000        0.0000000000000000     
   1.1250000000000000       0.62500000000000000        0.0000000000000000     
   1.1562500000000000       0.62500000000000000        0.0000000000000000     
   1.1875000000000000       0.62500000000000000        0.0000000000000000     
   1.2187500000000000       0.62500000000000000        0.0000000000000000     
   1.2500000000000000       0.62500000000000000        0.0000000000000000     
   1.2500000000000000       0.50000000000000000        0.0000000000000000     
   1.2812500000000000       0.50000000000000000        0.0000000000000000     
   1.3125000000000000       0.50000000000000000        0.0000000000000000     
   1.3437500000000000       0.50000000000000000        0.0000000000000000     
   1.3750000000000000       0.50000000000000000        0.0000000000000000     
   1.2500000000000000       0.53125000000000000        0.0000000000000000     
   1.2812500000000000       0.53125000000000000        0.0000000000000000     
   1.3125000000000000       0.53125000000000000        0.0000000000000000     
   1.3437500000000000       0.53125000000000000        0.0000000000000000     
   1.3750000000000000       0.53125000000000000        0.0000000000000000     
   1.2500000000000000       0.56250000000000000        0.0000000000000000     
   1.2812500000000000       0.56250000000000000        0.0000000000000000     
   1.3125000000000000       0.56250000000000000        0.0000000000000000     
   1.3437500000000000       0.56250000000000000        0.0000000000000000     
   1.3750000000000000       0.56250000000000000        0.0000000000000000     
   1.2500000000000000       0.59375000000000000        0.0000000000000000     
   1.2812500000000000       0.59375000000000000        0.0000000000000000     
   1.3125000000000000       0.59375000000000000        0.0000000000000000     
   1.3437500000000000       0.59375000000000000        0.0000000000000000     
   1.3750000000000000       0.59375000000000000        0.0000000000000000     
   1.2500000000000000       0.62500000000000000        0.0000000000000000     
   1.2812500000000000       0.62500000000000000        0.0000000000000000     
   1.3125000000000000       0.62500000000000000        0.0000000000000000     
   1.3437500000000000       0.62500000000000000        0.0000000000000000     
   1.3750000000000000       0.62500000000000000        0.0000000000000000     
   1.3750000000000000       0.50000000000000000        0.0000000000000000     
   1.4062500000000000       0.50000000000000000        0.0000000000000000     
   1.4375000000000000       0.50000000000000000        0.0000000000000000     
   1.4687500000000000       0.50000000000000000        0.0000000000000000     
   1.5000000000000000       0.50000000000000000        0.0000000000000000     
   1.3750000000000000       0.53125000000000000        0.0000000000000000     
   1.4062500000000000       0.53125000000000000        0.0000000000000000     
   1.4375000000000000       0.53125000000000000        0.0000000000000000     
   1.4687500000000000       0.53125000000000000        0.0000000000000000     
   1.5000000000000000       0.53125000000000000        0.0000000000000000     
   1.3750000000000000       0.56250000000000000        0.0000000000000000     
   1.4062500000000000       0.56250000000000000        0.0000000000000000     
   1.4375000000000000       0.56250000000000000        0.0000000000000000     
   1.4687500000000000       0.56250000000000000        0.0000000000000000     
   1.5000000000000000       0.56250000000000000        0.0000000000000000     
   1.3750000000000000       0.59375000000000000        0.0000000000000000     
   1.4062500000000000       0.59375000000000000        0.0000000000000000     
   1.4375000000000000       0.59375000000000000        0.0000000000000000     
   1.4687500000000000       0.59375000000000000        0.0000000000000000     
   1.5000000000000000       0.59375000000000000        0.0000000000000000     
   1.3750000000000000       0.62500000000000000        0.0000000000000000     
   1.4062500000000000       0.62500000000000000        0.0000000000000000     
   1.4375000000000000       0.62500000000000000        0.0000000000000000     
   1.4687500000000000       0.62500000000000000        0.0000000000000000     
   1.5000000000000000       0.62500000000000000        0.0000000000000000     
  0.50000000000000000       0.62500000000000000        0.0000000000000000     
  0.53125000000000000       0.62500000000000000        0.0000000000000000     
  0.56250000000000000       0.62500000000000000        0.0000000000000000     
  0.59375000000000000       0.62500000000000000        0.0000000000000000     
  0.62500000000000000       0.62500000000000000        0.0000000000000000     
  0.50000000000000000       0.65625000000000000        0.0000000000000000     
  0.53125000000000000       0.65625000000000000        0.0000000000000000     
  0.56250000000000000       0.65625000000000000        0.0000000000000000     
  0.59375000000000000       0.65625000000000000        0.0000000000000000     
  0.62500000000000000       0.65625000000000000        0.0000000000000000     
  0.50000000000000000       0.68750000000000000        0.0000000000000000     
  0.53125000000000000       0.68750000000000000        0.0000000000000000     
  0.56250000000000000       0.68750000000000000        0.0000000000000000     
  0.59375000000000000       0.68750000000000000        0.0000000000000000     
  0.62500000000000000       0.68750000000000000        0.0000000000000000     
  0.50000000000000000       0.71875000000000000        0.0000000000000000     
  0.53125000000000000       0.71875000000000000        0.0000000000000000     
  0.56250000000000000       0.71875000000000000        0.0000000000000000     
  0.59375000000000000       0.71875000000000000        0.0000000000000000     
  0.62500000000000000       0.71875000000000000        0.0000000000000000     
  0.50000000000000000       0.75000000000000000        0.0000000000000000     
  0.53125000000000000       0.75000000000000000        0.0000000000000000     
  0.56250000000000000       0.75000000000000000        0.0000000000000000     
  0.59375000000000000       0.75000000000000000        0.0000000000000000     
  0.62500000000000000       0.75000000000000000        0.0000000000000000     
  0.62500000000000000       0.62500000000000000        0.0000000000000000     
  0.65625000000000000       0.62500000000000000        0.0000000000000000     
  0.68750000000000000       0.62500000000000000        0.0000000000000000     
  0.71875000000000000       0.62500000000000000        0.0000000000000000     
  0.75000000000000000       0.62500000000000000        0.0000000000000000     
  0.62500000000000000       0.65625000000000000        0.0000000000000000     
  0.65625000000000000       0.65625000000000000        0.0000000000000000     
  0.68750000000000000       0.65625000000000000        0.0000000000000000     
  0.71875000000000000       0.65625000000000000        0.0000000000000000     
  0.75000000000000000       0.65625000000000000        0.0000000000000000     
  0.62500000000000000       0.68750000000000000        0.0000000000000000     
  0.65625000000000000       0.68750000000000000        0.0000000000000000     
  0.68750000000000000       0.68750000000000000        0.0000000000000000     
  0.71875000000000000       0.68750000000000000        0.0000000000000000     
  0.75000000000000000       0.68750000000000000        0.0000000000000000     
  0.62500000000000000       0.71875000000000000        0.0000000000000000     
  0.65625000000000000       0.71875000000000000        0.0000000000000000     
  0.68750000000000000       0.71875000000000000        0.0000000000000000     
  0.71875000000000000       0.71875000000000000        0.0000000000000000     
  0.75000000000000000       0.71875000000000000        0.0000000000000000     
  0.62500000000000000       0.75000000000000000        0.0000000000000000     
  0.65625000000000000       0.75000000000000000        0.0000000000000000     
  0.68750000000000000       0.75000000000000000        0.0000000000000000     
  0.71875000000000000       0.75000000000000000        0.0000000000000000     
  0.75000000000000000       0.75000000000000000        0.0000000000000000     
  0.75000000000000000       0.62500000000000000        0.0000000000000000     
  0.78125000000000000       0.62500000000000000        0.0000000000000000     
  0.81250000000000000       0.62500000000000000        0.0000000000000000     
  0.84375000000000000       0.62500000000000000        0.0000000000000000     
  0.87500000000000000       0.62500000000000000        0.0000000000000000     
  0.75000000000000000       0.65625000000000000        0.0000000000000000     
  0.78125000000000000       0.65625000000000000        0.0000000000000000     
  0.81250000000000000       0.65625000000000000        0.0000000000000000     
  0.84375000000000000       0.65625000000000000        0.0000000000000000     
  0.87500000000000000       0.65625000000000000        0.0000000000000000     
  0.75000000000000000       0.68750000000000000        0.0000000000000000     
  0.78125000000000000       0.68750000000000000        0.0000000000000000     
  0.81250000000000000       0.68750000000000000        0.0000000000000000     
  0.84375000000000000       0.68750000000000000        0.0000000000000000     
  0.87500000000000000       0.68750000000000000        0.0000000000000000     
  0.75000000000000000       0.71875000000000000        0.0000000000000000     
  0.78125000000000000       0.71875000000000000        0.0000000000000000     
  0.81250000000000000       0.71875000000000000        0.0000000000000000     
  0.84375000000000000       0.71875000000000000        0.0000000000000000     
  0.87500000000000000       0.71875000000000000        0.0000000000000000     
  0.75000000000000000       0.75000000000000000        0.0000000000000000     
  0.78125000000000000       0.75000000000000000        0.0000000000000000     
  0.81250000000000000       0.75000000000000000        0.0000000000000000     
  0.84375000000000000       0.75000000000000000        0.0000000000000000     
  0.87500000000000000       0.75000000000000000        0.0000000000000000     
  0.87500000000000000       0.62500000000000000        0.0000000000000000     
  0.90625000000000000       0.62500000000000000        0.0000000000000000     
  0.93750000000000000       0.62500000000000000        0.0000000000000000     
  0.96875000000000000       0.62500000000000000        0.0000000000000000     
   1.0000000000000000       0.62500000000000000        0.0000000000000000     
  0.87500000000000000       0.65625000000000000        0.0000000000000000     
  0.90625000000000000       0.65625000000000000        0.0000000000000000     
  0.93750000000000000       0.65625000000000000        0.0000000000000000     
  0.96875000000000000       0.65625000000000000        0.0000000000000000     
   1.0000000000000000       0.65625000000000000        0.0000000000000000     
  0.87500000000000000       0.68750000000000000        0.0000000000000000     
  0.90625000000000000       0.68750000000000000        0.0000000000000000     
  0.93750000000000000       0.68750000000000000        0.0000000000000000     
  0.96875000000000000       0.68750000000000000        0.0000000000000000     
   1.0000000000000000       0.68750000000000000        0.0000000000000000     
  0.87500000000000000       0.71875000000000000        0.0000000000000000     
  0.90625000000000000       0.71875000000000000        0.0000000000000000     
  0.93750000000000000       0.71875000000000000        0.0000000000000000     
  0.96875000000000000       0.71875000000000000        0.0000000000000000     
   1.0000000000000000       0.71875000000000000        0.0000000000000000     
  0.87500000000000000       0.75000000000000000        0.0000000000000000     
  0.90625000000000000       0.75000000000000000        0.0000000000000000     
  0.93750000000000000       0.75000000000000000        0.0000000000000000     
  0.96875000000000000       0.75000000000000000        0.0000000000000000     
   1.0000000000000000       0.75000000000000000        0.0000000000000000     
   1.0000000000000000       0.62500000000000000        0.0000000000000000     
   1.0312500000000000       0.62500000000000000        0.0000000000000000     
   1.0625000000000000       0.62500000000000000        0.0000000000000000     
   1.0937500000000000       0.62500000000000000        0.0000000000000000     
   1.1250000000000000       0.62500000000000000        0.0000000000000000     
   1.0000000000000000       0.65625000000000000        0.0000000000000000     
   1.0312500000000000       0.65625000000000000        0.0000000000000000     
   1.0625000000000000       0.65625000000000000        0.0000000000000000     
   1.0937500000000000       0.65625000000000000        0.0000000000000000     
   1.1250000000000000       0.65625000000000000        0.0000000000000000     
   1.0000000000000000       0.68750000000000000        0.0000000000000000     
   1.0312500000000000       0.68750000000000000        0.0000000000000000     
   1.0625000000000000       0.68750000000000000        0.0000000000000000     
   1.0937500000000000       0.68750000000000000        0.0000000000000000     
   1.1250000000000000       0.68750000000000000        0.0000000000000000     
   1.0000000000000000       0.71875000000000000        0.0000000000000000     
   1.0312500000000000       0.71875000000000000        0.0000000000000000     
   1.0625000000000000       0.71875000000000000        0.0000000000000000     
   1.0937500000000000       0.71875000000000000        0.0000000000000000     
   1.1250000000000000       0.71875000000000000        0.0000000000000000     
   1.0000000000000000       0.75000000000000000        0.0000000000000000     
   1.0312500000000000       0.75000000000000000        0.0000000000000000     
   1.0625000000000000       0.75000000000000000        0.0000000000000000     
   1.0937500000000000       0.75000000000000000        0.0000000000000000     
   1.1250000000000000       0.75000000000000000        0.0000000000000000     
   1.1250000000000000       0.62500000000000000        0.0000000000000000     
   1.1562500000000000       0.62500000000000000        0.0000000000000000     
   1.1875000000000000       0.62500000000000000        0.0000000000000000     
   1.2187500000000000       0.62500000000000000        0.0000000000000000     
   1.2500000000000000       0.62500000000000000        0.0000000000000000     
   1.1250000000000000       0.65625000000000000        0.0000000000000000     
   1.1562500000000000       0.65625000000000000        0.0000000000000000     
   1.1875000000000000       0.65625000000000000        0.0000000000000000     
   1.2187500000000000       0.65625000000000000        0.0000000000000000     
   1.2500000000000000       0.65625000000000000        0.0000000000000000     
   1.1250000000000000       0.68750000000000000        0.0000000000000000     
   1.1562500000000000       0.68750000000000000        0.0000000000000000     
   1.1875000000000000       0.68750000000000000        0.0000000000000000     
   1.2187500000000000       0.68750000000000000        0.0000000000000000     
   1.2500000000000000       0.68750000000000000        0.0000000000000000     
   1.1250000000000000       0.71875000000000000        0.0000000000000000     
   1.1562500000000000       0.71875000000000000        0.0000000000000000     
   1.1875000000000000       0.71875000000000000        0.0000000000000000     
   1.2187500000000000       0.71875000000000000        0.0000000000000000     
   1.2500000000000000       0.71875000000000000        0.0000000000000000     
   1.1250000000000000       0.75000000000000000        0.0000000000000000     
   1.1562500000000000       0.75000000000000000        0.0000000000000000     
   1.1875000000000000       0.75000000000000000        0.0000000000000000     
   1.2187500000000000       0.75000000000000000        0.0000000000000000     
   1.2500000000000000       0.75000000000000000        0.0000000000000000     
   1.2500000000000000       0.62500000000000000        0.0000000000000000     
   1.2812500000000000       0.62500000000000000        0.0000000000000000     
   1.3125000000000000       0.62500000000000000        0.0000000000000000     
   1.3437500000000000       0.62500000000000000        0.0000000000000000     
   1.3750000000000000       0.62500000000000000        0.0000000000000000     
   1.2500000000000000       0.65625000000000000        0.0000000000000000     
   1.2812500000000000       0.65625000000000000        0.0000000000000000     
   1.3125000000000000       0.65625000000000000        0.0000000000000000     
   1.3437500000000000       0.65625000000000000        0.0000000000000000     
   1.3750000000000000       0.65625000000000000        0.0000000000000000     
   1.2500000000000000       0.68750000000000000        0.0000000000000000     
   1.2812500000000000       0.68750000000000000        0.0000000000000000     
   1.3125000000000000       0.68750000000000000        0.0000000000000000     
   1.3437500000000000       0.68750000000000000        0.0000000000000000     
   1.3750000000000000       0.68750000000000000        0.0000000000000000     
   1.2500000000000000       0.71875000000000000        0.0000000000000000     
   1.2812500000000000       0.71875000000000000        0.0000000000000000     
   1.3125000000000000       0.71875000000000000        0.0000000000000000     
   1.3437500000000000       0.71875000000000000        0.0000000000000000     
   1.3750000000000000       0.71875000000000000        0.0000000000000000     
   1.2500000000000000       0.75000000000000000        0.0000000000000000     
   1.2812500000000000       0.75000000000000000        0.0000000000000000     
   1.3125000000000000       0.75000000000000000        0.0000000000000000     
   1.3437500000000000       0.75000000000000000        0.0000000000000000     
   1.3750000000000000       0.75000000000000000        0.0000000000000000     
   1.3750000000000000       0.62500000000000000        0.0000000000000000     
   1.4062500000000000       0.62500000000000000        0.0000000000000000     
   1.4375000000000000       0.62500000000000000        0.0000000000000000     
   1.4687500000000000       0.62500000000000000        0.0000000000000000     
   1.5000000000000000       0.62500000000000000        0.0000000000000000     
   1.3750000000000000       0.65625000000000000        0.0000000000000000     
   1.4062500000000000       0.65625000000000000        0.0000000000000000     
   1.4375000000000000       0.65625000000000000        0.0000000000000000     
   1.4687500000000000       0.65625000000000000        0.0000000000000000     
   1.5000000000000000       0.65625000000000000        0.0000000000000000     
   1.3750000000000000       0.68750000000000000        0.0000000000000000     
   1.4062500000000000       0.68750000000000000        0.0000000000000000     
   1.4375000000000000       0.68750000000000000        0.0000000000000000     
   1.4687500000000000       0.68750000000000000        0.0000000000000000     
   1.5000000000000000       0.68750000000000000        0.0000000000000000     
   1.3750000000000000       0.71875000000000000        0.0000000000000000     
   1.4062500000000000       0.71875000000000000        0.0000000000000000     
   1.4375000000000000       0.71875000000000000        0.0000000000000000     
   1.4687500000000000       0.71875000000000000        0.0000000000000000     
   1.5000000000000000       0.71875000000000000        0.0000000000000000     
   1.3750000000000000       0.75000000000000000        0.0000000000000000     
   1.4062500000000000       0.75000000000000000        0.0000000000000000     
   1.4375000000000000       0.75000000000000000        0.0000000000000000     
   1.4687500000000000       0.75000000000000000        0.0000000000000000     
   1.5000000000000000       0.75000000000000000        0.0000000000000000     
  0.50000000000000000       0.75000000000000000        0.0000000000000000     
  0.53125000000000000       0.75000000000000000        0.0000000000000000     
  0.56250000000000000       0.75000000000000000        0.0000000000000000     
  0.59375000000000000       0.75000000000000000        0.0000000000000000     
  0.62500000000000000       0.75000000000000000        0.0000000000000000     
  0.50000000000000000       0.78125000000000000        0.0000000000000000     
  0.53125000000000000       0.78125000000000000        0.0000000000000000     
  0.56250000000000000       0.78125000000000000        0.0000000000000000     
  0.59375000000000000       0.78125000000000000        0.0000000000000000     
  0.62500000000000000       0.78125000000000000        0.0000000000000000     
  0.50000000000000000       0.81250000000000000        0.0000000000000000     
  0.53125000000000000       0.81250000000000000        0.0000000000000000     
  0.56250000000000000       0.81250000000000000        0.0000000000000000     
  0.59375000000000000       0.81250000000000000        0.0000000000000000     
  0.62500000000000000       0.81250000000000000        0.0000000000000000     
  0.50000000000000000       0.84375000000000000        0.0000000000000000     
  0.53125000000000000       0.84375000000000000        0.0000000000000000     
  0.56250000000000000       0.84375000000000000        0.0000000000000000     
  0.59375000000000000       0.84375000000000000        0.0000000000000000     
  0.62500000000000000       0.84375000000000000        0.0000000000000000     
  0.50000000000000000       0.87500000000000000        0.0000000000000000     
  0.53125000000000000       0.87500000000000000        0.0000000000000000     
  0.56250000000000000       0.87500000000000000        0.0000000000000000     
  0.59375000000000000       0.87500000000000000        0.0000000000000000     
  0.62500000000000000       0.87500000000000000        0.0000000000000000     
  0.62500000000000000       0.75000000000000000        0.0000000000000000     
  0.65625000000000000       0.75000000000000000        0.0000000000000000     
  0.68750000000000000       0.75000000000000000        0.0000000000000000     
  0.71875000000000000       0.75000000000000000        0.0000000000000000     
  0.75000000000000000       0.75000000000000000        0.0000000000000000     
  0.62500000000000000       0.78125000000000000        0.0000000000000000     
  0.65625000000000000       0.78125000000000000        0.0000000000000000     
  0.68750000000000000       0.78125000000000000        0.0000000000000000     
  0.71875000000000000       0.78125000000000000        0.0000000000000000     
  0.75000000000000000       0.78125000000000000        0.0000000000000000     
  0.62500000000000000       0.81250000000000000        0.0000000000000000     
  0.65625000000000000       0.81250000000000000        0.0000000000000000     
  0.68750000000000000       0.81250000000000000        0.0000000000000000     
  0.71875000000000000       0.81250000000000000        0.0000000000000000     
  0.75000000000000000       0.81250000000000000        0.0000000000000000     
  0.62500000000000000       0.84375000000000000        0.0000000000000000     
  0.65625000000000000       0.84375000000000000        0.0000000000000000     
  0.68750000000000000       0.84375000000000000        0.0000000000000000     
  0.71875000000000000       0.84375000000000000        0.0000000000000000     
  0.75000000000000000       0.84375000000000000        0.0000000000000000     
  0.62500000000000000       0.87500000000000000        0.0000000000000000     
  0.65625000000000000       0.87500000000000000        0.0000000000000000     
  0.68750000000000000       0.87500000000000000        0.0000000000000000     
  0.71875000000000000       0.87500000000000000        0.0000000000000000     
  0.75000000000000000       0.87500000000000000        0.0000000000000000     
  0.75000000000000000       0.75000000000000000        0.0000000000000000     
  0.78125000000000000       0.75000000000000000        0.0000000000000000     
  0.81250000000000000       0.75000000000000000        0.0000000000000000     
  0.84375000000000000       0.75000000000000000        0.0000000000000000     
  0.87500000000000000       0.75000000000000000        0.0000000000000000     
  0.75000000000000000       0.78125000000000000        0.0000000000000000     
  0.78125000000000000       0.78125000000000000        0.0000000000000000     
  0.81250000000000000       0.78125000000000000        0.0000000000000000     
  0.84375000000000000       0.78125000000000000        0.0000000000000000     
  0.87500000000000000       0.78125000000000000        0.0000000000000000     
  0.75000000000000000       0.81250000000000000        0.0000000000000000     
  0.78125000000000000       0.81250000000000000        0.0000000000000000     
  0.81250000000000000       0.81250000000000000        0.0000000000000000     
  0.84375000000000000       0.81250000000000000        0.0000000000000000     
  0.87500000000000000       0.81250000000000000        0.0000000000000000     
  0.75000000000000000       0.84375000000000000        0.0000000000000000     
  0.78125000000000000       0.84375000000000000        0.0000000000000000     
  0.81250000000000000       0.84375000000000000        0.0000000000000000     
  0.84375000000000000       0.84375000000000000        0.0000000000000000     
  0.87500000000000000       0.84375000000000000        0.0000000000000000     
  0.75000000000000000       0.87500000000000000        0.0000000000000000     
  0.78125000000000000       0.87500000000000000        0.0000000000000000     
  0.81250000000000000       0.87500000000000000        0.0000000000000000     
  0.84375000000000000       0.87500000000000000        0.0000000000000000     
  0.87500000000000000       0.87500000000000000        0.0000000000000000     
  0.87500000000000000       0.75000000000000000        0.0000000000000000     
  0.90625000000000000       0.75000000000000000        0.0000000000000000     
  0.93750000000000000       0.75000000000000000        0.0000000000000000     
  0.96875000000000000       0.75000000000000000        0.0000000000000000     
   1.0000000000000000       0.75000000000000000        0.0000000000000000     
  0.87500000000000000       0.78125000000000000        0.0000000000000000     
  0.90625000000000000       0.78125000000000000        0.0000000000000000     
  0.93750000000000000       0.78125000000000000        0.0000000000000000     
  0.96875000000000000       0.78125000000000000        0.0000000000000000     
   1.0000000000000000       0.78125000000000000        0.0000000000000000     
  0.87500000000000000       0.81250000000000000        0.0000000000000000     
  0.90625000000000000       0.81250000000000000        0.0000000000000000     
  0.93750000000000000       0.81250000000000000        0.0000000000000000     
  0.96875000000000000       0.81250000000000000        0.0000000000000000     
   1.0000000000000000       0.81250000000000000        0.0000000000000000     
  0.87500000000000000       0.84375000000000000        0.0000000000000000     
  0.90625000000000000       0.84375000000000000        0.0000000000000000     
  0.93750000000000000       0.84375000000000000        0.0000000000000000     
  0.96875000000000000       0.84375000000000000        0.0000000000000000     
   1.0000000000000000       0.84375000000000000        0.0000000000000000     
  0.87500000000000000       0.87500000000000000        0.0000000000000000     
  0.90625000000000000       0.87500000000000000        0.0000000000000000     
  0.93750000000000000       0.87500000000000000        0.0000000000000000     
  0.96875000000000000       0.87500000000000000        0.0000000000000000     
   1.0000000000000000       0.87500000000000000        0.0000000000000000     
   1.0000000000000000       0.75000000000000000        0.0000000000000000     
   1.0312500000000000       0.75000000000000000        0.0000000000000000     
   1.0625000000000000       0.75000000000000000        0.0000000000000000     
   1.0937500000000000       0.75000000000000000        0.0000000000000000     
   1.1250000000000000       0.75000000000000000        0.0000000000000000     
   1.0000000000000000       0.78125000000000000        0.0000000000000000     
   1.0312500000000000       0.78125000000000000        0.0000000000000000     
   1.0625000000000000       0.78125000000000000        0.0000000000000000     
   1.0937500000000000       0.78125000000000000        0.0000000000000000     
   1.1250000000000000       0.78125000000000000        0.0000000000000000     
   1.0000000000000000       0.81250000000000000        0.0000000000000000     
   1.0312500000000000       0.81250000000000000        0.0000000000000000     
   1.0625000000000000       0.81250000000000000        0.0000000000000000     
   1.0937500000000000       0.81250000000000000        0.0000000000000000     
   1.1250000000000000       0.81250000000000000        0.0000000000000000     
   1.0000000000000000       0.84375000000000000        0.0000000000000000     
   1.0312500000000000       0.84375000000000000        0.0000000000000000     
   1.0625000000000000       0.84375000000000000        0.0000000000000000     
   1.0937500000000000       0.84375000000000000        0.0000000000000000     
   1.1250000000000000       0.84375000000000000        0.0000000000000000     
   1.0000000000000000       0.87500000000000000        0.0000000000000000     
   1.0312500000000000       0.87500000000000000        0.0000000000000000     
   1.0625000000000000       0.87500000000000000        0.0000000000000000     
   1.0937500000000000       0.87500000000000000        0.0000000000000000     
   1.1250000000000000       0.87500000000000000        0.0000000000000000     
   1.1250000000000000       0.75000000000000000        0.0000000000000000     
   1.1562500000000000       0.75000000000000000        0.0000000000000000     
   1.1875000000000000       0.75000000000000000        0.0000000000000000     
   1.2187500000000000       0.75000000000000000        0.0000000000000000     
   1.2500000000000000       0.75000000000000000        0.0000000000000000     
   1.1250000000000000       0.78125000000000000        0.0000000000000000     
   1.1562500000000000       0.78125000000000000        0.0000000000000000     
   1.1875000000000000       0.78125000000000000        0.0000000000000000     
   1.2187500000000000       0.78125000000000000        0.0000000000000000     
   1.2500000000000000       0.78125000000000000        0.0000000000000000     
   1.1250000000000000       0.81250000000000000        0.0000000000000000     
   1.1562500000000000       0.81250000000000000        0.0000000000000000     
   1.1875000000000000       0.81250000000000000        0.0000000000000000     
   1.2187500000000000       0.81250000000000000        0.0000000000000000     
   1.2500000000000000       0.81250000000000000        0.0000000000000000     
   1.1250000000000000       0.84375000000000000        0.0000000000000000     
   1.1562500000000000       0.84375000000000000        0.0000000000000000     
   1.1875000000000000       0.84375000000000000        0.0000000000000000     
   1.2187500000000000       0.84375000000000000        0.0000000000000000     
   1.2500000000000000       0.84375000000000000        0.0000000000000000     
   1.1250000000000000       0.87500000000000000        0.0000000000000000     
   1.1562500000000000       0.87500000000000000        0.0000000000000000     
   1.1875000000000000       0.87500000000000000        0.0000000000000000     
   1.2187500000000000       0.87500000000000000        0.0000000000000000     
   1.2500000000000000       0.87500000000000000        0.0000000000000000     
   1.2500000000000000       0.75000000000000000        0.0000000000000000     
   1.2812500000000000       0.75000000000000000        0.0000000000000000     
   1.3125000000000000       0.75000000000000000        0.0000000000000000     
   1.3437500000000000       0.75000000000000000        0.0000000000000000     
   1.3750000000000000       0.75000000000000000        0.0000000000000000     
   1.2500000000000000       0.78125000000000000        0.0000000000000000     
   1.2812500000000000       0.78125000000000000        0.0000000000000000     
   1.3125000000000000       0.78125000000000000        0.0000000000000000     
   1.3437500000000000       0.78125000000000000        0.0000000000000000     
   1.3750000000000000       0.78125000000000000        0.0000000000000000     
   1.2500000000000000       0.81250000000000000        0.0000000000000000     
   1.2812500000000000       0.81250000000000000        0.0000000000000000     
   1.3125000000000000       0.81250000000000000        0.0000000000000000     
   1.3437500000000000       0.81250000000000000        0.0000000000000000     
   1.3750000000000000       0.81250000000000000        0.0000000000000000     
   1.2500000000000000       0.84375000000000000        0.0000000000000000     
   1.2812500000000000       0.84375000000000000        0.0000000000000000     
   1.3125000000000000       0.84375000000000000        0.0000000000000000     
   1.3437500000000000       0.84375000000000000        0.0000000000000000     
   1.3750000000000000       0.84375000000000000        0.0000000000000000     
   1.2500000000000000       0.87500000000000000        0.0000000000000000     
   1.2812500000000000       0.87500000000000000        0.0000000000000000     
   1.3125000000000000       0.87500000000000000        0.0000000000000000     
   1.3437500000000000       0.87500000000000000        0.0000000000000000     
   1.3750000000000000       0.87500000000000000        0.0000000000000000     
   1.3750000000000000       0.75000000000000000        0.0000000000000000     
   1.4062500000000000       0.75000000000000000        0.0000000000000000     
   1.4375000000000000       0.75000000000000000        0.0000000000000000     
   1.4687500000000000       0.75000000000000000        0.0000000000000000     
   1.5000000000000000       0.75000000000000000        0.0000000000000000     
   1.3750000000000000       0.78125000000000000        0.0000000000000000     
   1.4062500000000000       0.78125000000000000        0.0000000000000000     
   1.4375000000000000       0.78125000000000000        0.0000000000000000     
   1.4687500000000000       0.78125000000000000        0.0000000000000000     
   1.5000000000000000       0.78125000000000000        0.0000000000000000     
   1.3750000000000000       0.81250000000000000        0.0000000000000000     
   1.4062500000000000       0.81250000000000000        0.0000000000000000     
   1.4375000000000000       0.81250000000000000        0.0000000000000000     
   1.4687500000000000       0.81250000000000000        0.0000000000000000     
   1.5000000000000000       0.81250000000000000        0.0000000000000000     
   1.3750000000000000       0.84375000000000000        0.0000000000000000     
   1.4062500000000000       0.84375000000000000        0.0000000000000000     
   1.4375000000000000       0.84375000000000000        0.0000000000000000     
   1.4687500000000000       0.84375000000000000        0.0000000000000000     
   1.5000000000000000       0.84375000000000000        0.0000000000000000     
   1.3750000000000000       0.87500000000000000        0.0000000000000000     
   1.4062500000000000       0.87500000000000000        0.0000000000000000     
   1.4375000000000000       0.87500000000000000        0.0000000000000000     
   1.4687500000000000       0.87500000000000000        0.0000000000000000     
   1.5000000000000000       0.87500000000000000        0.0000000000000000     
  0.50000000000000000       0.87500000000000000        0.0000000000000000     
  0.53125000000000000       0.87500000000000000        0.0000000000000000     
  0.56250000000000000       0.87500000000000000        0.0000000000000000     
  0.59375000000000000       0.87500000000000000        0.0000000000000000     
  0.62500000000000000       0.87500000000000000        0.0000000000000000     
  0.50000000000000000       0.90625000000000000        0.0000000000000000     
  0.53125000000000000       0.90625000000000000        0.0000000000000000     
  0.56250000000000000       0.90625000000000000        0.0000000000000000     
  0.59375000000000000       0.90625000000000000        0.0000000000000000     
  0.62500000000000000       0.90625000000000000        0.0000000000000000     
  0.50000000000000000       0.93750000000000000        0.0000000000000000     
  0.53125000000000000       0.93750000000000000        0.0000000000000000     
  0.56250000000000000       0.93750000000000000        0.0000000000000000     
  0.59375000000000000       0.93750000000000000        0.0000000000000000     
  0.62500000000000000       0.93750000000000000        0.0000000000000000     
  0.50000000000000000       0.96875000000000000        0.0000000000000000     
  0.53125000000000000       0.96875000000000000        0.0000000000000000     
  0.56250000000000000       0.96875000000000000        0.0000000000000000     
  0.59375000000000000       0.96875000000000000        0.0000000000000000     
  0.62500000000000000       0.96875000000000000        0.0000000000000000     
  0.50000000000000000        1.0000000000000000        0.0000000000000000     
  0.53125000000000000        1.0000000000000000        0.0000000000000000     
  0.56250000000000000        1.0000000000000000        0.0000000000000000     
  0.59375000000000000        1.0000000000000000        0.0000000000000000     
  0.62500000000000000        1.0000000000000000        0.0000000000000000     
  0.62500000000000000       0.87500000000000000        0.0000000000000000     
  0.65625000000000000       0.87500000000000000        0.0000000000000000     
  0.68750000000000000       0.87500000000000000        0.0000000000000000     
  0.71875000000000000       0.87500000000000000        0.0000000000000000     
  0.75000000000000000       0.87500000000000000        0.0000000000000000     
  0.62500000000000000       0.90625000000000000        0.0000000000000000     
  0.65625000000000000       0.90625000000000000        0.0000000000000000     
  0.68750000000000000       0.90625000000000000        0.0000000000000000     
  0.71875000000000000       0.90625000000000000        0.0000000000000000     
  0.75000000000000000       0.90625000000000000        0.0000000000000000     
  0.62500000000000000       0.93750000000000000        0.0000000000000000     
  0.65625000000000000       0.93750000000000000        0.0000000000000000     
  0.68750000000000000       0.93750000000000000        0.0000000000000000     
  0.71875000000000000       0.93750000000000000        0.0000000000000000     
  0.75000000000000000       0.93750000000000000        0.0000000000000000     
  0.62500000000000000       0.96875000000000000        0.0000000000000000     
  0.65625000000000000       0.96875000000000000        0.0000000000000000     
  0.68750000000000000       0.96875000000000000        0.0000000000000000     
  0.71875000000000000       0.96875000000000000        0.0000000000000000     
  0.75000000000000000       0.96875000000000000        0.0000000000000000     
  0.62500000000000000        1.0000000000000000        0.0000000000000000     
  0.65625000000000000        1.0000000000000000        0.0000000000000000     
  0.68750000000000000        1.0000000000000000        0.0000000000000000     
  0.71875000000000000        1.0000000000000000        0.0000000000000000     
  0.75000000000000000        1.0000000000000000        0.0000000000000000     
  0.75000000000000000       0.87500000000000000        0.0000000000000000     
  0.78125000000000000       0.87500000000000000        0.0000000000000000     
  0.81250000000000000       0.87500000000000000        0.0000000000000000     
  0.84375000000000000       0.87500000000000000        0.0000000000000000     
  0.87500000000000000       0.87500000000000000        0.0000000000000000     
  0.75000000000000000       0.90625000000000000        0.0000000000000000     
  0.78125000000000000       0.90625000000000000        0.0000000000000000     
  0.81250000000000000       0.90625000000000000        0.0000000000000000     
  0.84375000000000000       0.90625000000000000        0.0000000000000000     
  0.87500000000000000       0.90625000000000000        0.0000000000000000     
  0.75000000000000000       0.93750000000000000        0.0000000000000000     
  0.78125000000000000       0.93750000000000000        0.0000000000000000     
  0.81250000000000000       0.93750000000000000        0.0000000000000000     
  0.84375000000000000       0.93750000000000000        0.0000000000000000     
  0.87500000000000000       0.93750000000000000        0.0000000000000000     
  0.75000000000000000       0.96875000000000000        0.0000000000000000     
  0.78125000000000000       0.96875000000000000        0.0000000000000000     
  0.81250000000000000       0.96875000000000000        0.0000000000000000     
  0.84375000000000000       0.96875000000000000        0.0000000000000000     
  0.87500000000000000       0.96875000000000000        0.0000000000000000     
  0.75000000000000000        1.0000000000000000        0.0000000000000000     
  0.78125000000000000        1.0000000000000000        0.0000000000000000     
  0.81250000000000000        1.0000000000000000        0.0000000000000000     
  0.84375000000000000        1.0000000000000000        0.0000000000000000     
  0.87500000000000000        1.0000000000000000        0.0000000000000000     
  0.87500000000000000       0.87500000000000000        0.0000000000000000     
  0.90625000000000000       0.87500000000000000        0.0000000000000000     
  0.93750000000000000       0.87500000000000000        0.0000000000000000     
  0.96875000000000000       0.87500000000000000        0.0000000000000000     
   1.0000000000000000       0.87500000000000000        0.0000000000000000     
  0.87500000000000000       0.90625000000000000        0.0000000000000000     
  0.90625000000000000       0.90625000000000000        0.0000000000000000     
  0.93750000000000000       0.90625000000000000        0.0000000000000000     
  0.96875000000000000       0.90625000000000000        0.0000000000000000     
   1.0000000000000000       0.90625000000000000        0.0000000000000000     
  0.87500000000000000       0.93750000000000000        0.0000000000000000     
  0.90625000000000000       0.93750000000000000        0.0000000000000000     
  0.93750000000000000       0.93750000000000000        0.0000000000000000     
  0.96875000000000000       0.93750000000000000        0.0000000000000000     
   1.0000000000000000       0.93750000000000000        0.0000000000000000     
  0.87500000000000000       0.96875000000000000        0.0000000000000000     
  0.90625000000000000       0.96875000000000000        0.0000000000000000     
  0.93750000000000000       0.96875000000000000        0.0000000000000000     
  0.96875000000000000       0.96875000000000000        0.0000000000000000     
   1.0000000000000000       0.96875000000000000        0.0000000000000000     
  0.87500000000000000        1.0000000000000000        0.0000000000000000     
  0.90625000000000000        1.0000000000000000        0.0000000000000000     
  0.93750000000000000        1.0000000000000000        0.0000000000000000     
  0.96875000000000000        1.0000000000000000        0.0000000000000000     
   1.0000000000000000        1.0000000000000000        0.0000000000000000     
   1.0000000000000000       0.87500000000000000        0.0000000000000000     
   1.0312500000000000       0.87500000000000000        0.0000000000000000     
   1.0625000000000000       0.87500000000000000        0.0000000000000000     
   1.0937500000000000       0.87500000000000000        0.0000000000000000     
   1.1250000000000000       0.87500000000000000        0.0000000000000000     
   1.0000000000000000       0.90625000000000000        0.0000000000000000     
   1.0312500000000000       0.90625000000000000        0.0000000000000000     
   1.0625000000000000       0.90625000000000000        0.0000000000000000     
   1.0937500000000000       0.90625000000000000        0.0000000000000000     
   1.1250000000000000       0.90625000000000000        0.0000000000000000     
   1.0000000000000000       0.93750000000000000        0.0000000000000000     
   1.0312500000000000       0.93750000000000000        0.0000000000000000     
   1.0625000000000000       0.93750000000000000        0.0000000000000000     
   1.0937500000000000       0.93750000000000000        0.0000000000000000     
   1.1250000000000000       0.93750000000000000        0.0000000000000000     
   1.0000000000000000       0.96875000000000000        0.0000000000000000     
   1.0312500000000000       0.96875000000000000        0.0000000000000000     
   1.0625000000000000       0.96875000000000000        0.0000000000000000     
   1.0937500000000000       0.96875000000000000        0.0000000000000000     
   1.1250000000000000       0.96875000000000000        0.0000000000000000     
   1.0000000000000000        1.0000000000000000        0.0000000000000000     
   1.0312500000000000        1.0000000000000000        0.0000000000000000     
   1.0625000000000000        1.0000000000000000        0.0000000000000000     
   1.0937500000000000        1.0000000000000000        0.0000000000000000     
   1.1250000000000000        1.0000000000000000        0.0000000000000000     
   1.1250000000000000       0.87500000000000000        0.0000000000000000     
   1.1562500000000000       0.87500000000000000        0.0000000000000000     
   1.1875000000000000       0.87500000000000000        0.0000000000000000     
   1.2187500000000000       0.87500000000000000        0.0000000000000000     
   1.2500000000000000       0.87500000000000000        0.0000000000000000     
   1.1250000000000000       0.90625000000000000        0.0000000000000000     
   1.1562500000000000       0.90625000000000000        0.0000000000000000     
   1.1875000000000000       0.90625000000000000        0.0000000000000000     
   1.2187500000000000       0.90625000000000000        0.0000000000000000     
   1.2500000000000000       0.90625000000000000        0.0000000000000000     
   1.1250000000000000       0.93750000000000000        0.0000000000000000     
   1.1562500000000000       0.93750000000000000        0.0000000000000000     
   1.1875000000000000       0.93750000000000000        0.0000000000000000     
   1.2187500000000000       0.93750000000000000        0.0000000000000000     
   1.2500000000000000       0.93750000000000000        0.0000000000000000     
   1.1250000000000000       0.96875000000000000        0.0000000000000000     
   1.1562500000000000       0.96875000000000000        0.0000000000000000     
   1.1875000000000000       0.96875000000000000        0.0000000000000000     
   1.2187500000000000       0.96875000000000000        0.0000000000000000     
   1.2500000000000000       0.96875000000000000        0.0000000000000000     
   1.1250000000000000        1.0000000000000000        0.0000000000000000     
   1.1562500000000000        1.0000000000000000        0.0000000000000000     
   1.1875000000000000        1.0000000000000000        0.0000000000000000     
   1.2187500000000000        1.0000000000000000        0.0000000000000000     
   1.2500000000000000        1.0000000000000000        0.0000000000000000     
   1.2500000000000000       0.87500000000000000        0.0000000000000000     
   1.2812500000000000       0.87500000000000000        0.0000000000000000     
   1.3125000000000000       0.87500000000000000        0.0000000000000000     
   1.3437500000000000       0.87500000000000000        0.0000000000000000     
   1.3750000000000000       0.87500000000000000        0.0000000000000000     
   1.2500000000000000       0.90625000000000000        0.0000000000000000     
   1.2812500000000000       0.90625000000000000        0.0000000000000000     
   1.3125000000000000       0.90625000000000000        0.0000000000000000     
   1.3437500000000000       0.90625000000000000        0.0000000000000000     
   1.3750000000000000       0.90625000000000000        0.0000000000000000     
   1.2500000000000000       0.93750000000000000        0.0000000000000000     
   1.2812500000000000       0.93750000000000000        0.0000000000000000     
   1.3125000000000000       0.93750000000000000        0.0000000000000000     
   1.3437500000000000       0.93750000000000000        0.0000000000000000     
   1.3750000000000000       0.93750000000000000        0.0000000000000000     
   1.2500000000000000       0.96875000000000000        0.0000000000000000     
   1.2812500000000000       0.96875000000000000        0.0000000000000000     
   1.3125000000000000       0.96875000000000000        0.0000000000000000     
   1.3437500000000000       0.96875000000000000        0.0000000000000000     
   1.3750000000000000       0.96875000000000000        0.0000000000000000     
   1.2500000000000000        1.0000000000000000        0.0000000000000000     
   1.2812500000000000        1.0000000000000000        0.0000000000000000     
   1.3125000000000000        1.0000000000000000        0.0000000000000000     
   1.3437500000000000        1.0000000000000000        0.0000000000000000     
   1.3750000000000000        1.0000000000000000        0.0000000000000000     
   1.3750000000000000       0.87500000000000000        0.0000000000000000     
   1.4062500000000000       0.87500000000000000        0.0000000000000000     
   1.4375000000000000       0.87500000000000000        0.0000000000000000     
   1.4687500000000000       0.87500000000000000        0.0000000000000000     
   1.5000000000000000       0.87500000000000000        0.0000000000000000     
   1.3750000000000000       0.90625000000000000        0.0000000000000000     
   1.4062500000000000       0.90625000000000000        0.0000000000000000     
   1.4375000000000000       0.90625000000000000        0.0000000000000000     
   1.4687500000000000       0.90625000000000000        0.0000000000000000     
   1.5000000000000000       0.90625000000000000        0.0000000000000000     
   1.3750000000000000       0.93750000000000000        0.0000000000000000     
   1.4062500000000000       0.93750000000000000        0.0000000000000000     
   1.4375000000000000       0.93750000000000000        0.0000000000000000     
   1.4687500000000000       0.93750000000000000        0.0000000000000000     
   1.5000000000000000       0.93750000000000000        0.0000000000000000     
   1.3750000000000000       0.96875000000000000        0.0000000000000000     
   1.4062500000000000       0.96875000000000000        0.0000000000000000     
   1.4375000000000000       0.96875000000000000        0.0000000000000000     
   1.4687500000000000       0.96875000000000000        0.0000000000000000     
   1.5000000000000000       0.96875000000000000        0.0000000000000000     
   1.3750000000000000        1.0000000000000000        0.0000000000000000     
   1.4062500000000000        1.0000000000000000        0.0000000000000000     
   1.4375000000000000        1.0000000000000000        0.0000000000000000     
   1.4687500000000000        1.0000000000000000        0.0000000000000000     
   1.5000000000000000        1.0000000000000000        0.0000000000000000     
 </DataArray>
 </Points>
 <Cells>
 <DataArray  type="Int32"  Name="connectivity"  format="ascii">
           0           1           6           5
           1           2           7           6
           2           3           8           7
           3           4           9           8
           5           6          11          10
           6           7          12          11
           7           8          13          12
           8           9          14          13
          10          11          16          15
          11          12          17          16
          12          13          18          17
          13          14          19          18
          15          16          21          20
          16          17          22          21
          17          18          23          22
          18          19          24          23
          25          26          31          30
          26          27          32          31
          27          28          33          32
          28          29          34          33
          30          31          36          35
          31          32          37          36
          32          33          38          37
          33          34          39          38
          35          36          41          40
          36          37          42          41
          37          38          43          42
          38          39          44          43
          40          41          46          45
          41          42          47          46
          42          43          48          47
          43          44          49          48
          50          51          56          55
          51          52          57          56
          52          53          58          57
          53          54          59          58
          55          56          61          60
          56          57          62          61
          57          58          63          62
          58          59          64          63
          60          61          66          65
          61          62          67          66
          62          63          68          67
          63          64          69          68
          65          66          71          70
          66          67          72          71
          67          68          73          72
          68          69          74          73
          75          76          81          80
          76          77          82          81
          77          78          83          82
          78          79          84          83
          80          81          86          85
          81          82          87          86
          82          83          88          87
          83          84          89          88
          85          86          91          90
          86          87          92          91
          87          88          93          92
          88          89          94          93
          90          91          96          95
          91          92          97          96
          92          93          98          97
          93          94          99          98
         100         101         106         105
         101         102         107         106
         102         103         108         107
         103         104         109         108
         105         106         111         110
         106         107         112         111
         107         108         113         112
         108         109         114         113
         110         111         116         115
         111         112         117         116
         112         113         118         117
         113         114         119         118
         115         116         121         120
         116         117         122         121
         117         118         123         122
         118         119         124         123
         125         126         131         130
         126         127         132         131
         127         128         133         132
         128         129         134         133
         130         131         136         135
         131         132         137         136
         132         133         138         137
         133         134         139         138
         135         136         141         140
         136         137         142         141
         137         138         143         142
         138         139         144         143
         140         141         146         145
         141         142         147         146
         142         143         148         147
         143         144         149         148
         150         151         156         155
         151         152         157         156
         152         153         158         157
         153         154         159         158
         155         156         161         160
         156         157         162         161
         157         158         163         162
         158         159         164         163
         160         161         166         165
         161         162         167         166
         162         163         168         167
         163         164         169         168
         165         166         171         170
         166         167         172         171
         167         168         173         172
         168         169         174         173
         175         176         181         180
         176         177         182         181
         177         178         183         182
         178         179         184         183
         180         181         186         185
         181         182         187         186
         182         183         188         187
         183         184         189         188
         185         186         191         190
         186         187         192         191
         187         188         193         192
         188         189         194         193
         190         191         196         195
         191         192         197         196
         192         193         198         197
         193         194         199         198
         200         201         206         205
         201         202         207         206
         202         203         208         207
         203         204         209         208
         205         206         211         210
         206         207         212         211
         207         208         213         212
         208         209         214         213
         210         211         216         215
         211         212         217         216
         212         213         218         217
         213         214         219         218
         215         216         221         220
         216         217         222         221
         217         218         223         222
         218         219         224         223
         225         226         231         230
         226         227         232         231
         227         228         233         232
         228         229         234         233
         230         231         236         235
         231         232         237         236
         232         233         238         237
         233         234         239         238
         235         236         241         240
         236         237         242         241
         237         238         243         242
         238         239         244         243
         240         241         246         245
         241         242         247         246
         242         243         248         247
         243         244         249         248
         250         251         256         255
         251         252         257         256
         252         253         258         257
         253         254         259         258
         255         256         261         260
         256         257         262         261
         257         258         263         262
         258         259         264         263
         260         261         266         265
         261         262         267         266
         262         263         268         267
         263         264         269         268
         265         266         271         270
         266         267         272         271
         267         268         273         272
         268         269         274         273
         275         276         281         280
         276         277         282         281
         277         278         283         282
         278         279         284         283
         280         281         286         285
         281         282         287         286
         282         283         288         287
         283         284         289         288
         285         286         291         290
         286         287         292         291
         287         288         293         292
         288         289         294         293
         290         291         296         295
         291         292         297         296
         292         293         298         297
         293         294         299         298
         300         301         306         305
         301         302         307         306
         302         303         308         307
         303         304         309         308
         305         306         311         310
         306         307         312         311
         307         308         313         312
         308         309         314         313
         310         311         316         315
         311         312         317         316
         312         313         318         317
         313         314         319         318
         315         316         321         320
         316         317         322         321
         317         318         323         322
         318         319         324         323
         325         326         331         330
         326         327         332         331
         327         328         333         332
         328         329         334         333
         330         331         336         335
         331         332         337         336
         332         333         338         337
         333         334         339         338
         335         336         341         340
         336         337         342         341
         337         338         343         342
         338         339         344         343
         340         341         346         345
         341         342         347         346
         342         343         348         347
         343         344         349         348
         350         351         356         355
         351         352         357         356
         352         353         358         357
         353         354         359         358
         355         356         361         360
         356         357         362         361
         357         358         363         362
         358         359         364         363
         360         361         366         365
         361         362         367         366
         362         363         368         367
         363         364         369         368
         365         366         371         370
         366         367         372         371
         367         368         373         372
         368         369         374         373
         375         376         381         380
         376         377         382         381
         377         378         383         382
         378         379         384         383
         380         381         386         385
         381         382         387         386
         382         383         388         387
         383         384         389         388
         385         386         391         390
         386         387         392         391
         387         388         393         392
         388         389         394         393
         390         391         396         395
         391         392         397         396
         392         393         398         397
         393         394         399         398
         400         401         406         405
         401         402         407         406
         402         403         408         407
         403         404         409         408
         405         406         411         410
         406         407         412         411
         407         408         413         412
         408         409         414         413
         410         411         416         415
         411         412         417         416
         412         413         418         417
         413         414         419         418
         415         416         421         420
         416         417         422         421
         417         418         423         422
         418         419         424         423
         425         426         431         430
         426         427         432         431
         427         428         433         432
         428         429         434         433
         430         431         436         435
         431         432         437         436
         432         433         438         437
         433         434         439         438
         435         436         441         440
         436         437         442         441
         437         438         443         442
         438         439         444         443
         440         441         446         445
         441         442         447         446
         442         443         448         447
         443         444         449         448
         450         451         456         455
         451         452         457         456
         452         453         458         457
         453         454         459         458
         455         456         461         460
         456         457         462         461
         457         458         463         462
         458         459         464         463
         460         461         466         465
         461         462         467         466
         462         463         468         467
         463         464         469         468
         465         466         471         470
         466         467         472         471
         467         468         473         472
         468         469         474         473
         475         476         481         480
         476         477         482         481
         477         478         483         482
         478         479         484         483
         480         481         486         485
         481         482         487         486
         482         483         488         487
         483         484         489         488
         485         486         491         490
         486         487         492         491
         487         488         493         492
         488         489         494         493
         490         491         496         495
         491         492         497         496
         492         493         498         497
         493         494         499         498
         500         501         506         505
         501         502         507         506
         502         503         508         507
         503         504         509         508
         505         506         511         510
         506         507         512         511
         507         508         513         512
         508         509         514         513
         510         511         516         515
         511         512         517         516
         512         513         518         517
         513         514         519         518
         515         516         521         520
         516         517         522         521
         517         518         523         522
         518         519         524         523
         525         526         531         530
         526         527         532         531
         527         528         533         532
         528         529         534         533
         530         531         536         535
         531         532         537         536
         532         533         538         537
         533         534         539         538
         535         536         541         540
         536         537         542         541
         537         538         543         542
         538         539         544         543
         540         541         546         545
         541         542         547         546
         542         543         548         547
         543         544         549         548
         550         551         556         555
         551         552         557         556
         552         553         558         557
         553         554         559         558
         555         556         561         560
         556         557         562         561
         557         558         563         562
         558         559         564         563
         560         561         566         565
         561         562         567         566
         562         563         568         567
         563         564         569         568
         565         566         571         570
         566         567         572         571
         567         568         573         572
         568         569         574         573
         575         576         581         580
         576         577         582         581
         577         578         583         582
         578         579         584         583
         580         581         586         585
         581         582         587         586
         582         583         588         587
         583         584         589         588
         585         586         591         590
         586         587         592         591
         587         588         593         592
         588         589         594         593
         590         591         596         595
         591         592         597         596
         592         593         598         597
         593         594         599         598
         600         601         606         605
         601         602         607         606
         602         603         608         607
         603         604         609         608
         605         606         611         610
         606         607         612         611
         607         608         613         612
         608         609         614         613
         610         611         616         615
         611         612         617         616
         612         613         618         617
         613         614         619         618
         615         616         621         620
         616         617         622         621
         617         618         623         622
         618         619         624         623
         625         626         631         630
         626         627         632         631
         627         628         633         632
         628         629         634         633
         630         631         636         635
         631         632         637         636
         632         633         638         637
         633         634         639         638
         635         636         641         640
         636         637         642         641
         637         638         643         642
         638         639         644         643
         640         641         646         645
         641         642         647         646
         642         643         648         647
         643         644         649         648
         650         651         656         655
         651         652         657         656
         652         653         658         657
         653         654         659         658
         655         656         661         660
         656         657         662         661
         657         658         663         662
         658         659         664         663
         660         661         666         665
         661         662         667         666
         662         663         668         667
         663         664         669         668
         665         666         671         670
         666         667         672         671
         667         668         673         672
         668         669         674         673
         675         676         681         680
         676         677         682         681
         677         678         683         682
         678         679         684         683
         680         681         686         685
         681         682         687         686
         682         683         688         687
         683         684         689         688
         685         686         691         690
         686         687         692         691
         687         688         693         692
         688         689         694         693
         690         691         696         695
         691         692         697         696
         692         693         698         697
         693         694         699         698
         700         701         706         705
         701         702         707         706
         702         703         708         707
         703         704         709         708
         705         706         711         710
         706         707         712         711
         707         708         713         712
         708         709         714         713
         710         711         716         715
         711         712         717         716
         712         713         718         717
         713         714         719         718
         715         716         721         720
         716         717         722         721
         717         718         723         722
         718         719         724         723
         725         726         731         730
         726         727         732         731
         727         728         733         732
         728         729         734         733
         730         731         736         735
         731         732         737         736
         732         733         738         737
         733         734         739         738
         735         736         741         740
         736         737         742         741
         737         738         743         742
         738         739         744         743
         740         741         746         745
         741         742         747         746
         742         743         748         747
         743         744         749         748
         750         751         756         755
         751         752         757         756
         752         753         758         757
         753         754         759         758
         755         756         761         760
         756         757         762         761
         757         758         763         762
         758         759         764         763
         760         761         766         765
         761         762         767         766
         762         763         768         767
         763         764         769         768
         765         766         771         770
         766         767         772         771
         767         768         773         772
         768         769         774         773
         775         776         781         780
         776         777         782         781
         777         778         783         782
         778         779         784         783
         780         781         786         785
         781         782         787         786
         782         783         788         787
         783         784         789         788
         785         786         791         790
         786         787         792         791
         787         788         793         792
         788         789         794         793
         790         791         796         795
         791         792         797         796
         792         793         798         797
         793         794         799         798
         800         801         806         805
         801         802         807         806
         802         803         808         807
         803         804         809         808
         805         806         811         810
         806         807         812         811
         807         808         813         812
         808         809         814         813
         810         811         816         815
         811         812         817         816
         812         813         818         817
         813         814         819         818
         815         816         821         820
         816         817         822         821
         817         818         823         822
         818         819         824         823
         825         826         831         830
         826         827         832         831
         827         828         833         832
         828         829         834         833
         830         831         836         835
         831         832         837         836
         832         833         838         837
         833         834         839         838
         835         836         841         840
         836         837         842         841
         837         838         843         842
         838         839         844         843
         840         841         846         845
         841         842         847         846
         842         843         848         847
         843         844         849         848
         850         851         856         855
         851         852         857         856
         852         853         858         857
         853         854         859         858
         855         856         861         860
         856         857         862         861
         857         858         863         862
         858         859         864         863
         860         861         866         865
         861         862         867         866
         862         863         868         867
         863         864         869         868
         865         866         871         870
         866         867         872         871
         867         868         873         872
         868         869         874         873
         875         876         881         880
         876         877         882         881
         877         878         883         882
         878         879         884         883
         880         881         886         885
         881         882         887         886
         882         883         888         887
         883         884         889         888
         885         886         891         890
         886         887         892         891
         887         888         893         892
         888         889         894         893
         890         891         896         895
         891         892         897         896
         892         893         898         897
         893         894         899         898
         900         901         906         905
         901         902         907         906
         902         903         908         907
         903         904         909         908
         905         906         911         910
         906         907         912         911
         907         908         913         912
         908         909         914         913
         910         911         916         915
         911         912         917         916
         912         913         918         917
         913         914         919         918
         915         916         921         920
         916         917         922         921
         917         918         923         922
         918         919         924         923
         925         926         931         930
         926         927         932         931
         927         928         933         932
         928         929         934         933
         930         931         936         935
         931         932         937         936
         932         933         938         937
         933         934         939         938
         935         936         941         940
         936         937         942         941
         937         938         943         942
         938         939         944         943
         940         941         946         945
         941         942         947         946
         942         943         948         947
         943         944         949         948
         950         951         956         955
         951         952         957         956
         952         953         958         957
         953         954         959         958
         955         956         961         960
         956         957         962         961
         957         958         963         962
         958         959         964         963
         960         961         966         965
         961         962         967         966
         962         963         968         967
         963         964         969         968
         965         966         971         970
         966         967         972         971
         967         968         973         972
         968         969         974         973
         975         976         981         980
         976         977         982         981
         977         978         983         982
         978         979         984         983
         980         981         986         985
         981         982         987         986
         982         983         988         987
         983         984         989         988
         985         986         991         990
         986         987         992         991
         987         988         993         992
         988         989         994         993
         990         991         996         995
         991         992         997         996
         992         993         998         997
         993         994         999         998
        1000        1001        1006        1005
        1001        1002        1007        1006
        1002        1003        1008        1007
        1003        1004        1009        1008
        1005        1006        1011        1010
        1006        1007        1012        1011
        1007        1008        1013        1012
        1008        1009        1014        1013
        1010        1011        1016        1015
        1011        1012        1017        1016
        1012        1013        1018        1017
        1013        1014        1019        1018
        1015        1016        1021        1020
        1016        1017        1022        1021
        1017        1018        1023        1022
        1018        1019        1024        1023
        1025        1026        1031        1030
        1026        1027        1032        1031
        1027        1028        1033        1032
        1028        1029        1034        1033
        1030        1031        1036        1035
        1031        1032        1037        1036
        1032        1033        1038        1037
        1033        1034        1039        1038
        1035        1036        1041        1040
        1036        1037        1042        1041
        1037        1038        1043        1042
        1038        1039        1044        1043
        1040        1041        1046        1045
        1041        1042        1047        1046
        1042        1043        1048        1047
        1043        1044        1049        1048
        1050        1051        1056        1055
        1051        1052        1057        1056
        1052        1053        1058        1057
        1053        1054        1059        1058
        1055        1056        1061        1060
        1056        1057        1062        1061
        1057        1058        1063        1062
        1058        1059        1064        1063
        1060        1061        1066        1065
        1061        1062        1067        1066
        1062        1063        1068        1067
        1063        1064        1069        1068
        1065        1066        1071        1070
        1066        1067        1072        1071
        1067        1068        1073        1072
        1068        1069        1074        1073
        1075        1076        1081        1080
        1076        1077        1082        1081
        1077        1078        1083        1082
        1078        1079        1084        1083
        1080        1081        1086        1085
        1081        1082        1087        1086
        1082        1083        1088        1087
        1083        1084        1089        1088
        1085        1086        1091        1090
        1086        1087        1092        1091
        1087        1088        1093        1092
        1088        1089        1094        1093
        1090        1091        1096        1095
        1091        1092        1097        1096
        1092        1093        1098        1097
        1093        1094        1099        1098
        1100        1101        1106        1105
        1101        1102        1107        1106
        1102        1103        1108        1107
        1103        1104        1109        1108
        1105        1106        1111        1110
        1106        1107        1112        1111
        1107        1108        1113        1112
        1108        1109        1114        1113
        1110        1111        1116        1115
        1111        1112        1117        1116
        1112        1113        1118        1117
        1113        1114        1119        1118
        1115        1116        1121        1120
        1116        1117        1122        1121
        1117        1118        1123        1122
        1118        1119        1124        1123
        1125        1126        1131        1130
        1126        1127        1132        1131
        1127        1128        1133        1132
        1128        1129        1134        1133
        1130        1131        1136        1135
        1131        1132        1137        1136
        1132        1133        1138        1137
        1133        1134        1139        1138
        1135        1136        1141        1140
        1136        1137        1142        1141
        1137        1138        1143        1142
        1138        1139        1144        1143
        1140        1141        1146        1145
        1141        1142        1147        1146
        1142        1143        1148        1147
        1143        1144        1149        1148
        1150        1151        1156        1155
        1151        1152        1157        1156
        1152        1153        1158        1157
        1153        1154        1159        1158
        1155        1156        1161        1160
        1156        1157        1162        1161
        1157        1158        1163        1162
        1158        1159        1164        1163
        1160        1161        1166        1165
        1161        1162        1167        1166
        1162        1163        1168        1167
        1163        1164        1169        1168
        1165        1166        1171        1170
        1166        1167        1172        1171
        1167        1168        1173        1172
        1168        1169        1174        1173
        1175        1176        1181        1180
        1176        1177        1182        1181
        1177        1178        1183        1182
        1178        1179        1184        1183
        1180        1181        1186        1185
        1181        1182        1187        1186
        1182        1183        1188        1187
        1183        1184        1189        1188
        1185        1186        1191        1190
        1186        1187        1192        1191
        1187        1188        1193        1192
        1188        1189        1194        1193
        1190        1191        1196        1195
        1191        1192        1197        1196
        1192        1193        1198        1197
        1193        1194        1199        1198
        1200        1201        1206        1205
        1201        1202        1207        1206
        1202        1203        1208        1207
        1203        1204        1209        1208
        1205        1206        1211        1210
        1206        1207        1212        1211
        1207        1208        1213        1212
        1208        1209        1214        1213
        1210        1211        1216        1215
        1211        1212        1217        1216
        1212        1213        1218        1217
        1213        1214        1219        1218
        1215        1216        1221        1220
        1216        1217        1222        1221
        1217        1218        1223        1222
        1218        1219        1224        1223
        1225        1226        1231        1230
        1226        1227        1232        1231
        1227        1228        1233        1232
        1228        1229        1234        1233
        1230        1231        1236        1235
        1231        1232        1237        1236
        1232        1233        1238        1237
        1233        1234        1239        1238
        1235        1236        1241        1240
        1236        1237        1242        1241
        1237        1238        1243        1242
        1238        1239        1244        1243
        1240        1241        1246        1245
        1241        1242        1247        1246
        1242        1243        1248        1247
        1243        1244        1249        1248
        1250        1251        1256        1255
        1251        1252        1257        1256
        1252        1253        1258        1257
        1253        1254        1259        1258
        1255        1256        1261        1260
        1256        1257        1262        1261
        1257        1258        1263        1262
        1258        1259        1264        1263
        1260        1261        1266        1265
        1261        1262        1267        1266
        1262        1263        1268        1267
        1263        1264        1269        1268
        1265        1266        1271        1270
        1266        1267        1272        1271
        1267        1268        1273        1272
        1268        1269        1274        1273
        1275        1276        1281        1280
        1276        1277        1282        1281
        1277        1278        1283        1282
        1278        1279        1284        1283
        1280        1281        1286        1285
        1281        1282        1287        1286
        1282        1283        1288        1287
        1283        1284        1289        1288
        1285        1286        1291        1290
        1286        1287        1292        1291
        1287        1288        1293        1292
        1288        1289        1294        1293
        1290        1291        1296        1295
        1291        1292        1297        1296
        1292        1293        1298        1297
        1293        1294        1299        1298
        1300        1301        1306        1305
        1301        1302        1307        1306
        1302        1303        1308        1307
        1303        1304        1309        1308
        1305        1306        1311        1310
        1306        1307        1312        1311
        1307        1308        1313        1312
        1308        1309        1314        1313
        1310        1311        1316        1315
        1311        1312        1317        1316
        1312        1313        1318        1317
        1313        1314        1319        1318
        1315        1316        1321        1320
        1316        1317        1322        1321
        1317        1318        1323        1322
        1318        1319        1324        1323
        1325        1326        1331        1330
        1326        1327        1332        1331
        1327        1328        1333        1332
        1328        1329        1334        1333
        1330        1331        1336        1335
        1331        1332        1337        1336
        1332        1333        1338        1337
        1333        1334        1339        1338
        1335        1336        1341        1340
        1336        1337        1342        1341
        1337        1338        1343        1342
        1338        1339        1344        1343
        1340        1341        1346        1345
        1341        1342        1347        1346
        1342        1343        1348        1347
        1343        1344        1349        1348
        1350        1351        1356        1355
        1351        1352        1357        1356
        1352        1353        1358        1357
        1353        1354        1359        1358
        1355        1356        1361        1360
        1356        1357        1362        1361
        1357        1358        1363        1362
        1358        1359        1364        1363
        1360        1361        1366        1365
        1361        1362        1367        1366
        1362        1363        1368        1367
        1363        1364        1369        1368
        1365        1366        1371        1370
        1366        1367        1372        1371
        1367        1368        1373        1372
        1368        1369        1374        1373
        1375        1376        1381        1380
        1376        1377        1382        1381
        1377        1378        1383        1382
        1378        1379        1384        1383
        1380        1381        1386        1385
        1381        1382        1387        1386
        1382        1383        1388        1387
        1383        1384        1389        1388
        1385        1386        1391        1390
        1386        1387        1392        1391
        1387        1388        1393        1392
        1388        1389        1394        1393
        1390        1391        1396        1395
        1391        1392        1397        1396
        1392        1393        1398        1397
        1393        1394        1399        1398
        1400        1401        1406        1405
        1401        1402        1407        1406
        1402        1403        1408        1407
        1403        1404        1409        1408
        1405        1406        1411        1410
        1406        1407        1412        1411
        1407        1408        1413        1412
        1408        1409        1414        1413
        1410        1411        1416        1415
        1411        1412        1417        1416
        1412        1413        1418        1417
        1413        1414        1419        1418
        1415        1416        1421        1420
        1416        1417        1422        1421
        1417        1418        1423        1422
        1418        1419        1424        1423
        1425        1426        1431        1430
        1426        1427        1432        1431
        1427        1428        1433        1432
        1428        1429        1434        1433
        1430        1431        1436        1435
        1431        1432        1437        1436
        1432        1433        1438        1437
        1433        1434        1439        1438
        1435        1436        1441        1440
        1436        1437        1442        1441
        1437        1438        1443        1442
        1438        1439        1444        1443
        1440        1441        1446        1445
        1441        1442        1447        1446
        1442        1443        1448        1447
        1443        1444        1449        1448
        1450        1451        1456        1455
        1451        1452        1457        1456
        1452        1453        1458        1457
        1453        1454        1459        1458
        1455        1456        1461        1460
        1456        1457        1462        1461
        1457        1458        1463        1462
        1458        1459        1464        1463
        1460        1461        1466        1465
        1461        1462        1467        1466
        1462        1463        1468        1467
        1463        1464        1469        1468
        1465        1466        1471        1470
        1466        1467        1472        1471
        1467        1468        1473        1472
        1468        1469        1474        1473
        1475        1476        1481        1480
        1476        1477        1482        1481
        1477        1478        1483        1482
        1478        1479        1484        1483
        1480        1481        1486        1485
        1481        1482        1487        1486
        1482        1483        1488        1487
        1483        1484        1489        1488
        1485        1486        1491        1490
        1486        1487        1492        1491
        1487        1488        1493        1492
        1488        1489        1494        1493
        1490        1491        1496        1495
        1491        1492        1497        1496
        1492        1493        1498        1497
        1493        1494        1499        1498
        1500        1501        1506        1505
        1501        1502        1507        1506
        1502        1503        1508        1507
        1503        1504        1509        1508
        1505        1506        1511        1510
        1506        1507        1512        1511
        1507        1508        1513        1512
        1508        1509        1514        1513
        1510        1511        1516        1515
        1511        1512        1517        1516
        1512        1513        1518        1517
        1513        1514        1519        1518
        1515        1516        1521        1520
        1516        1517        1522        1521
        1517        1518        1523        1522
        1518        1519        1524        1523
        1525        1526        1531        1530
        1526        1527        1532        1531
        1527        1528        1533        1532
        1528        1529        1534        1533
        1530        1531        1536        1535
        1531        1532        1537        1536
        1532        1533        1538        1537
        1533        1534        1539        1538
        1535        1536        1541        1540
        1536        1537        1542        1541
        1537        1538        1543        1542
        1538        1539        1544        1543
        1540        1541        1546        1545
        1541        1542        1547        1546
        1542        1543        1548        1547
        1543        1544        1549        1548
        1550        1551        1556        1555
        1551        1552        1557        1556
        1552        1553        1558        1557
        1553        1554        1559        1558
        1555        1556        1561        1560
        1556        1557        1562        1561
        1557        1558        1563        1562
        1558        1559        1564        1563
        1560        1561        1566        1565
        1561        1562        1567        1566
        1562        1563        1568        1567
        1563        1564        1569        1568
        1565        1566        1571        1570
        1566        1567        1572        1571
        1567        1568        1573        1572
        1568        1569        1574        1573
        1575        1576        1581        1580
        1576        1577        1582        1581
        1577        1578        1583        1582
        1578        1579        1584        1583
        1580        1581        1586        1585
        1581        1582        1587        1586
        1582        1583        1588        1587
        1583        1584        1589        1588
        1585        1586        1591        1590
        1586        1587        1592        1591
        1587        1588        1593        1592
        1588        1589        1594        1593
        1590        1591        1596        1595
        1591        1592        1597        1596
        1592        1593        1598        1597
        1593        1594        1599        1598
 </DataArray>
 <DataArray  type="Int32"  Name="offsets"  format="ascii"> 
           4
           8
          12
          16
          20
          24
          28
          32
          36
          40
          44
          48
          52
          56
          60
          64
          68
          72
          76
          80
          84
          88
          92
          96
         100
         104
         108
         112
         116
         120
         124
         128
         132
         136
         140
         144
         148
         152
         156
         160
         164
         168
         172
         176
         180
         184
         188
         192
         196
         200
         204
         208
         212
         216
         220
         224
         228
         232
         236
         240
         244
         248
         252
         256
         260
         264
         268
         272
         276
         280
         284
         288
         292
         296
         300
         304
         308
         312
         316
         320
         324
         328
         332
         336
         340
         344
         348
         352
         356
         360
         364
         368
         372
         376
         380
         384
         388
         392
         396
         400
         404
         408
         412
         416
         420
         424
         428
         432
         436
         440
         444
         448
         452
         456
         460
         464
         468
         472
         476
         480
         484
         488
         492
         496
         500
         504
         508
         512
         516
         520
         524
         528
         532
         536
         540
         544
         548
         552
         556
         560
         564
         568
         572
         576
         580
         584
         588
         592
         596
         600
         604
         608
         612
         616
         620
         624
         628
         632
         636
         640
         644
         648
         652
         656
         660
         664
         668
         672
         676
         680
         684
         688
         692
         696
         700
         704
         708
         712
         716
         720
         724
         728
         732
         736
         740
         744
         748
         752
         756
         760
         764
         768
         772
         776
         780
         784
         788
         792
         796
         800
         804
         808
         812
         816
         820
         824
         828
         832
         836
         840
         844
         848
         852
         856
         860
         864
         868
         872
         876
         880
         884
         888
         892
         896
         900
         904
         908
         912
         916
         920
         924
         928
         932
         936
         940
         944
         948
         952
         956
         960
         964
         968
         972
         976
         980
         984
         988
         992
         996
        1000
        1004
        1008
        1012
        1016
        1020
        1024
        1028
        1032
        1036
        1040
        1044
        1048
        1052
        1056
        1060
        1064
        1068
        1072
        1076
        1080
        1084
        1088
        1092
        1096
        1100
        1104
        1108
        1112
        1116
        1120
        1124
        1128
        1132
        1136
        1140
        1144
        1148
        1152
        1156
        1160
        1164
        1168
        1172
        1176
        1180
        1184
        1188
        1192
        1196
        1200
        1204
        1208
        1212
        1216
        1220
        1224
        1228
        1232
        1236
        1240
        1244
        1248
        1252
        1256
        1260
        1264
        1268
        1272
        1276
        1280
        1284
        1288
        1292
        1296
        1300
        1304
        1308
        1312
        1316
        1320
        1324
        1328
        1332
        1336
        1340
        1344
        1348
        1352
        1356
        1360
        1364
        1368
        1372
        1376
        1380
        1384
        1388
        1392
        1396
        1400
        1404
        1408
        1412
        1416
        1420
        1424
        1428
        1432
        1436
        1440
        1444
        1448
        1452
        1456
        1460
        1464
        1468
        1472
        1476
        1480
        1484
        1488
        1492
        1496
        1500
        1504
        1508
        1512
        1516
        1520
        1524
        1528
        1532
        1536
        1540
        1544
        1548
        1552
        1556
        1560
        1564
        1568
        1572
        1576
        1580
        1584
        1588
        1592
        1596
        1600
        1604
        1608
        1612
        1616
        1620
        1624
        1628
        1632
        1636
        1640
        1644
        1648
        1652
        1656
        1660
        1664
        1668
        1672
        1676
        1680
        1684
        1688
        1692
        1696
        1700
        1704
        1708
        1712
        1716
        1720
        1724
        1728
        1732
        1736
        1740
        1744
        1748
        1752
        1756
        1760
        1764
        1768
        1772
        1776
        1780
        1784
        1788
        1792
        1796
        1800
        1804
        1808
        1812
        1816
        1820
        1824
        1828
        1832
        1836
        1840
        1844
        1848
        1852
        1856
        1860
        1864
        1868
        1872
        1876
        1880
        1884
        1888
        1892
        1896
        1900
        1904
        1908
        1912
        1916
        1920
        1924
        1928
        1932
        1936
        1940
        1944
        1948
        1952
        1956
        1960
        1964
        1968
        1972
        1976
        1980
        1984
        1988
        1992
        1996
        2000
        2004
        2008
        2012
        2016
        2020
        2024
        2028
        2032
        2036
        2040
        2044
        2048
        2052
        2056
        2060
        2064
        2068
        2072
        2076
        2080
        2084
        2088
        2092
        2096
        2100
        2104
        2108
        2112
        2116
        2120
        2124
        2128
        2132
        2136
        2140
        2144
        2148
        2152
        2156
        2160
        2164
        2168
        2172
        2176
        2180
        2184
        2188
        2192
        2196
        2200
        2204
        2208
        2212
        2216
        2220
        2224
        2228
        2232
        2236
        2240
        2244
        2248
        2252
        2256
        2260
        2264
        2268
        2272
        2276
        2280
        2284
        2288
        2292
        2296
        2300
        2304
        2308
        2312
        2316
        2320
        2324
        2328
        2332
        2336
        2340
        2344
        2348
        2352
        2356
        2360
        2364
        2368
        2372
        2376
        2380
        2384
        2388
        2392
        2396
        2400
        2404
        2408
        2412
        2416
        2420
        2424
        2428
        2432
        2436
        2440
        2444
        2448
        2452
        2456
        2460
        2464
        2468
        2472
        2476
        2480
        2484
        2488
        2492
        2496
        2500
        2504
        2508
        2512
        2516
        2520
        2524
        2528
        2532
        2536
        2540
        2544
        2548
        2552
        2556
        2560
        2564
        2568
        2572
        2576
        2580
        2584
        2588
        2592
        2596
        2600
        2604
        2608
        2612
        2616
        2620
        2624
        2628
        2632
        2636
        2640
        2644
        2648
        2652
        2656
        2660
        2664
        2668
        2672
        2676
        2680
        2684
        2688
        2692
        2696
        2700
        2704
        2708
        2712
        2716
        2720
        2724
        2728
        2732
        2736
        2740
        2744
        2748
        2752
        2756
        2760
        2764
        2768
        2772
        2776
        2780
        2784
        2788
        2792
        2796
        2800
        2804
        2808
        2812
        2816
        2820
        2824
        2828
        2832
        2836
        2840
        2844
        2848
        2852
        2856
        2860
        2864
        2868
        2872
        2876
        2880
        2884
        2888
        2892
        2896
        2900
        2904
        2908
        2912
        2916
        2920
        2924
        2928
        2932
        2936
        2940
        2944
        2948
        2952
        2956
        2960
        2964
        2968
        2972
        2976
        2980
        2984
        2988
        2992
        2996
        3000
        3004
        3008
        3012
        3016
        3020
        3024
        3028
        3032
        3036
        3040
        3044
        3048
        3052
        3056
        3060
        3064
        3068
        3072
        3076
        3080
        3084
        3088
        3092
        3096
        3100
        3104
        3108
        3112
        3116
        3120
        3124
        3128
        3132
        3136
        3140
        3144
        3148
        3152
        3156
        3160
        3164
        3168
        3172
        3176
        3180
        3184
        3188
        3192
        3196
        3200
        3204
        3208
        3212
        3216
        3220
        3224
        3228
        3232
        3236
        3240
        3244
        3248
        3252
        3256
        3260
        3264
        3268
        3272
        3276
        3280
        3284
        3288
        3292
        3296
        3300
        3304
        3308
        3312
        3316
        3320
        3324
        3328
        3332
        3336
        3340
        3344
        3348
        3352
        3356
        3360
        3364
        3368
        3372
        3376
        3380
        3384
        3388
        3392
        3396
        3400
        3404
        3408
        3412
        3416
        3420
        3424
        3428
        3432
        3436
        3440
        3444
        3448
        3452
        3456
        3460
        3464
        3468
        3472
        3476
        3480
        3484
        3488
        3492
        3496
        3500
        3504
        3508
        3512
        3516
        3520
        3524
        3528
        3532
        3536
        3540
        3544
        3548
        3552
        3556
        3560
        3564
        3568
        3572
        3576
        3580
        3584
        3588
        3592
        3596
        3600
        3604
        3608
        3612
        3616
        3620
        3624
        3628
        3632
        3636
        3640
        3644
        3648
        3652
        3656
        3660
        3664
        3668
        3672
        3676
        3680
        3684
        3688
        3692
        3696
        3700
        3704
        3708
        3712
        3716
        3720
        3724
        3728
        3732
        3736
        3740
        3744
        3748
        3752
        3756
        3760
        3764
        3768
        3772
        3776
        3780
        3784
        3788
        3792
        3796
        3800
        3804
        3808
        3812
        3816
        3820
        3824
        3828
        3832
        3836
        3840
        3844
        3848
        3852
        3856
        3860
        3864
        3868
        3872
        3876
        3880
        3884
        3888
        3892
        3896
        3900
        3904
        3908
        3912
        3916
        3920
        3924
        3928
        3932
        3936
        3940
        3944
        3948
        3952
        3956
        3960
        3964
        3968
        3972
        3976
        3980
        3984
        3988
        3992
        3996
        4000
        4004
        4008
        4012
        4016
        4020
        4024
        4028
        4032
        4036
        4040
        4044
        4048
        4052
        4056
        4060
        4064
        4068
        4072
        4076
        4080
        4084
        4088
        4092
        4096
 </DataArray>
 <DataArray  type="UInt8"  Name="types"  format="ascii">
 9
 9
 9
 9
 9
 9
 9
 9
 9
 9
 9
 9
 9
 9
 9
 9
 9
 9
 9
 9
 9
 9
 9
 9
 9
 9
 9
 9
 9
 9
 9
 9
 9
 9
 9
 9
 9
 9
 9
 9
 9
 9
 9
 9
 9
 9
 9
 9
 9
 9
 9
 9
 9
 9
 9
 9
 9
 9
 9
 9
 9
 9
 9
 9
 9
 9
 9
 9
 9
 9
 9
 9
 9
 9
 9
 9
 9
 9
 9
 9
 9
 9
 9
 9
 9
 9
 9
 9
 9
 9
 9
 9
 9
 9
 9
 9
 9
 9
 9
 9
 9
 9
 9
 9
 9
 9
 9
 9
 9
 9
 9
 9
 9
 9
 9
 9
 9
 9
 9
 9
 9
 9
 9
 9
 9
 9
 9
 9
 9
 9
 9
 9
 9
 9
 9
 9
 9
 9
 9
 9
 9
 9
 9
 9
 9
 9
 9
 9
 9
 9
 9
 9
 9
 9
 9
 9
 9
 9
 9
 9
 9
 9
 9
 9
 9
 9
 9
 9
 9
 9
 9
 9
 9
 9
 9
 9
 9
 9
 9
 9
 9
 9
 9
 9
 9
 9
 9
 9
 9
 9
 9
 9
 9
 9
 9
 9
 9
 9
 9
 9
 9
 9
 9
 9
 9
 9
 9
 9
 9
 9
 9
 9
 9
 9
 9
 9
 9
 9
 9
 9
 9
 9
 9
 9
 9
 9
 9
 9
 9
 9
 9
 9
 9
 9
 9
 9
 9
 9
 9
 9
 9
 9
 9
 9
 9
 9
 9
 9
 9
 9
 9
 9
 9
 9
 9
 9
 9
 9
 9
 9
 9
 9
 9
 9
 9
 9
 9
 9
 9
 9
 9
 9
 9
 9
 9
 9
 9
 9
 9
 9
 9
 9
 9
 9
 9
 9
 9
 9
 9
 9
 9
 9
 9
 9
 9
 9
 9
 9
 9
 9
 9
 9
 9
 9
 9
 9
 9
 9
 9
 9
 9
 9
 9
 9
 9
 9
 9
 9
 9
 9
 9
 9
 9
 9
 9
 9
 9
 9
 9
 9
 9
 9
 9
 9
 9
 9
 9
 9
 9
 9
 9
 9
 9
 9
 9
 9
 9
 9
 9
 9
 9
 9
 9
 9
 9
 9
 9
 9
 9
 9
 9
 9
 9
 9
 9
 9
 9
 9
 9
 9
 9
 9
 9
 9
 9
 9
 9
 9
 9
 9
 9
 9
 9
 9
 9
 9
 9
 9
 9
 9
 9
 9
 9
 9
 9
 9
 9
 9
 9
 9
 9
 9
 9
 9
 9
 9
 9
 9
 9
 9
 9
 9
 9
 9
 9
 9
 9
 9
 9
 9
 9
 9
 9
 9
 9
 9
 9
 9
 9
 9
 9
 9
 9
 9
 9
 9
 9
 9
 9
 9
 9
 9
 9
 9
 9
 9
 9
 9
 9
 9
 9
 9
 9
 9
 9
 9
 9
 9
 9
 9
 9
 9
 9
 9
 9
 9
 9
 9
 9
 9
 9
 9
 9
 9
 9
 9
 9
 9
 9
 9
 9
 9
 9
 9
 9
 9
 9
 9
 9
 9
 9
 9
 9
 9
 9
 9
 9
 9
 9
 9
 9
 9
 9
 9
 9
 9
 9
 9
 9
 9
 9
 9
 9
 9
 9
 9
 9
 9
 9
 9
 9
 9
 9
 9
 9
 9
 9
 9
 9
 9
 9
 9
 9
 9
 9
 9
 9
 9
 9
 9
 9
 9
 9
 9
 9
 9
 9
 9
 9
 9
 9
 9
 9
 9
 9
 9
 9
 9
 9
 9
 9
 9
 9
 9
 9
 9
 9
 9
 9
 9
 9
 9
 9
 9
 9
 9
 9
 9
 9
 9
 9
 9
 9
 9
 9
 9
 9
 9
 9
 9
 9
 9
 9
 9
 9
 9
 9
 9
 9
 9
 9
 9
 9
 9
 9
 9
 9
 9
 9
 9
 9
 9
 9
 9
 9
 9
 9
 9
 9
 9
 9
 9
 9
 9
 9
 9
 9
 9
 9
 9
 9
 9
 9
 9
 9
 9
 9
 9
 9
 9
 9
 9
 9
 9
 9
 9
 9
 9
 9
 9
 9
 9
 9
 9
 9
 9
 9
 9
 9
 9
 9
 9
 9
 9
 9
 9
 9
 9
 9
 9
 9
 9
 9
 9
 9
 9
 9
 9
 9
 9
 9
 9
 9
 9
 9
 9
 9
 9
 9
 9
 9
 9
 9
 9
 9
 9
 9
 9
 9
 9
 9
 9
 9
 9
 9
 9
 9
 9
 9
 9
 9
 9
 9
 9
 9
 9
 9
 9
 9
 9
 9
 9
 9
 9
 9
 9
 9
 9
 9
 9
 9
 9
 9
 9
 9
 9
 9
 9
 9
 9
 9
 9
 9
 9
 9
 9
 9
 9
 9
 9
 9
 9
 9
 9
 9
 9
 9
 9
 9
 9
 9
 9
 9
 9
 9
 9
 9
 9
 9
 9
 9
 9
 9
 9
 9
 9
 9
 9
 9
 9
 9
 9
 9
 9
 9
 9
 9
 9
 9
 9
 9
 9
 9
 9
 9
 9
 9
 9
 9
 9
 9
 9
 9
 9
 9
 9
 9
 9
 9
 9
 9
 9
 9
 9
 9
 9
 9
 9
 9
 9
 9
 9
 9
 9
 9
 9
 9
 9
 9
 9
 9
 9
 9
 9
 9
 9
 9
 9
 9
 9
 9
 9
 9
 9
 9
 9
 9
 9
 9
 9
 9
 9
 9
 9
 9
 9
 9
 9
 9
 9
 9
 9
 9
 9
 9
 9
 9
 9
 9
 9
 9
 9
 9
 9
 9
 9
 9
 9
 9
 9
 9
 9
 9
 9
 9
 9
 9
 9
 9
 9
 9
 9
 9
 9
 9
 9
 9
 9
 9
 9
 9
 9
 9
 9
 9
 9
 9
 9
 9
 9
 9
 9
 9
 9
 9
 9
 9
 9
 9
 9
 9
 9
 9
 9
 9
 9
 9
 9
 9
 9
 9
 9
 9
 9
 9
 9
 9
 9
 9
 9
 9
 9
 9
 9
 9
 9
 9
 9
 9
 9
 9
 9
 9
 9
 9
 9
 9
 9
 9
 9
 9
 9
 9
 9
 9
 9
 9
 9
 9
 9
 9
 9
 9
 9
 9
 9
 9
 9
 9
 9
 9
 9
 9
 9
 9
 9
 9
 9
 9
 9
 9
 9
 9
 9
 9
 9
 9
 9
 9
 9
 9
 9
 9
 9
 9
 9
 9
 9
 9
 9
 9
 9
 9
 9
 9
 9
 9
 9
 9
 9
 9
 9
 9
 9
 </DataArray>
 </Cells> 
 <PointData>
 <DataArray  type="Float64" Name="disp" NumberOfComponents="3" format="ascii">
   6.5251074949790849E-002   6.2751416717414923E-002   0.0000000000000000     
   6.8380538303467520E-002   6.8157634497459943E-002   0.0000000000000000     
   7.1383344260542950E-002   7.3737862768412807E-002   0.0000000000000000     
   7.4259492821017167E-002   7.9492101530273515E-002   0.0000000000000000     
   7.7008983984890172E-002   8.5420350783042054E-002   0.0000000000000000     
   6.0101295650713947E-002   6.1892188860095718E-002   0.0000000000000000     
   6.3027508941972676E-002   6.7297466016134386E-002   0.0000000000000000     
   6.5837324814227452E-002   7.2887083525608853E-002   0.0000000000000000     
   6.8530743267478253E-002   7.8661041388519121E-002   0.0000000000000000     
   7.1107764301725079E-002   8.4619339604865187E-002   0.0000000000000000     
   5.5134152334518134E-002   6.1067891813108635E-002   0.0000000000000000     
   5.7863524087564178E-002   6.6484116682344066E-002   0.0000000000000000     
   6.0484895489821763E-002   7.2090263606396712E-002   0.0000000000000000     
   6.2998266541290898E-002   7.7886332585266532E-002   0.0000000000000000     
   6.5403637241971568E-002   8.3872323618953595E-002   0.0000000000000000     
   5.0349645001203418E-002   6.0278525576453704E-002   0.0000000000000000     
   5.2888583740241975E-002   6.5717586496089012E-002   0.0000000000000000     
   5.5326056287325870E-002   7.1347403010776370E-002   0.0000000000000000     
   5.7662062642455089E-002   7.7167975120515778E-002   0.0000000000000000     
   5.9896602805629653E-002   8.3179302825307222E-002   0.0000000000000000     
   4.5747773650769791E-002   5.9524090150130909E-002   0.0000000000000000     
   4.8102687900006089E-002   6.4997875457369195E-002   0.0000000000000000     
   5.0360807206739772E-002   7.0658501738747825E-002   0.0000000000000000     
   5.2522131570970861E-002   7.6505968994266801E-002   0.0000000000000000     
   5.4586660992699321E-002   8.2540277223926123E-002   0.0000000000000000     
   7.7008983984890172E-002   8.5420350783042054E-002   0.0000000000000000     
   7.9654542559459168E-002   9.1514533492271469E-002   0.0000000000000000     
   8.2218893352021302E-002   9.7766572623514875E-002   0.0000000000000000     
   8.4702036362576616E-002  0.10417646817677222        0.0000000000000000     
   8.7103971591125096E-002  0.11074422015204352        0.0000000000000000     
   7.1107764301725079E-002   8.4619339604865187E-002   0.0000000000000000     
   7.3588909768505212E-002   9.0747527255357521E-002   0.0000000000000000     
   7.5994701519355889E-002   9.7031153420706576E-002   0.0000000000000000     
   7.8325139554277168E-002  0.10347021810091238        0.0000000000000000     
   8.0580223873268977E-002  0.11006472129597492        0.0000000000000000     
   6.5403637241971568E-002   8.3872323618953595E-002   0.0000000000000000     
   6.7720088412236132E-002   9.0030295913749128E-002   0.0000000000000000     
   6.9966700872456961E-002   9.6342308675944413E-002   0.0000000000000000     
   7.2143474622634027E-002  0.10280836190553952        0.0000000000000000     
   7.4250409662767358E-002  0.10942845560253441        0.0000000000000000     
   5.9896602805629653E-002   8.3179302825307222E-002   0.0000000000000000     
   6.2048078490651977E-002   8.9362839467446248E-002   0.0000000000000000     
   6.4134891411324502E-002   9.5700038389228401E-002   0.0000000000000000     
   6.6157041567647262E-002  0.10219089959065364        0.0000000000000000     
   6.8114528959620210E-002  0.10883542307172199        0.0000000000000000     
   5.4586660992699321E-002   8.2540277223926123E-002   0.0000000000000000     
   5.6572880003752705E-002   8.8745157916448950E-002   0.0000000000000000     
   5.8499273135958534E-002   9.5104342560558511E-002   0.0000000000000000     
   6.0365840389316826E-002  0.10161783115625475        0.0000000000000000     
   6.2172581763827561E-002  0.10828562370353773        0.0000000000000000     
   8.7103971591125096E-002  0.11074422015204352        0.0000000000000000     
   8.9414485771795810E-002  0.11745759184063082        0.0000000000000000     
   9.1623365638717799E-002  0.12430434653383604        0.0000000000000000     
   9.3730611191891078E-002  0.13128448423165928        0.0000000000000000     
   9.5736222431315632E-002  0.13839800493410048        0.0000000000000000     
   8.0580223873268977E-002  0.11006472129597492        0.0000000000000000     
   8.2749282387081666E-002  0.11680404066192603        0.0000000000000000     
   8.4821643006465483E-002  0.12367755385479763        0.0000000000000000     
   8.6797305731420471E-002  0.13068526087458968        0.0000000000000000     
   8.8676270561946574E-002  0.13782716172130222        0.0000000000000000     
   7.4250409662767358E-002  0.10942845560253441        0.0000000000000000     
   7.6276745305769958E-002  0.11619292229820652        0.0000000000000000     
   7.8211720864554857E-002  0.12309209452383335        0.0000000000000000     
   8.0055336339122068E-002  0.13012597227941486        0.0000000000000000     
   8.1807591729471565E-002  0.13729455556495113        0.0000000000000000     
   6.8114528959620210E-002  0.10883542307172199        0.0000000000000000     
   6.9996874527860645E-002  0.11562423674947225        0.0000000000000000     
   7.1793599212985879E-002  0.12254796854094321        0.0000000000000000     
   7.3504703014995856E-002  0.12960661844613489        0.0000000000000000     
   7.5130185933890592E-002  0.13680018646504727        0.0000000000000000     
   6.2172581763827561E-002  0.10828562370353773        0.0000000000000000     
   6.3909670053353795E-002  0.11509798401572326        0.0000000000000000     
   6.5567278051758549E-002  0.12204517590612725        0.0000000000000000     
   6.7145405759041848E-002  0.12912719937474973        0.0000000000000000     
   6.8644053175203654E-002  0.13634405442159059        0.0000000000000000     
   9.5736222431315632E-002  0.13839800493410048        0.0000000000000000     
   9.7645197021136304E-002  0.14563327730753034        0.0000000000000000     
   9.9462532625497868E-002  0.15297867001831950        0.0000000000000000     
  0.10118822924440037       0.16043418306646795        0.0000000000000000     
  0.10282228687784375       0.16799981645197570        0.0000000000000000     
   8.8676270561946574E-002  0.13782716172130222        0.0000000000000000     
   9.0464267531469342E-002  0.14509073056754504        0.0000000000000000     
   9.2167026673414212E-002  0.15246344158592795        0.0000000000000000     
   9.3784547987781242E-002  0.15994529477645103        0.0000000000000000     
   9.5316831474570402E-002  0.16753629013911417        0.0000000000000000     
   8.1807591729471565E-002  0.13729455556495113        0.0000000000000000     
   8.3474359032857562E-002  0.14458479522774484        0.0000000000000000     
   8.5061510246534258E-002  0.15198364211509882        0.0000000000000000     
   8.6569045370501668E-002  0.15949109622701302        0.0000000000000000     
   8.7996964404759750E-002  0.16710715756348746        0.0000000000000000     
   7.5130185933890592E-002  0.13680018646504727        0.0000000000000000     
   7.6675471525301006E-002  0.14411547128812985        0.0000000000000000     
   7.8145983344858019E-002  0.15153927160583208        0.0000000000000000     
   7.9541721392561590E-002  0.15907158741815397        0.0000000000000000     
   8.0862685668411774E-002  0.16671241872509554        0.0000000000000000     
   6.8644053175203654E-002  0.13634405442159059        0.0000000000000000     
   7.0067605008799647E-002  0.14368275874869990        0.0000000000000000     
   7.1420445968385440E-002  0.15113033005812765        0.0000000000000000     
   7.2702576053961077E-002  0.15868676834987383        0.0000000000000000     
   7.3913995265526528E-002  0.16635207362393839        0.0000000000000000     
  0.10282228687784375       0.16799981645197570        0.0000000000000000     
  0.10436780264562191       0.17566523733589098        0.0000000000000000     
  0.10582787366752876       0.18342011287926210        0.0000000000000000     
  0.10720249994356422       0.19126444308208901        0.0000000000000000     
  0.10849168147372834       0.19919822794437170        0.0000000000000000     
   9.5316831474570402E-002  0.16753629013911417        0.0000000000000000     
   9.6764517900537111E-002  0.17522693028003017        0.0000000000000000     
   9.8128248032436888E-002  0.18300771780531166        0.0000000000000000     
   9.9408021870269633E-002  0.19087865271495871        0.0000000000000000     
  0.10060383941403542       0.19883973500897129        0.0000000000000000     
   8.7996964404759750E-002  0.16710715756348746        0.0000000000000000     
   8.9344224873833769E-002  0.17482273232317819        0.0000000000000000     
   9.0609784302248947E-002  0.18262872670474117        0.0000000000000000     
   9.1793642690005312E-002  0.19052514070817647        0.0000000000000000     
   9.2895800037102863E-002  0.19851197433348411        0.0000000000000000     
   8.0862685668411774E-002  0.16671241872509554        0.0000000000000000     
   8.2106923565511816E-002  0.17445264346533498        0.0000000000000000     
   8.3272482476964976E-002  0.18228313957755055        0.0000000000000000     
   8.4359362402771254E-002  0.19020390706174228        0.0000000000000000     
   8.5367563342930636E-002  0.19821494591791014        0.0000000000000000     
   7.3913995265526528E-002  0.16635207362393839        0.0000000000000000     
   7.5052613975571308E-002  0.17411666370650064        0.0000000000000000     
   7.6116342556584976E-002  0.18197095642373989        0.0000000000000000     
   7.7105181008567461E-002  0.18991495177565612        0.0000000000000000     
   7.8019129331518805E-002  0.19794864976224938        0.0000000000000000     
  0.10849168147372834       0.19919822794437170        0.0000000000000000     
  0.10970034213249116       0.20721761363095964        0.0000000000000000     
  0.11083340579432276       0.21531874630670228        0.0000000000000000     
  0.11189087245922305       0.22350162597159953        0.0000000000000000     
  0.11287274212719212       0.23176625262565143        0.0000000000000000     
  0.10060383941403542       0.19883973500897129        0.0000000000000000     
  0.10172106868656380       0.20688467138129030        0.0000000000000000     
  0.10276507771068433       0.21500716852585658        0.0000000000000000     
  0.10373586648639704       0.22320722644267019        0.0000000000000000     
  0.10463343501370193       0.23148484513173112        0.0000000000000000     
   9.2895800037102863E-002  0.19851197433348411        0.0000000000000000     
   9.3921091713865715E-002  0.20658156375300299        0.0000000000000000     
   9.4874353090618119E-002  0.21472624513907204        0.0000000000000000     
   9.5755584167360061E-002  0.22294601849169135        0.0000000000000000     
   9.6564784944091486E-002  0.23124088381086083        0.0000000000000000     
   8.5367563342930636E-002  0.19821494591791014        0.0000000000000000     
   8.6300411214396994E-002  0.20630829074609769        0.0000000000000000     
   8.7161231934124131E-002  0.21447597614634864        0.0000000000000000     
   8.7950025502112034E-002  0.22271800211866297        0.0000000000000000     
   8.8666791918360743E-002  0.23103436866304067        0.0000000000000000     
   7.8019129331518805E-002  0.19794864976224938        0.0000000000000000     
   7.8859027188157571E-002  0.20606485236057451        0.0000000000000000     
   7.9625714241202322E-002  0.21425636154768640        0.0000000000000000     
   8.0319190490653045E-002  0.22252317732358512        0.0000000000000000     
   8.0939455936509780E-002  0.23086529968827055        0.0000000000000000     
  0.11287274212719212       0.23176625262565143        0.0000000000000000     
  0.11380732629546880       0.24012918004892403        0.0000000000000000     
  0.11472293646129203       0.24860696202148336        0.0000000000000000     
  0.11561957262466176       0.25719959854332930        0.0000000000000000     
  0.11649723478557804       0.26590708961446208        0.0000000000000000     
  0.10463343501370193       0.23148484513173112        0.0000000000000000     
  0.10546282725017343       0.23986348503681362        0.0000000000000000     
  0.10622908715338603       0.24836660660169207        0.0000000000000000     
  0.10693221472333969       0.25699420982636639        0.0000000000000000     
  0.10757220996003444       0.26574629471083672        0.0000000000000000     
   9.6564784944091486E-002  0.23124088381086083        0.0000000000000000     
   9.7292753206879551E-002  0.23963727988519640        0.0000000000000000     
   9.7930286741791425E-002  0.24816164550331382        0.0000000000000000     
   9.8477385548827082E-002  0.25681398066521316        0.0000000000000000     
   9.8934049627986534E-002  0.26559428537089436        0.0000000000000000     
   8.8666791918360743E-002  0.23103436866304067        0.0000000000000000     
   8.9297104165587185E-002  0.23945056459407232        0.0000000000000000     
   8.9826535226508256E-002  0.24799207872634868        0.0000000000000000     
   9.0255085101123955E-002  0.25665891105986960        0.0000000000000000     
   9.0582753789434312E-002  0.26545106159463516        0.0000000000000000     
   8.0939455936509780E-002  0.23086529968827055        0.0000000000000000     
   8.1475880126296307E-002  0.23930333916344149        0.0000000000000000     
   8.1917832607536489E-002  0.24785790627079651        0.0000000000000000     
   8.2265313380230312E-002  0.25652900101033566        0.0000000000000000     
   8.2518322444377776E-002  0.26531662338205886        0.0000000000000000     
  0.11649723478557804       0.26590708961446208        0.0000000000000000     
  0.11729623756116683       0.27489403654707656        0.0000000000000000     
  0.11795689556855421       0.28432504065336783        0.0000000000000000     
  0.11847920880774011       0.29420010193333612        0.0000000000000000     
  0.11886317727872457       0.30451922038698109        0.0000000000000000     
  0.10757220996003444       0.26574629471083672        0.0000000000000000     
  0.10813009601019488       0.27475501366363819        0.0000000000000000     
  0.10858689602054564       0.28415251909330619        0.0000000000000000     
  0.10894260999108668       0.29393881099984059        0.0000000000000000     
  0.10919723792181805       0.30411388938324152        0.0000000000000000     
   9.8934049627986534E-002  0.26559428537089436        0.0000000000000000     
   9.9311316236070285E-002  0.27460086309654691        0.0000000000000000     
   9.9620222629878866E-002  0.28393201731836015        0.0000000000000000     
   9.9860768809412290E-002  0.29358774803633403        0.0000000000000000     
  0.10003295477467053       0.30356805525046870        0.0000000000000000     
   9.0582753789434312E-002  0.26545106159463516        0.0000000000000000     
   9.0839898238793043E-002  0.27443158484580266        0.0000000000000000     
   9.1056875396553896E-002  0.28366353532852984        0.0000000000000000     
   9.1233685262716899E-002  0.29314691304281648        0.0000000000000000     
   9.1370327837281995E-002  0.30288171798866259        0.0000000000000000     
   8.2518322444377776E-002  0.26531662338205886        0.0000000000000000     
   8.2715842018363156E-002  0.27424717891140560        0.0000000000000000     
   8.2896854320570729E-002  0.28334707312381524        0.0000000000000000     
   8.3061359351000494E-002  0.29261630601928790        0.0000000000000000     
   8.3209357109652465E-002  0.30205487759782335        0.0000000000000000     
   4.5747773650769791E-002   5.9524090150130909E-002   0.0000000000000000     
   4.8102687900006089E-002   6.4997875457369195E-002   0.0000000000000000     
   5.0360807206739772E-002   7.0658501738747825E-002   0.0000000000000000     
   5.2522131570970861E-002   7.6505968994266801E-002   0.0000000000000000     
   5.4586660992699321E-002   8.2540277223926123E-002   0.0000000000000000     
   4.1314989890779030E-002   5.8825089686197457E-002   0.0000000000000000     
   4.3485638067193334E-002   6.4333862835186856E-002   0.0000000000000000     
   4.5564254050490124E-002   7.0024802325569416E-002   0.0000000000000000     
   4.7550837840669401E-002   7.5897908157345123E-002   0.0000000000000000     
   4.9445389437731156E-002   8.1953180330513978E-002   0.0000000000000000     
   3.7037745328792941E-002   5.8202028336710565E-002   0.0000000000000000     
   3.9017235742140541E-002   6.3734427898544235E-002   0.0000000000000000     
   4.0911502621003563E-002   6.9447547306499449E-002   0.0000000000000000     
   4.2720545965381954E-002   7.5341386560576221E-002   0.0000000000000000     
   4.4444365775275746E-002   8.1415945660774536E-002   0.0000000000000000     
   3.2916039964811503E-002   5.7654906101670240E-002   0.0000000000000000     
   3.4697480924847729E-002   6.3199570647441319E-002   0.0000000000000000     
   3.6402552918280061E-002   6.8926736681537940E-002   0.0000000000000000     
   3.8031255945108505E-002   7.4836404203960080E-002   0.0000000000000000     
   3.9583590005333083E-002   8.0928573214707769E-002   0.0000000000000000     
   2.8949873798834718E-002   5.7183722981076469E-002   0.0000000000000000     
   3.0526373615314864E-002   6.2729291081878122E-002   0.0000000000000000     
   3.2037404942319651E-002   6.8462370450684859E-002   0.0000000000000000     
   3.3482967779849084E-002   7.4382961087496716E-002   0.0000000000000000     
   3.4863062127903161E-002   8.0491062992313678E-002   0.0000000000000000     
   5.4586660992699321E-002   8.2540277223926123E-002   0.0000000000000000     
   5.6572880003752705E-002   8.8745157916448950E-002   0.0000000000000000     
   5.8499273135958534E-002   9.5104342560558511E-002   0.0000000000000000     
   6.0365840389316826E-002  0.10161783115625475        0.0000000000000000     
   6.2172581763827561E-002  0.10828562370353773        0.0000000000000000     
   4.9445389437731156E-002   8.1953180330513978E-002   0.0000000000000000     
   5.1266346517178742E-002   8.8177131804494047E-002   0.0000000000000000     
   5.3032146754515487E-002   9.4556275538703313E-002   0.0000000000000000     
   5.4742790149741399E-002  0.10109061153314181        0.0000000000000000     
   5.6398276702856479E-002  0.10778013978780956        0.0000000000000000     
   4.4444365775275746E-002   8.1415945660774536E-002   0.0000000000000000     
   4.6100331596570503E-002   8.7658641675318283E-002   0.0000000000000000     
   4.7705812975151800E-002   9.4056891672431364E-002   0.0000000000000000     
   4.9260809911019644E-002  0.10061069565211377        0.0000000000000000     
   5.0765322404174036E-002  0.10732005361436553        0.0000000000000000     
   3.9583590005333083E-002   8.0928573214707769E-002   0.0000000000000000     
   4.1074835241927982E-002   8.7189687528921700E-002   0.0000000000000000     
   4.2520271797867486E-002   9.3606190961742677E-002   0.0000000000000000     
   4.3919899673151554E-002  0.10017808351317063        0.0000000000000000     
   4.5273718867780227E-002  0.10690536518320562        0.0000000000000000     
   3.4863062127903161E-002   8.0491062992313678E-002   0.0000000000000000     
   3.6189857453251206E-002   8.6770269365304312E-002   0.0000000000000000     
   3.7475523222662538E-002   9.3204173406637239E-002   0.0000000000000000     
   3.8720059436137155E-002   9.9792775116312391E-002   0.0000000000000000     
   3.9923466093675065E-002  0.10653607449432981        0.0000000000000000     
   6.2172581763827561E-002  0.10828562370353773        0.0000000000000000     
   6.3909670053353795E-002  0.11509798401572326        0.0000000000000000     
   6.5567278051758549E-002  0.12204517590612725        0.0000000000000000     
   6.7145405759041848E-002  0.12912719937474973        0.0000000000000000     
   6.8644053175203654E-002  0.13634405442159059        0.0000000000000000     
   5.6398276702856479E-002  0.10778013978780956        0.0000000000000000     
   5.7989593267477782E-002  0.11461463168715787        0.0000000000000000     
   5.9507726697222360E-002  0.12158385861563800        0.0000000000000000     
   6.0952676992090213E-002  0.12868782057325004        0.0000000000000000     
   6.2324444152081361E-002  0.13592651755999391        0.0000000000000000     
   5.0765322404174036E-002  0.10732005361436553        0.0000000000000000     
   5.2211105555461046E-002  0.11417464735397435        0.0000000000000000     
   5.3589914465726758E-002  0.12116415866572804        0.0000000000000000     
   5.4901749134971187E-002  0.12828858754962655        0.0000000000000000     
   5.6146609563194332E-002  0.13554793400566992        0.0000000000000000     
   4.5273718867780227E-002  0.10690536518320562        0.0000000000000000     
   4.6574206917303580E-002  0.11377803101617280        0.0000000000000000     
   4.7813841357271764E-002  0.12078607605639735        0.0000000000000000     
   4.8992622187684749E-002  0.12792950030387931        0.0000000000000000     
   5.0110549408542551E-002  0.13520830375861870        0.0000000000000000     
   3.9923466093675065E-002  0.10653607449432981        0.0000000000000000     
   4.1078897353005413E-002  0.11342478267375314        0.0000000000000000     
   4.2179507371857362E-002  0.12044961078764596        0.0000000000000000     
   4.3225296150230907E-002  0.12761055883600833        0.0000000000000000     
   4.4216263688126041E-002  0.13490762681884017        0.0000000000000000     
   6.8644053175203654E-002  0.13634405442159059        0.0000000000000000     
   7.0067605008799647E-002  0.14368275874869990        0.0000000000000000     
   7.1420445968385440E-002  0.15113033005812765        0.0000000000000000     
   7.2702576053961077E-002  0.15868676834987383        0.0000000000000000     
   7.3913995265526528E-002  0.16635207362393839        0.0000000000000000     
   6.2324444152081361E-002  0.13592651755999391        0.0000000000000000     
   6.3626237382675102E-002  0.14328726732547192        0.0000000000000000     
   6.4861265889350747E-002  0.15075738761928634        0.0000000000000000     
   6.6029529672108317E-002  0.15833687844143715        0.0000000000000000     
   6.7131028730947784E-002  0.16602573979192436        0.0000000000000000     
   5.6146609563194332E-002  0.13554793400566992        0.0000000000000000     
   5.7326846546249019E-002  0.14292960673446251        0.0000000000000000     
   5.8444810879988089E-002  0.15042101443660871        0.0000000000000000     
   5.9500502564411556E-002  0.15802215711210843        0.0000000000000000     
   6.0493921599519405E-002  0.16573303476096182        0.0000000000000000     
   5.0110549408542551E-002  0.13520830375861870        0.0000000000000000     
   5.1169432499521390E-002  0.14260977697567173        0.0000000000000000     
   5.2171080940297473E-002  0.15012121051009478        0.0000000000000000     
   5.3115494730870787E-002  0.15774260436188778        0.0000000000000000     
   5.4002673871241351E-002  0.16547395853105079        0.0000000000000000     
   4.4216263688126041E-002  0.13490762681884017        0.0000000000000000     
   4.5153995242492223E-002  0.14232777804909960        0.0000000000000000     
   4.6040076070278879E-002  0.14985797583974456        0.0000000000000000     
   4.6874506171486023E-002  0.15749822019077508        0.0000000000000000     
   4.7657285546113655E-002  0.16524851110219119        0.0000000000000000     
   7.3913995265526528E-002  0.16635207362393839        0.0000000000000000     
   7.5052613975571308E-002  0.17411666370650064        0.0000000000000000     
   7.6116342556584976E-002  0.18197095642373989        0.0000000000000000     
   7.7105181008567461E-002  0.18991495177565612        0.0000000000000000     
   7.8019129331518805E-002  0.19794864976224938        0.0000000000000000     
   6.7131028730947784E-002  0.16602573979192436        0.0000000000000000     
   6.8163854227579659E-002  0.17381381810874266        0.0000000000000000     
   6.9126097323714414E-002  0.18169095982988681        0.0000000000000000     
   7.0017758019352005E-002  0.18965716495535676        0.0000000000000000     
   7.0838836314492476E-002  0.19771243348515247        0.0000000000000000     
   6.0493921599519405E-002  0.16573303476096182        0.0000000000000000     
   6.1423202445104276E-002  0.17354313173412872        0.0000000000000000     
   6.2286479560958785E-002  0.18144193238256903        0.0000000000000000     
   6.3083752947082947E-002  0.18942943670628279        0.0000000000000000     
   6.3815022603476781E-002  0.19750564470527002        0.0000000000000000     
   5.4002673871241351E-002  0.16547395853105079        0.0000000000000000     
   5.4830658628145144E-002  0.17330460458265870        0.0000000000000000     
   5.5597489268318145E-002  0.18122387408178658        0.0000000000000000     
   5.6303165791760340E-002  0.18923176702843433        0.0000000000000000     
   5.6947688198471728E-002  0.19732828342260206        0.0000000000000000     
   4.7657285546113655E-002  0.16524851110219119        0.0000000000000000     
   4.8386222776702278E-002  0.17309823665433272        0.0000000000000000     
   4.9059126445792439E-002  0.18103678492753944        0.0000000000000000     
   4.9675996553384116E-002  0.18906415592181133        0.0000000000000000     
   5.0236833099477310E-002  0.19718034963714851        0.0000000000000000     
   7.8019129331518805E-002  0.19794864976224938        0.0000000000000000     
   7.8859027188157571E-002  0.20606485236057451        0.0000000000000000     
   7.9625714241202322E-002  0.21425636154768640        0.0000000000000000     
   8.0319190490653045E-002  0.22252317732358512        0.0000000000000000     
   8.0939455936509780E-002  0.23086529968827055        0.0000000000000000     
   7.0838836314492476E-002  0.19771243348515247        0.0000000000000000     
   7.1587745091507712E-002  0.20585045481409142        0.0000000000000000     
   7.2262897232769574E-002  0.21406491833699096        0.0000000000000000     
   7.2864292738278116E-002  0.22235582405385118        0.0000000000000000     
   7.3391931608033284E-002  0.23072317196467196        0.0000000000000000     
   6.3815022603476781E-002  0.19750564470527002        0.0000000000000000     
   6.4477370380807586E-002  0.20566430432430649        0.0000000000000000     
   6.5067878129742726E-002  0.21389916350816804        0.0000000000000000     
   6.5586545850282202E-002  0.22221022225685458        0.0000000000000000     
   6.6033373542426013E-002  0.23059748057036619        0.0000000000000000     
   5.6947688198471728E-002  0.19732828342260206        0.0000000000000000     
   5.7527903056057240E-002  0.20550640089121971        0.0000000000000000     
   5.8040656932121792E-002  0.21375909706121748        0.0000000000000000     
   5.8485949826665364E-002  0.22208637193259542        0.0000000000000000     
   5.8863781739687968E-002  0.23048822550535339        0.0000000000000000     
   5.0236833099477310E-002  0.19718034963714851        0.0000000000000000     
   5.0739343117256655E-002  0.20537674451483118        0.0000000000000000     
   5.1181233639906738E-002  0.21364471899613952        0.0000000000000000     
   5.1562504667427560E-002  0.22198427308107357        0.0000000000000000     
   5.1883156199819147E-002  0.23039540676963335        0.0000000000000000     
   8.0939455936509780E-002  0.23086529968827055        0.0000000000000000     
   8.1475880126296307E-002  0.23930333916344149        0.0000000000000000     
   8.1917832607536489E-002  0.24785790627079651        0.0000000000000000     
   8.2265313380230312E-002  0.25652900101033566        0.0000000000000000     
   8.2518322444377776E-002  0.26531662338205886        0.0000000000000000     
   7.3391931608033284E-002  0.23072317196467196        0.0000000000000000     
   7.3842584127661204E-002  0.23918063199797596        0.0000000000000000     
   7.4213020582787975E-002  0.24774187408228568        0.0000000000000000     
   7.4503240973413543E-002  0.25640689821760115        0.0000000000000000     
   7.4713245299537989E-002  0.26517570440392235        0.0000000000000000     
   6.6033373542426013E-002  0.23059748057036619        0.0000000000000000     
   6.6410719208336133E-002  0.23906747150234786        0.0000000000000000     
   6.6720940850174479E-002  0.24762672810644440        0.0000000000000000     
   6.6964038467941120E-002  0.25627525038265586        0.0000000000000000     
   6.7140012061636015E-002  0.26501303833098228        0.0000000000000000     
   5.8863781739687968E-002  0.23048822550535339        0.0000000000000000     
   5.9180285368321053E-002  0.23896385767655720        0.0000000000000000     
   5.9441593409696070E-002  0.24751246834327267        0.0000000000000000     
   5.9647705863812996E-002  0.25613405750549978        0.0000000000000000     
   5.9798622730671852E-002  0.26482862516323857        0.0000000000000000     
   5.1883156199819147E-002  0.23039540676963335        0.0000000000000000     
   5.2151282607616006E-002  0.23886979052060400        0.0000000000000000     
   5.2374978261352678E-002  0.24739909479277050        0.0000000000000000     
   5.2554243161029177E-002  0.25598331958613291        0.0000000000000000     
   5.2689077306645501E-002  0.26462246490069125        0.0000000000000000     
   8.2518322444377776E-002  0.26531662338205886        0.0000000000000000     
   8.2715842018363156E-002  0.27424717891140560        0.0000000000000000     
   8.2896854320570729E-002  0.28334707312381524        0.0000000000000000     
   8.3061359351000494E-002  0.29261630601928790        0.0000000000000000     
   8.3209357109652465E-002  0.30205487759782335        0.0000000000000000     
   7.4713245299537989E-002  0.26517570440392235        0.0000000000000000     
   7.4883964826732902E-002  0.27404195869401599        0.0000000000000000     
   7.5056330820569922E-002  0.28299932714064868        0.0000000000000000     
   7.5230343281049064E-002  0.29204780974382039        0.0000000000000000     
   7.5406002208170314E-002  0.30118740650353137        0.0000000000000000     
   6.7140012061636015E-002  0.26501303833098228        0.0000000000000000     
   6.7289083915854531E-002  0.27381023759429418        0.0000000000000000     
   6.7451476315192035E-002  0.28263699381546237        0.0000000000000000     
   6.7627189259648543E-002  0.29149330699448672        0.0000000000000000     
   6.7816222749223998E-002  0.30037917713136736        0.0000000000000000     
   5.9798622730671852E-002  0.26482862516323857        0.0000000000000000     
   5.9931199285728071E-002  0.27355201561224024        0.0000000000000000     
   6.0082290804437090E-002  0.28226007314825630        0.0000000000000000     
   6.0251897286798896E-002  0.29095279777128658        0.0000000000000000     
   6.0440018732813489E-002  0.29963018948133124        0.0000000000000000     
   5.2689077306645501E-002  0.26462246490069125        0.0000000000000000     
   5.2810310936353508E-002  0.27326729274785422        0.0000000000000000     
   5.2948774288305051E-002  0.28186856513903047        0.0000000000000000     
   5.3104467362500157E-002  0.29042628207422017        0.0000000000000000     
   5.3277390158938794E-002  0.29894044355342309        0.0000000000000000     
   2.8949873798834718E-002   5.7183722981076469E-002   0.0000000000000000     
   3.0526373615314864E-002   6.2729291081878122E-002   0.0000000000000000     
   3.2037404942319651E-002   6.8462370450684859E-002   0.0000000000000000     
   3.3482967779849084E-002   7.4382961087496716E-002   0.0000000000000000     
   3.4863062127903161E-002   8.0491062992313678E-002   0.0000000000000000     
   2.5099223215740277E-002   5.6770406885832882E-002   0.0000000000000000     
   2.6470323710713711E-002   6.2314480237449232E-002   0.0000000000000000     
   2.7786922372797132E-002   6.8051383266663046E-002   0.0000000000000000     
   2.9049019201990524E-002   7.3981115973474343E-002   0.0000000000000000     
   3.0256614198293896E-002   8.0103678357883082E-002   0.0000000000000000     
   2.1324064600405868E-002   5.6396885726843093E-002   0.0000000000000000     
   2.2495741108216036E-002   6.1946029149749261E-002   0.0000000000000000     
   2.3621968889387314E-002   6.7690709782195282E-002   0.0000000000000000     
   2.4702747943919703E-002   7.3630927624181122E-002   0.0000000000000000     
   2.5738078271813195E-002   7.9766682675706815E-002   0.0000000000000000     
   1.7624397952831484E-002   5.6063159504107105E-002   0.0000000000000000     
   1.8602625807821824E-002   6.1623937818778250E-002   0.0000000000000000     
   1.9542544492090200E-002   6.7380349997281569E-002   0.0000000000000000     
   2.0444154005636615E-002   7.3332396039617095E-002   0.0000000000000000     
   2.1307454348461066E-002   7.9480075945784823E-002   0.0000000000000000     
   1.4000223273017132E-002   5.5769228217624908E-002   0.0000000000000000     
   1.4790977809531087E-002   6.1348206244536137E-002   0.0000000000000000     
   1.5548649180905797E-002   6.7120303911921933E-002   0.0000000000000000     
   1.6273237387141266E-002   7.3085521219782262E-002   0.0000000000000000     
   1.6964742428237495E-002   7.9243858168117146E-002   0.0000000000000000     
   3.4863062127903161E-002   8.0491062992313678E-002   0.0000000000000000     
   3.6189857453251206E-002   8.6770269365304312E-002   0.0000000000000000     
   3.7475523222662538E-002   9.3204173406637239E-002   0.0000000000000000     
   3.8720059436137155E-002   9.9792775116312391E-002   0.0000000000000000     
   3.9923466093675065E-002  0.10653607449432981        0.0000000000000000     
   3.0256614198293896E-002   8.0103678357883082E-002   0.0000000000000000     
   3.1418775944250611E-002   8.6399603896290950E-002   0.0000000000000000     
   3.2544573022404037E-002   9.2849426065099522E-002   0.0000000000000000     
   3.3634005432754160E-002   9.9453144864308826E-002   0.0000000000000000     
   3.4687073175301002E-002  0.10621076029391885        0.0000000000000000     
   2.5738078271813195E-002   7.9766682675706815E-002   0.0000000000000000     
   2.6734968428636693E-002   8.6076907833706404E-002   0.0000000000000000     
   2.7700426969959065E-002   9.2540535995114068E-002   0.0000000000000000     
   2.8634453895780329E-002   9.9157567159929696E-002   0.0000000000000000     
   2.9537049206100476E-002  0.10592800132815337        0.0000000000000000     
   2.1307454348461066E-002   7.9480075945784823E-002   0.0000000000000000     
   2.2138434906409443E-002   8.5802181177550729E-002   0.0000000000000000     
   2.2943085065327641E-002   9.2277503196680793E-002   0.0000000000000000     
   2.3721404825215661E-002   9.8906042003175029E-002   0.0000000000000000     
   2.4473394186073503E-002  0.10568779759703342        0.0000000000000000     
   1.6964742428237495E-002   7.9243858168117146E-002   0.0000000000000000     
   1.7629175377568862E-002   8.5575423927823871E-002   0.0000000000000000     
   1.8272547308509746E-002   9.2060327669799782E-002   0.0000000000000000     
   1.8894858221060153E-002   9.8698569394044783E-002   0.0000000000000000     
   1.9496108115220075E-002  0.10549014910055898        0.0000000000000000     
   3.9923466093675065E-002  0.10653607449432981        0.0000000000000000     
   4.1078897353005413E-002  0.11342478267375314        0.0000000000000000     
   4.2179507371857362E-002  0.12044961078764596        0.0000000000000000     
   4.3225296150230907E-002  0.12761055883600833        0.0000000000000000     
   4.4216263688126041E-002  0.13490762681884017        0.0000000000000000     
   3.4687073175301002E-002  0.10621076029391885        0.0000000000000000     
   3.5697611068185427E-002  0.11311377237775667        0.0000000000000000     
   3.6659453929548329E-002  0.12015368113964932        0.0000000000000000     
   3.7572601759389708E-002  0.12733048657959686        0.0000000000000000     
   3.8437054557709564E-002  0.13464418869759923        0.0000000000000000     
   2.9537049206100476E-002  0.10592800132815337        0.0000000000000000     
   3.0402782268462509E-002  0.11284387017922461        0.0000000000000000     
   3.1226222450409419E-002  0.11989720539258289        0.0000000000000000     
   3.2007369751941211E-002  0.12708800696822825        0.0000000000000000     
   3.2746224173057885E-002  0.13441627490616065        0.0000000000000000     
   2.4473394186073503E-002  0.10568779759703342        0.0000000000000000     
   2.5194410953836663E-002  0.11261507607815699        0.0000000000000000     
   2.5879812934440638E-002  0.11968018354644668        0.0000000000000000     
   2.6529600127885425E-002  0.12688312000190252        0.0000000000000000     
   2.7143772534171027E-002  0.13422388544452443        0.0000000000000000     
   1.9496108115220075E-002  0.10549014910055898        0.0000000000000000     
   2.0072497124307889E-002  0.11242739007455378        0.0000000000000000     
   2.0620225381641977E-002  0.11950261560124066        0.0000000000000000     
   2.1139292887222338E-002  0.12671582568061962        0.0000000000000000     
   2.1629699641048970E-002  0.13406702031269063        0.0000000000000000     
   4.4216263688126041E-002  0.13490762681884017        0.0000000000000000     
   4.5153995242492223E-002  0.14232777804909960        0.0000000000000000     
   4.6040076070278879E-002  0.14985797583974456        0.0000000000000000     
   4.6874506171486023E-002  0.15749822019077508        0.0000000000000000     
   4.7657285546113655E-002  0.16524851110219119        0.0000000000000000     
   3.8437054557709564E-002  0.13464418869759923        0.0000000000000000     
   3.9254303796064038E-002  0.14208139748137499        0.0000000000000000     
   4.0025840946009292E-002  0.14962872291864274        0.0000000000000000     
   4.0751666007545310E-002  0.15728616500940246        0.0000000000000000     
   4.1431778980672108E-002  0.16505372375365412        0.0000000000000000     
   3.2746224173057885E-002  0.13441627490616065        0.0000000000000000     
   3.3444127181139399E-002  0.14186842279912695        0.0000000000000000     
   3.4102420243565676E-002  0.14943086423987409        0.0000000000000000     
   3.4721103360336722E-002  0.15710359922840192        0.0000000000000000     
   3.5300176531452551E-002  0.16488662776471061        0.0000000000000000     
   2.7143772534171027E-002  0.13422388544452443        0.0000000000000000     
   2.7723465397718278E-002  0.14168885400235548        0.0000000000000000     
   2.8269813962948025E-002  0.14926439980343850        0.0000000000000000     
   2.8782818229860258E-002  0.15695052284777350        0.0000000000000000     
   2.9262478198454983E-002  0.16474722313536053        0.0000000000000000     
   2.1629699641048970E-002  0.13406702031269063        0.0000000000000000     
   2.2092318445800698E-002  0.14154269109106055        0.0000000000000000     
   2.2528022104156345E-002  0.14912932960933606        0.0000000000000000     
   2.2936810616115910E-002  0.15682693586751720        0.0000000000000000     
   2.3318683981679390E-002  0.16463550986560399        0.0000000000000000     
   4.7657285546113655E-002  0.16524851110219119        0.0000000000000000     
   4.8386222776702278E-002  0.17309823665433272        0.0000000000000000     
   4.9059126445792439E-002  0.18103678492753944        0.0000000000000000     
   4.9675996553384116E-002  0.18906415592181133        0.0000000000000000     
   5.0236833099477310E-002  0.19718034963714851        0.0000000000000000     
   4.1431778980672108E-002  0.16505372375365412        0.0000000000000000     
   4.2063789303662495E-002  0.17292085341616856        0.0000000000000000     
   4.2645306414789273E-002  0.18087700826171652        0.0000000000000000     
   4.3176330314052457E-002  0.18892218829029794        0.0000000000000000     
   4.3656861001452052E-002  0.19705639350191295        0.0000000000000000     
   3.5300176531452551E-002  0.16488662776471061        0.0000000000000000     
   3.5837252621912577E-002  0.17276928033518413        0.0000000000000000     
   3.6329944496716234E-002  0.18074088742620664        0.0000000000000000     
   3.6778252155863514E-002  0.18880144903777815        0.0000000000000000     
   3.7182175599354418E-002  0.19695096516989877        0.0000000000000000     
   2.9262478198454983E-002  0.16474722313536053        0.0000000000000000     
   2.9706612731452545E-002  0.17264351741137934        0.0000000000000000     
   3.0113040691573313E-002  0.18062842242100988        0.0000000000000000     
   3.0481762078817271E-002  0.18870193816425210        0.0000000000000000     
   3.0812776893184429E-002  0.19686406464110598        0.0000000000000000     
   2.3318683981679390E-002  0.16463550986560399        0.0000000000000000     
   2.3671869632282391E-002  0.17254356464475434        0.0000000000000000     
   2.3994594999360509E-002  0.18053961324612625        0.0000000000000000     
   2.4286860082913735E-002  0.18862365566971961        0.0000000000000000     
   2.4548664882942082E-002  0.19679569191553453        0.0000000000000000     
   5.0236833099477310E-002  0.19718034963714851        0.0000000000000000     
   5.0739343117256655E-002  0.20537674451483118        0.0000000000000000     
   5.1181233639906738E-002  0.21364471899613952        0.0000000000000000     
   5.1562504667427560E-002  0.22198427308107357        0.0000000000000000     
   5.1883156199819147E-002  0.23039540676963335        0.0000000000000000     
   4.3656861001452052E-002  0.19705639350191295        0.0000000000000000     
   4.4085846191123532E-002  0.20526907526383761        0.0000000000000000     
   4.4462233597202389E-002  0.21354968494334808        0.0000000000000000     
   4.4786023219688637E-002  0.22189822254044433        0.0000000000000000     
   4.5057215058582262E-002  0.23031468805512650        0.0000000000000000     
   3.7182175599354418E-002  0.19695096516989877        0.0000000000000000     
   3.7541567904375558E-002  0.20517713320693592        0.0000000000000000     
   3.7856282148113547E-002  0.21346765053325734        0.0000000000000000     
   3.8126318330568378E-002  0.22182251714886300        0.0000000000000000     
   3.8351676451740049E-002  0.23024173305375292        0.0000000000000000     
   3.0812776893184429E-002  0.19686406464110598        0.0000000000000000     
   3.1106508257012753E-002  0.20510091834412611        0.0000000000000000     
   3.1363379292640207E-002  0.21339861576586736        0.0000000000000000     
   3.1583390000066797E-002  0.22175715690632949        0.0000000000000000     
   3.1766540379292510E-002  0.23017654176551269        0.0000000000000000     
   2.4548664882942082E-002  0.19679569191553453        0.0000000000000000     
   2.4780667249035104E-002  0.20504043067540823        0.0000000000000000     
   2.4983525030782373E-002  0.21334258064117800        0.0000000000000000     
   2.5157238228183880E-002  0.22170214181284381        0.0000000000000000     
   2.5301806841239637E-002  0.23011911419040573        0.0000000000000000     
   5.1883156199819147E-002  0.23039540676963335        0.0000000000000000     
   5.2151282607616006E-002  0.23886979052060400        0.0000000000000000     
   5.2374978261352678E-002  0.24739909479277050        0.0000000000000000     
   5.2554243161029177E-002  0.25598331958613291        0.0000000000000000     
   5.2689077306645501E-002  0.26462246490069125        0.0000000000000000     
   4.5057215058582262E-002  0.23031468805512650        0.0000000000000000     
   4.5284581380782195E-002  0.23878383368612272        0.0000000000000000     
   4.5476894453187353E-002  0.24729041163216139        0.0000000000000000     
   4.5634154275797742E-002  0.25583442189324246        0.0000000000000000     
   4.5756360848613356E-002  0.26441586446936605        0.0000000000000000     
   3.8351676451740049E-002  0.23024173305375292        0.0000000000000000     
   3.8541052142380856E-002  0.23870455082474787        0.0000000000000000     
   3.8703141033243085E-002  0.24719022303866886        0.0000000000000000     
   3.8837943124326736E-002  0.25569874969551570        0.0000000000000000     
   3.8945458415631809E-002  0.26423013079528845        0.0000000000000000     
   3.1766540379292510E-002  0.23017654176551269        0.0000000000000000     
   3.1920694892411998E-002  0.23863194193647957        0.0000000000000000     
   3.2053718001519876E-002  0.24709852901229282        0.0000000000000000     
   3.2165609706616166E-002  0.25557630299295253        0.0000000000000000     
   3.2256370007700860E-002  0.26406526387845869        0.0000000000000000     
   2.5301806841239637E-002  0.23011911419040573        0.0000000000000000     
   2.5423509630875599E-002  0.23856600702131764        0.0000000000000000     
   2.5528625358017733E-002  0.24701532955303340        0.0000000000000000     
   2.5617154022666039E-002  0.25546708178555311        0.0000000000000000     
   2.5689095624820517E-002  0.26392126371887659        0.0000000000000000     
   5.2689077306645501E-002  0.26462246490069125        0.0000000000000000     
   5.2810310936353508E-002  0.27326729274785422        0.0000000000000000     
   5.2948774288305051E-002  0.28186856513903047        0.0000000000000000     
   5.3104467362500157E-002  0.29042628207422017        0.0000000000000000     
   5.3277390158938794E-002  0.29894044355342309        0.0000000000000000     
   4.5756360848613356E-002  0.26441586446936605        0.0000000000000000     
   4.5867664377259004E-002  0.27298477800880266        0.0000000000000000     
   4.5992215067359496E-002  0.28149120115982307        0.0000000000000000     
   4.6130012918914817E-002  0.28993513392242715        0.0000000000000000     
   4.6281057931924968E-002  0.29831657629661507        0.0000000000000000     
   3.8945458415631809E-002  0.26423013079528845        0.0000000000000000     
   3.9044505117972729E-002  0.27273318040275230        0.0000000000000000     
   3.9153901442163914E-002  0.28115671258267200        0.0000000000000000     
   3.9273647388205379E-002  0.28950072733504773        0.0000000000000000     
   3.9403742956097096E-002  0.29776522465987942        0.0000000000000000     
   3.2256370007700860E-002  0.26406526387845869        0.0000000000000000     
   3.2340833158494675E-002  0.27251249992970306        0.0000000000000000     
   3.2433833412718334E-002  0.28086509940757737        0.0000000000000000     
   3.2535370770371830E-002  0.28912306231208174        0.0000000000000000     
   3.2645445231455156E-002  0.29728638864321610        0.0000000000000000     
   2.5689095624820517E-002  0.26392126371887659        0.0000000000000000     
   2.5756648498824856E-002  0.27232273658965500        0.0000000000000000     
   2.5832010979022740E-002  0.28061636163453924        0.0000000000000000     
   2.5915183065414179E-002  0.28880213885352929        0.0000000000000000     
   2.6006164757999162E-002  0.29688006824662522        0.0000000000000000     
   1.4000223273017132E-002   5.5769228217624908E-002   0.0000000000000000     
   1.4790977809531087E-002   6.1348206244536137E-002   0.0000000000000000     
   1.5548649180905797E-002   6.7120303911921933E-002   0.0000000000000000     
   1.6273237387141266E-002   7.3085521219782262E-002   0.0000000000000000     
   1.6964742428237495E-002   7.9243858168117146E-002   0.0000000000000000     
   1.0435910136271587E-002   5.5537996564961854E-002   0.0000000000000000     
   1.1038698161290231E-002   6.1133366526583847E-002   0.0000000000000000     
   1.1613710254585611E-002   6.6919066560706314E-002   0.0000000000000000     
   1.2160946416157727E-002   7.2895096667329226E-002   0.0000000000000000     
   1.2680406646006576E-002   7.9061456846452591E-002   0.0000000000000000     
   6.9158281179036267E-003   5.5392369243683265E-002   0.0000000000000000     
   7.3236879110456822E-003   6.0993950764482247E-002   0.0000000000000000     
   7.7111550118811618E-003   6.6785132978224707E-002   0.0000000000000000     
   8.0782294204100689E-003   7.2765915884910631E-002   0.0000000000000000     
   8.4249111366324018E-003   7.8936299484540048E-002   0.0000000000000000     
   3.4399772179132559E-003   5.5332346253789154E-002   0.0000000000000000     
   3.6459470587974375E-003   6.0929958958231348E-002   0.0000000000000000     
   3.8409834527924490E-003   6.6718503164477111E-002   0.0000000000000000     
   4.0250863998982922E-003   7.2697978872526506E-002   0.0000000000000000     
   4.1982559001149649E-003   7.8868386082379477E-002   0.0000000000000000     
   8.3574363004723824E-006   5.5357927595279507E-002   0.0000000000000000     
   5.4756045454978745E-006   6.0941391107831130E-002   0.0000000000000000     
   3.1955773194729340E-006   6.6719177119463569E-002   0.0000000000000000     
   1.5173546223966393E-006   7.2691285630176822E-002   0.0000000000000000     
   4.4093645426958664E-007   7.8857716639970876E-002   0.0000000000000000     
   1.6964742428237495E-002   7.9243858168117146E-002   0.0000000000000000     
   1.7629175377568862E-002   8.5575423927823871E-002   0.0000000000000000     
   1.8272547308509746E-002   9.2060327669799782E-002   0.0000000000000000     
   1.8894858221060153E-002   9.8698569394044783E-002   0.0000000000000000     
   1.9496108115220075E-002  0.10549014910055898        0.0000000000000000     
   1.2680406646006576E-002   7.9061456846452591E-002   0.0000000000000000     
   1.3178120505583464E-002   8.5399811690566804E-002   0.0000000000000000     
   1.3660117556339687E-002   9.1891825792162152E-002   0.0000000000000000     
   1.4126397798275247E-002   9.8537499151238675E-002   0.0000000000000000     
   1.4576961231390143E-002  0.10533683176779636        0.0000000000000000     
   8.4249111366324018E-003   7.8936299484540048E-002   0.0000000000000000     
   8.7562009539217632E-003   8.5278520071820393E-002   0.0000000000000000     
   9.0770996656517628E-003   9.1774813941459144E-002   0.0000000000000000     
   9.3876072718223937E-003   9.8425181093456285E-002   0.0000000000000000     
   9.6877237724336610E-003  0.10522962152781189        0.0000000000000000     
   4.1982559001149649E-003   7.8868386082379477E-002   0.0000000000000000     
   4.3634167225837612E-003   8.5211549071584680E-002   0.0000000000000000     
   4.5234936364459705E-003   9.1709292117690758E-002   0.0000000000000000     
   4.6784866417015946E-003   9.8361615220697710E-002   0.0000000000000000     
   4.8283957383506316E-003  0.10516851838060555        0.0000000000000000     
   4.4093645426958664E-007   7.8857716639970876E-002   0.0000000000000000     
  -2.3218843054565591E-007   8.5198898689859637E-002   0.0000000000000000     
  -7.0053127768641196E-007   9.1695260320856967E-002   0.0000000000000000     
  -9.6409208715493122E-007   9.8346801532962866E-002   0.0000000000000000     
  -1.0228708589472835E-006  0.10515352232617733        0.0000000000000000     
   1.9496108115220075E-002  0.10549014910055898        0.0000000000000000     
   2.0072497124307889E-002  0.11242739007455378        0.0000000000000000     
   2.0620225381641977E-002  0.11950261560124066        0.0000000000000000     
   2.1139292887222338E-002  0.12671582568061962        0.0000000000000000     
   2.1629699641048970E-002  0.13406702031269063        0.0000000000000000     
   1.4576961231390143E-002  0.10533683176779636        0.0000000000000000     
   1.5008893507608581E-002  0.11228202666671411        0.0000000000000000     
   1.5419280278854778E-002  0.11936528687287080        0.0000000000000000     
   1.5808121545128725E-002  0.12658661238626645        0.0000000000000000     
   1.6175417306430431E-002  0.13394600320690106        0.0000000000000000     
   9.6877237724336610E-003  0.10522962152781189        0.0000000000000000     
   9.9754528314711290E-003  0.11218020035293706        0.0000000000000000     
   1.0248798112920359E-002  0.11926898267724308        0.0000000000000000     
   1.0507759616781354E-002  0.12649596850072992        0.0000000000000000     
   1.0752337343054114E-002  0.13386115782339755        0.0000000000000000     
   4.8283957383506316E-003  0.10516851838060555        0.0000000000000000     
   4.9721750958955264E-003  0.11212191113322266        0.0000000000000000     
   5.1087788838387240E-003  0.11921370301435746        0.0000000000000000     
   5.2382071021802199E-003  0.12644389402400993        0.0000000000000000     
   5.3604597509200203E-003  0.13381248416218017        0.0000000000000000     
  -1.0228708589472835E-006  0.10515352232617733        0.0000000000000000     
  -9.3969911822092828E-007  0.11210715900757089        0.0000000000000000     
  -7.7740839012920525E-007  0.11919944788421398        0.0000000000000000     
  -5.3599867467151808E-007  0.12643038895610664        0.0000000000000000     
  -2.1546997184835465E-007  0.13379998222324885        0.0000000000000000     
   2.1629699641048970E-002  0.13406702031269063        0.0000000000000000     
   2.2092318445800698E-002  0.14154269109106055        0.0000000000000000     
   2.2528022104156345E-002  0.14912932960933606        0.0000000000000000     
   2.2936810616115910E-002  0.15682693586751720        0.0000000000000000     
   2.3318683981679390E-002  0.16463550986560399        0.0000000000000000     
   1.6175417306430431E-002  0.13394600320690106        0.0000000000000000     
   1.6521761431997968E-002  0.14143008009893454        0.0000000000000000     
   1.6847747791069415E-002  0.14902546382652673        0.0000000000000000     
   1.7153376383644777E-002  0.15673215438967764        0.0000000000000000     
   1.7438647209724052E-002  0.16455015178838733        0.0000000000000000     
   1.0752337343054114E-002  0.13386115782339755        0.0000000000000000     
   1.0982869462921416E-002  0.14135116705966982        0.0000000000000000     
   1.1199694147566035E-002  0.14895261262397050        0.0000000000000000     
   1.1402811396987976E-002  0.15666549451629952        0.0000000000000000     
   1.1592221211187234E-002  0.16448981273665700        0.0000000000000000     
   5.3604597509200203E-003  0.13381248416218017        0.0000000000000000     
   5.4756425385710404E-003  0.14130595197326645        0.0000000000000000     
   5.5838611736461980E-003  0.14891077600166736        0.0000000000000000     
   5.6851156561454966E-003  0.15662695624738288        0.0000000000000000     
   5.7794059860689327E-003  0.16445449271041290        0.0000000000000000     
  -2.1546997184835465E-007  0.13379998222324885        0.0000000000000000     
   8.0658946843012794E-008  0.14129443483972448        0.0000000000000000     
   2.4886930990769725E-007  0.14889995395961739        0.0000000000000000     
   2.8916111734206664E-007  0.15661653958292762        0.0000000000000000     
   2.0153436914964462E-007  0.16444419170965513        0.0000000000000000     
   2.3318683981679390E-002  0.16463550986560399        0.0000000000000000     
   2.3671869632282391E-002  0.17254356464475434        0.0000000000000000     
   2.3994594999360509E-002  0.18053961324612625        0.0000000000000000     
   2.4286860082913735E-002  0.18862365566971961        0.0000000000000000     
   2.4548664882942082E-002  0.19679569191553453        0.0000000000000000     
   1.7438647209724052E-002  0.16455015178838733        0.0000000000000000     
   1.7702286642579196E-002  0.17246750100070385        0.0000000000000000     
   1.7943021055482157E-002  0.18047224700467521        0.0000000000000000     
   1.8160850448432939E-002  0.18856438980030144        0.0000000000000000     
   1.8355774821431546E-002  0.19674392938758256        0.0000000000000000     
   1.1592221211187234E-002  0.16448981273665700        0.0000000000000000     
   1.1767127080520034E-002  0.17241340544462266        0.0000000000000000     
   1.1926732495342592E-002  0.18042411079977638        0.0000000000000000     
   1.2071037455654913E-002  0.18852192880211824        0.0000000000000000     
   1.2200041961456989E-002  0.19670685945164812        0.0000000000000000     
   5.7794059860689327E-003  0.16445449271041290        0.0000000000000000     
   5.8663909461049053E-003  0.17238127797651082        0.0000000000000000     
   5.9457293189418108E-003  0.18039520463142983        0.0000000000000000     
   6.0174211045796490E-003  0.18849627267516994        0.0000000000000000     
   6.0814663030184174E-003  0.19668448210773115        0.0000000000000000     
   2.0153436914964462E-007  0.16444419170965513        0.0000000000000000     
   7.8239333810943210E-008  0.17237111859636828        0.0000000000000000     
   1.1526279812762788E-008  0.18038552849963549        0.0000000000000000     
   1.3952071514712790E-009  0.18848742141945662        0.0000000000000000     
   4.7846115828857616E-008  0.19667679735583180        0.0000000000000000     
   2.4548664882942082E-002  0.19679569191553453        0.0000000000000000     
   2.4780667249035104E-002  0.20504043067540823        0.0000000000000000     
   2.4983525030782373E-002  0.21334258064117800        0.0000000000000000     
   2.5157238228183880E-002  0.22170214181284381        0.0000000000000000     
   2.5301806841239637E-002  0.23011911419040573        0.0000000000000000     
   1.8355774821431546E-002  0.19674392938758256        0.0000000000000000     
   1.8528458519992196E-002  0.20499437961848899        0.0000000000000000     
   1.8679565889629129E-002  0.21329925434499108        0.0000000000000000     
   1.8809096930342346E-002  0.22165855356708891        0.0000000000000000     
   1.8917051642131838E-002  0.23007227728478241        0.0000000000000000     
   1.2200041961456989E-002  0.19670685945164812        0.0000000000000000     
   1.2314295709433617E-002  0.20496147459107514        0.0000000000000000     
   1.2414348396269584E-002  0.21326834606310824        0.0000000000000000     
   1.2500200021964886E-002  0.22162747386774750        0.0000000000000000     
   1.2571850586519526E-002  0.23003885800499291        0.0000000000000000     
   6.0814663030184174E-003  0.19668448210773115        0.0000000000000000     
   6.1381788173593636E-003  0.20494171559316673        0.0000000000000000     
   6.1878725507037236E-003  0.21324985579552952        0.0000000000000000     
   6.2305475030515027E-003  0.22160890271481967        0.0000000000000000     
   6.2662036744026949E-003  0.23001885635103717        0.0000000000000000     
   4.7846115828857616E-008  0.19667679735583180        0.0000000000000000     
   1.0784376943372143E-007  0.20493510262476367        0.0000000000000000     
   1.3835293155529602E-007  0.21324378354225487        0.0000000000000000     
   1.3937360219477401E-007  0.22160284010830542        0.0000000000000000     
   1.1090578134987858E-007  0.23001227232291530        0.0000000000000000     
   2.5301806841239637E-002  0.23011911419040573        0.0000000000000000     
   2.5423509630875599E-002  0.23856600702131764        0.0000000000000000     
   2.5528625358017733E-002  0.24701532955303340        0.0000000000000000     
   2.5617154022666039E-002  0.25546708178555311        0.0000000000000000     
   2.5689095624820517E-002  0.26392126371887659        0.0000000000000000     
   1.8917051642131838E-002  0.23007227728478241        0.0000000000000000     
   1.9007845523121975E-002  0.23851123623006532        0.0000000000000000     
   1.9085894071437109E-002  0.24694624113493127        0.0000000000000000     
   1.9151197287077242E-002  0.25537729199938025        0.0000000000000000     
   1.9203755170042379E-002  0.26380438882341228        0.0000000000000000     
   1.2571850586519526E-002  0.23003885800499291        0.0000000000000000     
   1.2632051734501416E-002  0.23847211971352567        0.0000000000000000     
   1.2683555110478469E-002  0.24689688023202708        0.0000000000000000     
   1.2726360714450687E-002  0.25531313956049712        0.0000000000000000     
   1.2760468546418068E-002  0.26372089769893586        0.0000000000000000     
   6.2662036744026949E-003  0.23001885635103717        0.0000000000000000     
   6.2961282650139281E-003  0.23844865747169872        0.0000000000000000     
   6.3216084751418176E-003  0.24686724684432088        0.0000000000000000     
   6.3426443047863686E-003  0.25527462446890375        0.0000000000000000     
   6.3592357539475775E-003  0.26367079034544733        0.0000000000000000     
   1.1090578134987858E-007  0.23001227232291530        0.0000000000000000     
   7.5114659507788048E-008  0.23844084950458444        0.0000000000000000     
   5.4165427153946011E-008  0.24685734097181275        0.0000000000000000     
   4.8058084287918787E-008  0.25526174672460017        0.0000000000000000     
   5.6792630909706376E-008  0.26365406676294673        0.0000000000000000     
   2.5689095624820517E-002  0.26392126371887659        0.0000000000000000     
   2.5756648498824856E-002  0.27232273658965500        0.0000000000000000     
   2.5832010979022740E-002  0.28061636163453924        0.0000000000000000     
   2.5915183065414179E-002  0.28880213885352929        0.0000000000000000     
   2.6006164757999162E-002  0.29688006824662522        0.0000000000000000     
   1.9203755170042379E-002  0.26380438882341228        0.0000000000000000     
   1.9253531528579792E-002  0.27217022080454861        0.0000000000000000     
   1.9310490170936747E-002  0.28041747714031018        0.0000000000000000     
   1.9374631097113251E-002  0.28854615783069731        0.0000000000000000     
   1.9445954307109305E-002  0.29655626287570969        0.0000000000000000     
   1.2760468546418068E-002  0.26372089769893586        0.0000000000000000     
   1.2793062637376021E-002  0.27206128299632415        0.0000000000000000     
   1.2831327018319962E-002  0.28027542380164311        0.0000000000000000     
   1.2875261689249884E-002  0.28836332011489252        0.0000000000000000     
   1.2924866650165791E-002  0.29632497193607255        0.0000000000000000     
   6.3592357539475775E-003  0.26367079034544733        0.0000000000000000     
   6.3752418252135470E-003  0.27199592316498195        0.0000000000000000     
   6.3945215211723772E-003  0.28019020161853786        0.0000000000000000     
   6.4170748418240697E-003  0.28825362570611518        0.0000000000000000     
   6.4429017871686211E-003  0.29618619542771385        0.0000000000000000     
   5.6792630909706376E-008  0.26365406676294673        0.0000000000000000     
   6.9092092364660823E-008  0.27197414131052178        0.0000000000000000     
   7.3679493996724708E-008  0.28016181059099460        0.0000000000000000     
   7.0554835807388810E-008  0.28821707460436508        0.0000000000000000     
   5.9718117795433401E-008  0.29613993335063343        0.0000000000000000     
   8.3574363004723824E-006   5.5357927595279507E-002   0.0000000000000000     
   5.4756045454978745E-006   6.0941391107831130E-002   0.0000000000000000     
   3.1955773194729340E-006   6.6719177119463569E-002   0.0000000000000000     
   1.5173546223966393E-006   7.2691285630176822E-002   0.0000000000000000     
   4.4093645426958664E-007   7.8857716639970876E-002   0.0000000000000000     
  -3.4246883409850687E-003   5.5436851663325973E-002   0.0000000000000000     
  -3.6358840237073228E-003   6.1005437550206272E-002   0.0000000000000000     
  -3.8350660740740661E-003   6.6771557455380479E-002   0.0000000000000000     
  -4.0222344920852983E-003   7.2735211378848572E-002   0.0000000000000000     
  -4.1973892777410187E-003   7.8896399320610586E-002   0.0000000000000000     
  -6.9048172279937104E-003   5.5536856853100169E-002   0.0000000000000000     
  -7.3162893979582116E-003   6.1099288622281422E-002   0.0000000000000000     
  -7.7066589609244649E-003   6.6860046784424296E-002   0.0000000000000000     
  -8.0759259168924728E-003   7.2819131339528803E-002   0.0000000000000000     
  -8.4240902658622319E-003   7.8976542287594931E-002   0.0000000000000000     
  -1.0432029224725454E-002   5.5657943164602097E-002   0.0000000000000000     
  -1.1035740518207169E-002   6.1222944324056575E-002   0.0000000000000000     
  -1.1611583083231727E-002   6.6984645106595048E-002   0.0000000000000000     
  -1.2159556919799128E-002   7.2943045512217475E-002   0.0000000000000000     
  -1.2679662027909374E-002   7.9098145540923898E-002   0.0000000000000000     
  -1.4006324331180299E-002   5.5800110597831770E-002   0.0000000000000000     
  -1.4794237384454196E-002   6.1376404655531749E-002   0.0000000000000000     
  -1.5549838440995849E-002   6.7145352421892693E-002   0.0000000000000000     
  -1.6273127500805264E-002   7.3106953896914614E-002   0.0000000000000000     
  -1.6964104563882441E-002   7.9261209080597472E-002   0.0000000000000000     
   4.4093645426958664E-007   7.8857716639970876E-002   0.0000000000000000     
  -2.3218843054565591E-007   8.5198898689859637E-002   0.0000000000000000     
  -7.0053127768641196E-007   9.1695260320856967E-002   0.0000000000000000     
  -9.6409208715493122E-007   9.8346801532962866E-002   0.0000000000000000     
  -1.0228708589472835E-006  0.10515352232617733        0.0000000000000000     
  -4.1973892777410187E-003   7.8896399320610586E-002   0.0000000000000000     
  -4.3638048320924824E-003   8.5234155687725563E-002   0.0000000000000000     
  -4.5247555561909406E-003   9.1727514887252531E-002   0.0000000000000000     
  -4.6802414500363978E-003   9.8376476919191547E-002   0.0000000000000000     
  -4.8302625136288496E-003  0.10518104178354258        0.0000000000000000     
  -8.4240902658622319E-003   7.8976542287594931E-002   0.0000000000000000     
  -8.7563602613733738E-003   8.5310906826262717E-002   0.0000000000000000     
  -9.0779441569655249E-003   9.1800852153172269E-002   0.0000000000000000     
  -9.3888419526386817E-003   9.8446378268323517E-002   0.0000000000000000     
  -9.6890536483928476E-003  0.10524748517171652        0.0000000000000000     
  -1.2679662027909374E-002   7.9098145540923898E-002   0.0000000000000000     
  -1.3177898476273223E-002   8.5429152105471140E-002   0.0000000000000000     
  -1.3660266333601434E-002   9.1915272118616123E-002   0.0000000000000000     
  -1.4126765599894011E-002   9.8556505580358805E-002   0.0000000000000000     
  -1.4577396275150948E-002  0.10535285249069919        0.0000000000000000     
  -1.6964104563882441E-002   7.9261209080597472E-002   0.0000000000000000     
  -1.7628419476792025E-002   8.5588891525350833E-002   0.0000000000000000     
  -1.8271722086098674E-002   9.2070774783584122E-002   0.0000000000000000     
  -1.8894012391802377E-002   9.8706858855297369E-002   0.0000000000000000     
  -1.9495290393903145E-002  0.10549714374049059        0.0000000000000000     
  -1.0228708589472835E-006  0.10515352232617733        0.0000000000000000     
  -9.3969911822092828E-007  0.11210715900757089        0.0000000000000000     
  -7.7740839012920525E-007  0.11919944788421398        0.0000000000000000     
  -5.3599867467151808E-007  0.12643038895610664        0.0000000000000000     
  -2.1546997184835465E-007  0.13379998222324885        0.0000000000000000     
  -4.8302625136288496E-003  0.10518104178354258        0.0000000000000000     
  -4.9738892986514113E-003  0.11213282340563982        0.0000000000000000     
  -5.1101923567872000E-003  0.11922343571081755        0.0000000000000000     
  -5.2391716880362104E-003  0.12645287869907573        0.0000000000000000     
  -5.3608272923984452E-003  0.13382115237041442        0.0000000000000000     
  -9.6890536483928476E-003  0.10524748517171652        0.0000000000000000     
  -9.9766714477853465E-003  0.11219578375708762        0.0000000000000000     
  -1.0249787554373491E-002  0.11928288491817315        0.0000000000000000     
  -1.0508401968157282E-002  0.12650878865497317        0.0000000000000000     
  -1.0752514689136723E-002  0.13387349496748768        0.0000000000000000     
  -1.4577396275150948E-002  0.10535285249069919        0.0000000000000000     
  -1.5009286146520020E-002  0.11229604006191421        0.0000000000000000     
  -1.5419563001149000E-002  0.11937779550628080        0.0000000000000000     
  -1.5808226839037893E-002  0.12659811882379896        0.0000000000000000     
  -1.6175277660186681E-002  0.13395701001446864        0.0000000000000000     
  -1.9495290393903145E-002  0.10549714374049059        0.0000000000000000     
  -2.0071733394855438E-002  0.11243359232011965        0.0000000000000000     
  -2.0619518697113735E-002  0.11950816747514047        0.0000000000000000     
  -2.1138646300678028E-002  0.12672086920555301        0.0000000000000000     
  -2.1629116205548318E-002  0.13407169751135728        0.0000000000000000     
  -2.1546997184835465E-007  0.13379998222324885        0.0000000000000000     
   8.0658946843012794E-008  0.14129443483972448        0.0000000000000000     
   2.4886930990769725E-007  0.14889995395961739        0.0000000000000000     
   2.8916111734206664E-007  0.15661653958292762        0.0000000000000000     
   2.0153436914964462E-007  0.16444419170965513        0.0000000000000000     
  -5.3608272923984452E-003  0.13382115237041442        0.0000000000000000     
  -5.4754582187165673E-003  0.14131421668609201        0.0000000000000000     
  -5.5833635158332425E-003  0.14891803160736708        0.0000000000000000     
  -5.6845431837484681E-003  0.15663259713423958        0.0000000000000000     
  -5.7789972224622449E-003  0.16445791326670958        0.0000000000000000     
  -1.0752514689136723E-002  0.13387349496748768        0.0000000000000000     
  -1.0982616137184589E-002  0.14136289853941736        0.0000000000000000     
  -1.1199196732173653E-002  0.14896289405446303        0.0000000000000000     
  -1.1402256474103917E-002  0.15667348151262464        0.0000000000000000     
  -1.1591795362975376E-002  0.16449466091390222        0.0000000000000000     
  -1.6175277660186681E-002  0.13395701001446864        0.0000000000000000     
  -1.6521393096457216E-002  0.14144048039970050        0.0000000000000000     
  -1.6847250779711321E-002  0.14903454130090518        0.0000000000000000     
  -1.7152850709948996E-002  0.15673919271808268        0.0000000000000000     
  -1.7438192887170245E-002  0.16455443465123304        0.0000000000000000     
  -2.1629116205548318E-002  0.13407169751135728        0.0000000000000000     
  -2.2091789096534448E-002  0.14154696226694144        0.0000000000000000     
  -2.2527525658446245E-002  0.14913297334669362        0.0000000000000000     
  -2.2936325891283717E-002  0.15682973075061379        0.0000000000000000     
  -2.3318189795046854E-002  0.16463723447870199        0.0000000000000000     
   2.0153436914964462E-007  0.16444419170965513        0.0000000000000000     
   7.8239333810943210E-008  0.17237111859636828        0.0000000000000000     
   1.1526279812762788E-008  0.18038552849963549        0.0000000000000000     
   1.3952071514712790E-009  0.18848742141945662        0.0000000000000000     
   4.7846115828857616E-008  0.19667679735583180        0.0000000000000000     
  -5.7789972224622449E-003  0.16445791326670958        0.0000000000000000     
  -5.8662132037554729E-003  0.17238256003144800        0.0000000000000000     
  -5.9456786994090492E-003  0.18039511745512588        0.0000000000000000     
  -6.0173937094229815E-003  0.18849558553774315        0.0000000000000000     
  -6.0813582337972604E-003  0.19668396427929996        0.0000000000000000     
  -1.1591795362975376E-002  0.16449466091390222        0.0000000000000000     
  -1.1766885547125169E-002  0.17241523500900285        0.0000000000000000     
  -1.1926599174890428E-002  0.18042400654863361        0.0000000000000000     
  -1.2070936246271150E-002  0.18852097553279448        0.0000000000000000     
  -1.2199896761267336E-002  0.19670614196148559        0.0000000000000000     
  -1.7438192887170245E-002  0.16455443465123304        0.0000000000000000     
  -1.7701938790775286E-002  0.17246914352903278        0.0000000000000000     
  -1.7942749900164319E-002  0.18047219578015869        0.0000000000000000     
  -1.8160626215337358E-002  0.18856359140461068        0.0000000000000000     
  -1.8355567736294397E-002  0.19674333040238876        0.0000000000000000     
  -2.3318189795046854E-002  0.16463723447870199        0.0000000000000000     
  -2.3671372934705809E-002  0.17254428559153789        0.0000000000000000     
  -2.3994130875230724E-002  0.18053968514970106        0.0000000000000000     
  -2.4286463616621602E-002  0.18862343315319161        0.0000000000000000     
  -2.4548371158878438E-002  0.19679552960200947        0.0000000000000000     
   4.7846115828857616E-008  0.19667679735583180        0.0000000000000000     
   1.0784376943372143E-007  0.20493510262476367        0.0000000000000000     
   1.3835293155529602E-007  0.21324378354225487        0.0000000000000000     
   1.3937360219477401E-007  0.22160284010830542        0.0000000000000000     
   1.1090578134987858E-007  0.23001227232291530        0.0000000000000000     
  -6.0813582337972604E-003  0.19668396427929996        0.0000000000000000     
  -6.1379645500413554E-003  0.20494165782210319        0.0000000000000000     
  -6.1876049356647308E-003  0.21325007030845999        0.0000000000000000     
  -6.2302793906673778E-003  0.22160920173837037        0.0000000000000000     
  -6.2659879150493035E-003  0.23001905211183432        0.0000000000000000     
  -1.2199896761267336E-002  0.19670614196148559        0.0000000000000000     
  -1.2314085702778196E-002  0.20496140332142240        0.0000000000000000     
  -1.2414108053702936E-002  0.21326865709932066        0.0000000000000000     
  -1.2499963814041554E-002  0.22162790329518026        0.0000000000000000     
  -1.2571652983794056E-002  0.23003914190900132        0.0000000000000000     
  -1.8355567736294397E-002  0.19674333040238876        0.0000000000000000     
  -1.8528255614441078E-002  0.20499433912272136        0.0000000000000000     
  -1.8679371001183057E-002  0.21329954391483677        0.0000000000000000     
  -1.8808913896520337E-002  0.22165894477873510        0.0000000000000000     
  -1.8916884300452907E-002  0.23007254171441635        0.0000000000000000     
  -2.4548371158878438E-002  0.19679552960200947        0.0000000000000000     
  -2.4780474285030014E-002  0.20504046522599995        0.0000000000000000     
  -2.4983393778105108E-002  0.21334273075500843        0.0000000000000000     
  -2.5157129638103719E-002  0.22170232618903490        0.0000000000000000     
  -2.5301681865025859E-002  0.23011925152807930        0.0000000000000000     
   1.1090578134987858E-007  0.23001227232291530        0.0000000000000000     
   7.5114659507788048E-008  0.23844084950458444        0.0000000000000000     
   5.4165427153946011E-008  0.24685734097181275        0.0000000000000000     
   4.8058084287918787E-008  0.25526174672460017        0.0000000000000000     
   5.6792630909706376E-008  0.26365406676294673        0.0000000000000000     
  -6.2659879150493035E-003  0.23001905211183432        0.0000000000000000     
  -6.2959778668518797E-003  0.23844869021666681        0.0000000000000000     
  -6.3214966041164793E-003  0.24686718484068282        0.0000000000000000     
  -6.3425441268431023E-003  0.25527453598388239        0.0000000000000000     
  -6.3591204350317478E-003  0.26367074364626547        0.0000000000000000     
  -1.2571652983794056E-002  0.23003914190900132        0.0000000000000000     
  -1.2631900829810272E-002  0.23847217401242971        0.0000000000000000     
  -1.2683432618940036E-002  0.24689680067711156        0.0000000000000000     
  -1.2726248351183349E-002  0.25531302190304667        0.0000000000000000     
  -1.2760348026540212E-002  0.26372083769023519        0.0000000000000000     
  -1.8916884300452907E-002  0.23007254171441635        0.0000000000000000     
  -1.9007693774215670E-002  0.23851130089187325        0.0000000000000000     
  -1.9085753879043519E-002  0.24694618848109881        0.0000000000000000     
  -1.9151064614936458E-002  0.25537720448209306        0.0000000000000000     
  -1.9203625981894477E-002  0.26380434889485577        0.0000000000000000     
  -2.5301681865025859E-002  0.23011925152807930        0.0000000000000000     
  -2.5423356700068071E-002  0.23856607085499737        0.0000000000000000     
  -2.5528460384426927E-002  0.24701534825264471        0.0000000000000000     
  -2.5616992918102422E-002  0.25546708372102139        0.0000000000000000     
  -2.5688954301094555E-002  0.26392127726012737        0.0000000000000000     
   5.6792630909706376E-008  0.26365406676294673        0.0000000000000000     
   6.9092092364660823E-008  0.27197414131052178        0.0000000000000000     
   7.3679493996724708E-008  0.28016181059099460        0.0000000000000000     
   7.0554835807388810E-008  0.28821707460436508        0.0000000000000000     
   5.9718117795433401E-008  0.29613993335063343        0.0000000000000000     
  -6.3591204350317478E-003  0.26367074364626547        0.0000000000000000     
  -6.3751048389753132E-003  0.27199593605415168        0.0000000000000000     
  -6.3943766489666992E-003  0.28019024143386040        0.0000000000000000     
  -6.4169358650059006E-003  0.28825365978539164        0.0000000000000000     
  -6.4427824870929191E-003  0.29618619110874556        0.0000000000000000     
  -1.2760348026540212E-002  0.26372083769023519        0.0000000000000000     
  -1.2792929244977286E-002  0.27206130601707967        0.0000000000000000     
  -1.2831189606461237E-002  0.28027548486198262        0.0000000000000000     
  -1.2875129110992058E-002  0.28836337422494418        0.0000000000000000     
  -1.2924747758569756E-002  0.29632497410596420        0.0000000000000000     
  -1.9203625981894477E-002  0.26380434889485577        0.0000000000000000     
  -1.9253404125913545E-002  0.27217025119930571        0.0000000000000000     
  -1.9310365192989606E-002  0.28041754087536130        0.0000000000000000     
  -1.9374509183122664E-002  0.28854621792302265        0.0000000000000000     
  -1.9445836096312716E-002  0.29655628234228948        0.0000000000000000     
  -2.5688954301094555E-002  0.26392127726012737        0.0000000000000000     
  -2.5756529481784099E-002  0.27232277160082996        0.0000000000000000     
  -2.5831903408551817E-002  0.28061640947399646        0.0000000000000000     
  -2.5915076081397714E-002  0.28880219087962694        0.0000000000000000     
  -2.6006047500321795E-002  0.29688011581772122        0.0000000000000000     
  -1.4006324331180299E-002   5.5800110597831770E-002   0.0000000000000000     
  -1.4794237384454196E-002   6.1376404655531749E-002   0.0000000000000000     
  -1.5549838440995849E-002   6.7145352421892693E-002   0.0000000000000000     
  -1.6273127500805264E-002   7.3106953896914614E-002   0.0000000000000000     
  -1.6964104563882441E-002   7.9261209080597472E-002   0.0000000000000000     
  -1.7638828452180219E-002   5.5999659017724829E-002   0.0000000000000000     
  -1.8611182548997563E-002   6.1585789253602218E-002   0.0000000000000000     
  -1.9546667514550468E-002   6.7360391763453112E-002   0.0000000000000000     
  -2.0445283348838956E-002   7.3323466547277505E-002   0.0000000000000000     
  -2.1307030051863001E-002   7.9475013605075417E-002   0.0000000000000000     
  -2.1340667492547191E-002   5.6292888289216927E-002   0.0000000000000000     
  -2.2505978564135543E-002   6.1877217755163264E-002   0.0000000000000000     
  -2.3627312784229231E-002   6.7647986164412130E-002   0.0000000000000000     
  -2.4704670152828255E-002   7.3605193516963527E-002   0.0000000000000000     
  -2.5738050669932622E-002   7.9748839812817454E-002   0.0000000000000000     
  -2.5111841452281208E-002   5.6679798412308073E-002   0.0000000000000000     
  -2.6478625429868140E-002   6.2250690160214915E-002   0.0000000000000000     
  -2.7791774250032129E-002   6.8008135624769775E-002   0.0000000000000000     
  -2.9051287912773189E-002   7.3952134805972652E-002   0.0000000000000000     
  -3.0257166418091300E-002   8.0082687703823555E-002   0.0000000000000000     
  -2.8952350331382284E-002   5.7160389386998266E-002   0.0000000000000000     
  -3.0529123146195353E-002   6.2706206468757159E-002   0.0000000000000000     
  -3.2040051911959168E-002   6.8440840144526033E-002   0.0000000000000000     
  -3.3485136628673730E-002   7.4364290414304896E-002   0.0000000000000000     
  -3.4864377296339046E-002   8.0476557278093733E-002   0.0000000000000000     
  -1.6964104563882441E-002   7.9261209080597472E-002   0.0000000000000000     
  -1.7628419476792025E-002   8.5588891525350833E-002   0.0000000000000000     
  -1.8271722086098674E-002   9.2070774783584122E-002   0.0000000000000000     
  -1.8894012391802377E-002   9.8706858855297369E-002   0.0000000000000000     
  -1.9495290393903145E-002  0.10549714374049059        0.0000000000000000     
  -2.1307030051863001E-002   7.9475013605075417E-002   0.0000000000000000     
  -2.2137294374638548E-002   8.5797450161482200E-002   0.0000000000000000     
  -2.2941463068181511E-002   9.2273193441133203E-002   0.0000000000000000     
  -2.3719536132491899E-002   9.8902243444028398E-002   0.0000000000000000     
  -2.4471513567569700E-002  0.10568460017016781        0.0000000000000000     
  -2.5738050669932622E-002   7.9748839812817454E-002   0.0000000000000000     
  -2.6733894281521536E-002   8.6062153089445759E-002   0.0000000000000000     
  -2.7698640933574215E-002   9.2528361384320246E-002   0.0000000000000000     
  -2.8632290626090667E-002   9.9147464697441012E-002   0.0000000000000000     
  -2.9534843359070886E-002  0.10591946302880799        0.0000000000000000     
  -3.0257166418091300E-002   8.0082687703823555E-002   0.0000000000000000     
  -3.1418219197440998E-002   8.6383000309241453E-002   0.0000000000000000     
  -3.2543255682276798E-002   9.2836278613145334E-002   0.0000000000000000     
  -3.3632275872598705E-002   9.9442522615535212E-002   0.0000000000000000     
  -3.4685279768406699E-002  0.10620173231641110        0.0000000000000000     
  -3.4864377296339046E-002   8.0476557278093733E-002   0.0000000000000000     
  -3.6190269122396937E-002   8.6759991820869325E-002   0.0000000000000000     
  -3.7475307314289254E-002   9.3196945127608427E-002   0.0000000000000000     
  -3.8719491872015989E-002   9.9787417198311010E-002   0.0000000000000000     
  -3.9922822795577136E-002  0.10653140803297712        0.0000000000000000     
  -1.9495290393903145E-002  0.10549714374049059        0.0000000000000000     
  -2.0071733394855438E-002  0.11243359232011965        0.0000000000000000     
  -2.0619518697113735E-002  0.11950816747514047        0.0000000000000000     
  -2.1138646300678028E-002  0.12672086920555301        0.0000000000000000     
  -2.1629116205548318E-002  0.13407169751135728        0.0000000000000000     
  -2.4471513567569700E-002  0.10568460017016781        0.0000000000000000     
  -2.5192669148728680E-002  0.11261240738347773        0.0000000000000000     
  -2.5878276651282579E-002  0.11967780884788441        0.0000000000000000     
  -2.6528336075231401E-002  0.12688080456338788        0.0000000000000000     
  -2.7142847420575142E-002  0.13422139452998810        0.0000000000000000     
  -2.9534843359070886E-002  0.10591946302880799        0.0000000000000000     
  -3.0400749364076822E-002  0.11283645210376227        0.0000000000000000     
  -3.1224458872670429E-002  0.11989052764764496        0.0000000000000000     
  -3.2005971884851707E-002  0.12708168966045605        0.0000000000000000     
  -3.2745288400620652E-002  0.13440993814219554        0.0000000000000000     
  -3.4685279768406699E-002  0.10620173231641110        0.0000000000000000     
  -3.5695974040899865E-002  0.11310572648097328        0.0000000000000000     
  -3.6658065361277282E-002  0.12014632387442208        0.0000000000000000     
  -3.7571553729538944E-002  0.12732352449675755        0.0000000000000000     
  -3.8436439145684856E-002  0.13463732834797962        0.0000000000000000     
  -3.9922822795577136E-002  0.10653140803297712        0.0000000000000000     
  -4.1078343179197813E-002  0.11342023051511073        0.0000000000000000     
  -4.2179096117103139E-002  0.12044519752821578        0.0000000000000000     
  -4.3225081609293121E-002  0.12760630907229231        0.0000000000000000     
  -4.4216299655767746E-002  0.13490356514734028        0.0000000000000000     
  -2.1629116205548318E-002  0.13407169751135728        0.0000000000000000     
  -2.2091789096534448E-002  0.14154696226694144        0.0000000000000000     
  -2.2527525658446245E-002  0.14913297334669362        0.0000000000000000     
  -2.2936325891283717E-002  0.15682973075061379        0.0000000000000000     
  -2.3318189795046854E-002  0.16463723447870199        0.0000000000000000     
  -2.7142847420575142E-002  0.13422139452998810        0.0000000000000000     
  -2.7722847199467666E-002  0.14168622847459822        0.0000000000000000     
  -2.8269371924062828E-002  0.14926195612413135        0.0000000000000000     
  -2.8782421594360636E-002  0.15694857747858748        0.0000000000000000     
  -2.9261996210361081E-002  0.16474609253796668        0.0000000000000000     
  -3.2745288400620652E-002  0.13440993814219554        0.0000000000000000     
  -3.3443610467308260E-002  0.14186216335612886        0.0000000000000000     
  -3.4102140132245475E-002  0.14942525556552147        0.0000000000000000     
  -3.4720877395432330E-002  0.15709921477037328        0.0000000000000000     
  -3.5299822256868792E-002  0.16488404097068435        0.0000000000000000     
  -3.8436439145684856E-002  0.13463732834797962        0.0000000000000000     
  -3.9254078900056208E-002  0.14207476691153337        0.0000000000000000     
  -4.0025830282994175E-002  0.14962287167086388        0.0000000000000000     
  -4.0751693294498771E-002  0.15728164262597119        0.0000000000000000     
  -4.1431667934569989E-002  0.16505107977685526        0.0000000000000000     
  -4.4216299655767746E-002  0.13490356514734028        0.0000000000000000     
  -4.5154252497711517E-002  0.14232403914081176        0.0000000000000000     
  -4.6040442376308929E-002  0.14985480444015872        0.0000000000000000     
  -4.6874869291559977E-002  0.15749586104538121        0.0000000000000000     
  -4.7657533243464681E-002  0.16524720895647921        0.0000000000000000     
  -2.3318189795046854E-002  0.16463723447870199        0.0000000000000000     
  -2.3671372934705809E-002  0.17254428559153789        0.0000000000000000     
  -2.3994130875230724E-002  0.18053968514970106        0.0000000000000000     
  -2.4286463616621602E-002  0.18862343315319161        0.0000000000000000     
  -2.4548371158878438E-002  0.19679552960200947        0.0000000000000000     
  -2.9261996210361081E-002  0.16474609253796668        0.0000000000000000     
  -2.9706025690634269E-002  0.17264320731869318        0.0000000000000000     
  -3.0112439953750320E-002  0.18062862783719136        0.0000000000000000     
  -3.0481238999709222E-002  0.18870235409346128        0.0000000000000000     
  -3.0812422828510988E-002  0.19686438608750290        0.0000000000000000     
  -3.5299822256868792E-002  0.16488404097068435        0.0000000000000000     
  -3.5836734770278184E-002  0.17276845483267370        0.0000000000000000     
  -3.6329374989383767E-002  0.18074117702256015        0.0000000000000000     
  -3.6777742914185570E-002  0.18880220754034369        0.0000000000000000     
  -3.7181838544683557E-002  0.19695154638602438        0.0000000000000000     
  -4.1431667934569989E-002  0.16505107977685526        0.0000000000000000     
  -4.2063500173637532E-002  0.17292002813347943        0.0000000000000000     
  -4.2644935982131073E-002  0.18087733270580728        0.0000000000000000     
  -4.3175975360050627E-002  0.18892299349383881        0.0000000000000000     
  -4.3656618307396165E-002  0.19705701049757390        0.0000000000000000     
  -4.7657533243464681E-002  0.16524720895647921        0.0000000000000000     
  -4.8386321900712327E-002  0.17309792722111050        0.0000000000000000     
  -4.9059122931992230E-002  0.18103709488693301        0.0000000000000000     
  -4.9675936337304397E-002  0.18906471195394661        0.0000000000000000     
  -5.0236762116648799E-002  0.19718077842215140        0.0000000000000000     
  -2.4548371158878438E-002  0.19679552960200947        0.0000000000000000     
  -2.4780474285030014E-002  0.20504046522599995        0.0000000000000000     
  -2.4983393778105108E-002  0.21334273075500843        0.0000000000000000     
  -2.5157129638103719E-002  0.22170232618903490        0.0000000000000000     
  -2.5301681865025859E-002  0.23011925152807930        0.0000000000000000     
  -3.0812422828510988E-002  0.19686438608750290        0.0000000000000000     
  -3.1106332066549038E-002  0.20510103395317814        0.0000000000000000     
  -3.1363307340216799E-002  0.21339860782434886        0.0000000000000000     
  -3.1583348649514287E-002  0.22175710770101506        0.0000000000000000     
  -3.1766455994441480E-002  0.23017653358317677        0.0000000000000000     
  -3.7181838544683557E-002  0.19695154638602438        0.0000000000000000     
  -3.7541419311002189E-002  0.20517729762617581        0.0000000000000000     
  -3.7856242643265856E-002  0.21346756532737138        0.0000000000000000     
  -3.8126308541474578E-002  0.22182234948961124        0.0000000000000000     
  -3.8351617005628343E-002  0.23024165011289527        0.0000000000000000     
  -4.3656618307396165E-002  0.19705701049757390        0.0000000000000000     
  -4.4085736018389478E-002  0.20526925624499287        0.0000000000000000     
  -4.4462199687252298E-002  0.21354960326407602        0.0000000000000000     
  -4.4786009313984625E-002  0.22189805155482328        0.0000000000000000     
  -4.5057164898586466E-002  0.23031460111723476        0.0000000000000000     
  -5.0236762116648799E-002  0.19718077842215140        0.0000000000000000     
  -5.0739282188710891E-002  0.20537690980962936        0.0000000000000000     
  -5.1181178472176098E-002  0.21364472163446269        0.0000000000000000     
  -5.1562450967044406E-002  0.22198421389665132        0.0000000000000000     
  -5.1883099673315836E-002  0.23039538659619527        0.0000000000000000     
  -2.5301681865025859E-002  0.23011925152807930        0.0000000000000000     
  -2.5423356700068071E-002  0.23856607085499737        0.0000000000000000     
  -2.5528460384426927E-002  0.24701534825264471        0.0000000000000000     
  -2.5616992918102422E-002  0.25546708372102139        0.0000000000000000     
  -2.5688954301094555E-002  0.26392127726012737        0.0000000000000000     
  -3.1766455994441480E-002  0.23017653358317677        0.0000000000000000     
  -3.1920546674265804E-002  0.23863200031961940        0.0000000000000000     
  -3.2053537988254673E-002  0.24709862275912819        0.0000000000000000     
  -3.2165429936408085E-002  0.25557640090170330        0.0000000000000000     
  -3.2256222518726028E-002  0.26406533474734473        0.0000000000000000     
  -3.8351617005628343E-002  0.23024165011289527        0.0000000000000000     
  -3.8540920763707208E-002  0.23870460570355662        0.0000000000000000     
  -3.8702972543691178E-002  0.24719035476792828        0.0000000000000000     
  -3.8837772345580286E-002  0.25569889730601031        0.0000000000000000     
  -3.8945320169374513E-002  0.26423023331780265        0.0000000000000000     
  -4.5057164898586466E-002  0.23031460111723476        0.0000000000000000     
  -4.5284478968392258E-002  0.23878388700680908        0.0000000000000000     
  -4.5476764050736460E-002  0.24729054427904493        0.0000000000000000     
  -4.5634020145619021E-002  0.25583457293394235        0.0000000000000000     
  -4.5756247253039999E-002  0.26441597297150127        0.0000000000000000     
  -5.1883099673315836E-002  0.23039538659619527        0.0000000000000000     
  -5.2151221288320990E-002  0.23886984422937677        0.0000000000000000     
  -5.2374912509390484E-002  0.24739919129247817        0.0000000000000000     
  -5.2554173336524318E-002  0.25598342778549937        0.0000000000000000     
  -5.2689003769722485E-002  0.26462255370844040        0.0000000000000000     
  -2.5688954301094555E-002  0.26392127726012737        0.0000000000000000     
  -2.5756529481784099E-002  0.27232277160082996        0.0000000000000000     
  -2.5831903408551817E-002  0.28061640947399646        0.0000000000000000     
  -2.5915076081397714E-002  0.28880219087962694        0.0000000000000000     
  -2.6006047500321795E-002  0.29688011581772122        0.0000000000000000     
  -3.2256222518726028E-002  0.26406533474734473        0.0000000000000000     
  -3.2340724045930636E-002  0.27251253910178813        0.0000000000000000     
  -3.2433742828743992E-002  0.28086512877076941        0.0000000000000000     
  -3.2535278867166111E-002  0.28912310375428851        0.0000000000000000     
  -3.2645332161196992E-002  0.29728646405234549        0.0000000000000000     
  -3.8945320169374513E-002  0.26423023331780265        0.0000000000000000     
  -3.9044406551694839E-002  0.27273322558231616        0.0000000000000000     
  -3.9153822029162254E-002  0.28115673687856158        0.0000000000000000     
  -3.9273566601776756E-002  0.28950076720653883        0.0000000000000000     
  -3.9403640269538319E-002  0.29776531656624816        0.0000000000000000     
  -4.5756247253039999E-002  0.26441597297150127        0.0000000000000000     
  -4.5867576999076731E-002  0.27298483104241400        0.0000000000000000     
  -4.5992141009806593E-002  0.28149123379737284        0.0000000000000000     
  -4.6129939285229613E-002  0.28993518123637796        0.0000000000000000     
  -4.6280971825345761E-002  0.29831667335942907        0.0000000000000000     
  -5.2689003769722485E-002  0.26462255370844040        0.0000000000000000     
  -5.2810235388076290E-002  0.27326735548208170        0.0000000000000000     
  -5.2948699770677038E-002  0.28186861952720338        0.0000000000000000     
  -5.3104396917524714E-002  0.29042634584380572        0.0000000000000000     
  -5.3277326828619326E-002  0.29894053443188850        0.0000000000000000     
  -2.8952350331382284E-002   5.7160389386998266E-002   0.0000000000000000     
  -3.0529123146195353E-002   6.2706206468757159E-002   0.0000000000000000     
  -3.2040051911959168E-002   6.8440840144526033E-002   0.0000000000000000     
  -3.3485136628673730E-002   7.4364290414304896E-002   0.0000000000000000     
  -3.4864377296339046E-002   8.0476557278093733E-002   0.0000000000000000     
  -3.2908548077375532E-002   5.7703756733416947E-002   0.0000000000000000     
  -3.4694529442974104E-002   6.3222257252643577E-002   0.0000000000000000     
  -3.6402667399541608E-002   6.8931788168423616E-002   0.0000000000000000     
  -3.8032961947078066E-002   7.4832349480757079E-002   0.0000000000000000     
  -3.9585413085583436E-002   8.0923941189643939E-002   0.0000000000000000     
  -3.7026788637786107E-002   5.8278995971693573E-002   0.0000000000000000     
  -3.9011902050061345E-002   6.3777333083727780E-002   0.0000000000000000     
  -4.0910142342310753E-002   6.9466668141205279E-002   0.0000000000000000     
  -4.2721509514534337E-002   7.5347001144126055E-002   0.0000000000000000     
  -4.4446003566732090E-002   8.1418332092490109E-002   0.0000000000000000     
  -4.1307072012613993E-002   5.8886107101828129E-002   0.0000000000000000     
  -4.3481240967457049E-002   6.4371433962009783E-002   0.0000000000000000     
  -4.5562476740266561E-002   7.0045480062871007E-002   0.0000000000000000     
  -4.7550779331042542E-002   7.5908245404411823E-002   0.0000000000000000     
  -4.9446148739784986E-002   8.1959729986632257E-002   0.0000000000000000     
  -4.5749398201859193E-002   5.9525090123820630E-002   0.0000000000000000     
  -4.8102546195161230E-002   6.5004559887489544E-002   0.0000000000000000     
  -5.0359670593409060E-002   7.0668223933420815E-002   0.0000000000000000     
  -5.2520771396602703E-002   7.6516082261614410E-002   0.0000000000000000     
  -5.4585848604742138E-002   8.2548134872070369E-002   0.0000000000000000     
  -3.4864377296339046E-002   8.0476557278093733E-002   0.0000000000000000     
  -3.6190269122396937E-002   8.6759991820869325E-002   0.0000000000000000     
  -3.7475307314289254E-002   9.3196945127608427E-002   0.0000000000000000     
  -3.8719491872015989E-002   9.9787417198311010E-002   0.0000000000000000     
  -3.9922822795577136E-002  0.10653140803297712        0.0000000000000000     
  -3.9585413085583436E-002   8.0923941189643939E-002   0.0000000000000000     
  -4.1076115023508962E-002   8.7188158788746653E-002   0.0000000000000000     
  -4.2521161969305860E-002   9.3606597771727598E-002   0.0000000000000000     
  -4.3920553922974087E-002  0.10017925813858683        0.0000000000000000     
  -4.5274290884513686E-002  0.10690613988932429        0.0000000000000000     
  -4.4446003566732090E-002   8.1418332092490109E-002   0.0000000000000000     
  -4.6101827867896711E-002   8.7662532377290658E-002   0.0000000000000000     
  -4.7707185787020878E-002   9.4061473389520978E-002   0.0000000000000000     
  -4.9262077324104578E-002  0.10061515512918102        0.0000000000000000     
  -5.0766502479147838E-002  0.10732357759627080        0.0000000000000000     
  -4.9446148739784986E-002   8.1959729986632257E-002   0.0000000000000000     
  -5.1267407655560149E-002   8.8183112586501439E-002   0.0000000000000000     
  -5.3033378767434323E-002   9.4561571980988579E-002   0.0000000000000000     
  -5.4744062075407447E-002  0.10109510817009362        0.0000000000000000     
  -5.6399457579479582E-002  0.10778372115381663        0.0000000000000000     
  -5.4585848604742138E-002   8.2548134872070369E-002   0.0000000000000000     
  -5.6572854386499324E-002   8.8749899416378925E-002   0.0000000000000000     
  -5.8499740910546182E-002   9.5106893546130347E-002   0.0000000000000000     
  -6.0366508176882716E-002  0.10161911726132462        0.0000000000000000     
  -6.2173156185508949E-002  0.10828657056196178        0.0000000000000000     
  -3.9922822795577136E-002  0.10653140803297712        0.0000000000000000     
  -4.1078343179197813E-002  0.11342023051511073        0.0000000000000000     
  -4.2179096117103139E-002  0.12044519752821578        0.0000000000000000     
  -4.3225081609293121E-002  0.12760630907229231        0.0000000000000000     
  -4.4216299655767746E-002  0.13490356514734028        0.0000000000000000     
  -4.5274290884513686E-002  0.10690613988932429        0.0000000000000000     
  -4.6574779888485962E-002  0.11377799661896698        0.0000000000000000     
  -4.7814427969452240E-002  0.12078558192254188        0.0000000000000000     
  -4.8993235127412521E-002  0.12792889580004893        0.0000000000000000     
  -5.0111201362366797E-002  0.13520793825148814        0.0000000000000000     
  -5.0766502479147838E-002  0.10732357759627080        0.0000000000000000     
  -5.2212207278279590E-002  0.11417705720533447        0.0000000000000000     
  -5.3590937747628783E-002  0.12116591037091617        0.0000000000000000     
  -5.4902693887195431E-002  0.12829013709301593        0.0000000000000000     
  -5.6147475696979518E-002  0.13554973737163373        0.0000000000000000     
  -5.6399457579479582E-002  0.10778372115381663        0.0000000000000000     
  -5.7990625348578705E-002  0.11461741227421311        0.0000000000000000     
  -5.9508625451632789E-002  0.12158618287333869        0.0000000000000000     
  -6.0953457888641836E-002  0.12869003295119333        0.0000000000000000     
  -6.2325122659605880E-002  0.13592896250777703        0.0000000000000000     
  -6.2173156185508949E-002  0.10828657056196178        0.0000000000000000     
  -6.3910034099383298E-002  0.11509906182560296        0.0000000000000000     
  -6.5567491081464230E-002  0.12204639942980941        0.0000000000000000     
  -6.7145527131751773E-002  0.12912858337458108        0.0000000000000000     
  -6.8644142250245885E-002  0.13634561365991804        0.0000000000000000     
  -4.4216299655767746E-002  0.13490356514734028        0.0000000000000000     
  -4.5154252497711517E-002  0.14232403914081176        0.0000000000000000     
  -4.6040442376308929E-002  0.14985480444015872        0.0000000000000000     
  -4.6874869291559977E-002  0.15749586104538121        0.0000000000000000     
  -4.7657533243464681E-002  0.16524720895647921        0.0000000000000000     
  -5.0111201362366797E-002  0.13520793825148814        0.0000000000000000     
  -5.1170112505098377E-002  0.14260976679915890        0.0000000000000000     
  -5.2171754386390552E-002  0.15012143896536054        0.0000000000000000     
  -5.3116127006243297E-002  0.15774295475009306        0.0000000000000000     
  -5.4003230364656631E-002  0.16547431415335651        0.0000000000000000     
  -5.6147475696979518E-002  0.13554973737163373        0.0000000000000000     
  -5.7327640167041005E-002  0.14293173664176967        0.0000000000000000     
  -5.8445544287439838E-002  0.15042316033842396        0.0000000000000000     
  -5.9501188058176044E-002  0.15802400846159648        0.0000000000000000     
  -6.0494571479249595E-002  0.16573428101128737        0.0000000000000000     
  -6.2325122659605880E-002  0.13592896250777703        0.0000000000000000     
  -6.3626835483539354E-002  0.14328994866864408        0.0000000000000000     
  -6.4861812079456807E-002  0.15075996855934895        0.0000000000000000     
  -6.6030052447358212E-002  0.15833902217989151        0.0000000000000000     
  -6.7131556587243596E-002  0.16602710953027178        0.0000000000000000     
  -6.8644142250245885E-002  0.13634561365991804        0.0000000000000000     
  -7.0067698454593486E-002  0.14368440287978218        0.0000000000000000     
  -7.1420557762441467E-002  0.15113186362813549        0.0000000000000000     
  -7.2702720173789842E-002  0.15868799590497801        0.0000000000000000     
  -7.3914185688638598E-002  0.16635279971030975        0.0000000000000000     
  -4.7657533243464681E-002  0.16524720895647921        0.0000000000000000     
  -4.8386321900712327E-002  0.17309792722111050        0.0000000000000000     
  -4.9059122931992230E-002  0.18103709488693301        0.0000000000000000     
  -4.9675936337304397E-002  0.18906471195394661        0.0000000000000000     
  -5.0236762116648799E-002  0.19718077842215140        0.0000000000000000     
  -5.4003230364656631E-002  0.16547431415335651        0.0000000000000000     
  -5.4831116818535711E-002  0.17330490875502069        0.0000000000000000     
  -5.5597838724785686E-002  0.18122413013495556        0.0000000000000000     
  -5.6303396083406558E-002  0.18923197829316102        0.0000000000000000     
  -5.6947788894398339E-002  0.19732845322963716        0.0000000000000000     
  -6.0494571479249595E-002  0.16573428101128737        0.0000000000000000     
  -6.1423801794140781E-002  0.17354372939466389        0.0000000000000000     
  -6.2286986246329862E-002  0.18144210501889338        0.0000000000000000     
  -6.3084124835816810E-002  0.18942940788397594        0.0000000000000000     
  -6.3815217562601681E-002  0.19750563798991155        0.0000000000000000     
  -6.7131556587243596E-002  0.16602710953027178        0.0000000000000000     
  -6.8164376827527559E-002  0.17381438914004005        0.0000000000000000     
  -6.9126565496624742E-002  0.18169101953874661        0.0000000000000000     
  -7.0018122594535159E-002  0.18965700072639138        0.0000000000000000     
  -7.0839048121258824E-002  0.19771233270297447        0.0000000000000000     
  -7.3914185688638598E-002  0.16635279971030975        0.0000000000000000     
  -7.5052841918696017E-002  0.17411688799114927        0.0000000000000000     
  -7.6116576475670328E-002  0.18197087369451515        0.0000000000000000     
  -7.7105389359561585E-002  0.18991475682040740        0.0000000000000000     
  -7.8019280570369734E-002  0.19794853736882601        0.0000000000000000     
  -5.0236762116648799E-002  0.19718077842215140        0.0000000000000000     
  -5.0739282188710891E-002  0.20537690980962936        0.0000000000000000     
  -5.1181178472176098E-002  0.21364472163446269        0.0000000000000000     
  -5.1562450967044406E-002  0.22198421389665132        0.0000000000000000     
  -5.1883099673315836E-002  0.23039538659619527        0.0000000000000000     
  -5.6947788894398339E-002  0.19732845322963716        0.0000000000000000     
  -5.7527892336773759E-002  0.20550653426036361        0.0000000000000000     
  -5.8040581589545573E-002  0.21375920070131993        0.0000000000000000     
  -5.8485856652713761E-002  0.22208645255250620        0.0000000000000000     
  -5.8863717526278343E-002  0.23048828981392239        0.0000000000000000     
  -6.3815217562601681E-002  0.19750563798991155        0.0000000000000000     
  -6.4477400977385427E-002  0.20566440553747373        0.0000000000000000     
  -6.5067811630869041E-002  0.21389932072743623        0.0000000000000000     
  -6.5586449523052523E-002  0.22221038355979889        0.0000000000000000     
  -6.6033314653935887E-002  0.23059759403456181        0.0000000000000000     
  -7.0839048121258824E-002  0.19771233270297447        0.0000000000000000     
  -7.1587808110545853E-002  0.20585052364095982        0.0000000000000000     
  -7.2262868596146487E-002  0.21406508171281144        0.0000000000000000     
  -7.2864229578060685E-002  0.22235600691852930        0.0000000000000000     
  -7.3391891056288475E-002  0.23072329925811347        0.0000000000000000     
  -7.8019280570369734E-002  0.19794853736882601        0.0000000000000000     
  -7.8859113736255093E-002  0.20606488857082184        0.0000000000000000     
  -7.9625752485377940E-002  0.21425648365744568        0.0000000000000000     
  -8.0319196817738261E-002  0.22252332262869753        0.0000000000000000     
  -8.0939446733336085E-002  0.23086540548457737        0.0000000000000000     
  -5.1883099673315836E-002  0.23039538659619527        0.0000000000000000     
  -5.2151221288320990E-002  0.23886984422937677        0.0000000000000000     
  -5.2374912509390484E-002  0.24739919129247817        0.0000000000000000     
  -5.2554173336524318E-002  0.25598342778549937        0.0000000000000000     
  -5.2689003769722485E-002  0.26462255370844040        0.0000000000000000     
  -5.8863717526278343E-002  0.23048828981392239        0.0000000000000000     
  -5.9180262286207333E-002  0.23896391208700937        0.0000000000000000     
  -5.9441589008468750E-002  0.24751251897320800        0.0000000000000000     
  -5.9647697693062579E-002  0.25613411047251816        0.0000000000000000     
  -5.9798588339988849E-002  0.26482868658494008        0.0000000000000000     
  -6.6033314653935887E-002  0.23059759403456181        0.0000000000000000     
  -6.6410716524765240E-002  0.23906752529545650        0.0000000000000000     
  -6.6720964636786700E-002  0.24762675048621438        0.0000000000000000     
  -6.6964058990000269E-002  0.25627526960683550        0.0000000000000000     
  -6.7139999584405932E-002  0.26501308265731993        0.0000000000000000     
  -7.3391891056288475E-002  0.23072329925811347        0.0000000000000000     
  -7.3842584003994724E-002  0.23918068385471808        0.0000000000000000     
  -7.4213039394344357E-002  0.24774188583149739        0.0000000000000000     
  -7.4503257227337388E-002  0.25640690518845138        0.0000000000000000     
  -7.4713237502973776E-002  0.26517574192558008        0.0000000000000000     
  -8.0939446733336085E-002  0.23086540548457737        0.0000000000000000     
  -8.1475864723895772E-002  0.23930338776479423        0.0000000000000000     
  -8.1917813281141713E-002  0.24785792500905701        0.0000000000000000     
  -8.2265292405073909E-002  0.25652901721736571        0.0000000000000000     
  -8.2518302095692331E-002  0.26531666438972040        0.0000000000000000     
  -5.2689003769722485E-002  0.26462255370844040        0.0000000000000000     
  -5.2810235388076290E-002  0.27326735548208170        0.0000000000000000     
  -5.2948699770677038E-002  0.28186861952720338        0.0000000000000000     
  -5.3104396917524714E-002  0.29042634584380572        0.0000000000000000     
  -5.3277326828619326E-002  0.29894053443188850        0.0000000000000000     
  -5.9798588339988849E-002  0.26482868658494008        0.0000000000000000     
  -5.9931136341985491E-002  0.27355208691871147        0.0000000000000000     
  -6.0082217091790485E-002  0.28226015108207064        0.0000000000000000     
  -6.0251830589403810E-002  0.29095287907501732        0.0000000000000000     
  -6.0439976834825479E-002  0.29963027089755162        0.0000000000000000     
  -6.7139999584405932E-002  0.26501308265731993        0.0000000000000000     
  -6.7289034484096288E-002  0.27381031336969597        0.0000000000000000     
  -6.7451411753163854E-002  0.28263708547599187        0.0000000000000000     
  -6.7627131391608655E-002  0.29149339897620774        0.0000000000000000     
  -6.7816193399430694E-002  0.30037925387034370        0.0000000000000000     
  -7.4713237502973776E-002  0.26517574192558008        0.0000000000000000     
  -7.4883929814408653E-002  0.27404203483503486        0.0000000000000000     
  -7.5056283754797171E-002  0.28299942270896722        0.0000000000000000     
  -7.5230299324139258E-002  0.29204790554737720        0.0000000000000000     
  -7.5405976522434970E-002  0.30118748335026474        0.0000000000000000     
  -8.2518302095692331E-002  0.26531666438972040        0.0000000000000000     
  -8.2715822332922628E-002  0.27424725131472832        0.0000000000000000     
  -8.2896833096690409E-002  0.28334716278099664        0.0000000000000000     
  -8.3061334386995617E-002  0.29261639878852552        0.0000000000000000     
  -8.3209326203838307E-002  0.30205495933731485        0.0000000000000000     
  -4.5749398201859193E-002   5.9525090123820630E-002   0.0000000000000000     
  -4.8102546195161230E-002   6.5004559887489544E-002   0.0000000000000000     
  -5.0359670593409060E-002   7.0668223933420815E-002   0.0000000000000000     
  -5.2520771396602703E-002   7.6516082261614410E-002   0.0000000000000000     
  -5.4585848604742138E-002   8.2548134872070369E-002   0.0000000000000000     
  -5.0359013332593322E-002   6.0225550126998338E-002   0.0000000000000000     
  -5.2892432663409768E-002   6.5694053823610987E-002   0.0000000000000000     
  -5.5326205802570715E-002   7.1343513035266856E-002   0.0000000000000000     
  -5.7660332750076142E-002   7.7173927761965883E-002   0.0000000000000000     
  -5.9894813505926056E-002   8.3185298003708108E-002   0.0000000000000000     
  -5.5141163531887992E-002   6.1017092200688523E-002   0.0000000000000000     
  -5.7867515302438548E-002   6.6457258733818039E-002   0.0000000000000000     
  -6.0486564268583932E-002   7.2079960650821326E-002   0.0000000000000000     
  -6.2998310430324181E-002   7.7885197951698348E-002   0.0000000000000000     
  -6.5402753787659265E-002   8.3872970636449162E-002   0.0000000000000000     
  -6.0095848799743196E-002   6.1899716344891192E-002   0.0000000000000000     
  -6.3027794112247557E-002   6.7294174618110672E-002   0.0000000000000000     
  -6.5840745991448762E-002   7.2877566780084210E-002   0.0000000000000000     
  -6.8534704437346841E-002   7.8649892830811835E-002   0.0000000000000000     
  -7.1109669449941751E-002   8.4611152770293505E-002   0.0000000000000000     
  -6.5223069136158940E-002   6.2873422559606332E-002   0.0000000000000000     
  -6.8373269092836794E-002   6.8204801476488885E-002   0.0000000000000000     
  -7.1388750971165177E-002   7.3736331423055523E-002   0.0000000000000000     
  -7.4269514771144102E-002   7.9468012399306273E-002   0.0000000000000000     
  -7.7015560492773541E-002   8.5399844405241135E-002   0.0000000000000000     
  -5.4585848604742138E-002   8.2548134872070369E-002   0.0000000000000000     
  -5.6572854386499324E-002   8.8749899416378925E-002   0.0000000000000000     
  -5.8499740910546182E-002   9.5106893546130347E-002   0.0000000000000000     
  -6.0366508176882716E-002  0.10161911726132462        0.0000000000000000     
  -6.2173156185508949E-002  0.10828657056196178        0.0000000000000000     
  -5.9894813505926056E-002   8.3185298003708108E-002   0.0000000000000000     
  -6.2047020533705470E-002   8.9364703572468021E-002   0.0000000000000000     
  -6.4134326296999333E-002   9.5699224280220069E-002   0.0000000000000000     
  -6.6156730795807653E-002  0.10218886012696433        0.0000000000000000     
  -6.8114234030130449E-002  0.10883361111270073        0.0000000000000000     
  -6.5402753787659265E-002   8.3872970636449162E-002   0.0000000000000000     
  -6.7718758570169860E-002   9.0029335760313592E-002   0.0000000000000000     
  -6.9965189007436618E-002   9.6340350378531558E-002   0.0000000000000000     
  -7.2142045099459567E-002  0.10280601449110299        0.0000000000000000     
  -7.4249326846238639E-002  0.10942632809802799        0.0000000000000000     
  -7.1109669449941751E-002   8.4611152770293505E-002   0.0000000000000000     
  -7.3588068495892514E-002   9.0743795979915678E-002   0.0000000000000000     
  -7.5992329041858070E-002   9.7030271841064705E-002   0.0000000000000000     
  -7.8322451087838404E-002  0.10347058035374071        0.0000000000000000     
  -8.0578434633833532E-002  0.11006472151794355        0.0000000000000000     
  -7.7015560492773541E-002   8.5399844405241135E-002   0.0000000000000000     
  -7.9654950310873412E-002   9.1508084231274225E-002   0.0000000000000000     
  -8.2215746400263648E-002   9.7768988667819606E-002   0.0000000000000000     
  -8.4697948760944206E-002  0.10418255771487735        0.0000000000000000     
  -8.7101557392915113E-002  0.11074879137244739        0.0000000000000000     
  -6.2173156185508949E-002  0.10828657056196178        0.0000000000000000     
  -6.3910034099383298E-002  0.11509906182560296        0.0000000000000000     
  -6.5567491081464230E-002  0.12204639942980941        0.0000000000000000     
  -6.7145527131751773E-002  0.12912858337458108        0.0000000000000000     
  -6.8644142250245885E-002  0.13634561365991804        0.0000000000000000     
  -6.8114234030130449E-002  0.10883361111270073        0.0000000000000000     
  -6.9996496660615082E-002  0.11562325737825217        0.0000000000000000     
  -7.1793179347908936E-002  0.12254757906444147        0.0000000000000000     
  -7.3504282092012027E-002  0.12960657617126869        0.0000000000000000     
  -7.5129804892924340E-002  0.13680024869873378        0.0000000000000000     
  -7.4249326846238639E-002  0.10942632809802799        0.0000000000000000     
  -7.6276076162195741E-002  0.11619125045090889        0.0000000000000000     
  -7.8211334961752685E-002  0.12309074080134805        0.0000000000000000     
  -8.0055103244909442E-002  0.13012479914934555        0.0000000000000000     
  -8.1807381011666055E-002  0.13729342549490134        0.0000000000000000     
  -8.0578434633833532E-002  0.11006472151794355        0.0000000000000000     
  -8.2748772604125276E-002  0.11680304104357309        0.0000000000000000     
  -8.4821957922995433E-002  0.12367588464052913        0.0000000000000000     
  -8.6797990590444005E-002  0.13068325230881167        0.0000000000000000     
  -8.8676870606471045E-002  0.13782514404842067        0.0000000000000000     
  -8.7101557392915113E-002  0.11074879137244739        0.0000000000000000     
  -8.9414585986403686E-002  0.11745862915624483        0.0000000000000000     
  -9.1625048231637238E-002  0.12430301058198470        0.0000000000000000     
  -9.3732944128615756E-002  0.13128193564966703        0.0000000000000000     
  -9.5738273677339267E-002  0.13839540435929179        0.0000000000000000     
  -6.8644142250245885E-002  0.13634561365991804        0.0000000000000000     
  -7.0067698454593486E-002  0.14368440287978218        0.0000000000000000     
  -7.1420557762441467E-002  0.15113186362813549        0.0000000000000000     
  -7.2702720173789842E-002  0.15868799590497801        0.0000000000000000     
  -7.3914185688638598E-002  0.16635279971030975        0.0000000000000000     
  -7.5129804892924340E-002  0.13680024869873378        0.0000000000000000     
  -7.6675149963109868E-002  0.14411551149665353        0.0000000000000000     
  -7.8145719515032575E-002  0.15153927941484466        0.0000000000000000     
  -7.9541513548692502E-002  0.15907155245330723        0.0000000000000000     
  -8.0862532064089568E-002  0.16671233061204119        0.0000000000000000     
  -8.1807381011666055E-002  0.13729342549490134        0.0000000000000000     
  -8.3474110891995038E-002  0.14458368674072783        0.0000000000000000     
  -8.5061235515868944E-002  0.15198264978953741        0.0000000000000000     
  -8.6568754883287732E-002  0.15949031464133015        0.0000000000000000     
  -8.7996668994251431E-002  0.16710668129610595        0.0000000000000000     
  -8.8676870606471045E-002  0.13782514404842067        0.0000000000000000     
  -9.0464581241249023E-002  0.14508892861200509        0.0000000000000000     
  -9.2167105764950547E-002  0.15246197475221376        0.0000000000000000     
  -9.3784444177575588E-002  0.15994428246904674        0.0000000000000000     
  -9.5316596479124188E-002  0.16753585176250405        0.0000000000000000     
  -9.5738273677339267E-002  0.13839540435929179        0.0000000000000000     
  -9.7646561010871796E-002  0.14563123711048526        0.0000000000000000     
  -9.9463330262277411E-002  0.15297725430287368        0.0000000000000000     
 -0.10118858143155608       0.16043345593645708        0.0000000000000000     
 -0.10282231451870782       0.16799984201123547        0.0000000000000000     
  -7.3914185688638598E-002  0.16635279971030975        0.0000000000000000     
  -7.5052841918696017E-002  0.17411688799114927        0.0000000000000000     
  -7.6116576475670328E-002  0.18197087369451515        0.0000000000000000     
  -7.7105389359561585E-002  0.18991475682040740        0.0000000000000000     
  -7.8019280570369734E-002  0.19794853736882601        0.0000000000000000     
  -8.0862532064089568E-002  0.16671233061204119        0.0000000000000000     
  -8.2106822903513663E-002  0.17445251382725616        0.0000000000000000     
  -8.3272433909254567E-002  0.18228300203516182        0.0000000000000000     
  -8.4359365081312268E-002  0.19020379523575812        0.0000000000000000     
  -8.5367616419686793E-002  0.19821489342904514        0.0000000000000000     
  -8.7996668994251431E-002  0.16710668129610595        0.0000000000000000     
  -8.9343945617847989E-002  0.17482255452762549        0.0000000000000000     
  -9.0609552523165326E-002  0.18262873910964950        0.0000000000000000     
  -9.1793489710203416E-002  0.19052523504217789        0.0000000000000000     
  -9.2895757178962285E-002  0.19851204232521069        0.0000000000000000     
  -9.5316596479124188E-002  0.16753585176250405        0.0000000000000000     
  -9.6764210061698955E-002  0.17522701009225727        0.0000000000000000     
  -9.8127932317402550E-002  0.18300808491797815        0.0000000000000000     
  -9.9407763246234987E-002  0.19087907623966666        0.0000000000000000     
 -0.10060370284819627       0.19883998405732278        0.0000000000000000     
 -0.10282231451870782       0.16799984201123547        0.0000000000000000     
 -0.10436761623506659       0.17566588052115145        0.0000000000000000     
 -0.10582757329196632       0.18342103946014782        0.0000000000000000     
 -0.10720218568940700       0.19126531882822442        0.0000000000000000     
 -0.10849145342738867       0.19919871862538138        0.0000000000000000     
  -7.8019280570369734E-002  0.19794853736882601        0.0000000000000000     
  -7.8859113736255093E-002  0.20606488857082184        0.0000000000000000     
  -7.9625752485377940E-002  0.21425648365744568        0.0000000000000000     
  -8.0319196817738261E-002  0.22252332262869753        0.0000000000000000     
  -8.0939446733336085E-002  0.23086540548457737        0.0000000000000000     
  -8.5367616419686793E-002  0.19821489342904514        0.0000000000000000     
  -8.6300499860631832E-002  0.20630830232713415        0.0000000000000000     
  -8.7161327340401121E-002  0.21447602764213669        0.0000000000000000     
  -8.7950098858994658E-002  0.22271806937405270        0.0000000000000000     
  -8.8666814416412429E-002  0.23103442752288220        0.0000000000000000     
  -9.2895757178962285E-002  0.19851204232521069        0.0000000000000000     
  -9.3921148489794812E-002  0.20658156690997106        0.0000000000000000     
  -9.4874457203053791E-002  0.21472621474768214        0.0000000000000000     
  -9.5755683318739265E-002  0.22294598583834394        0.0000000000000000     
  -9.6564826836851220E-002  0.23124088018195643        0.0000000000000000     
 -0.10060370284819627       0.19883998405732278        0.0000000000000000     
 -0.10172105962374400       0.20688468231933260        0.0000000000000000     
 -0.10276514207333598       0.21500704497408207        0.0000000000000000     
 -0.10373595019697211       0.22320707202157128        0.0000000000000000     
 -0.10463348399465244       0.23148476346180014        0.0000000000000000     
 -0.10849145342738867       0.19919871862538138        0.0000000000000000     
 -0.10970023326247948       0.20721764855521868        0.0000000000000000     
 -0.11083338195124766       0.21531851832133647        0.0000000000000000     
 -0.11189089949369320       0.22350132792373467        0.0000000000000000     
 -0.11287278588981611       0.23176607736241334        0.0000000000000000     
  -8.0939446733336085E-002  0.23086540548457737        0.0000000000000000     
  -8.1475864723895772E-002  0.23930338776479423        0.0000000000000000     
  -8.1917813281141713E-002  0.24785792500905701        0.0000000000000000     
  -8.2265292405073909E-002  0.25652901721736571        0.0000000000000000     
  -8.2518302095692331E-002  0.26531666438972040        0.0000000000000000     
  -8.8666814416412429E-002  0.23103442752288220        0.0000000000000000     
  -8.9297074136880997E-002  0.23945060770997836        0.0000000000000000     
  -8.9826478144626867E-002  0.24799211555669431        0.0000000000000000     
  -9.0255026439650055E-002  0.25665895106303016        0.0000000000000000     
  -9.0582719021950558E-002  0.26545111422898582        0.0000000000000000     
  -9.6564826836851220E-002  0.23124088018195643        0.0000000000000000     
  -9.7292727695362999E-002  0.23963731437456387        0.0000000000000000     
  -9.7930225832247947E-002  0.24816170501221044        0.0000000000000000     
  -9.8477321247506078E-002  0.25681405209489622        0.0000000000000000     
  -9.8934013941137378E-002  0.26559435562262118        0.0000000000000000     
 -0.10463348399465244       0.23148476346180014        0.0000000000000000     
 -0.10546282539934181       0.23986350775855084        0.0000000000000000     
 -0.10622905634400497       0.24836669337560541        0.0000000000000000     
 -0.10693217682864196       0.25699432031296388        0.0000000000000000     
 -0.10757218685325279       0.26574638857062627        0.0000000000000000     
 -0.11287278588981611       0.23176607736241334        0.0000000000000000     
 -0.11380736724881735       0.24012918786193924        0.0000000000000000     
 -0.11472296967989787       0.24860708064687914        0.0000000000000000     
 -0.11561959318305769       0.25719975571723314        0.0000000000000000     
 -0.11649723775829679       0.26590721307300125        0.0000000000000000     
  -8.2518302095692331E-002  0.26531666438972040        0.0000000000000000     
  -8.2715822332922628E-002  0.27424725131472832        0.0000000000000000     
  -8.2896833096690409E-002  0.28334716278099664        0.0000000000000000     
  -8.3061334386995617E-002  0.29261639878852552        0.0000000000000000     
  -8.3209326203838307E-002  0.30205495933731485        0.0000000000000000     
  -9.0582719021950558E-002  0.26545111422898582        0.0000000000000000     
  -9.0839891003976089E-002  0.27443165275045861        0.0000000000000000     
  -9.1056877498174385E-002  0.28366361432334541        0.0000000000000000     
  -9.1233678504545418E-002  0.29314699894764645        0.0000000000000000     
  -9.1370294023089216E-002  0.30288180662336173        0.0000000000000000     
  -9.8934013941137378E-002  0.26559435562262118        0.0000000000000000     
  -9.9311314791906954E-002  0.27460092908390776        0.0000000000000000     
  -9.9620234678579972E-002  0.28393208596727865        0.0000000000000000     
  -9.9860773601156361E-002  0.29358782627273372        0.0000000000000000     
 -0.10003293155963615       0.30356815000027315        0.0000000000000000     
 -0.10757218685325279       0.26574638857062627        0.0000000000000000     
 -0.10813009369671524       0.27475508031507589        0.0000000000000000     
 -0.10858690463790714       0.28415257771279628        0.0000000000000000     
 -0.10894261967682843       0.29393888076378744        0.0000000000000000     
 -0.10919723881347913       0.30411398946804918        0.0000000000000000     
 -0.11649723775829679       0.26590721307300125        0.0000000000000000     
 -0.11729622771840092       0.27489410644396317        0.0000000000000000     
 -0.11795688737615589       0.28432508955989849        0.0000000000000000     
 -0.11847921673156163       0.29420016242080743        0.0000000000000000     
 -0.11886321578461817       0.30451932502668982        0.0000000000000000     
 </DataArray>
 <DataArray  type="Float64" Name="stress" NumberOfComponents="3" format="ascii">
   6181522440.2250957        171205668.09579539        57685103.315923817     
   5909931405.0421352        76509555.733729362        33726580.032712191     
   5646381547.0309439        8617367.2775628567        18032499.054560374     
   5390872866.1915379       -32470897.272677422        10602860.381479891     
   5143405362.5238886       -46755237.917033434        11437664.013456652     
   5763973482.4399834        113008136.59795833        188046034.47464690     
   5521554798.0435152        49889336.901812792        176448166.00977898     
   5284171861.3458300        3556362.8682880402        171739052.92192307     
   5051824672.3469372       -25990785.502594948        173918695.21109450     
   4824513231.0468311       -38752108.210863829        182987092.87728435     
   5361911073.5345249        59456569.764030933        328939212.60669839     
   5144734205.8444118        26735922.509764433        326195664.57502329     
   4929587656.3801003        783002.67483711243        328965184.99232709     
   4716471425.1415920       -18402189.740742207        337247773.85860020     
   4505385512.1288815       -30819654.736979008        351043431.17384833     
   4975335213.5087166        10550967.593988180        480364637.71207917     
   4779469628.4448280        7049312.5575678349        482969075.72846138     
   4582628932.1337528        297286.69720053673        489710895.26576138     
   4384813124.5754929       -9705109.9871020317        500590096.32399607     
   4186022205.7700562       -22957877.495345116        515606678.90315449     
   4604245902.3625631       -33708669.912154675        642322309.79079795     
   4425761065.8447495       -9170492.9547855854        646768399.47007895     
   4243295688.6067848        2099214.9353678226        653976183.74224317     
   4056849770.6486497        100453.75830268860        663945662.60727739     
   3866423311.9703445       -15166776.485983372        676676836.06519568     
   5143405362.5238886       -46755237.917033434        11437664.013456652     
   4994925527.6213617       -21958216.081719398        6699627.2787782466     
   4844592468.4152708       -3338608.5916304588        6409784.6412694342     
   4692406184.9056187        9103584.5532674789        10568136.100941744     
   4538366677.0924158        15368363.352983952        19174681.657796454     
   4824513231.0468311       -38752108.210863829        182987092.87728435     
   4685713523.4188356       -19154018.355822802        176255877.64370936     
   4545706129.0558071       -3581550.9508910179        173722473.59649992     
   4404491047.9577465        7965294.0039291382        175386880.73566017     
   4262068280.1246490        15486516.508636951        181249099.06119171     
   4505385512.1288815       -30819654.736979008        351043431.17384833     
   4375550552.0302601       -16635110.785732746        343072164.60465366     
   4245153442.7651272       -4324397.3895163536        339048326.31102425     
   4114194184.3334799        6112485.4516592026        338971916.29295027     
   3982672776.7353325        14675537.737814426        342842934.55043769     
   4186022205.7700562       -22957877.495345116        515606678.90315449     
   4064436613.4556336       -14401493.371452332        507148488.16162235     
   3942934409.5432239       -5567147.9075090885        502387342.78484762     
   3821515594.0328250        3545158.8964788914        501323242.77282065     
   3700180166.9244523        12935427.040531635        503956188.12554485     
   3866423311.9703445       -15166776.485983372        676676836.06519568     
   3752371707.6949515       -12453166.112998486        668484848.31461191     
   3639049029.3901000       -7309802.5048677921        663739523.01796734     
   3526455277.0557823        263314.33837938309        662440860.17526972     
   3414590450.6920147        10266184.416778088        664588859.78651261     
   4538366677.0924158        15368363.352983952        19174681.657796454     
   4340606764.8783360        6628263.9644906521        13681221.770532282     
   4143454742.7691994       -85535.074203014374        11684911.821134249     
   3946910610.7649841       -4773033.7631449699        13185751.809615163     
   3750974368.8657064       -7434232.1023161411        18183741.735967338     
   4262068280.1246490        15486516.508636951        181249099.06119171     
   4074217076.5389624        8182362.2343680859        175418618.87884459     
   3886784430.4224901        2273399.5241394043        173381700.36950171     
   3699770341.7752261       -2240371.6220514774        175138343.53313431     
   3513174810.5971632       -5358951.2042396069        180688548.36977246     
   3982672776.7353325        14675537.737814426        342842934.55043769     
   3805577172.4497938        9061395.7793116570        336454545.99801701     
   3628710792.9977484        4211336.5990982056        334156130.85369325     
   3452073638.3791871        125360.19717097282        335947689.11747456     
   3275665708.5940909       -3196533.4265286922        341829220.78937173     
   3700180166.9244523        12935427.040531635        503956188.12554485     
   3534687052.6108303        9265364.5993211269        496789003.12801927     
   3369233830.4949675        5728276.1506388187        494008203.27371895     
   3203820500.5768600        2324161.6944737434        495613788.56264120     
   3038447062.8565111       -946978.76916670799        501605758.99478406     
   3414590450.6920147        10266184.416778088        664588859.78651261     
   3261546717.0220613        8794268.6943789721        656421990.26887441     
   3108353542.9141488        6824218.1787651777        652937917.62957919     
   2955010928.3682680        4356032.8699214458        654136641.86861718     
   2801518873.3844118        1389712.7678363323        660018162.98600268     
   3750974368.8657064       -7434232.1023161411        18183741.735967338     
   3576051407.6154699       -4021262.6649239063        10259118.952567950     
   3400369028.9516468       -3139684.6061506271        7349290.9168974934     
   3223927232.8742356       -4789497.9260134697        9454257.6289578900     
   3046726019.3832293       -8970702.6245129108        16574019.088761309     
   3513174810.5971632       -5358951.2042396069        180688548.36977246     
   3350728602.2315474       -1324215.9246068001        171855462.03582010     
   3187803518.6064558        1114268.4900726080        167461598.74795330     
   3024399559.7218790        1956502.0398347378        167506958.50615859     
   2860516725.5778165        1202484.7246356010        171991541.31043276     
   3275665708.5940909       -3196533.4265286922        341829220.78937173     
   3124051762.5369267        966620.52246081829        332414970.08468789     
   2972239483.3743906        4468664.1202255487        326864370.72440714     
   2820228871.1064920        7309597.3667736053        325177422.70855510     
   2668019925.7332163        9489420.2620613575        327354126.03711003     
   3038447062.8565111       -946978.76916670799        501605758.99478406     
   2896020888.5316281        2851246.6763582230        491937643.09914732     
   2753676923.2554784        6923502.2843484879        485557606.84627217     
   2611415167.0280685        11269788.054788470        482465650.23614353     
   2469235619.8493991        15890103.987705231        482661773.26877189     
   2801518873.3844118        1389712.7678363323        660018162.98600268     
   2666635980.2156296        4329662.5370259285        650423481.07921660     
   2532115838.2496996        8478782.9823889732        643541307.11352634     
   2397958447.4866161        13837074.103905559        639371641.08893025     
   2264163807.9263835        20404535.901596308        637914483.00543571     
   3046726019.3832293       -8970702.6245129108        16574019.088761309     
   2882500036.7112384       -9544271.2878795862        11348388.456143234     
   2718845603.4019341       -8212675.4089120626        6938795.4868856873     
   2555762719.4553270       -4975914.9876420498        3345240.1809899509     
   2393251384.8714061        166009.97591173649        567722.53846242977     
   2860516725.5778165        1202484.7246356010        171991541.31043276     
   2699251046.0335526        970501.60577452183        165359961.01268137     
   2538290761.1881166        1756500.8163566589        160110671.87031329     
   2377635871.0415363        3560482.3564556837        156243673.88333625     
   2217286375.5937934        6382446.2260133028        153758967.05175534     
   2668019925.7332163        9489420.2620613575        327354126.03711003     
   2511332416.4367414        10084382.823654532        319006082.29972845     
   2354684147.1752653        10810145.501915336        312606583.20975751     
   2198075117.9487925        11666708.296854377        308155628.76721382     
   2041505328.7573304        12654071.208479643        305653218.97208720     
   2469235619.8493991        15890103.987705231        482661773.26877189     
   2318744147.9208174        17797372.365818977        472286752.31727278     
   2168025761.3633823        18948258.647764564        464426529.50522667     
   2017080460.1771145        19342762.833599329        459081104.83262295     
   1865908244.3619957        18980884.923267841        456250478.29948276     
   2264163807.9263835        20404535.901596308        637914483.00543571     
   2121486240.4857693        24109470.232239366        625201971.06532896     
   1978315603.7524714        26170840.253926873        615570510.75670600     
   1834651897.7264769        26588645.966632009        609020102.07957077     
   1690495122.4077990        25362887.370390713        605550745.03390384     
   2393251384.8714061        166009.97591173649        567722.53846242977     
   2250206858.2450819        7171701.5815445185       -6396924.0936221015     
   2103969061.9844880        3533161.0729200840       -11168230.231079362     
   1954537996.0896208       -10749611.549942970       -13746195.873922160     
   1801913660.5605011       -35676616.286969543       -14130821.022147935     
   2217286375.5937934        6382446.2260133028        153758967.05175534     
   2078688351.5730114        12998622.633504629        143329143.97286585     
   1937984122.5960665        12594115.853797913        134216255.14163798     
   1795173688.6630101        5168925.8870697021        126420300.55807944     
   1650257049.7738054       -9276947.2668422461        119941280.22221072     
   2041505328.7573304        12654071.208479643        305653218.97208720     
   1904849789.4936268        18129527.063220739        293026461.57088244     
   1767175109.9519269        20207848.657961845        280840232.17039734     
   1628481290.1322451        18889035.992769957        269094530.77063453     
   1488768330.0345492        14173089.067536831        257789357.37158760     
   1865908244.3619957        18980884.923267841        456250478.29948276     
   1728691172.0069633        22564414.870764971        442695028.70044887     
   1591542024.0520747        26374359.485411346        428703700.85519034     
   1454460800.4973297        30410718.767205000        414276494.76370609     
   1317447501.3427372        34673492.716165781        399413410.42598778     
   1690495122.4077990        25362887.370390713        605550745.03390384     
   1550212499.1130188        26303286.056151390        592334845.36154771     
   1411084864.8965063        31093648.336139262        577806661.19601929     
   1273112219.7582862        39733974.210439742        561966192.53731692     
   1136294563.6983478        52224263.679001570        544813439.38542926     
   1801913660.5605011       -35676616.286969543       -14130821.022147935     
   1771179290.0420654       -16690902.312840223       -8386595.7268938534     
   1748481527.0972660        29083503.573422194       -41475329.619008377     
   1733820371.7260940        101646601.37176514       -113397022.69843256     
   1727195823.9285305        200998391.08214605       -224151674.96519974     
   1650257049.7738054       -9276947.2668422461        119941280.22221072     
   1527647040.5968914       -13930044.999472737        135577248.50647989     
   1409187710.9964669       -4747544.1438047290        124827718.17311756     
   1294879060.9725540        18270555.300240934        87692689.222121149     
   1184721090.5251241        55124253.332551360        24172161.653516296     
   1488768330.0345492        14173089.067536831        257789357.37158760     
   1309846855.2554655       -3449568.4549809098        278783485.98156136     
   1131190132.0557427       -20189720.712955832        285839576.54362154     
   952798160.43539512       -36047367.706355631        278957629.05778950     
   774670940.39440751       -51022509.435216427        258137643.52400732     
   1317447501.3427372        34673492.716165781        399413410.42598778     
   1117778734.0177867        14750527.320635200        421232116.69836432     
   914488790.27507198       -17243026.134110987        441560245.49253041     
   707577670.11460304       -61307167.648048878        460397796.80849814     
   497045373.53637671       -117441897.22117513        477744770.64625698     
   1136294563.6983478        52224263.679001570        544813439.38542926     
   951442676.88385713        40670242.327375889        562923140.65687823     
   759083685.65446281        4092539.5927440524        591989725.01983392     
   559217590.01019299       -57508844.524809480        632013192.47428870     
   351844389.95102489       -144133910.02535683        682993543.02025020     
   1727195823.9285305        200998391.08214605       -224151674.96519974     
   1456652685.3721404        184594445.71676391       -96625417.803857073     
   1153954153.8477366        61005857.124668717        60088664.455606796     
   819100229.35531592       -169767374.69412130        245990571.81318545     
   452090911.89490682       -507725249.73959517        461080304.26887250     
   1184721090.5251241        55124253.332551360        24172161.653516296     
   977653477.29472601        11849530.679921389        155558051.95306671     
   732772199.09219110       -157470741.87980929        312784392.93308020     
   450077255.91750968       -452836564.34670031        495851184.59356064     
   129568647.77069718       -874247936.72068381        704758426.93451703     
   774670940.39440751       -51022509.435216427        258137643.52400732     
   621514925.58245361       -124037187.44730520        386781849.62358570     
   424886973.79421949       -341958322.04700017        537919131.98600054     
   184787085.02972683       -704785913.23420537        711549490.61125636     
  -98784740.711039245       -1212519961.0090306        907672925.49930573     
   497045373.53637671       -117441897.22117513        477744770.64625698     
   388237030.23529285       -223065708.66506165        597045975.20772624     
   230298477.95380777       -492456883.37693059        735492881.61438859     
   23229716.691928625       -925615421.35680175        893085489.86623847     
  -232969253.55033734       -1522541322.6046455        1069823799.9632388     
   351844389.95102489       -144133910.02535683        682993543.02025020     
   277819791.25325149       -285236032.97328889        786350428.70547342     
   149006711.57097188       -608966425.86959159        905505641.81822896     
  -34594849.095847011       -1115325088.7143388        1040459182.3585180     
  -272984890.74719524       -1804312021.5075288        1191211050.3263471     
   4604245902.3625631       -33708669.912154675        642322309.79079795     
   4425761065.8447495       -9170492.9547855854        646768399.47007895     
   4243295688.6067848        2099214.9353678226        653976183.74224317     
   4056849770.6486497        100453.75830268860        663945662.60727739     
   3866423311.9703445       -15166776.485983372        676676836.06519568     
   4258507254.7727675        8372835.5483031273        784745218.93248403     
   4082879886.1330295        11954309.367945910        780650023.94083381     
   3905315281.3730588        9078329.4534723759        780827348.83275259     
   3725813440.4928536       -255104.19511175156        785277193.60824478     
   3544374363.4924192       -16045991.577804565        793999558.26730669     
   3896069576.2514224        45444631.729297161        917586222.12120354     
   3727616319.1774430        29364395.517513037        907333597.82520640     
   3559269130.5831609        13637720.904723167        902864318.70347989     
   3391028010.4685788       -1735392.1090698242        904178384.75600898     
   3222892958.8336954       -16754943.523865104        911275795.98280585     
   3516932866.7985311        77506718.630828381        1040845319.3569516     
   3359970364.9779949        43059765.493920326        1026819121.1232024     
   3205157236.2370939        15777389.289124370        1020087093.3544084     
   3052493480.5758233       -4340409.9835674763        1020649236.0505717     
   2901979097.9941840       -17293632.324158430        1028505549.2116828     
   3121097126.4140849        104559096.25288951        1154522510.6397319     
   2979942023.5346856        53040419.297176123        1139106593.8348162     
   2842979598.3348541        15497334.606673717        1132495672.7855473     
   2710209850.8145814       -8070157.8186204433        1134689747.4919250     
   2581632780.9738760       -17662057.978697538        1145688817.9539466     
   3866423311.9703445       -15166776.485983372        676676836.06519568     
   3752371707.6949515       -12453166.112998486        668484848.31461191     
   3639049029.3901000       -7309802.5048677921        663739523.01796734     
   3526455277.0557823        263314.33837938309        662440860.17526972     
   3414590450.6920147        10266184.416778088        664588859.78651261     
   3544374363.4924192       -16045991.577804565        793999558.26730669     
   3439967413.9201355       -11065367.309411764        786663434.21801853     
   3335956078.5489416       -4766029.0373749733        782776455.81823230     
   3232340357.3788433        2852023.2383079529        782338623.06796455     
   3129120250.4098392        11788789.517639995        785349935.96720386     
   3222892958.8336954       -16754943.523865104        911275795.98280585     
   3128137758.8089991       -9505176.9067246914        904406671.90378714     
   3033444861.2159510       -2047735.5174285173        900989176.66984451     
   2938814266.0545464        5617380.6440259218        901023310.28098106     
   2844245973.3247967        13490171.577646732        904509072.73719370     
   2901979097.9941840       -17293632.324158430        1028505549.2116828     
   2816882742.3615527       -7772594.9049324989        1021714561.3719168     
   2731515377.3911238        845078.05497038364        1018377685.5727968     
   2645877003.0828938        8559386.5555437803        1018494921.8143215     
   2559967619.4368668        15370330.596788049        1022066270.0964918     
   2581632780.9738760       -17662057.978697538        1145688817.9539466     
   2506202364.5777922       -5867621.3040293455        1138587102.6224105     
   2430167627.0744567        3912411.6798056364        1134941982.5270901     
   2353528568.4638824        11678040.972838402        1134753457.6679807     
   2276285188.7460632        17429266.575060844        1138021528.0450821     
   3414590450.6920147        10266184.416778088        664588859.78651261     
   3261546717.0220613        8794268.6943789721        656421990.26887441     
   3108353542.9141488        6824218.1787651777        652937917.62957919     
   2955010928.3682680        4356032.8699214458        654136641.86861718     
   2801518873.3844118        1389712.7678363323        660018162.98600268     
   3129120250.4098392        11788789.517639995        785349935.96720386     
   2988078061.5467777        10020223.185095191        777287752.59163928     
   2847063088.3439212        8342375.7199251652        773843187.71459806     
   2706075330.8012915        6755247.1221766472        775016241.33609343     
   2565114788.9188852        5258837.3918219805        780806913.45611429     
   2844245973.3247967        13490171.577646732        904509072.73719370     
   2715019105.3262901        11369087.452228665        896757674.28491879     
   2585996109.0861959        9927575.8548389673        893558715.95136297     
   2457176984.6045113        9165636.7854942083        894912197.73652804     
   2328561731.8812346        9083270.2441656590        900818119.64041328     
   2559967619.4368668        15370330.596788049        1022066270.0964918     
   2442369848.3606191        12840861.495811105        1014831755.3487203     
   2325152605.1409669        11579818.583497047        1012084502.3398694     
   2208315889.7779183        11587201.859857917        1013824511.0699270     
   2091859702.2714703        12863011.324880838        1020051781.5388962     
   2276285188.7460632        17429266.575060844        1138021528.0450821     
   2170130290.6497636        14435545.315852046        1131509995.7830482     
   2064532576.5082424        13299103.905911326        1129420546.8801165     
   1959492046.3215203        14019942.345299721        1131753181.3362896     
   1855008700.0895760        16598060.633943915        1138507899.1515615     
   2801518873.3844118        1389712.7678363323        660018162.98600268     
   2666635980.2156296        4329662.5370259285        650423481.07921660     
   2532115838.2496996        8478782.9823889732        643541307.11352634     
   2397958447.4866161        13837074.103905559        639371641.08893025     
   2264163807.9263835        20404535.901596308        637914483.00543571     
   2565114788.9188852        5258837.3918219805        780806913.45611429     
   2437847349.0969639        8328271.0611724854        771733512.64313018     
   2310854614.1301355        12313387.580829382        765775764.02506220     
   2184136584.0184021        17214186.950793028        762933667.60191643     
   2057693258.7617500        23030669.171046734        763207223.37367594     
   2328561731.8812346        9083270.2441656590        900818119.64041328     
   2210061586.1313901        12627740.031256318        892163279.18217826     
   2091748098.8888674        16794404.842771053        887027235.17267835     
   1973621270.1536775        21583264.678724170        885409987.61191893     
   1855681099.9258180        26994319.539104462        887311536.49989426     
   2091859702.2714703        12863011.324880838        1020051781.5388962     
   1983278691.3188858        17228069.447242975        1011712780.6963533     
   1874796292.5258813        21921834.768196344        1007295720.5563687     
   1766412505.8924408        26944307.287699938        1006800601.1189429     
   1658127331.4185748        32295487.005783617        1010227422.3840797     
   1855008700.0895760        16598060.633943915        1138507899.1515615     
   1757498664.6594777        22129259.309188247        1130382017.1856630     
   1659999195.0411811        27695677.357098758        1126581220.1761372     
   1562510291.2347026        33297314.777737319        1127105508.1230011     
   1465031953.2400231        38934171.571050406        1131954881.0262365     
   2264163807.9263835        20404535.901596308        637914483.00543571     
   2121486240.4857693        24109470.232239366        625201971.06532896     
   1978315603.7524714        26170840.253926873        615570510.75670600     
   1834651897.7264769        26588645.966632009        609020102.07957077     
   1690495122.4077990        25362887.370390713        605550745.03390384     
   2057693258.7617500        23030669.171046734        763207223.37367594     
   1923174330.7833266        26361605.757950306        751683141.22906685     
   1788339248.6200469        28638695.062007189        743440191.13398552     
   1653188012.2719009        29861937.083169580        738478373.08842909     
   1517720621.7389004        30031331.821489334        736797687.09239638     
   1855681099.9258180        26994319.539104462        887311536.49989426     
   1729892469.7468510        30122755.883454561        877182285.10991669     
   1603964600.4908524        32787061.971042335        870534246.18750596     
   1477897492.1578228        34987237.801856399        867367419.73266590     
   1351691144.7477698        36723283.375921547        867681805.74539995     
   1658127331.4185748        32295487.005783617        1010227422.3840797     
   1541640657.3763309        35392920.608730674        1001699402.7078669     
   1425191659.3648939        38615940.981048703        996852675.91727304     
   1308780337.3842571        41964548.122696936        995687242.01228702     
   1192406691.4344287        45438742.033699095        998203100.99292481     
   1465031953.2400231        38934171.571050406        1131954881.0262365     
   1358418893.6717839        42172099.933831871        1125234494.0229278     
   1252020425.2421741        46125332.092043281        1122395480.3232768     
   1145836547.9511924        50793868.045688689        1123437839.9272912     
   1039867261.7988460        56177707.794784069        1128361572.8349581     
   1690495122.4077990        25362887.370390713        605550745.03390384     
   1550212499.1130188        26303286.056151390        592334845.36154771     
   1411084864.8965063        31093648.336139262        577806661.19601929     
   1273112219.7582862        39733974.210439742        561966192.53731692     
   1136294563.6983478        52224263.679001570        544813439.38542926     
   1517720621.7389004        30031331.821489334        736797687.09239638     
   1375539172.6382768        28135636.974186778        727690354.88807070     
   1233640335.7343879        27181982.782655418        719089155.06467319     
   1092024111.0272212        27170369.246868730        710994087.62220633     
   950690498.51678491        28100796.366854250        703405152.56065869     
   1351691144.7477698        36723283.375921547        867681805.74539995     
   1212806346.6244740        33550138.030537128        861665267.98062611     
   1073331783.8163477        28411110.402388513        857973279.47088158     
   933267456.32339132        21306200.491481483        856605840.21617293     
   792613364.14561474        12235408.297821492        857562950.21649694     
   1192406691.4344287        45438742.033699095        998203100.99292481     
   1062014021.0716094        42546789.225165784        994259584.63920915     
   930159209.14240003        34781031.195349336        994459034.41464329     
   796842255.64681697        22141467.944277585        998801450.31921530     
   662063160.58484542        4628099.4719139338        1007286832.3529141     
   1039867261.7988460        56177707.794784069        1128361572.8349581     
   923162195.97965729        55125590.558048129        1125473304.8638341     
   804122611.71253729        46291745.161540657        1128546419.8959582     
   682748508.99747014        29676171.605211496        1137580917.9313262     
   559039887.83447337        5278869.8891122639        1152576798.9699271     
   1136294563.6983478        52224263.679001570        544813439.38542926     
   951442676.88385713        40670242.327375889        562923140.65687823     
   759083685.65446281        4092539.5927440524        591989725.01983392     
   559217590.01019299       -57508844.524809480        632013192.47428870     
   351844389.95102489       -144133910.02535683        682993543.02025020     
   950690498.51678491        28100796.366854250        703405152.56065869     
   791555526.77969515        11033703.384005249        721307519.87206602     
   623792594.05368280       -34793259.561924398        749307493.75871754     
   447401700.33873653       -109380092.47096467        787405074.22060502     
   262382845.63486147       -212726795.34310073        835600261.25774574     
   792613364.14561474        12235408.297821492        857562950.21649694     
   656740231.72520316       -11081279.044437796        873950317.56480479     
   511118281.74182004       -66894024.929936796        899576014.97209740     
   355747514.19547486       -155202829.35865459        934440042.43837762     
   190627929.08615497       -276007692.33060765        978542399.96364653     
   662063160.58484542        4628099.4719139338        1007286832.3529141     
   546996791.72037184       -25674704.957995921        1020851533.7350874     
   421060748.71888697       -92209756.511267394        1042795288.6599823     
   284255031.58039355       -194977055.18790048        1073118097.1275978     
   136579640.30490178       -333976600.98787183        1111819959.1379628     
   559039887.83447337        5278869.8891122639        1152576798.9699271     
   462325206.76519853       -32746574.356660008        1162011168.3829062     
   353619994.98488104       -110740454.30590819        1178965314.8223588     
   232924252.49350885       -228702769.95867449        1203439238.2882869     
   100237979.29109603       -386633521.31491518        1235432938.7806716     
   351844389.95102489       -144133910.02535683        682993543.02025020     
   277819791.25325149       -285236032.97328889        786350428.70547342     
   149006711.57097188       -608966425.86959159        905505641.81822896     
  -34594849.095847011       -1115325088.7143388        1040459182.3585180     
  -272984890.74719524       -1804312021.5075288        1191211050.3263471     
   262382845.63486147       -212726795.34310073        835600261.25774574     
   223651649.29952288       -352368169.63710314        884996172.63423967     
   140681841.03063858       -639471583.70959687        945405431.78799939     
   13473420.828202784       -1074037037.5606010        1016828038.7190429     
  -157973611.30778474       -1656064531.1900830        1099263993.4273598     
   190627929.08615497       -276007692.33060765        978542399.96364653     
   173518764.68394074       -418289729.09948349        986285517.59087956     
   122720857.39914781       -672867575.47693431        1000257003.3451324     
   38234207.231778920       -1039741231.4629778        1020456857.2264019     
  -79941185.818144858       -1518910697.0575686        1046885079.2346863     
   136579640.30490178       -333976600.98787183        1111819959.1379628     
   127421137.40648732       -483000711.36044693        1090218463.5754044     
   95123760.676488280       -709154401.17164326        1070060356.4896182     
   39687510.114886403       -1012437670.4215157        1051345637.8805891     
  -38887614.278294742       -1392850519.1099908        1034074307.7483205     
   100237979.29109603       -386633521.31491518        1235432938.7806716     
   85358767.467195153       -546501116.41992867        1196795010.5878136     
   57890550.862677187       -748332060.79367113        1154815491.2214656     
   17833329.477531672       -992126354.43617225        1109494380.6816163     
  -34812896.688213348       -1277883997.3473437        1060831678.9682642     
   3121097126.4140849        104559096.25288951        1154522510.6397319     
   2979942023.5346856        53040419.297176123        1139106593.8348162     
   2842979598.3348541        15497334.606673717        1132495672.7855473     
   2710209850.8145814       -8070157.8186204433        1134689747.4919250     
   2581632780.9738760       -17662057.978697538        1145688817.9539466     
   2701346791.9826455        55040273.530752778        1207202890.0454319     
   2587485444.3093090        24314178.449101567        1200126968.7623396     
   2476164174.8359747        2055010.7007924318        1200442959.9111753     
   2367382983.5626440       -11737229.714176536        1208150863.4919357     
   2261141870.4893141       -17062542.795805335        1223250679.5046246     
   2296222446.8481703        9909247.5977034569        1265695153.2419925     
   2205617473.4559822       -1235479.8873548508        1265031194.7545702     
   2115899978.7842369       -9421944.9709401131        1270346065.3753591     
   2027069962.8329279       -14650147.653065801        1281639765.1043508     
   1939127425.6020627       -16920087.933719993        1298912293.9415491     
   1905724091.0106642       -30833981.546255112        1329999300.2294166     
   1834338110.9747128       -23608555.712192416        1333819271.8115139     
   1762187010.1796374       -18933532.408537507        1342204989.1780951     
   1689270788.6254411       -16808911.635286570        1355156452.3291638     
   1615589446.3121221       -17234693.392444730        1372673661.2647171     
   1529851724.4701264       -67189413.901121616        1400115331.0077128     
   1473647356.8654904       -42805049.025424063        1406491199.9331670     
   1415025269.0221779       -26479751.611988008        1416019731.3193867     
   1353985460.9401762       -18213521.660845935        1428700925.1663721     
   1290527932.6194937       -18006359.171972394        1444534781.4741254     
   2581632780.9738760       -17662057.978697538        1145688817.9539466     
   2506202364.5777922       -5867621.3040293455        1138587102.6224105     
   2430167627.0744567        3912411.6798056364        1134941982.5270901     
   2353528568.4638824        11678040.972838402        1134753457.6679807     
   2276285188.7460632        17429266.575060844        1138021528.0450821     
   2261141870.4893141       -17062542.795805335        1223250679.5046246     
   2194233351.6983900       -7357064.8244764805        1215086282.8068635     
   2126915092.7964110        982612.77667260170        1210502664.1160922     
   2059187093.7833738        7956490.0076235533        1209499823.4323094     
   1991049354.6592834        13564566.868401289        1212077760.7555132     
   1939127425.6020627       -16920087.933719993        1298912293.9415491     
   1881095612.3328059       -9197126.2907706499        1289912227.0397785     
   1822848639.9486799       -2191361.6973794699        1284617120.9157763     
   1764386508.4496906        4097205.8464627266        1283026975.5695355     
   1705709217.8358328        9668576.3407473564        1285141791.0010660     
   1615589446.3121221       -17234693.392444730        1372673661.2647171     
   1566789146.4810359       -11387805.702924371        1363064935.3211598     
   1517968268.5312705       -5609511.7423331738        1357285352.9261467     
   1469126812.4628294        100188.48934203386        1355334914.0796742     
   1420264778.2757106        5741294.9920852780        1357213618.7817452     
   1290527932.6194937       -18006359.171972394        1444534781.4741254     
   1251313954.1430829       -13929103.060929656        1434544407.6510026     
   1212273978.5441828       -9271837.3581811786        1428507360.1472006     
   1173408005.8227925       -4034562.0637333989        1426423638.9627161     
   1134716035.9789171        1782722.8224284053        1428293244.0975504     
   2276285188.7460632        17429266.575060844        1138021528.0450821     
   2170130290.6497636        14435545.315852046        1131509995.7830482     
   2064532576.5082424        13299103.905911326        1129420546.8801165     
   1959492046.3215203        14019942.345299721        1131753181.3362896     
   1855008700.0895760        16598060.633943915        1138507899.1515615     
   1991049354.6592834        13564566.868401289        1212077760.7555132     
   1896904094.1244173        11395233.489939451        1206205204.1307940     
   1803184955.7999384        10646307.479427934        1204958503.5294452     
   1709891939.6858487        11317788.836884856        1208337658.9514592     
   1617025045.7821445        13409677.562291086        1216342670.3968446     
   1705709217.8358328        9668576.3407473564        1285141791.0010660     
   1624155802.4745879        8498293.1266852021        1279755304.6451991     
   1542897447.5793324        8311544.7992482781        1279198446.9769626     
   1461934153.1500640        9108331.3584395647        1283471217.9963617     
   1381265919.1867843        10888652.804256260        1292573617.7033901     
   1420264778.2757106        5741294.9920852780        1357213618.7817452     
   1351885415.7002738        5744724.2260874510        1352160297.3262599     
   1283670051.8464231        6294815.8653737903        1352140377.2226727     
   1215618686.7141623        7391569.9099607468        1357153858.4709818     
   1147731320.3034902        9034986.3598428965        1367200741.0711882     
   1134716035.9789171        1782722.8224284053        1428293244.0975504     
   1080092933.8014719        3134526.7881398201        1423420182.1739819     
   1025502768.6012164        4596120.6778200269        1423784294.2665753     
   970945540.37814510        6167504.4914447665        1429385580.3753307     
   916421249.13226521        7848678.2290437222        1440224040.5002520     
   1855008700.0895760        16598060.633943915        1138507899.1515615     
   1757498664.6594777        22129259.309188247        1130382017.1856630     
   1659999195.0411811        27695677.357098758        1126581220.1761372     
   1562510291.2347026        33297314.777737319        1127105508.1230011     
   1465031953.2400231        38934171.571050406        1131954881.0262365     
   1617025045.7821445        13409677.562291086        1216342670.3968446     
   1530703978.8743172        18230153.688592672        1209107505.1165702     
   1444461079.4058468        23311187.946082771        1206318166.6391068     
   1358296347.3767414        28652780.334790945        1207974654.9644637     
   1272209782.7869930        34254930.854692519        1214076970.0926335     
   1381265919.1867843        10888652.804256260        1292573617.7033901     
   1306478797.5053301        15101899.392860889        1286308037.6742177     
   1231837444.8907859        19801042.871157944        1284609026.2942898     
   1157341861.3431501        24986083.239155352        1287476583.5636139     
   1082992046.8624291        30657020.496864617        1294910709.4821827     
   1147731320.3034902        9034986.3598428965        1367200741.0711882     
   1084823120.5525076        12744496.421969295        1361983614.8585923     
   1022128291.4959863        17165242.132296920        1361453799.1416771     
   959646833.13392782        22297223.490833879        1365611293.9204443     
   897378745.46632886        28140440.497570693        1374456099.1949010     
   916421249.13226521        7848678.2290437222        1440224040.5002520     
   865736948.01586092        11157944.775943637        1436134236.6697025     
   815333619.22146225        15403785.729531884        1436852485.1812716     
   765211262.74907446        20586201.089821517        1442378786.0349603     
   715369878.59870315        26705190.856832534        1452713139.2307751     
   1465031953.2400231        38934171.571050406        1131954881.0262365     
   1358418893.6717839        42172099.933831871        1125234494.0229278     
   1252020425.2421741        46125332.092043281        1122395480.3232768     
   1145836547.9511924        50793868.045688689        1123437839.9272912     
   1039867261.7988460        56177707.794784069        1128361572.8349581     
   1272209782.7869930        34254930.854692519        1214076970.0926335     
   1176095513.0084372        37030587.519863605        1208977607.3622122     
   1080022955.5939839        39945285.398711562        1208179541.5581019     
   983992110.54363418        42999024.491233349        1211682772.6803119     
   888002977.85737920        46191804.797411948        1219487300.7288365     
   1082992046.8624291        30657020.496864617        1294910709.4821827     
   998576348.65258062        33330339.998159051        1291230679.1210279     
   914029484.03230000        35566438.131345093        1292271869.3088434     
   829351453.00158978        37365314.896432310        1298034280.0456283     
   744542255.56044722        38726970.293413609        1308517911.3313844     
   897378745.46632886        28140440.497570693        1374456099.1949010     
   825861400.60420620        31071357.368697405        1371993709.2993865     
   754040010.55711222        32988790.289920717        1374672463.5755012     
   681914575.32505894        33892739.261278600        1382492362.0232437     
   609485094.90804541        33783204.282770932        1395453404.6426029     
   715369878.59870315        26705190.856832534        1452713139.2307751     
   657950668.86331296        30253639.631470174        1451266697.8972800     
   600054535.16842759        32212341.874452323        1455381324.3580754     
   541681477.51404786        32581297.585788697        1465057018.6131496     
   482831495.90017247        31360506.765473589        1480293780.6625030     
   1039867261.7988460        56177707.794784069        1128361572.8349581     
   923162195.97965729        55125590.558048129        1125473304.8638341     
   804122611.71253729        46291745.161540657        1128546419.8959582     
   682748508.99747014        29676171.605211496        1137580917.9313262     
   559039887.83447337        5278869.8891122639        1152576798.9699271     
   888002977.85737920        46191804.797411948        1219487300.7288365     
   786450148.62253296        44308189.007346720        1216805992.0814886     
   682609044.07960558        34796988.857011050        1220010751.3157825     
   576479664.22861087        17658204.346447736        1229101578.4317124     
   468062009.06953287       -7108164.5243875086        1244078473.4292815     
   744542255.56044722        38726970.293413609        1308517911.3313844     
   657926476.84819925        35947300.131452531        1306097512.3376570     
   569068665.96774352        25694189.408803135        1309487866.1039653     
   477968822.91907668        7967638.1254483461        1318688972.6302981     
   384626947.70220369       -17232353.718593955        1333700831.9166648     
   609485094.90804541        33783204.282770932        1395453404.6426029     
   537591180.65667140        30042923.930415094        1393347865.6323409     
   463501477.37695199        18983346.816912681        1396977764.2605045     
   387215985.06889033        604472.94226984680        1406343100.5270865     
   308734703.73248380       -25093697.693522573        1421443874.4320960     
   482831495.90017247        31360506.765473589        1480293780.6625030     
   425444260.04794270        26595060.404217407        1478557051.9655378     
   365907478.30723131        14664461.081350088        1482480445.7853930     
   304221150.67804068       -4431291.2031076550        1492063962.1220715     
   240385277.16036925       -30692196.449176267        1507307600.9755611     
   559039887.83447337        5278869.8891122639        1152576798.9699271     
   462325206.76519853       -32746574.356660008        1162011168.3829062     
   353619994.98488104       -110740454.30590819        1178965314.8223588     
   232924252.49350885       -228702769.95867449        1203439238.2882869     
   100237979.29109603       -386633521.31491518        1235432938.7806716     
   468062009.06953287       -7108164.5243875086        1244078473.4292815     
   390443061.99377990       -41497189.423688233        1242643610.5106823     
   302675729.70730197       -109714165.02541365        1247538823.0191422     
   204760012.21011564       -211759091.32949096        1258764110.9546542     
   96695909.502207726       -347631968.33598447        1276319474.3172104     
   384626947.70220369       -17232353.718593955        1333700831.9166648     
   322704587.19305265       -49004703.499534011        1323545906.4168830     
   252475986.97351784       -108464518.98175322        1318531354.7447314     
   173941147.04359883       -195611800.16525102        1318657176.9002178     
   87100067.403290957       -310446547.05004907        1323923372.8833365     
   308734703.73248380       -25093697.693522573        1421443874.4320960     
   259109782.36303130       -55269116.584148884        1404718056.1015093     
   203020766.78352553       -106991516.17494893        1391942909.9991360     
   140467656.99395293       -180260896.46596655        1383118436.1249723     
   71450452.994341150       -275077257.45712352        1378244634.4790320     
   240385277.16036925       -30692196.449176267        1507307600.9755611     
   199658647.50370035       -60290428.677573264        1486160059.5645554     
   154310069.13731718       -105295156.60501784        1467773488.7823436     
   104339542.06120090       -165706380.23157272        1452147888.6289315     
   49747066.275356382       -241524099.55722183        1439283259.1043146     
   100237979.29109603       -386633521.31491518        1235432938.7806716     
   85358767.467195153       -546501116.41992867        1196795010.5878136     
   57890550.862677187       -748332060.79367113        1154815491.2214656     
   17833329.477531672       -992126354.43617225        1109494380.6816163     
  -34812896.688213348       -1277883997.3473437        1060831678.9682642     
   96695909.502207726       -347631968.33598447        1276319474.3172104     
   79775488.579045713       -488815204.72414523        1221980629.6896818     
   51473696.437725633       -667936345.17283547        1165101440.3015559     
   11790533.078252912       -884995389.68203211        1105681906.1528420     
  -39274001.499372423       -1139992338.2517400        1043722027.2435244     
   87100067.403290957       -310446547.05004907        1323923372.8833365     
   70427712.846306652       -432258642.08171540        1255292517.6440053     
   43581620.633627772       -587983195.96570396        1184922564.0569763     
   6561790.7652511299       -777620208.70201552        1112813512.1222551     
  -40631776.758815885       -1001169680.2906214        1038965361.8398361     
   71450452.994341150       -275077257.45712352        1378244634.4790320     
   57315440.268963426       -376831428.49269181        1296730674.4507678     
   34214323.450359076       -508472613.17234355        1214278862.4877117     
   2147102.5385164618       -670000811.49612212        1130889198.5898578     
  -38886222.466552883       -861416023.46399093        1046561682.7572318     
   49747066.275356382       -241524099.55722183        1439283259.1043146     
   40438670.847035095       -322533563.95700377        1346295100.1099834     
   23371804.887935489       -429404596.79271632        1253170335.5937734     
  -1453531.6019392908       -562137198.06434178        1159908965.5556598     
  -34037338.622577935       -720731367.77184689        1066510989.9956650     
   1529851724.4701264       -67189413.901121616        1400115331.0077128     
   1473647356.8654904       -42805049.025424063        1406491199.9331670     
   1415025269.0221779       -26479751.611988008        1416019731.3193867     
   1353985460.9401762       -18213521.660845935        1428700925.1663721     
   1290527932.6194937       -18006359.171972394        1444534781.4741254     
   1181848920.8735585       -7229938.7219100595        1445913118.3864694     
   1130398390.4680691       -965743.71131396294        1445088035.9110320     
   1077834171.1736245        1586155.0027633309        1448948666.4815040     
   1024156262.9902216        425757.42031073570        1457495010.0978837     
   969364665.91786325       -4446936.4586542845        1470727066.7601690     
   816967580.03221714        47665975.283872753        1483432405.0324244     
   774651031.35484838        37124043.788050681        1476927741.0641131     
   732524825.13825202        27216587.161466479        1476641840.7268515     
   690588961.38242531        17943605.404116690        1482574704.0206432     
   648843440.08736885        9305098.5160030425        1494726330.9454837     
   435207701.94609588        97498328.116221666        1512673190.9455874     
   406405279.52582812        71464313.472678691        1502010315.3924155     
   379097230.91605741        50411544.864124238        1499099254.0554338     
   353283556.11678624        34340022.290569007        1503940006.9346492     
   328964255.12801152        23249745.752002299        1516532574.0300529     
   36569286.615197815        142267119.77513415        1533635476.1259501     
   25661134.981010213        102055065.34256491        1520335758.8959315     
   17551388.507043805        71171028.110737145        1516320906.4672484     
   12240047.193305543        49615008.079668149        1521590918.8399012     
   9727111.0397904925        37387005.249342479        1536145796.0138900     
   1290527932.6194937       -18006359.171972394        1444534781.4741254     
   1251313954.1430829       -13929103.060929656        1434544407.6510026     
   1212273978.5441828       -9271837.3581811786        1428507360.1472006     
   1173408005.8227925       -4034562.0637333989        1426423638.9627161     
   1134716035.9789171        1782722.8224284053        1428293244.0975504     
   969364665.91786325       -4446936.4586542845        1470727066.7601690     
   939576003.72613442       -3154900.6455039978        1461191823.5307543     
   910020051.89232218       -1087163.6392958760        1455596240.4235919     
   880696810.41642964        1756274.5599793792        1453940317.4386899     
   851606279.29845810        5375413.9523217082        1456224054.5760424     
   648843440.08736885        9305098.5160030425        1494726330.9454837     
   628441047.90300608        7800200.1480644047        1485714710.3702397     
   608330073.55696821        7266694.5745451152        1480629083.7201979     
   588510517.04925776        7704581.7954495847        1479469450.9953504     
   568982378.37987244        9113861.8107703626        1482235812.1957054     
   328964255.12801152        23249745.752002299        1516532574.0300529     
   317909086.67369789        18936199.319773853        1508113068.1694674     
   307204043.53811914        15789737.283330768        1503605890.0370171     
   296849125.72127450        13810359.642666340        1503011039.6327031     
   286844333.22316623        12998066.397791222        1506328516.9565308     
   9727111.0397904925        37387005.249342479        1536145796.0138900     
   7980120.0382144256        30253096.869642347        1528386896.9284310     
   6641961.8357799593        24481964.487080190        1524526659.3740478     
   5712636.4324876424        20073608.101658873        1524565083.3507440     
   5192143.8283332651        17028027.713364027        1528502168.8585169     
   1134716035.9789171        1782722.8224284053        1428293244.0975504     
   1080092933.8014719        3134526.7881398201        1423420182.1739819     
   1025502768.6012164        4596120.6778200269        1423784294.2665753     
   970945540.37814510        6167504.4914447665        1429385580.3753307     
   916421249.13226521        7848678.2290437222        1440224040.5002520     
   851606279.29845810        5375413.9523217082        1456224054.5760424     
   810368841.47300673        5808519.6898562312        1451597838.3646829     
   769200696.60223925        6472601.9430033565        1452243120.3067315     
   728101844.68614674        7367660.7117344439        1458159900.4021966     
   687072285.72473419        8493695.9960640669        1469348178.6510701     
   568982378.37987244        9113861.8107703626        1482235812.1957054     
   541228673.86998987        8657690.0092020929        1477898857.0036201     
   513580618.29228181        8553681.3148826063        1478867724.1021998     
   486038211.64674121        8801835.7277886271        1485142413.4914434     
   458601453.93337679        9402153.2479464710        1496722925.1713498     
   286844333.22316623        12998066.397791222        1506328516.9565308     
   272672430.99242365        11682037.746185631        1502323238.0907977     
   258642533.67134687        10839358.793466955        1503658105.6529825     
   244754641.25993288        10470029.539625317        1510333119.6430788     
   231008753.75818586        10574049.984670505        1522348280.0610917     
   5192143.8283332651        17028027.713364027        1528502168.8585169     
   4700112.8403066676        14881562.900802296        1524870981.6262140     
   4386442.7394396113        13329634.378773753        1526614264.9590762     
   4251133.5257226937        12372242.147244975        1533732018.8571022     
   4294185.1991656348        12009386.206249068        1546224243.3202910     
   916421249.13226521        7848678.2290437222        1440224040.5002520     
   865736948.01586092        11157944.775943637        1436134236.6697025     
   815333619.22146225        15403785.729531884        1436852485.1812716     
   765211262.74907446        20586201.089821517        1442378786.0349603     
   715369878.59870315        26705190.856832534        1452713139.2307751     
   687072285.72473419        8493695.9960640669        1469348178.6510701     
   648657521.11308587        10734186.198862791        1465850450.4909711     
   610391056.91830623        13469011.124555618        1467229415.6872003     
   572272893.14040470        16698170.773177385        1473485074.2397645     
   534303029.77937198        20421665.144692451        1484617426.1486609     
   458601453.93337679        9402153.2479464710        1496722925.1713498     
   432652343.00994879        10632702.261676595        1493662488.7923722     
   406718860.59825361        11915346.314517021        1495547386.7839353     
   380801006.69829750        13250085.406488746        1502377619.1460454     
   354898781.31007290        14636919.537565351        1514153185.8787043     
   231008753.75818586        10574049.984670505        1522348280.0610917     
   217721413.70644611        10853492.964382432        1519570351.5739045     
   204317030.26130164        10742791.299411990        1521806398.4714770     
   190795603.42275786        10241944.989777043        1529056420.7538066     
   177157133.19080913        9350954.0354604945        1541320418.4208932     
   4294185.1991656348        12009386.206249068        1546224243.3202910     
   3864733.2025786154        11396558.306978796        1543574038.8355720     
   3185565.9074487947        9951346.0792325176        1546006450.7498224     
   2256683.3137837909        7673749.5230356297        1553521479.0630467     
   1078085.4215700836        4563768.6383430641        1566119123.7752345     
   715369878.59870315        26705190.856832534        1452713139.2307751     
   657950668.86331296        30253639.631470174        1451266697.8972800     
   600054535.16842759        32212341.874452323        1455381324.3580754     
   541681477.51404786        32581297.585788697        1465057018.6131496     
   482831495.90017247        31360506.765473589        1480293780.6625030     
   534303029.77937198        20421665.144692451        1484617426.1486609     
   490893453.06577522        22315203.793316633        1483330214.5940316     
   447204998.97895581        23279151.197867945        1487640478.3678865     
   403237667.51891637        23313507.358349726        1497548217.4702229     
   358991458.68565345        22418272.274753436        1513053431.9010465     
   354898781.31007290        14636919.537565351        1514153185.8787043     
   325602859.14456093        14906754.518058389        1513256258.4535871     
   296226106.19210148        14907153.542062983        1517993213.8911576     
   266768522.45269504        14638116.609577343        1528364052.1914160     
   237230107.92634061        14099643.720598474        1544368773.3543637     
   177157133.19080913        9350954.0354604945        1541320418.4208932     
   162078887.09967256        8028291.8057021424        1541044829.4759443     
   147117856.80786747        7096348.9070503488        1546439530.9278874     
   132274042.31538272        6555125.3394642174        1557504522.7767189     
   117547443.62223381        6404621.1030003242        1574239805.0224452     
   1078085.4215700836        4563768.6383430641        1566119123.7752345     
   321536.93111051421        1679815.6562470966        1566695927.6611106     
  -119749.17375018506       -153262.70718735768        1572979429.4780774     
  -245772.89300528879       -935466.45193579944        1584969629.2261364     
  -56534.226663626847       -666795.57802835549        1602666526.9052873     
   482831495.90017247        31360506.765473589        1480293780.6625030     
   425444260.04794270        26595060.404217407        1478557051.9655378     
   365907478.30723131        14664461.081350088        1482480445.7853930     
   304221150.67804068       -4431291.2031076550        1492063962.1220715     
   240385277.16036925       -30692196.449176267        1507307600.9755611     
   358991458.68565345        22418272.274753436        1513053431.9010465     
   316593487.01291388        19180205.144100457        1509767415.8056719     
   272564082.91434175        10504029.927334726        1511999008.2783265     
   226903246.38994664       -3610253.3755075932        1519748209.3190172     
   179610977.43972594       -23162644.764433943        1533015018.9277411     
   237230107.92634061        14099643.720598474        1544368773.3543637     
   209414217.72227511        12266801.007287189        1540137935.5669999     
   180485008.55503732        6722895.0834015235        1541282192.3988812     
   150442480.42462620       -2532074.0510621667        1547801543.8500199     
   119286633.33104032       -15498106.396107651        1559695989.9204016     
   117547443.62223381        6404621.1030003242        1574239805.0224452     
   103906452.17603341        5854847.9937997200        1569668611.2495189     
   89670255.229313433        3321056.5495325141        1570329998.1470635     
   74838852.782073274       -1196753.2297997959        1576223965.7150679     
   59412244.834314078       -7698581.3441985473        1587350513.9535537     
  -56534.226663626847       -666795.57802835549        1602666526.9052873     
   70190.374185951339       -55653.896372819509        1598359442.8532383     
   119822.93717536071        298514.32575090218        1599142425.5228693     
   92363.462295176563        395709.08830792434        1605015474.9141808     
  -12188.050451032526        235930.39131222395        1615978591.0271726     
   240385277.16036925       -30692196.449176267        1507307600.9755611     
   199658647.50370035       -60290428.677573264        1486160059.5645554     
   154310069.13731718       -105295156.60501784        1467773488.7823436     
   104339542.06120090       -165706380.23157272        1452147888.6289315     
   49747066.275356382       -241524099.55722183        1439283259.1043146     
   179610977.43972594       -23162644.764433943        1533015018.9277411     
   148405700.53733185       -45610105.319088146        1507386813.7014141     
   113740976.86509821       -79589055.106539518        1484671577.2710195     
   75616806.423036695       -125099494.12675041        1464869309.6365690     
   34033189.211140394       -182141422.37974539        1447980010.7980359     
   119286633.33104032       -15498106.396107651        1559695989.9204016     
   98036989.660443425       -30664511.133810639        1530943373.1419647     
   74490401.159910917       -53487398.637964189        1505255723.3266006     
   48646867.829445332       -83966768.908562735        1482633040.4743135     
   20506389.669037171       -122102621.94563514        1463075324.5850959     
   59412244.834314078       -7698581.3441985473        1587350513.9535537     
   48552514.873059168       -15453646.121662740        1556829737.8862092     
   36558342.021762162       -26990187.199271046        1529525926.9490879     
   23429726.280426588       -42308204.577006683        1505439081.1421728     
   9166667.6490503028       -61407698.254876658        1484569200.4654703     
  -12188.050451032526        235930.39131222395        1615978591.0271726     
  -47723.824825593183        22489.717341673622        1585045907.9341462     
  -55200.549351815622       -97420.790469137108        1557482188.1384747     
  -34618.224010209946       -123801.13205316023        1533287431.6401522     
   14023.151166374664       -56651.307520586895        1512461638.4391758     
   49747066.275356382       -241524099.55722183        1439283259.1043146     
   40438670.847035095       -322533563.95700377        1346295100.1099834     
   23371804.887935489       -429404596.79271632        1253170335.5937734     
  -1453531.6019392908       -562137198.06434178        1159908965.5556598     
  -34037338.622577935       -720731367.77184689        1066510989.9956650     
   34033189.211140394       -182141422.37974539        1447980010.7980359     
   29853808.768493518       -242039306.96699944        1347508598.9350476     
   19852186.723120511       -321344663.56334198        1246247285.7031081     
   4028323.0750193596       -420057492.16877627        1144196071.1022208     
  -17617782.175809264       -538177792.78330767        1041354955.1323888     
   20506389.669037171       -122102621.94563514        1463075324.5850959     
   19589464.649045631       -161448894.58924031        1357379593.6028183     
   14786526.954366267       -213748542.81513613        1250240665.4045365     
   6097576.5850026309       -279001566.62331325        1141658539.9902515     
  -6477386.4590453207       -357207966.01376998        1031633217.3599498     
   9166667.6490503028       -61407698.254876658        1484569200.4654703     
   9645638.4886798821       -80762326.823756561        1375908084.1133015     
   8174825.5816683248       -106616234.54810673        1265150474.6980588     
   4754228.9280129150       -138969421.42793718        1152296372.2197509     
  -616151.47228147089       -177821887.46323228        1037345776.6783837     
   14023.151166374664       -56651.307520586895        1512461638.4391758     
   22330.287395093881        20396.329438173991        1403094070.4664946     
   17082.605021651591        52261.237723063176        1290976713.5836806     
  -1719.8959523280446        38943.417339147592        1176109567.7907372     
  -34077.215521377788       -19557.131695695578        1058492633.0876803     
   36569286.615197815        142267119.77513415        1533635476.1259501     
   25661134.981010213        102055065.34256491        1520335758.8959315     
   17551388.507043805        71171028.110737145        1516320906.4672484     
   12240047.193305543        49615008.079668149        1521590918.8399012     
   9727111.0397904925        37387005.249342479        1536145796.0138900     
  -401645243.55568302        51278514.441123903        1486694064.4329317     
  -382953999.56456733        36695414.002903432        1481701214.6033688     
  -362995589.15842354        26336201.614776015        1484277891.8393993     
  -341770012.33725482        20200877.276731893        1494424096.1410127     
  -319277269.10106236        18289440.988767013        1512139827.5082142     
  -820451337.01388466       -33887559.879082650        1447087850.4592600     
  -777061662.35674322       -24311995.810728401        1448615422.8274281     
  -733936060.02977669       -15616672.842952907        1455997184.5254338     
  -691074530.03298259       -7801590.9757546484        1469233135.5532792     
  -648477072.36636376       -866750.20913970470        1488323275.9109616     
  -1219848993.7594090       -113231103.18548512        1414816834.2049434     
  -1156661853.3955269       -80967164.098347962        1421078383.5681100     
  -1095270024.1070163       -54687595.262450159        1431478784.5253589     
  -1035673505.8938793       -34392396.677795231        1446018037.0767002     
  -977872298.75611389       -20081568.344381034        1464696141.2221317     
  -1599838213.7922547       -186752115.47808570        1389881015.6699812     
  -1521754572.6809106       -133270090.85994411        1399090096.8254035     
  -1446997481.3901389       -90876565.643703878        1410722691.8391695     
  -1375566939.9199417       -59571539.829380870        1424778800.7112758     
  -1307462948.2703147       -39355013.416960835        1441258423.4417219     
   9727111.0397904925        37387005.249342479        1536145796.0138900     
   7980120.0382144256        30253096.869642347        1528386896.9284310     
   6641961.8357799593        24481964.487080190        1524526659.3740478     
   5712636.4324876424        20073608.101658873        1524565083.3507440     
   5192143.8283332651        17028027.713364027        1528502168.8585169     
  -319277269.10106236        18289440.988767013        1512139827.5082142     
  -309904707.72289383        14556398.630106181        1504610766.9042921     
  -300405170.90038627        11246607.752574995        1500951731.3642404     
  -290778658.63353992        8360068.3561727107        1501162720.8880603     
  -281025170.92235243        5896780.4409069121        1505243735.4757500     
  -648477072.36636376       -866750.20913970470        1488323275.9109616     
  -628066777.08618391       -1223472.0900820494        1480695220.2079735     
  -607811363.71646619       -2096467.0059013963        1476908553.1016507     
  -587710832.25721097       -3485734.9565933049        1476963274.5919912     
  -567765182.70841980       -5391275.9421646595        1480859384.6789958     
  -977872298.75611389       -20081568.344381034        1464696141.2221317     
  -946506088.05165565       -17086515.290927649        1456640256.8394756     
  -915576616.61246169       -15547259.788355589        1452397124.5862794     
  -885083884.43853140       -15463801.836660743        1451966744.4625375     
  -855027891.52986479       -16836141.435844541        1455349116.4682581     
  -1307462948.2703147       -39355013.416960835        1441258423.4417219     
  -1265222640.6193097       -33032730.972424567        1432445876.7987969     
  -1223700929.5883706       -29105770.594778001        1427417445.8181233     
  -1182897815.1774983       -27574132.284019828        1426173130.4997025     
  -1142813297.3866937       -28437816.040152907        1428712930.8435321     
   5192143.8283332651        17028027.713364027        1528502168.8585169     
   4700112.8403066676        14881562.900802296        1524870981.6262140     
   4386442.7394396113        13329634.378773753        1526614264.9590762     
   4251133.5257226937        12372242.147244975        1533732018.8571022     
   4294185.1991656348        12009386.206249068        1546224243.3202910     
  -281025170.92235243        5896780.4409069121        1505243735.4757500     
  -267262331.39692101        4901060.1169817597        1501536804.4090579     
  -253451898.93314117        4063982.9208826125        1503155131.3670971     
  -239593873.53101963        3385548.8525910228        1510098716.3498743     
  -225688255.19055372        2865757.9121121764        1522367559.3573768     
  -567765182.70841980       -5391275.9421646595        1480859384.6789958     
  -539888079.92790210       -5278433.9549573064        1476924147.1709664     
  -512094152.15785235       -5442842.0026414096        1478264955.1472383     
  -484383399.39827079       -5884500.0852223635        1484881808.6078122     
  -456755821.64915574       -6603408.2026878595        1496774707.5526886     
  -855027891.52986479       -16836141.435844541        1455349116.4682581     
  -813177132.75264382       -15656919.315039963        1451033009.9119430     
  -771540316.93469596       -15190840.391811579        1451943736.2994976     
  -730117444.07602859       -15437904.666184306        1458081295.6309242     
  -688908514.17664254       -16398112.138160795        1469445687.9062192     
  -1142813297.3866937       -28437816.040152907        1428712930.8435321     
  -1087129489.8711326       -26234395.963221729        1423863392.6319828     
  -1031790393.2636688       -25180012.246611416        1424191474.8238750     
  -976796007.56429267       -25274664.890294194        1429697177.4192054     
  -922146332.77300823       -26518353.894284129        1440380500.4179738     
   4294185.1991656348        12009386.206249068        1546224243.3202910     
   3864733.2025786154        11396558.306978796        1543574038.8355720     
   3185565.9074487947        9951346.0792325176        1546006450.7498224     
   2256683.3137837909        7673749.5230356297        1553521479.0630467     
   1078085.4215700836        4563768.6383430641        1566119123.7752345     
  -225688255.19055372        2865757.9121121764        1522367559.3573768     
  -213095856.02841210        1796394.8966440558        1519082747.3801527     
  -200653647.37921315        226396.83803469688        1520837481.8451803     
  -188361629.24297094       -1844236.2637663260        1527631762.7524559     
  -176219801.61967334       -4415504.4087133259        1539465590.1019831     
  -456755821.64915574       -6603408.2026878595        1496774707.5526886     
  -431264628.34748161       -8166223.4401009977        1492971400.3328125     
  -405824100.77316344       -9897924.4353658557        1494164569.5984702     
  -380434238.92620325       -11798511.188491449        1500354215.3496585     
  -355095042.80660051       -13867983.699478164        1511540337.5863755     
  -688908514.17664254       -16398112.138160795        1469445687.9062192     
  -650641583.75463283       -18491296.703267246        1465239997.6935501     
  -612325794.27439559       -20421617.740946203        1465987714.0096965     
  -573961145.73592198       -22189075.251172572        1471688836.8546522     
  -535547638.13921720       -23793669.233958185        1482343366.2284200     
  -922146332.77300823       -26518353.894284129        1440380500.4179738     
  -871226722.24987161       -29178824.892873108        1435888539.4623718     
  -820158727.88291073       -31344683.078711420        1436306915.0788600     
  -768942349.67212236       -33015928.451791495        1441635627.2674372     
  -717577587.61750984       -34192561.012127668        1451874676.0281096     
   1078085.4215700836        4563768.6383430641        1566119123.7752345     
   321536.93111051421        1679815.6562470966        1566695927.6611106     
  -119749.17375018506       -153262.70718735768        1572979429.4780774     
  -245772.89300528879       -935466.45193579944        1584969629.2261364     
  -56534.226663626847       -666795.57802835549        1602666526.9052873     
  -176219801.61967334       -4415504.4087133259        1539465590.1019831     
  -161877682.45075449       -6211548.6060699224        1539781071.4919286     
  -147309458.60367846       -7253910.5429012552        1545753158.8153586     
  -132515130.07842793       -7542590.2191511095        1557381852.0722816     
  -117494696.87502505       -7077587.6348942257        1574667151.2626901     
  -355095042.80660051       -13867983.699478164        1511540337.5863755     
  -325797375.97145808       -14619055.110030204        1511490479.1550448     
  -296362762.16559559       -14913636.618185163        1517047134.6595998     
  -266791201.38900429       -14751728.223909214        1528210304.1000352     
  -237082693.64169168       -14133329.927231662        1544979987.4763587     
  -535547638.13921720       -23793669.233958185        1482343366.2284200     
  -491437543.63100785       -23542703.855661780        1481824150.6504664     
  -447279659.85951072       -23132440.933068469        1486861357.0107949     
  -403073986.82473379       -22562880.466208264        1497454985.3093977     
  -358820524.52667391       -21834022.455077127        1513605035.5462830     
  -717577587.61750984       -34192561.012127668        1451874676.0281096     
  -658798185.42939055       -32982494.842919946        1450782085.9781899     
  -600060151.68542683       -31910323.487562090        1455195825.8689446     
  -541363486.38562000       -30976046.946063489        1465115895.7003751     
  -482708189.52996558       -30179665.218402103        1480542295.4724748     
  -56534.226663626847       -666795.57802835549        1602666526.9052873     
   70190.374185951339       -55653.896372819509        1598359442.8532383     
   119822.93717536071        298514.32575090218        1599142425.5228693     
   92363.462295176563        395709.08830792434        1605015474.9141808     
  -12188.050451032526        235930.39131222395        1615978591.0271726     
  -117494696.87502505       -7077587.6348942257        1574667151.2626901     
  -103760695.77477406       -5879539.9400174990        1569936916.6569071     
  -89515013.808832020       -2975889.3595052585        1570448311.2490015     
  -74757650.977170274        1633364.1067389399        1576201335.0389760     
  -59488607.279811740        7948220.4586411901        1587195988.0268486     
  -237082693.64169168       -14133329.927231662        1544979987.4763587     
  -209308380.39576703       -12218465.525310360        1540513504.0376658     
  -180433613.38056302       -6635421.8924576864        1541440212.2730622     
  -150458392.59608048        2615800.9713234082        1547760112.1825461     
  -119382718.04232073        15535203.066025674        1559473203.7661078     
  -358820524.52667391       -21834022.455077127        1513605035.5462830     
  -316572863.48877150       -19072430.652174234        1510089204.9955266     
  -272635975.77802604       -10680083.273133472        1512118128.5950565     
  -227009861.39442784        3343019.6820833087        1519691806.3448710     
  -179694520.33798084        22996878.213468164        1532810238.2449741     
  -482708189.52996558       -30179665.218402103        1480542295.4724748     
  -425554145.05380446       -26441435.320673242        1478664019.5304844     
  -366122101.00122362       -15109873.501541287        1482482060.2149816     
  -304412057.37221682        3815020.2390077710        1491996417.5259681     
  -240424014.16678971        30333245.900959343        1507207091.4634404     
  -12188.050451032526        235930.39131222395        1615978591.0271726     
  -47723.824825593183        22489.717341673622        1585045907.9341462     
  -55200.549351815622       -97420.790469137108        1557482188.1384747     
  -34618.224010209946       -123801.13205316023        1533287431.6401522     
   14023.151166374664       -56651.307520586895        1512461638.4391758     
  -59488607.279811740        7948220.4586411901        1587195988.0268486     
  -48644926.642902479        15478049.538620371        1556734812.6936877     
  -36636499.412658818        26890367.263049297        1529486393.6670985     
  -23463325.589074180        42185173.631948680        1505450730.9470832     
  -9125405.1721561104        61362468.645290017        1484627824.5336394     
  -119382718.04232073        15535203.066025674        1559473203.7661078     
  -98106126.682066992        30674410.193582773        1530809671.6602185     
  -74528101.184995681        53485064.443866260        1505202688.8701153     
  -48648641.551111318        83967165.816858783        1482652255.3958032     
  -20467747.780401759        122120714.31260036        1463158371.2372901     
  -179694520.33798084        22996878.213468164        1532810238.2449741     
  -148431323.94231981        45611571.682227008        1507270484.8337429     
  -113730005.86637151        79686670.751947820        1484631073.7475159     
  -75590566.110113382        125222175.42269929        1464892004.9863067     
  -34013004.673562065        182218085.69442797        1448053278.5501039     
  -240424014.16678971        30333245.900959343        1507207091.4634404     
  -199620518.42367223        60289534.004514709        1486117252.2142601     
  -154242213.45676866        105495186.18735626        1467771548.2993131     
  -104289099.26610029        165950202.44941598        1452169979.7185948     
  -49761175.851630643        241654582.79080978        1439312546.4721122     
   14023.151166374664       -56651.307520586895        1512461638.4391758     
   22330.287395093881        20396.329438173991        1403094070.4664946     
   17082.605021651591        52261.237723063176        1290976713.5836806     
  -1719.8959523280446        38943.417339147592        1176109567.7907372     
  -34077.215521377788       -19557.131695695578        1058492633.0876803     
  -9125405.1721561104        61362468.645290017        1484627824.5336394     
  -9607175.7020610608        80795965.584972039        1375938258.6554680     
  -8153401.0382316187        106681279.83709925        1265154625.9513087     
  -4764081.1806593388        139018411.40170711        1152276926.4211557     
   560783.87064235657        177807360.27874291        1037305160.0650163     
  -20467747.780401759        122120714.31260036        1463158371.2372901     
  -19566104.307469465        161472708.05570692        1357420757.4680142     
  -14779815.628468856        213773519.15237445        1250244798.9569025     
  -6108881.7433855385        279023147.60264957        1141630495.7039347     
   6446697.3477597535        357221593.40646762        1031577847.7091163     
  -34013004.673562065        182218085.69442797        1448053278.5501039     
  -29854455.528826490        242050623.74165049        1347541566.9041331     
  -19862161.165682882        321328979.18355948        1246247232.6004484     
  -4036121.5841286778        420053152.02017689        1144170275.6390522     
   17623663.215831727        538223142.25147867        1041310696.0199511     
  -49761175.851630643        241654582.79080978        1439312546.4721122     
  -40472229.366127267        322529712.64282429        1346300686.9638271     
  -23400437.649878442        429347659.93065345        1253161926.8819644     
   1454199.2971244454        562108424.65433717        1159896266.2265356     
   34091681.474857390        720812006.81377578        1066503704.9975320     
  -1599838213.7922547       -186752115.47808570        1389881015.6699812     
  -1521754572.6809106       -133270090.85994411        1399090096.8254035     
  -1446997481.3901389       -90876565.643703878        1410722691.8391695     
  -1375566939.9199417       -59571539.829380870        1424778800.7112758     
  -1307462948.2703147       -39355013.416960835        1441258423.4417219     
  -1934499183.2793639       -107283171.25405490        1347487398.0606933     
  -1854166293.6061103       -75469312.435567915        1347319962.8480988     
  -1775800274.7276201       -50211689.599618018        1351459550.9324012     
  -1699401126.6438861       -31510302.746196508        1359906162.3135970     
  -1624968849.3549123       -19365151.875304401        1372659796.9916875     
  -2289818559.6093793       -34011749.082894206        1295707195.7498474     
  -2201854965.8354945       -22251619.402451158        1287749536.3660176     
  -2114498563.8305550       -12515462.285162449        1285982409.7176387     
  -2027749353.5945621       -4803277.7310314178        1290405815.8047066     
  -1941607335.1275184        884934.25994610786        1301019754.6272240     
  -2665796342.7823024        33062151.035393953        1234540408.7374454     
  -2564820589.3690557        26382988.239413738        1220378817.3791606     
  -2463092348.6989474        22212116.299654484        1214291268.1948814     
  -2360611620.7719717        20549535.216111898        1216277761.1846039     
  -2257378405.5881276        21395244.988794088        1226338296.3483264     
  -3062432532.7981300        93938529.100809455        1163987037.0234845     
  -2943063164.2068014        70434510.490021706        1145207805.8875291     
  -2821581629.3327942        53971046.154834509        1136386126.3641312     
  -2697987928.1761079        44548136.095241070        1137521998.4532878     
  -2572282060.7367435        42165780.311243415        1148615422.1550009     
  -1307462948.2703147       -39355013.416960835        1441258423.4417219     
  -1265222640.6193097       -33032730.972424567        1432445876.7987969     
  -1223700929.5883706       -29105770.594778001        1427417445.8181233     
  -1182897815.1774983       -27574132.284019828        1426173130.4997025     
  -1142813297.3866937       -28437816.040152907        1428712930.8435321     
  -1624968849.3549123       -19365151.875304401        1372659796.9916875     
  -1574457544.1828899       -18006161.723740399        1363460319.2596638     
  -1524359501.6782479       -18024713.796772540        1357984406.7953179     
  -1474674721.8409872       -19420808.094408751        1356232059.5986469     
  -1425403204.6711028       -22194444.616638184        1358203277.6696551     
  -1941607335.1275184        884934.25994610786        1301019754.6272240     
  -1882998033.5618358       -2771268.2196742296        1291789568.7509024     
  -1824496660.7108459       -6787233.0815962553        1286222397.7476852     
  -1766103216.5745459       -11162960.325818539        1284318241.6175685     
  -1707817701.1529365       -15898449.952345848        1286077100.3605580     
  -2257378405.5881276        21395244.988794088        1226338296.3483264     
  -2190844108.7561393        12671949.539792299        1217433625.2725112     
  -2124112406.6861546        4606671.5507799387        1212131418.6752253     
  -2057183299.3781755       -2800588.9782494307        1210431676.5564680     
  -1990056786.8321965       -9549832.0472838879        1212334398.9162395     
  -2572282060.7367435        42165780.311243415        1148615422.1550009     
  -2497995769.7658072        28323491.554644346        1140392488.8244936     
  -2423206739.6041856        16157000.100326419        1135711469.5779417     
  -2347914970.2518759        5666305.9482996464        1134572364.4153409     
  -2272120461.7088861       -3148590.9014540911        1136975173.3366973     
  -1142813297.3866937       -28437816.040152907        1428712930.8435321     
  -1087129489.8711326       -26234395.963221729        1423863392.6319828     
  -1031790393.2636688       -25180012.246611416        1424191474.8238750     
  -976796007.56429267       -25274664.890294194        1429697177.4192054     
  -922146332.77300823       -26518353.894284129        1440380500.4179738     
  -1425403204.6711028       -22194444.616638184        1358203277.6696551     
  -1356559277.6651530       -20222391.002635956        1352932692.3674643     
  -1288044527.2102358       -19347592.558743894        1352661047.7612722     
  -1219858953.3063560       -19570049.284975290        1357388343.8510783     
  -1152002555.9535131       -20889761.181327403        1367114580.6368823     
  -1707817701.1529365       -15898449.952345848        1286077100.3605580     
  -1626324168.1064255       -14310916.836213231        1280403591.3842907     
  -1545144277.2538953       -13768857.700016856        1279550343.3965790     
  -1464278028.5953364       -14272272.543731570        1283517356.3974271     
  -1383725422.1307638       -15821161.367388010        1292304630.3868318     
  -1990056786.8321965       -9549832.0472838879        1212334398.9162395     
  -1896424161.1949604       -8499973.4639804363        1206276089.6824598     
  -1803089643.3946388       -8443807.6704020500        1204859361.7297995     
  -1710053233.4312422       -9381334.6665753126        1208084215.0582547     
  -1617314931.3047650       -11312554.452473640        1215950649.6678281     
  -2272120461.7088861       -3148590.9014540911        1136975173.3366973     
  -2166859256.9307451       -2789560.8859128952        1130550187.2619762     
  -2061880625.6324735       -3372442.4699287415        1128588102.7609313     
  -1957184567.8140578       -4897235.6534707546        1131088919.8335600     
  -1852771083.4755149       -7363940.4365838766        1138052638.4798670     
  -922146332.77300823       -26518353.894284129        1440380500.4179738     
  -871226722.24987161       -29178824.892873108        1435888539.4623718     
  -820158727.88291073       -31344683.078711420        1436306915.0788600     
  -768942349.67212236       -33015928.451791495        1441635627.2674372     
  -717577587.61750984       -34192561.012127668        1451874676.0281096     
  -1152002555.9535131       -20889761.181327403        1367114580.6368823     
  -1088665505.1233048       -24006605.917074323        1361996390.1671786     
  -1025290263.8184996       -26996149.070834279        1361625057.3009381     
  -961876832.03910565       -29858390.642633379        1366000582.0381622     
  -898425209.78511548       -32593330.632439226        1375122964.3788507     
  -1383725422.1307638       -15821161.367388010        1292304630.3868318     
  -1308438013.7609894       -19534504.670544207        1286431651.4722607     
  -1233222608.2858565       -23487857.622504175        1285142051.1925244     
  -1158079205.7053585       -27681220.223249376        1288435829.5476236     
  -1083007806.0195010       -32114592.472794771        1296312986.5375600     
  -1617314931.3047650       -11312554.452473640        1215950649.6678281     
  -1530544248.1629326       -15762521.153295100        1209194323.3776169     
  -1443955761.2849743       -20819808.733694136        1206857896.7536125     
  -1357549470.6708832       -26484417.193657041        1208941369.7958188     
  -1271325376.3206611       -32756346.533177733        1215444742.5042317     
  -1852771083.4755149       -7363940.4365838766        1138052638.4798670     
  -1754984208.3291340       -12690655.365329981        1130284405.8832452     
  -1657489722.8158531       -18992002.404412389        1126772593.9842081     
  -1560287626.9356773       -26267981.553838789        1127517202.7827485     
  -1463377920.6885974       -34518592.813593507        1132518232.2788708     
  -717577587.61750984       -34192561.012127668        1451874676.0281096     
  -658798185.42939055       -32982494.842919946        1450782085.9781899     
  -600060151.68542683       -31910323.487562090        1455195825.8689446     
  -541363486.38562000       -30976046.946063489        1465115895.7003751     
  -482708189.52996558       -30179665.218402103        1480542295.4724748     
  -898425209.78511548       -32593330.632439226        1375122964.3788507     
  -826225551.87533391       -32665194.072216868        1372494817.3485637     
  -754038590.47093081       -32779379.196588248        1374979443.9194198     
  -681864325.57190382       -32935886.005550444        1382576844.0914161     
  -609702757.17825985       -33134714.499117315        1395287017.8645484     
  -1083007806.0195010       -32114592.472794771        1296312986.5375600     
  -998512339.07243717       -33805719.526866734        1292182733.1221454     
  -914000896.69196987       -35443595.136268348        1292771696.9683402     
  -829473478.87811041       -37028219.301027566        1298079878.0761425     
  -744930085.63085186       -38559592.021125197        1308107276.4455492     
  -1271325376.3206611       -32756346.533177733        1215444742.5042317     
  -1175658547.0206900       -36404071.206842363        1209845833.2989326     
  -1079947070.3485460       -39902971.306612968        1208572585.0156991     
  -984190946.30423617       -43253046.832487106        1211624997.6545460     
  -888390174.88774204       -46454297.784417599        1219003071.2154648     
  -1463377920.6885974       -34518592.813593507        1132518232.2788708     
  -1357664175.7201073       -40460249.112200618        1125484117.8789175     
  -1251877111.4406581       -46157507.707609892        1122382108.0615058     
  -1146016727.8502731       -51610368.599897921        1123212202.8266356     
  -1040083024.9489305       -56818831.788999379        1127974402.1743033     
  -482708189.52996558       -30179665.218402103        1480542295.4724748     
  -425554145.05380446       -26441435.320673242        1478664019.5304844     
  -366122101.00122362       -15109873.501541287        1482482060.2149816     
  -304412057.37221682        3815020.2390077710        1491996417.5259681     
  -240424014.16678971        30333245.900959343        1507207091.4634404     
  -609702757.17825985       -33134714.499117315        1395287017.8645484     
  -537847692.29334414       -29995203.519213200        1393209862.4764633     
  -463718200.88582474       -19274270.797294304        1396883033.6035089     
  -387314282.95572388       -971916.33343765140        1406306531.2456853     
  -308635938.50301862        24911859.872431502        1421480355.4029863     
  -744930085.63085186       -38559592.021125197        1308107276.4455492     
  -658219686.36963475       -35972505.768758446        1305827073.0485735     
  -569238433.63965094       -25815907.953842312        1309351206.0553622     
  -477986327.44090241       -8089798.5763714015        1318679675.4659197     
  -384463367.77338773        17205822.363648325        1333812481.2802482     
  -888390174.88774204       -46454297.784417599        1219003071.2154648     
  -786670127.28268766       -44373342.069355696        1216515651.2467988     
  -682682799.26268899       -34734784.971146852        1219886577.5705376     
  -576428190.82775414       -17538626.489816993        1229115850.1866856     
  -467906301.97788197        7215133.3746375740        1244203469.0952363     
  -1040083024.9489305       -56818831.788999379        1127974402.1743033     
  -923199015.03248835       -55197712.420947284        1125275597.0711455     
  -804051297.75494134       -46030901.849207312        1128489148.1490338     
  -682639873.11627746       -29318400.073745340        1137615055.4079711     
  -558964741.11651409       -5060207.0946212113        1152653318.8479507     
  -240424014.16678971        30333245.900959343        1507207091.4634404     
  -199620518.42367223        60289534.004514709        1486117252.2142601     
  -154242213.45676866        105495186.18735626        1467771548.2993131     
  -104289099.26610029        165950202.44941598        1452169979.7185948     
  -49761175.851630643        241654582.79080978        1439312546.4721122     
  -308635938.50301862        24911859.872431502        1421480355.4029863     
  -259011733.70945796        55289934.504025802        1404747733.7768486     
  -202951709.07134384        107120741.95080683        1391958802.2718949     
  -140455864.58868530        180404282.21273568        1383113560.8881118     
  -71524200.261473536        275140555.28983372        1378212009.6255031     
  -384463367.77338773        17205822.363648325        1333812481.2802482     
  -322591154.53811353        49033873.340689212        1323608256.3347273     
  -252422110.83752316        108518025.86878943        1318547276.2973249     
  -173956236.67161679        195658279.94793808        1318629541.1680377     
  -87193532.040395632        310454635.57814062        1323855050.9468641     
  -467906301.97788197        7215133.3746375740        1244203469.0952363     
  -390358780.90963686        41521350.514489010        1242698819.8878920     
  -302653418.75530899        109687037.94128345        1247536970.3756080     
  -204790215.51489514        211712195.65503639        1258717920.5583818     
  -96769171.188394457        347596823.65573442        1276241670.4362164     
  -558964741.11651409       -5060207.0946212113        1152653318.8479507     
  -462314612.82403171        32752366.025424004        1162019424.4363446     
  -353645632.82469898        110627778.16830954        1178927884.5067401     
  -232957801.11851352        228566029.33403605        1203378699.0591359     
  -100251117.70547920        386567119.52258909        1235371868.0935335     
  -49761175.851630643        241654582.79080978        1439312546.4721122     
  -40472229.366127267        322529712.64282429        1346300686.9638271     
  -23400437.649878442        429347659.93065345        1253161926.8819644     
   1454199.2971244454        562108424.65433717        1159896266.2265356     
   34091681.474857390        720812006.81377578        1066503704.9975320     
  -71524200.261473536        275140555.28983372        1378212009.6255031     
  -57372253.790345386        376824146.08965784        1296707798.2205336     
  -34239929.528920770        508442329.52380008        1214269304.0824425     
  -2127227.4771681428        669995105.59237564        1130896527.2112179     
   38965852.364881724        861482474.29527128        1046589467.6068407     
  -87193532.040395632        310454635.57814062        1323855050.9468641     
  -70485391.753830999        432254645.47466451        1255255608.9647245     
  -43599341.117391139        587981023.20411670        1184914502.0898900     
  -6535380.1310617626        777633768.76652014        1112831730.3223588     
   40706491.205140889        1001212882.1618505        1039007293.6621325     
  -96769171.188394457        347596823.65573442        1276241670.4362164     
  -79811643.256564707        488821210.79792005        1221944119.1963868     
  -51478672.415279508        667963740.97161531        1165097520.9043050     
  -11770258.664553642        885024414.17678535        1105701875.5599623     
   39313597.995634854        1140003230.4135001        1043757183.1633805     
  -100251117.70547920        386567119.52258909        1235371868.0935335     
  -85351008.298550934        546523842.05939317        1196773328.9155228     
  -57877923.422600687        748390482.82626760        1154818360.5257008     
  -17831863.077630818        992167041.82320750        1109506962.9240630     
   34787172.736355364        1277853519.0502043        1060839136.1106037     
  -3062432532.7981300        93938529.100809455        1163987037.0234845     
  -2943063164.2068014        70434510.490021706        1145207805.8875291     
  -2821581629.3327942        53971046.154834509        1136386126.3641312     
  -2697987928.1761079        44548136.095241070        1137521998.4532878     
  -2572282060.7367435        42165780.311243415        1148615422.1550009     
  -3496324393.6558547        24965003.210735083        1023335016.1831510     
  -3347109982.6020770        24148555.591181993        1013631703.8057928     
  -3197205209.7760091        25633313.879278541        1011692971.4813229     
  -3046610075.1776423        29419278.075030804        1017518819.2097403     
  -2895324578.8069820        35506448.178429842        1031109246.9910465     
  -3905823121.6382599       -36690582.816743135        888794711.40431976     
  -3733029301.1496625       -16699149.353353977        886508545.85677612     
  -3560966923.3991470        854141.64974927902        889793988.80245650     
  -3389635988.3867211        15969290.192554235        898651040.24135756     
  -3219036496.1123829        28646296.275068998        913079700.17347550     
  -4290928716.7453485       -91028228.981625557        760366122.68699586     
  -4100821119.8495369       -52108604.343575001        763838332.04048812     
  -3912866770.2022028       -20366470.533758879        770689178.32753515     
  -3727065667.8033428        4198172.4478161335        780918661.54813612     
  -3543417812.6529469        21585324.601160288        794526781.70229053     
  -4651641178.9771118       -138047935.28391218        638049250.03117347     
  -4450485438.7017231       -82079809.379489422        645621062.35692143     
  -4252904750.1851864       -38028522.671242714        654378540.05655813     
  -4058899113.4275069       -5894075.1591827869        664321683.13008082     
  -3868468528.4286795        14323533.156700850        675450491.57748783     
  -2572282060.7367435        42165780.311243415        1148615422.1550009     
  -2497995769.7658072        28323491.554644346        1140392488.8244936     
  -2423206739.6041856        16157000.100326419        1135711469.5779417     
  -2347914970.2518759        5666305.9482996464        1134572364.4153409     
  -2272120461.7088861       -3148590.9014540911        1136975173.3366973     
  -2895324578.8069820        35506448.178429842        1031109246.9910465     
  -2811414558.3782015        23014566.651037574        1023174585.8155885     
  -2727117806.6546154        11811789.439668894        1018789246.9323910     
  -2642434323.6362224        1898116.5443257093        1017953230.3414536     
  -2557364109.3230200       -6726452.0349851847        1020666536.0427777     
  -3219036496.1123829        28646296.275068998        913079700.17347550     
  -3125481579.9163184        17511171.869709611        905297968.60787773     
  -3031655940.3213201        7278458.7941288948        901072967.54284573     
  -2937559577.3273931       -2051842.9516857862        900404696.97837996     
  -2843192490.9345317       -10479733.367728114        903293156.91448438     
  -3543417812.6529469        21585324.601160288        794526781.70229053     
  -3440196834.3801513        11813307.210672140        786762637.20136201     
  -3336821140.6042962        2557008.1637043953        782562631.40930736     
  -3233290731.3253856       -6183572.5397454500        781926764.32612383     
  -3129605606.5434275       -14408434.899690270        784855035.95181572     
  -3868468528.4286795        14323533.156700850        675450491.57748783     
  -3755560321.7697029        5920972.6739110947        667568591.59603965     
  -3642613407.5035439       -2352562.4515993595        663258238.53177142     
  -3529627785.6302104       -10497072.219860792        662519432.38467991     
  -3416603456.1496959       -18512556.630857706        665352173.15477276     
  -2272120461.7088861       -3148590.9014540911        1136975173.3366973     
  -2166859256.9307451       -2789560.8859128952        1130550187.2619762     
  -2061880625.6324735       -3372442.4699287415        1128588102.7609313     
  -1957184567.8140578       -4897235.6534707546        1131088919.8335600     
  -1852771083.4755149       -7363940.4365838766        1138052638.4798670     
  -2557364109.3230200       -6726452.0349851847        1020666536.0427777     
  -2440181884.3478818       -5500942.6895694733        1013751852.6039898     
  -2323243660.0788865       -5088769.0312901735        1011344326.3592447     
  -2206549436.5160203       -5489931.0601149797        1013443957.3085407     
  -2090099213.6593032       -6704428.7760968208        1020050745.4518858     
  -2843192490.9345317       -10479733.367728114        903293156.91448438     
  -2713962801.1327744       -8349811.3035497665        895933777.68097341     
  -2584938539.2634315       -6904649.0140875578        893125811.26187539     
  -2456119705.3264999       -6144246.4993275404        894869257.65718997     
  -2327506299.3219800       -6068603.7592794895        901164116.86691403     
  -3129605606.5434275       -14408434.899690270        784855035.95181572     
  -2988202007.2854271       -11336166.727866173        777095962.49293220     
  -2846965263.1861134       -8820082.4183245897        773932557.46882570     
  -2705895374.2454863       -6860181.9710755348        775364820.87950099     
  -2564992340.4635539       -5456465.3861364126        781392752.72495472     
  -3416603456.1496959       -18512556.630857706        665352173.15477276     
  -3262899502.8058290       -14460008.962485671        657238407.03985965     
  -3109323831.8469315       -10835069.244007468        653764564.98009419     
  -2955876443.2729907       -7637737.4753869772        654930646.97547567     
  -2802557337.0840173       -4868013.6566468477        660736653.02600610     
  -1852771083.4755149       -7363940.4365838766        1138052638.4798670     
  -1754984208.3291340       -12690655.365329981        1130284405.8832452     
  -1657489722.8158531       -18992002.404412389        1126772593.9842081     
  -1560287626.9356773       -26267981.553838789        1127517202.7827485     
  -1463377920.6885974       -34518592.813593507        1132518232.2788708     
  -2090099213.6593032       -6704428.7760968208        1020050745.4518858     
  -1981443981.0845206       -11043593.405751228        1011734047.2158449     
  -1873063101.5370734       -16297268.126525283        1007293307.0042809     
  -1764956575.0169642       -22465452.938419819        1006728524.8171921     
  -1657124401.5241878       -29548147.841433167        1010039700.6545807     
  -2327506299.3219800       -6068603.7592794895        901164116.86691403     
  -2209069745.5276670       -9746328.9525039196        892319995.69818306     
  -2090889508.1549304       -14278442.217629552        886971369.88081968     
  -1972965587.2037640       -19664943.554664731        885118239.41482532     
  -1855297982.6741621       -25905832.963594675        886760604.30020630     
  -2564992340.4635539       -5456465.3861364126        781392752.72495472     
  -2437861501.6585884       -8798862.0055903196        772042251.33025551     
  -2310968942.6694221       -12935524.677724123        765806782.61381841     
  -2184314663.4960642       -17866453.402548194        762686346.57564962     
  -2057898664.1385114       -23591648.180058479        762680943.21574223     
  -2802557337.0840173       -4868013.6566468477        660736653.02600610     
  -2667819249.4772649       -8201192.5650036335        650900814.11206400     
  -2533301405.0805502       -12268515.506812811        643799545.20328259     
  -2399003803.8938808       -17069982.482100487        639432846.29966152     
  -2264926445.9172463       -22605593.490851641        637800717.40119600     
  -1463377920.6885974       -34518592.813593507        1132518232.2788708     
  -1357664175.7201073       -40460249.112200618        1125484117.8789175     
  -1251877111.4406581       -46157507.707609892        1122382108.0615058     
  -1146016727.8502731       -51610368.599897921        1123212202.8266356     
  -1040083024.9489305       -56818831.788999379        1127974402.1743033     
  -1657124401.5241878       -29548147.841433167        1010039700.6545807     
  -1541135164.5500269       -34370462.753784597        1001477940.2476056     
  -1424994699.1993635       -38688683.077806771        996629990.32715821     
  -1308703005.4721954       -42502808.813472331        995495850.89324498     
  -1192260083.3685241       -45812839.960808337        998075521.94586849     
  -1855297982.6741621       -25905832.963594675        886760604.30020630     
  -1729656951.1114995       -29795915.714861155        876762091.79601800     
  -1603786782.1067829       -32922206.992612004        870259095.68235373     
  -1477687475.6600027       -35284706.796825767        867251615.95921326     
  -1351359031.7711711       -36883415.127523303        867739652.62659860     
  -2057898664.1385114       -23591648.180058479        762680943.21574223     
  -1923229535.4045191       -26736607.995391726        751336572.52415860     
  -1788253360.1629100       -28858079.452019095        743269424.12708688     
  -1652970138.4136937       -29956062.549947441        738479498.02453721     
  -1517379870.1568577       -30030557.289141774        736966794.21649981     
  -2264926445.9172463       -22605593.490851641        637800717.40119600     
  -2121852917.4290843       -25192539.595389366        625201382.43202794     
  -1978394433.3677640       -26496300.456071019        615660975.66136825     
  -1834550993.7332621       -26516876.072809100        609179497.08921707     
  -1690322598.5256021       -25254266.445697665        605756946.71557176     
  -1040083024.9489305       -56818831.788999379        1127974402.1743033     
  -923199015.03248835       -55197712.420947284        1125275597.0711455     
  -804051297.75494134       -46030901.849207312        1128489148.1490338     
  -682639873.11627746       -29318400.073745340        1137615055.4079711     
  -558964741.11651409       -5060207.0946212113        1152653318.8479507     
  -1192260083.3685241       -45812839.960808337        998075521.94586849     
  -1061848590.9034848       -42558678.540469944        994201359.87996399     
  -930023301.67696464       -34591861.248541176        994443741.58141398     
  -796784215.68897927       -21912388.085054219        998802667.05022025     
  -662131332.93951797       -4520259.0499833226        1007278136.2863650     
  -1351359031.7711711       -36883415.127523303        867739652.62659860     
  -1212550949.3680780       -33535479.438033223        861698571.23171365     
  -1073178980.8031559       -28307923.209112942        857978221.19047821     
  -933243126.07639670       -21200746.440737963        856578602.50289786     
  -792743385.18780744       -12213949.132924408        857499715.16897237     
  -1517379870.1568577       -30030557.289141774        736966794.21649981     
  -1375306090.4262855       -28128115.113693476        727767231.12637889     
  -1233518335.1335170       -27179087.730935276        719092586.97621751     
  -1092016604.2785568       -27183475.140864491        710942861.76601374     
  -950800897.86139178       -28141277.343447387        703318055.49576378     
  -1690322598.5256021       -25254266.445697665        605756946.71557176     
  -1550114014.0781066       -26336585.567451000        592407339.56397343     
  -1411041364.6680555       -31205354.814027548        577786838.93863761     
  -1273104650.2954397       -39860574.185388625        561895444.83956671     
  -1136303870.9602761       -52302243.681580245        544733157.26674819     
  -558964741.11651409       -5060207.0946212113        1152653318.8479507     
  -462314612.82403171        32752366.025424004        1162019424.4363446     
  -353645632.82469898        110627778.16830954        1178927884.5067401     
  -232957801.11851352        228566029.33403605        1203378699.0591359     
  -100251117.70547920        386567119.52258909        1235371868.0935335     
  -662131332.93951797       -4520259.0499833226        1007278136.2863650     
  -547059863.59542036        25655864.357868165        1020824833.0490960     
  -421099937.12637377        92126844.848885924        1042761695.3031158     
  -284251553.53239858        194892682.42299968        1073088723.0484197     
  -136514712.81347805        333953377.08026028        1111805916.2850068     
  -792743385.18780744       -12213949.132924408        857499715.16897237     
  -656828257.62270916        11052419.713560641        873908209.42714286     
  -511155067.51457810        66845663.703476787        899554680.18588626     
  -355723814.86341566        155165782.83683699        934439127.44519746     
  -190534499.66922766        276012777.11362624        978561551.20508158     
  -950800897.86139178       -28141277.343447387        703318055.49576378     
  -791619794.90591037       -11057967.907529831        721269553.57048297     
  -623811023.98930836        34784234.732116520        749306839.15505612     
  -447374585.11157846        109385330.57553729        787429912.24948883     
  -262310478.27273029        212745319.62266284        835638772.85377300     
  -1136303870.9602761       -52302243.681580245        544733157.26674819     
  -951434475.44501877       -40675298.505395770        562908865.47911525     
  -759067806.55055392       -4057442.0651799142        592018172.21062410     
  -559203864.27687550        57551325.639071882        632061077.46127141     
  -351842648.62399215        144151004.60735178        683037581.23105896     
  -100251117.70547920        386567119.52258909        1235371868.0935335     
  -85351008.298550934        546523842.05939317        1196773328.9155228     
  -57877923.422600687        748390482.82626760        1154818360.5257008     
  -17831863.077630818        992167041.82320750        1109506962.9240630     
   34787172.736355364        1277853519.0502043        1060839136.1106037     
  -136514712.81347805        333953377.08026028        1111805916.2850068     
  -127375527.57874495        483026913.83607942        1090214917.3331368     
  -95108004.692872018        709194909.42904377        1070060371.8716236     
  -39712144.155825078        1012457363.8592591        1051342279.9004557     
   38812054.032388628        1392814277.1266761        1034060641.4196497     
  -190534499.66922766        276012777.11362624        978561551.20508158     
  -173462288.02909949        418311313.26166099        986292681.69186246     
  -122706376.55566430        672888848.85405195        1000253148.3711571     
  -38266765.248918235        1039745383.8908249        1020442951.2429756     
   79856545.891141474        1518880918.3719635        1046862090.3073015     
  -262310478.27273029        212745319.62266284        835638772.85377300     
  -223611289.64958104        352377040.33623266        885006621.99169433     
  -140673039.01098102        639472301.10132194        945396690.02430940     
  -13495726.356928587        1074031101.9179168        1016808976.9516006     
   157920648.31259197        1656053442.7860603        1099243482.7735679     
  -351842648.62399215        144151004.60735178        683037581.23105896     
  -277822532.44020474        285224095.05976176        786356738.23263824     
  -149007992.05882958        608945266.17079759        905490996.83106625     
   34600972.520158827        1115314517.9405499        1040440357.0263486     
   273004361.29674739        1804331850.3689687        1191204818.8184631     
  -4651641178.9771118       -138047935.28391218        638049250.03117347     
  -4450485438.7017231       -82079809.379489422        645621062.35692143     
  -4252904750.1851864       -38028522.671242714        654378540.05655813     
  -4058899113.4275069       -5894075.1591827869        664321683.13008082     
  -3868468528.4286795        14323533.156700850        675450491.57748783     
  -4978163583.5372581       -61127081.267999887        503736571.62584788     
  -4780359893.8853645       -39517075.690253735        499566941.90444076     
  -4583081218.2289753       -19657116.764204741        499561943.32800597     
  -4386327556.5680971       -1547204.4898471832        503721575.89653730     
  -4190098908.9027247        14812661.132817030        512045839.61003584     
  -5335655187.8383102        6503012.8256452084        354816817.93306720     
  -5132692218.0353899       -3691702.6909327507        342464123.55508006     
  -4927204224.4646292       -5469672.3147225380        337255026.09314144     
  -4719191207.1260319        1169103.9542822838        339189525.54725325     
  -4508653166.0195923        16224626.116091251        348267621.91741467     
  -5724115991.8802719        64842346.997013569        191289988.95283738     
  -5507482411.1518106        25396309.618459225        174312607.30883858     
  -5285273768.8921537        4533810.6771934032        167457788.35196847     
  -5057490065.1013136        2254850.1732141972        170725532.08223480     
  -4824131299.7792912        18559428.106517076        184115838.49962556     
  -6143545995.6631393        113890921.24611020        13156084.685154254     
  -5904730473.2345991        47746961.237960815       -4887606.8342853859     
  -5657289851.5115423        10353332.211554766       -9829769.8955158032     
  -5401224130.4939461        1710034.1669335365       -1670404.4985334766     
  -5136533310.1818180        21817067.104088068        19590489.356670242     
  -3868468528.4286795        14323533.156700850        675450491.57748783     
  -3755560321.7697029        5920972.6739110947        667568591.59603965     
  -3642613407.5035439       -2352562.4515993595        663258238.53177142     
  -3529627785.6302104       -10497072.219860792        662519432.38467991     
  -3416603456.1496959       -18512556.630857706        665352173.15477276     
  -4190098908.9027247        14812661.132817030        512045839.61003584     
  -4067532541.0737901        7999127.8551511765        505115849.66452920     
  -3945149762.5126991        573630.35134792328        501676968.96216673     
  -3822950573.2194405       -7463831.3785772324        501729197.50294745     
  -3700934973.1940303       -16113257.334630251        505272535.28687483     
  -4508653166.0195923        16224626.116091251        348267621.91741467     
  -4376658458.9465208        10931173.465787172        342030195.65366560     
  -4245069638.0163136        4284767.0059514046        339203440.95902151     
  -4113886703.2289534       -3714593.2633748055        339787357.83349067     
  -3983109654.5844460       -13066907.342237473        343781946.27706498     
  -4824131299.7792912        18559428.106517076        184115838.49962556     
  -4682938075.3879013        14717109.505825520        178311629.56344697     
  -4542373034.0143843        8780847.5122213364        175837654.52233914     
  -4402436175.6587315        750642.12573575974        176693913.37630287     
  -4263127500.3209562       -9373506.6536715031        180880406.12534577     
  -5136533310.1818180        21817067.104088068        19590489.356670242     
  -4986371390.3979092        19356935.975299120        13960151.393871838     
  -4837059950.5069132        14061871.870148420        11579609.652114177     
  -4688598990.5087824        5931874.7887799740        12448864.131398622     
  -4540988510.4035463       -5033055.2689161301        16567914.831715319     
  -3416603456.1496959       -18512556.630857706        665352173.15477276     
  -3262899502.8058290       -14460008.962485671        657238407.03985965     
  -3109323831.8469315       -10835069.244007468        653764564.98009419     
  -2955876443.2729907       -7637737.4753869772        654930646.97547567     
  -2802557337.0840173       -4868013.6566468477        660736653.02600610     
  -3700934973.1940303       -16113257.334630251        505272535.28687483     
  -3535425473.6035752       -12126561.787400246        497695712.83506930     
  -3370004064.9867454       -8433502.8189151287        494575352.39191222     
  -3204670747.3435407       -5034080.4291806221        495911453.95739859     
  -3039425520.6739635       -1928294.6182068586        501704017.53152859     
  -3983109654.5844460       -13066907.342237473        343781946.27706498     
  -3806318786.0231252       -9303317.0988469124        336788957.46826178     
  -3629575817.0240870       -5699392.0630850792        334068968.62160140     
  -3452880747.5873399       -2255132.2349526882        335621979.73708463     
  -3276233577.7128868        1029462.3855402470        341447990.81470942     
  -4263127500.3209562       -9373506.6536715031        180880406.12534577     
  -4075579440.0644789       -5990274.8968389034        174518140.93943816     
  -3888039087.9589496       -2632736.9764995575        172245413.66916719     
  -3700506444.0043840        699107.10730338097        174062224.31453955     
  -3512981508.2007608        4005257.3546154499        179968572.87555236     
  -4540988510.4035463       -5033055.2689161301        16567914.831715319     
  -4343207435.7276430       -2187435.1813676357        10883263.248600261     
  -4145393877.7913475        766462.44081068039        9104687.5346091092     
  -3947547836.5946760        3828637.5975832939        11232187.689769084     
  -3749669312.1376138        6999090.2889833450        17265763.714060009     
  -2802557337.0840173       -4868013.6566468477        660736653.02600610     
  -2667819249.4772649       -8201192.5650036335        650900814.11206400     
  -2533301405.0805502       -12268515.506812811        643799545.20328259     
  -2399003803.8938808       -17069982.482100487        639432846.29966152     
  -2264926445.9172463       -22605593.490851641        637800717.40119600     
  -3039425520.6739635       -1928294.6182068586        501704017.53152859     
  -2897015698.1006141       -5792202.9223446846        492043672.13882208     
  -2754596294.1489677       -9624173.2988574505        485672567.34506601     
  -2612167308.8190217       -13424205.747688890        482590703.15025347     
  -2469728742.1107931       -17192300.268911362        482798079.55439138     
  -3276233577.7128868        1029462.3855402470        341447990.81470942     
  -3124567247.0478215       -2889743.3768665791        332231267.62963343     
  -2972661510.4161344       -6010929.2505134344        326858455.63728899     
  -2820516367.8178196       -8334095.2354042530        325329554.83768493     
  -2668131819.2528653       -9859241.3315092325        327644565.23081172     
  -3512981508.2007608        4005257.3546154499        179968572.87555236     
  -3350473896.3188882        506186.07146883011        171463600.58448985     
  -3187497053.8820462       -1428783.3617798090        167357210.07995534     
  -3024050980.8902550       -1799650.9451892376        167649401.36194152     
  -2860135677.3434792       -606416.67866587639        172340174.43044722     
  -3749669312.1376138        6999090.2889833450        17265763.714060009     
  -3574735645.9138083        4395585.4226546288        9740671.0034015216     
  -3399102924.5467215        4122264.3672881126        7168830.6730601694     
  -3222771148.0363226        6179127.1229434013        9550242.7230348308     
  -3045740316.3826342        10566173.689574718        16884907.153309651     
  -2264926445.9172463       -22605593.490851641        637800717.40119600     
  -2121852917.4290843       -25192539.595389366        625201382.43202794     
  -1978394433.3677640       -26496300.456071019        615660975.66136825     
  -1834550993.7332621       -26516876.072809100        609179497.08921707     
  -1690322598.5256021       -25254266.445697665        605756946.71557176     
  -2469728742.1107931       -17192300.268911362        482798079.55439138     
  -2318982207.5310221       -18254787.242117047        472455775.00381994     
  -2168104671.5691953       -18880602.941778302        464605056.37181854     
  -2017096134.2253096       -19069747.367923141        459245923.65838939     
  -1865956595.4993658       -18822220.520537853        456378376.86353612     
  -2668131819.2528653       -9859241.3315092325        327644565.23081172     
  -2511333256.5241656       -9883562.5561950207        319263011.20920449     
  -2354657646.6045070       -10317726.477663040        312805700.82624036     
  -2198104989.4939060       -11161733.095991731        308272634.08191001     
  -2041675285.1923475       -12415582.411133170        305663810.97621483     
  -2860135677.3434792       -606416.67866587639        172340174.43044722     
  -2698906064.4085164       -78865.537607431412        165623091.04818976     
  -2538053358.4737091       -807671.06372821331        160262909.02462524     
  -2377577559.5390539       -2792833.2570240498        156259628.35977167     
  -2217478667.6045456       -6034352.1174786091        153613249.05361405     
  -3045740316.3826342        10566173.689574718        16884907.153309651     
  -2881700631.1840844        11159303.813548326        11536014.520765385     
  -2718291807.1767797        9649563.3000726700        6976680.9669894120     
  -2555513844.3607626        6036952.1489516497        3206906.4919828549     
  -2393366742.7359867        321470.36036300659        226691.09572825974     
  -1690322598.5256021       -25254266.445697665        605756946.71557176     
  -1550114014.0781066       -26336585.567451000        592407339.56397343     
  -1411041364.6680555       -31205354.814027548        577786838.93863761     
  -1273104650.2954397       -39860574.185388625        561895444.83956671     
  -1136303870.9602761       -52302243.681580245        544733157.26674819     
  -1865956595.4993658       -18822220.520537853        456378376.86353612     
  -1728746288.1437244       -22612680.859887362        442744415.83453435     
  -1591574158.7255116       -26530400.990670204        428699936.95114052     
  -1454440207.2447314       -30575380.912886858        414244940.21334910     
  -1317344433.7013834       -34747620.626546085        399379425.62116110     
  -2041675285.1923475       -12415582.411133170        305663810.97621483     
  -1905005038.8732972       -18176719.151510239        293026212.68649501     
  -1767275213.3916650       -20405925.349927306        280838472.16172683     
  -1628485808.7474525       -19103201.006420135        269100589.40190428     
  -1488636824.9406517       -14268546.120940149        257812564.40702516     
  -2217478667.6045456       -6034352.1174786091        153613249.05361405     
  -2078890266.2668307       -13028700.442317963        143252730.11985081     
  -1938144528.6665044       -12831927.891774178        134202444.57039639     
  -1795241454.8036013       -5444034.4659785032        126462392.40521622     
  -1650181044.6780870        9134979.8351855278        120032573.62433493     
  -2393366742.7359867        321470.36036300659        226691.09572825974     
  -2250401970.3243418       -7168624.7323455811       -6576031.8653795831     
  -2104182104.5500529       -3808408.6162638664       -11208145.822850320     
  -1954707145.4131770        10402118.708447456       -13669650.776693719     
  -1801977092.9136806        35462957.241903663       -13960546.726902252     
  -1136303870.9602761       -52302243.681580245        544733157.26674819     
  -951434475.44501877       -40675298.505395770        562908865.47911525     
  -759067806.55055392       -4057442.0651799142        592018172.21062410     
  -559203864.27687550        57551325.639071882        632061077.46127141     
  -351842648.62399215        144151004.60735178        683037581.23105896     
  -1317344433.7013834       -34747620.626546085        399379425.62116110     
  -1117699247.7716475       -14740228.952627182        421227715.32735467     
  -914445681.04408121        17295098.714067459        441574449.94914067     
  -707583733.51864302        61358362.373664260        460419629.48652768     
  -497113405.19536591        117449562.02605772        477763253.93951160     
  -1488636824.9406517       -14268546.120940149        257812564.40702516     
  -1309744858.8922882        3460588.9619194865        278796394.26212633     
  -1131133404.6274347        20254684.766407669        285843515.42927217     
  -952802462.14609313        36113741.292525411        278953927.90847343     
  -774752031.44825327        51037758.540326178        258127631.69973063     
  -1650181044.6780870        9134979.8351855278        120032573.62433493     
  -1527571308.8069260        13927155.238262832        135614902.28341350     
  -1409130977.3006287        4821316.0917954445        124825368.65101272     
  -1294860050.1592007       -18182537.604250789        87663972.727110758     
  -1184758527.3826451       -55084405.849845052        24130714.511725038     
  -1801977092.9136806        35462957.241903663       -13960546.726902252     
  -1771178597.5155594        16659469.876440763       -8316760.6087542772     
  -1748438399.0636749       -29005007.309822440       -41479990.385637425     
  -1733756497.5580189       -101530474.31683600       -113450236.05755234     
  -1727132892.9985631       -200916931.14452726       -224227497.62450221     
  -351842648.62399215        144151004.60735178        683037581.23105896     
  -277822532.44020474        285224095.05976176        786356738.23263824     
  -149007992.05882958        608945266.17079759        905490996.83106625     
   34600972.520158827        1115314517.9405499        1040440357.0263486     
   273004361.29674739        1804331850.3689687        1191204818.8184631     
  -497113405.19536591        117449562.02605772        477763253.93951160     
  -388277955.66064405        223047271.71408159        597048973.06162536     
  -230305629.55752850        492434569.96342605        735487242.57169569     
  -23196426.885995090        925611456.77413166        893078062.46973681     
   233049652.35391942        1522577932.1461411        1069821432.7557422     
  -774752031.44825327        51037758.540326178        258127631.69973063     
  -621565680.58797860        124020757.85633284        386779440.70831591     
  -424900000.78851068        341934853.63631719        537921248.89597118     
  -184754992.04982397        704780045.88036823        711553056.26271236     
   98869345.628057599        1212556334.5884161        907674862.80852652     
  -1184758527.3826451       -55084405.849845052        24130714.511725038     
  -977685707.22223210       -11855446.513551474        155548141.17271280     
  -732791105.75178015        157446117.18954834        312793015.80388921     
  -450074722.97133875        452820285.25929379        495865338.40526247     
  -129536558.88086790        874267057.69576561        704765108.97682881     
  -1727132892.9985631       -200916931.14452726       -224227497.62450221     
  -1456638035.5633371       -184581341.39534479       -96644925.545176834     
  -1153978944.4473355       -61031639.376909554        60102543.295450203     
  -819155619.65049243        169732174.91098034        246014908.89739281     
  -452168061.17286193        507710101.46819460        461092171.26064128     
 </DataArray>
 <DataArray  type="Float64" Name="VM" NumberOfComponents="1" format="ascii">
   6098540980.7592802     
   5872341027.6317739     
   5642164248.1548500     
   5407212623.8574009     
   5166979618.4439287     
   5717592952.9656963     
   5505269429.5608368     
   5290763213.5878201     
   5073820263.8792553     
   4854363246.5762215     
   5362781705.5273733     
   5162428350.8868008     
   4962018689.3560324     
   4761663882.4841890     
   4561578384.9091806     
   5039228885.9093122     
   4848656002.5530567     
   4660319296.5949202     
   4474483965.0924282     
   4291498793.9320898     
   4753225584.6037636     
   4569787698.3752146     
   4390866618.8662319     
   4216644883.6227221     
   4047440556.4543090     
   5166979618.4439287     
   5005954204.6248951     
   4846275351.7922125     
   4687896758.6148481     
   4530823768.3077459     
   4854363246.5762215     
   4705233973.5680399     
   4557441849.4204836     
   4410986674.7833633     
   4265913146.5125551     
   4561578384.9091806     
   4423980408.9580154     
   4287722645.6736102     
   4152853124.8878441     
   4019461877.7440519     
   4291498793.9320898     
   4165331332.7862949     
   4040531249.3179150     
   3917195566.3221879     
   3795464754.2873855     
   4047440556.4543090     
   3932911567.7228284     
   3819814454.1949177     
   3708293678.2110672     
   3598543258.4425063     
   4530823768.3077459     
   4337361163.3428097     
   4143546938.9032512     
   3949365326.3503203     
   3754829096.3974624     
   4265913146.5125551     
   4081456859.1888628     
   3897235661.9935856     
   3713302408.8744764     
   3529758908.9186110     
   4019461877.7440519     
   3845467574.6915808     
   3672500373.2287807     
   3500708816.4178777     
   3330316572.9061308     
   3795464754.2873855     
   3633420727.5617905     
   3473413570.3379006     
   3315708685.4850469     
   3160674581.1266479     
   3598543258.4425063     
   3449891432.5259786     
   3304493910.9918876     
   3162739425.8409534     
   3025142732.0206261     
   3754829096.3974624     
   3578107856.2615108     
   3401963773.0580502     
   3226366204.2483525     
   3051356301.4038320     
   3529758908.9186110     
   3364583764.3056445     
   3200417255.1381960     
   3037310491.9125748     
   2875388830.4818687     
   3330316572.9061308     
   3176189495.8940387     
   3023485823.6975083     
   2872342362.3977103     
   2722973481.7592535     
   3160674581.1266479     
   3017398843.4709578     
   2875937762.3279610     
   2736513365.2560372     
   2599428358.9076080     
   3025142732.0206261     
   2892848540.3270683     
   2762725011.5205479     
   2635071865.8212104     
   2510270811.1650839     
   3051356301.4038320     
   2887350909.5456438     
   2722987752.4975233     
   2558260867.8170123     
   2393168586.2199731     
   2875388830.4818687     
   2713921383.1705551     
   2552522447.6141591     
   2391220554.1553092     
   2230061289.6959262     
   2722973481.7592535     
   2566488185.1999240     
   2410885406.1444931     
   2256303549.9761882     
   2102936625.2610028     
   2599428358.9076080     
   2450466883.3105555     
   2303625496.7951136     
   2159221665.0422645     
   2017684503.9679627     
   2510270811.1650839     
   2371238018.3427691     
   2235939292.6535954     
   2104896692.5614367     
   1978791629.2484782     
   2393168586.2199731     
   2246656913.7334423     
   2102293705.3433101     
   1960079521.4039369     
   1820178805.3986833     
   2230061289.6959262     
   2087037103.7039366     
   1945655643.7505903     
   1805918726.7679720     
   1667903316.0858727     
   2102936625.2610028     
   1962610734.7147856     
   1823244121.6752985     
   1684868916.4919214     
   1547545679.1795316     
   2017684503.9679627     
   1880907249.5774338     
   1744444412.7183764     
   1608423102.2894852     
   1473018289.3752463     
   1978791629.2484782     
   1848149528.4581432     
   1717507830.4079945     
   1587206889.2750630     
   1457743329.0880039     
   1820178805.3986833     
   1779642730.7654221     
   1735610019.8316765     
   1696704104.7508430     
   1681420264.5054104     
   1667903316.0858727     
   1552521590.7531581     
   1428029622.4296763     
   1294780853.8415070     
   1158899805.9862630     
   1547545679.1795316     
   1397637215.5555954     
   1244166364.7109754     
   1084860216.4866283     
   917686845.68237472     
   1473018289.3752463     
   1328709350.8132777     
   1198866954.5856047     
   1087981022.2673578     
   1001968488.4713087     
   1457743329.0880039     
   1348647180.9329615     
   1274548435.4297841     
   1243588985.1552436     
   1262823149.0693371     
   1681420264.5054104     
   1383846658.4960022     
   1129498067.4335320     
   1010117184.8119425     
   1153036961.2210934     
   1158899805.9862630     
   1008442819.7734203     
   985212942.22014582     
   1161484877.3670480     
   1544158649.0151734     
   917686845.68237472     
   963097911.69542873     
   1144914428.5950918     
   1476486646.5807047     
   1957497134.0824120     
   1001968488.4713087     
   1164680368.1022768     
   1425416633.2511537     
   1808759350.6665759     
   2334795563.9873719     
   1262823149.0693371     
   1446661202.9887059     
   1715693619.0938823     
   2110504272.5436957     
   2663543504.5680327     
   4753225584.6037636     
   4569787698.3752146     
   4390866618.8662319     
   4216644883.6227221     
   4047440556.4543090     
   4466181091.0792818     
   4295286537.6442118     
   4128582101.6788764     
   3966436327.6722264     
   3809334062.4312835     
   4186915491.8078384     
   4031908885.8772016     
   3881434573.2331610     
   3735983725.4730139     
   3596191022.5644732     
   3918203043.6581526     
   3782809535.7108526     
   3653005044.5696836     
   3529328399.3483014     
   3412541356.3391256     
   3663960625.4688029     
   3552112311.2384176     
   3447659192.0383816     
   3351079953.2847810     
   3263210890.3198934     
   4047440556.4543090     
   3932911567.7228284     
   3819814454.1949177     
   3708293678.2110672     
   3598543258.4425063     
   3809334062.4312835     
   3705142484.4883595     
   3603157209.4384460     
   3503566008.1686506     
   3406606455.5282626     
   3596191022.5644732     
   3502702381.5638342     
   3412235059.5275955     
   3325008484.7960296     
   3241289521.6728210     
   3412541356.3391256     
   3329937720.2367005     
   3251176396.1367373     
   3176489731.0990939     
   3106152168.2633262     
   3263210890.3198934     
   3191384016.1215286     
   3124180228.0830984     
   3061820492.0000882     
   3004560376.0558248     
   3598543258.4425063     
   3449891432.5259786     
   3304493910.9918876     
   3162739425.8409534     
   3025142732.0206261     
   3406606455.5282626     
   3272812009.3713794     
   3143021856.7134805     
   3017707680.4668126     
   2897469641.3314500     
   3241289521.6728210     
   3122997548.5036855     
   3009508813.2444425     
   2901359108.3804345     
   2799205448.6061993     
   3106152168.2633262     
   3003934704.0095892     
   2907316460.8751140     
   2816864488.7615590     
   2733249305.6926360     
   3004560376.0558248     
   2918782530.5909786     
   2839328707.1984611     
   2766754319.2809153     
   2701692790.7213569     
   3025142732.0206261     
   2892848540.3270683     
   2762725011.5205479     
   2635071865.8212104     
   2510270811.1650839     
   2897469641.3314500     
   2776613737.5728793     
   2659132148.0810285     
   2545457552.9515562     
   2436123499.2518854     
   2799205448.6061993     
   2691558942.5670118     
   2588631770.7722807     
   2490964091.1817126     
   2399198507.3671184     
   2733249305.6926360     
   2640115785.8439078     
   2553072019.4920344     
   2472708378.7930226     
   2399699470.9343934     
   2701692790.7213569     
   2623678644.7737470     
   2553026696.4768300     
   2490305243.0773807     
   2436136335.7462258     
   2510270811.1650839     
   2371238018.3427691     
   2235939292.6535954     
   2104896692.5614367     
   1978791629.2484782     
   2436123499.2518854     
   2311639918.2731953     
   2192229845.1533613     
   2078606712.5251863     
   1971651868.3715043     
   2399198507.3671184     
   2291216378.4047170     
   2189675264.8875971     
   2095394062.1209178     
   2009326793.0953746     
   2399699470.9343934     
   2309448092.0919442     
   2226830283.6692963     
   2152655074.8066196     
   2087808714.7771783     
   2436136335.7462258     
   2363948180.2650571     
   2300271217.9945731     
   2245808914.7954421     
   2201286445.4648218     
   1978791629.2484782     
   1848149528.4581432     
   1717507830.4079945     
   1587206889.2750630     
   1457743329.0880039     
   1971651868.3715043     
   1855477759.6394396     
   1743657703.3832657     
   1637107805.7378845     
   1536952616.2398343     
   2009326793.0953746     
   1912782300.2038894     
   1825022796.1300483     
   1747248812.3196654     
   1680752909.5193849     
   2087808714.7771783     
   2012499711.4181540     
   1949589775.1579223     
   1900162513.8935587     
   1865252058.4733698     
   2201286445.4648218     
   2145797727.9952266     
   2105322523.2484968     
   2080633527.1516786     
   2072414581.2066357     
   1457743329.0880039     
   1348647180.9329615     
   1274548435.4297841     
   1243588985.1552436     
   1262823149.0693371     
   1536952616.2398343     
   1476076461.5572469     
   1447900794.0994415     
   1456396023.8117709     
   1504857700.5442538     
   1680752909.5193849     
   1652294017.7807517     
   1651550328.5465624     
   1680890184.2697363     
   1742919881.6795955     
   1865252058.4733698     
   1854810562.7409208     
   1867320739.6100342     
   1904990166.6824095     
   1970847441.2797735     
   2072414581.2066357     
   2069001297.2549570     
   2084789732.4746723     
   2122410678.1859927     
   2185674297.2987261     
   1262823149.0693371     
   1446661202.9887059     
   1715693619.0938823     
   2110504272.5436957     
   2663543504.5680327     
   1504857700.5442538     
   1613271764.5330405     
   1788868809.5591679     
   2066404080.7858810     
   2476092663.9611492     
   1742919881.6795955     
   1787717411.3571222     
   1884656012.9027677     
   2060648916.5064311     
   2340931840.9393978     
   1970847441.2797735     
   1968958919.9382749     
   2003620080.6735158     
   2093506440.4259281     
   2257279159.3487635     
   2185674297.2987261     
   2156282250.3680849     
   2146501805.4065688     
   2166854630.3943224     
   2228408436.1222820     
   3663960625.4688029     
   3552112311.2384176     
   3447659192.0383816     
   3351079953.2847810     
   3263210890.3198934     
   3394648363.1055593     
   3309633475.8415251     
   3232567802.8364396     
   3164065738.6014862     
   3104941415.4706302     
   3171109355.5178666     
   3109402954.3883629     
   3055878722.0493970     
   3011100396.4986868     
   2975706825.3964696     
   2999698405.3006239     
   2957343620.9430294     
   2922938360.8427610     
   2896836234.7733355     
   2879404352.1944518     
   2885952074.6706581     
   2858531237.9688716     
   2838274624.7187920     
   2825212948.6188679     
   2819408889.8177719     
   3263210890.3198934     
   3191384016.1215286     
   3124180228.0830984     
   3061820492.0000882     
   3004560376.0558248     
   3104941415.4706302     
   3043051308.9846277     
   2986239933.9377313     
   2934723216.9405866     
   2888745627.8475285     
   2975706825.3964696     
   2923615334.5099187     
   2877064463.8186960     
   2836251424.6262665     
   2801394992.9139066     
   2879404352.1944518     
   2836659700.3753042     
   2799900851.7303233     
   2769293158.8239279     
   2745016805.9302864     
   2819408889.8177719     
   2785168448.2886157     
   2757323703.7334099     
   2735998904.7184491     
   2721327901.8960886     
   3004560376.0558248     
   2918782530.5909786     
   2839328707.1984611     
   2766754319.2809153     
   2701692790.7213569     
   2888745627.8475285     
   2818075994.7184405     
   2754662783.8790374     
   2699026868.3287339     
   2651741787.7971005     
   2801394992.9139066     
   2745445803.3091240     
   2697558850.9821963     
   2658178653.0312090     
   2627777321.0055141     
   2745016805.9302864     
   2702752926.0251269     
   2669198149.1177316     
   2644692398.5552115     
   2629584126.2293220     
   2721327901.8960886     
   2691022117.2877808     
   2669915517.0257025     
   2658235200.5918121     
   2656206443.8987045     
   2701692790.7213569     
   2623678644.7737470     
   2553026696.4768300     
   2490305243.0773807     
   2436136335.7462258     
   2651741787.7971005     
   2588687875.6324039     
   2533564618.3173499     
   2486861331.7506309     
   2449093779.6443572     
   2627777321.0055141     
   2578982300.7716250     
   2538520229.8164883     
   2506777793.8946018     
   2484148053.8988342     
   2629584126.2293220     
   2593872819.1886764     
   2566742128.0276842     
   2548470986.4657922     
   2539333883.0996075     
   2656206443.8987045     
   2631997293.8891091     
   2616501892.8702855     
   2609902098.2774916     
   2612372396.1114378     
   2436136335.7462258     
   2363948180.2650571     
   2300271217.9945731     
   2245808914.7954421     
   2201286445.4648218     
   2449093779.6443572     
   2392885491.9561543     
   2346059845.6040764     
   2309178233.4175968     
   2282786091.8662567     
   2484148053.8988342     
   2442706029.4984446     
   2411245704.7610388     
   2390169449.5731173     
   2379845889.0346260     
   2539333883.0996075     
   2510866795.0755086     
   2492782155.8181729     
   2485336928.0790186     
   2488753430.9215918     
   2612372396.1114378     
   2594693440.1224709     
   2587697493.1753263     
   2591526168.4925222     
   2606295632.8145671     
   2201286445.4648218     
   2145797727.9952266     
   2105322523.2484968     
   2080633527.1516786     
   2072414581.2066357     
   2282786091.8662567     
   2242202340.8130989     
   2215556791.9082003     
   2203300499.2618079     
   2205822607.6127677     
   2379845889.0346260     
   2351208393.9967508     
   2335412810.2513785     
   2332708986.5506015     
   2343317434.2567239     
   2488753430.9215918     
   2469415086.1770062     
   2461917098.3618889     
   2466395197.8738194     
   2482982515.1936259     
   2606295632.8145671     
   2593990799.4443827     
   2592678597.4225817     
   2602437864.4956427     
   2623363043.1994238     
   2072414581.2066357     
   2069001297.2549570     
   2084789732.4746723     
   2122410678.1859927     
   2185674297.2987261     
   2205822607.6127677     
   2191542725.8716488     
   2192240168.2159109     
   2209884528.7864232     
   2247395576.0475240     
   2343317434.2567239     
   2318981468.9541001     
   2306180427.1766448     
   2306320595.7685275     
   2321491479.0475764     
   2482982515.1936259     
   2450349316.8825002     
   2426293739.4352202     
   2411761970.8994203     
   2408132445.8732963     
   2623363043.1994238     
   2584869664.9338212     
   2552297751.7237406     
   2526229511.2806683     
   2507475359.0955811     
   2185674297.2987261     
   2156282250.3680849     
   2146501805.4065688     
   2166854630.3943224     
   2228408436.1222820     
   2247395576.0475240     
   2182661192.8422699     
   2134374323.7485874     
   2112199767.2157373     
   2127068388.2105594     
   2321491479.0475764     
   2224753581.5163960     
   2141348478.2759438     
   2079639527.7715201     
   2049794974.2297361     
   2408132445.8732963     
   2282852726.4387727     
   2168070924.2046394     
   2070525391.3824813     
   1998981379.6282609     
   2507475359.0955811     
   2357167262.7009544     
   2215012004.3695674     
   2085988898.1365495     
   1976971811.2898376     
   2885952074.6706581     
   2858531237.9688716     
   2838274624.7187920     
   2825212948.6188679     
   2819408889.8177719     
   2770804590.1554737     
   2746585411.6648555     
   2731002767.9718776     
   2724212786.0252843     
   2726373534.3036604     
   2689327353.9022293     
   2667705173.5849791     
   2656842094.2285571     
   2656864070.6186614     
   2667895660.5790586     
   2649720776.2917452     
   2628561182.0289202     
   2620885514.0597601     
   2626663925.2742777     
   2645887911.6128278     
   2659414965.7227039     
   2634903668.2080698     
   2627129895.9672742     
   2635852983.5007515     
   2660894672.3109188     
   2819408889.8177719     
   2785168448.2886157     
   2757323703.7334099     
   2735998904.7184491     
   2721327901.8960886     
   2726373534.3036604     
   2700189238.6601548     
   2680561184.3209653     
   2667566409.8567386     
   2661287264.6743274     
   2667895660.5790586     
   2648044869.2740183     
   2634859613.9212341     
   2628375797.1659207     
   2628632228.2664404     
   2645887911.6128278     
   2630326948.5663066     
   2621500521.9705439     
   2619415410.3659196     
   2624080220.2929397     
   2660894672.3109188     
   2647383052.9315238     
   2640648685.3413439     
   2640684947.2909560     
   2647486570.4535522     
   2721327901.8960886     
   2691022117.2877808     
   2669915517.0257025     
   2658235200.5918121     
   2656206443.8987045     
   2661287264.6743274     
   2640725886.5309381     
   2629403566.9217062     
   2627453721.1390290     
   2635006052.3414493     
   2628632228.2664404     
   2615506210.5700927     
   2611626781.9473758     
   2617054938.6763296     
   2631849235.2500625     
   2624080220.2929397     
   2615765029.6081414     
   2616710344.8393021     
   2626931720.5601807     
   2646444220.8653755     
   2647486570.4535522     
   2641186880.6972537     
   2644199650.6096621     
   2656524094.6509538     
   2678159690.3002810     
   2656206443.8987045     
   2631997293.8891091     
   2616501892.8702855     
   2609902098.2774916     
   2612372396.1114378     
   2635006052.3414493     
   2619171934.3053355     
   2612053553.7128577     
   2613750939.6753993     
   2624357468.1341667     
   2631849235.2500625     
   2622171567.9946671     
   2621202389.9951406     
   2628983616.7494287     
   2645553320.2721128     
   2646444220.8653755     
   2640537735.8809557     
   2643359616.9441023     
   2654918898.0444217     
   2675223616.5778198     
   2678159690.3002810     
   2673567506.7497673     
   2677776188.1326685     
   2690786803.0669999     
   2712601039.5344629     
   2612372396.1114378     
   2594693440.1224709     
   2587697493.1753263     
   2591526168.4925222     
   2606295632.8145671     
   2624357468.1341667     
   2613680458.6100302     
   2613301791.9560094     
   2623298542.4360881     
   2643732501.8689990     
   2645553320.2721128     
   2640306660.7060204     
   2645083445.4563251     
   2659918186.4077959     
   2684838316.9931140     
   2675223616.5778198     
   2673853081.5800695     
   2682363825.2046604     
   2700765323.8335862     
   2729065492.9823298     
   2712601039.5344629     
   2713597386.1819644     
   2724480294.6910396     
   2745248054.7843413     
   2775899926.0606747     
   2606295632.8145671     
   2593990799.4443827     
   2592678597.4225817     
   2602437864.4956427     
   2623363043.1994238     
   2643732501.8689990     
   2633005874.9926448     
   2632482002.9317446     
   2642200059.5238814     
   2662209988.2183661     
   2684838316.9931140     
   2675352411.9584751     
   2675454922.7509847     
   2685160915.1500940     
   2704491255.6800146     
   2729065492.9823298     
   2720625134.2277484     
   2721316389.7905617     
   2731142218.9308300     
   2750107531.6133542     
   2775899926.0606747     
   2768439765.9340100     
   2769795941.7655616     
   2779968372.6095896     
   2798957034.0863981     
   2623363043.1994238     
   2584869664.9338212     
   2552297751.7237406     
   2526229511.2806683     
   2507475359.0955811     
   2662209988.2183661     
   2616776328.1666551     
   2577027947.3563762     
   2543295832.5803833     
   2516042715.1019268     
   2704491255.6800146     
   2654226941.1728182     
   2609555210.6215391     
   2570623242.4176908     
   2537637023.3896408     
   2750107531.6133542     
   2697128653.5059180     
   2649792516.9151816     
   2608135480.9501996     
   2572208189.4889073     
   2798957034.0863981     
   2745380045.5734706     
   2697638283.0665169     
   2655731736.5118656     
   2619660403.0772381     
   2507475359.0955811     
   2357167262.7009544     
   2215012004.3695674     
   2085988898.1365495     
   1976971811.2898376     
   2516042715.1019268     
   2348198957.4589691     
   2183903108.5991330     
   2026255314.3125205     
   1879820377.4576793     
   2537637023.3896408     
   2357339660.1870008     
   2176780384.8386483     
   1997431589.2756660     
   1821572671.8849945     
   2572208189.4889073     
   2384693641.4912705     
   2194110888.0934625     
   2000838969.9125149     
   1805483375.5156252     
   2619660403.0772381     
   2430230217.9410710     
   2236037259.7915840     
   2037081527.0708411     
   1833363020.1844797     
   2659414965.7227039     
   2634903668.2080698     
   2627129895.9672742     
   2635852983.5007515     
   2660894672.3109188     
   2610617145.9630771     
   2597762199.0514698     
   2598319052.5597410     
   2612284251.0401692     
   2639661428.0619984     
   2632237719.1568208     
   2623162959.1250134     
   2624352831.7251010     
   2635942224.3076844     
   2658059389.4527054     
   2714378018.2705684     
   2703546191.8387833     
   2700019260.4202127     
   2703902299.3388343     
   2715327724.4183984     
   2844449543.4541645     
   2828966741.3262582     
   2817974031.0263033     
   2811364869.0053945     
   2809133404.7592950     
   2660894672.3109188     
   2647383052.9315238     
   2640648685.3413439     
   2640684947.2909560     
   2647486570.4535522     
   2639661428.0619984     
   2625323711.9878793     
   2617692990.3389215     
   2616776947.3675947     
   2622583301.2527499     
   2658059389.4527054     
   2640279522.4428654     
   2629057134.2672200     
   2624429292.6251178     
   2626434644.4100676     
   2715327724.4183984     
   2691727279.3716130     
   2674445694.5653820     
   2663559297.4322314     
   2659150979.7027102     
   2809133404.7592950     
   2777730962.9294591     
   2752314670.6548557     
   2733001936.9855371     
   2719925319.5674701     
   2647486570.4535522     
   2641186880.6972537     
   2644199650.6096621     
   2656524094.6509538     
   2678159690.3002810     
   2622583301.2527499     
   2614689535.6642370     
   2616048633.3560834     
   2626675130.7123737     
   2646582537.2267461     
   2626434644.4100676     
   2613918905.9017010     
   2610610011.1836052     
   2616569033.5632386     
   2631854273.3174443     
   2659150979.7027102     
   2639178040.0647931     
   2628346764.9104319     
   2626793010.7935977     
   2634649678.6170468     
   2719925319.5674701     
   2690014771.0395255     
   2669121395.6642423     
   2657476832.3887267     
   2655313773.7936316     
   2678159690.3002810     
   2673567506.7497673     
   2677776188.1326685     
   2690786803.0669999     
   2712601039.5344629     
   2646582537.2267461     
   2639816860.1938038     
   2641807582.5784478     
   2652567158.2340074     
   2672107356.5961466     
   2631854273.3174443     
   2620958769.2650232     
   2618846623.3292694     
   2625560734.7653637     
   2641140460.9722114     
   2634649678.6170468     
   2617714641.5365443     
   2609638896.5493789     
   2610515692.8064632     
   2620431325.9949036     
   2655313773.7936316     
   2630550080.6280069     
   2614740498.7092209     
   2608048099.3399682     
   2610626578.9478912     
   2712601039.5344629     
   2713597386.1819644     
   2724480294.6910396     
   2745248054.7843413     
   2775899926.0606747     
   2672107356.5961466     
   2671706327.5542517     
   2681183061.6614780     
   2700542971.7994061     
   2729789997.2019792     
   2641140460.9722114     
   2637310221.2097096     
   2643469213.5809350     
   2659650301.8256602     
   2685879124.5730524     
   2620431325.9949036     
   2611111600.4480896     
   2611994949.9475007     
   2623165551.6436353     
   2644691855.1811481     
   2610626578.9478912     
   2593777181.8958073     
   2587417054.8469262     
   2591709552.1312895     
   2606792378.1771560     
   2775899926.0606747     
   2768439765.9340100     
   2769795941.7655616     
   2779968372.6095896     
   2798957034.0863981     
   2729789997.2019792     
   2721083709.2359266     
   2721521468.1776972     
   2731106996.5231481     
   2749845124.8016787     
   2685879124.5730524     
   2675994661.8296704     
   2675727349.4416742     
   2685092593.2110419     
   2704111356.8901749     
   2644691855.1811481     
   2633562709.0797129     
   2632686150.8770928     
   2642100132.5083785     
   2661855193.1787620     
   2606792378.1771560     
   2594202202.1104202     
   2592682166.9970088     
   2602307153.8432684     
   2623172945.6538372     
   2798957034.0863981     
   2745380045.5734706     
   2697638283.0665169     
   2655731736.5118656     
   2619660403.0772381     
   2749845124.8016787     
   2696966566.0974269     
   2649723830.7234125     
   2608153682.3801885     
   2572307896.6377673     
   2704111356.8901749     
   2653998837.9144082     
   2609464817.5488091     
   2570656568.8754997     
   2537780367.0743484     
   2661855193.1787620     
   2616577039.3251019     
   2576962460.0820422     
   2543341483.3345890     
   2516174277.0325971     
   2623172945.6538372     
   2584792384.1783323     
   2552303206.8581133     
   2526284907.3378334     
   2507540617.3164277     
   2619660403.0772381     
   2430230217.9410710     
   2236037259.7915840     
   2037081527.0708411     
   1833363020.1844797     
   2572307896.6377673     
   2384746271.9989095     
   2194120751.3197498     
   2000809200.2146108     
   1805414646.4567761     
   2537780367.0743484     
   2357411503.7787428     
   2176789669.5814414     
   1997387373.7736132     
   1821484146.1995468     
   2516174277.0325971     
   2348256993.2088361     
   2183901463.1099768     
   2026211535.1958470     
   1879758808.4386940     
   2507540617.3164277     
   2357179147.3183827     
   2214989472.1366096     
   2085959880.5599573     
   1976979756.3185937     
   2844449543.4541645     
   2828966741.3262582     
   2817974031.0263033     
   2811364869.0053945     
   2809133404.7592950     
   2998903870.6783175     
   2957956871.3914452     
   2923380004.5031476     
   2895417544.2110896     
   2874372236.9853849     
   3194231756.1608238     
   3126429623.6592264     
   3066928293.9970398     
   3016204929.6348753     
   2974813477.7781768     
   3430447532.1383524     
   3333862883.0365353     
   3247389357.9426069     
   3171657887.6370935     
   3107447350.7712479     
   3706696013.9546981     
   3578879402.5627947     
   3462750317.5563111     
   3359044897.1868119     
   3268765424.0287471     
   2809133404.7592950     
   2777730962.9294591     
   2752314670.6548557     
   2733001936.9855371     
   2719925319.5674701     
   2874372236.9853849     
   2833366014.0747280     
   2798014578.9864578     
   2768483253.8230834     
   2744955243.2041259     
   2974813477.7781768     
   2923462305.4724159     
   2877421591.7707481     
   2836890953.2083182     
   2802093026.8369284     
   3107447350.7712479     
   3045349675.9821916     
   2988218123.6104913     
   2936270453.5683579     
   2889753724.8729362     
   3268765424.0287471     
   3195781928.3756180     
   3127437502.0842466     
   3063952377.1434603     
   3005582300.1009574     
   2719925319.5674701     
   2690014771.0395255     
   2669121395.6642423     
   2657476832.3887267     
   2655313773.7936316     
   2744955243.2041259     
   2702685656.3455720     
   2669005096.1165180     
   2644253297.4399581     
   2628780714.0462227     
   2802093026.8369284     
   2745935356.6095877     
   2697801473.6359363     
   2658131990.7421861     
   2627395665.4763713     
   2889753724.8729362     
   2818808845.4673734     
   2755183634.9846959     
   2699394358.1750064     
   2652008209.8223662     
   3005582300.1009574     
   2919533081.3200684     
   2839989935.0204606     
   2767507372.1801310     
   2702713940.3446693     
   2655313773.7936316     
   2630550080.6280069     
   2614740498.7092209     
   2608048099.3399682     
   2610626578.9478912     
   2628780714.0462227     
   2593209639.7902942     
   2566386256.6558628     
   2548578278.1170421     
   2540046655.9404635     
   2627395665.4763713     
   2579060124.5348158     
   2539132568.2667265     
   2507998666.6059704     
   2486048868.7496634     
   2652008209.8223662     
   2589428827.2968578     
   2534738008.3715887     
   2488434405.3926716     
   2451043651.6666579     
   2702713940.3446693     
   2624973759.6797533     
   2554408593.8346276     
   2491603300.4339900     
   2437200312.8106308     
   2610626578.9478912     
   2593777181.8958073     
   2587417054.8469262     
   2591709552.1312895     
   2606792378.1771560     
   2540046655.9404635     
   2511563841.5979085     
   2493318507.5992327     
   2485582852.1354203     
   2488596114.5375357     
   2486048868.7496634     
   2444099616.8754849     
   2412060196.4504485     
   2390338370.3787618     
   2379310281.2575779     
   2451043651.6666579     
   2394134569.9803352     
   2346641835.6168699     
   2309120783.4539642     
   2282111089.7116594     
   2437200312.8106308     
   2364339466.7062278     
   2300166967.7952185     
   2245370477.8164454     
   2200655250.5726671     
   2606792378.1771560     
   2594202202.1104202     
   2592682166.9970088     
   2602307153.8432684     
   2623172945.6538372     
   2488596114.5375357     
   2469240402.2394853     
   2461770676.9474025     
   2466319330.6621718     
   2483019259.0753956     
   2379310281.2575779     
   2350834404.9189415     
   2335209881.5364046     
   2332684680.8797159     
   2343478255.8306403     
   2282111089.7116594     
   2241794524.2989988     
   2215382417.5231056     
   2203325809.6349244     
   2206012508.9132419     
   2200655250.5726671     
   2145488346.0801802     
   2105248061.2621799     
   2080708268.5752516     
   2072551020.0022187     
   2623172945.6538372     
   2584792384.1783323     
   2552303206.8581133     
   2526284907.3378334     
   2507540617.3164277     
   2483019259.0753956     
   2450390455.3158021     
   2426324897.6370831     
   2411767352.2356000     
   2408091002.2241158     
   2343478255.8306403     
   2319073891.9331236     
   2306206016.9518967     
   2306280666.6504431     
   2321385581.2312999     
   2206012508.9132419     
   2191623438.2308106     
   2192230136.7704382     
   2209803177.4208965     
   2247265646.2720203     
   2072551020.0022187     
   2069013495.4685853     
   2084715721.6607192     
   2122290952.3718286     
   2185559234.5503330     
   2507540617.3164277     
   2357179147.3183827     
   2214989472.1366096     
   2085959880.5599573     
   1976979756.3185937     
   2408091002.2241158     
   2282818565.9449158     
   2168050929.5836954     
   2070532314.2583022     
   1999037401.6953292     
   2321385581.2312999     
   2224697695.9850116     
   2141337269.8349168     
   2079668844.2725406     
   2049862644.0081797     
   2247265646.2720203     
   2182606696.1167336     
   2134377707.7230892     
   2112239009.1577594     
   2127115997.7400951     
   2185559234.5503330     
   2156251067.9293666     
   2146525050.6997747     
   2166892406.9717669     
   2228408820.3354197     
   3706696013.9546981     
   3578879402.5627947     
   3462750317.5563111     
   3359044897.1868119     
   3268765424.0287471     
   3931136849.9215837     
   3790369896.5585127     
   3657225887.2692108     
   3532472385.6559963     
   3417093304.8886075     
   4181310996.1757593     
   4028788951.6108942     
   3880557660.5418916     
   3737209963.2107868     
   3599496306.9002190     
   4445697883.4014187     
   4284402886.1576281     
   4124698206.8352933     
   3966886039.3298984     
   3811375075.4123607     
   4715505695.7179403     
   4549587058.9786110     
   4383097890.6514149     
   4216010340.6771727     
   4048377966.0494471     
   3268765424.0287471     
   3195781928.3756180     
   3127437502.0842466     
   3063952377.1434603     
   3005582300.1009574     
   3417093304.8886075     
   3333158213.5046077     
   3253201158.8659911     
   3177446261.2878327     
   3106160810.2585154     
   3599496306.9002190     
   3504620639.7489915     
   3413041748.6161785     
   3324969011.0609570     
   3240659353.9101653     
   3811375075.4123607     
   3705768511.0465693     
   3602794326.3259745     
   3502633622.9148102     
   3405515881.5130348     
   4048377966.0494471     
   3932359143.2962151     
   3818350817.8907928     
   3706498041.3734174     
   3596992128.0599484     
   3005582300.1009574     
   2919533081.3200684     
   2839989935.0204606     
   2767507372.1801310     
   2702713940.3446693     
   3106160810.2585154     
   3004026139.0917015     
   2907596359.3068666     
   2817442584.0929909     
   2734237978.0996275     
   3240659353.9101653     
   3122674291.3688660     
   3009506267.9511600     
   2901696696.5305982     
   2799908567.1576576     
   3405515881.5130348     
   3272191833.2545934     
   3142784330.1616397     
   3017768334.4104271     
   2897748020.4053307     
   3596992128.0599484     
   3448974872.6658382     
   3304019774.4970503     
   3162513261.8994145     
   3024967307.5532541     
   2702713940.3446693     
   2624973759.6797533     
   2554408593.8346276     
   2491603300.4339900     
   2437200312.8106308     
   2734237978.0996275     
   2641056094.8861489     
   2553825481.6473422     
   2473142298.2591887     
   2399689565.1427617     
   2799908567.1576576     
   2692073315.3618236     
   2588884469.6439552     
   2490880277.0550904     
   2398702104.2797503     
   2897748020.4053307     
   2776678488.3772721     
   2658990648.8902788     
   2545112019.7209377     
   2435569937.3833871     
   3024967307.5532541     
   2892483900.9893522     
   2762267228.4006176     
   2634612452.9564018     
   2509894833.8728771     
   2437200312.8106308     
   2364339466.7062278     
   2300166967.7952185     
   2245370477.8164454     
   2200655250.5726671     
   2399689565.1427617     
   2309152136.5554485     
   2226384861.4959264     
   2152190154.0270061     
   2087444932.1672478     
   2398702104.2797503     
   2290676657.5015035     
   2189170709.3360176     
   2095003964.9346166     
   2009130457.9661899     
   2435569937.3833871     
   2311195792.9875093     
   2191900002.7059422     
   2078400123.7295678     
   1971582082.7298663     
   2509894833.8728771     
   2371090447.3259583     
   2235943148.9749928     
   2104978126.0136411     
   1978879693.9834974     
   2200655250.5726671     
   2145488346.0801802     
   2105248061.2621799     
   2080708268.5752516     
   2072551020.0022187     
   2087444932.1672478     
   2012324981.2705264     
   1949544502.4488585     
   1900185805.9906585     
   1865280960.3847201     
   2009130457.9661899     
   1912672015.4675748     
   1824969829.6923802     
   1747222784.8595710     
   1680721872.4330645     
   1971582082.7298663     
   1855399874.2318265     
   1743577566.0418968     
   1637031965.8495171     
   1536888541.3908389     
   1978879693.9834974     
   1848123840.5251458     
   1717408615.9920506     
   1587078166.4473119     
   1457632809.6525364     
   2072551020.0022187     
   2069013495.4685853     
   2084715721.6607192     
   2122290952.3718286     
   2185559234.5503330     
   1865280960.3847201     
   1854782475.3048999     
   1867260822.9000704     
   1904924899.7531407     
   1970808935.6155484     
   1680721872.4330645     
   1652256557.8894358     
   1651518154.1473274     
   1680875208.1974926     
   1742935607.9828436     
   1536888541.3908389     
   1476048704.7443171     
   1447905778.4735296     
   1456428160.5860665     
   1504908356.2340937     
   1457632809.6525364     
   1348622012.3450990     
   1274588981.9121237     
   1243667020.3559878     
   1262898350.9787481     
   2185559234.5503330     
   2156251067.9293666     
   2146525050.6997747     
   2166892406.9717669     
   2228408820.3354197     
   1970808935.6155484     
   1968951759.2941856     
   2003631868.1936011     
   2093517515.8881197     
   2257260338.0037599     
   1742935607.9828436     
   1787723278.2381582     
   1884654634.8618836     
   2060639209.4186001     
   2340906755.2388096     
   1504908356.2340937     
   1613281511.3162391     
   1788852968.8787823     
   2066378779.2162676     
   2476072617.3645329     
   1262898350.9787481     
   1446668788.5028276     
   1715662340.4100883     
   2110469413.1470029     
   2663542960.8501859     
   4715505695.7179403     
   4549587058.9786110     
   4383097890.6514149     
   4216010340.6771727     
   4048377966.0494471     
   5024221350.1561279     
   4838718617.4561491     
   4654418986.0970907     
   4471497686.4281168     
   4290196688.0498662     
   5374164244.7608414     
   5165020782.9053125     
   4958996274.6746473     
   4756199411.7198124     
   4556889161.6194630     
   5766337582.3377647     
   5528474641.8357611     
   5295491302.1232719     
   5067253333.6326694     
   4843946355.3879070     
   6201317755.4151764     
   5928754197.7198372     
   5662499212.3515320     
   5402080125.3412476     
   5147588356.1872673     
   4048377966.0494471     
   3932359143.2962151     
   3818350817.8907928     
   3706498041.3734174     
   3596992128.0599484     
   4290196688.0498662     
   4164474485.0147228     
   4039988784.5031667     
   3916844329.1113071     
   3795187241.7598186     
   4556889161.6194630     
   4421996690.8460455     
   4287656778.2688146     
   4153933381.1465240     
   4020925816.2118621     
   4843946355.3879070     
   4700471256.7366199     
   4556958679.9337053     
   4413435364.3544264     
   4269957453.7213240     
   5147588356.1872673     
   4996136493.6501627     
   4844147714.5489454     
   4691617288.9249468     
   4538564797.8760424     
   3596992128.0599484     
   3448974872.6658382     
   3304019774.4970503     
   3162513261.8994145     
   3024967307.5532541     
   3795187241.7598186     
   3633126868.8525963     
   3473095437.9049129     
   3315356976.4133134     
   3160280220.1374803     
   4020925816.2118621     
   3846169297.8226533     
   3672597574.7935886     
   3500361435.6022282     
   3329690746.3088655     
   4269957453.7213240     
   4083789852.4545321     
   3898156505.8522077     
   3713115734.1273813     
   3528780465.7895494     
   4538564797.8760424     
   4342155048.6071415     
   4145807154.7299037     
   3949511463.0616655     
   3753292891.7832685     
   3024967307.5532541     
   2892483900.9893522     
   2762267228.4006176     
   2634612452.9564018     
   2509894833.8728771     
   3160280220.1374803     
   3016997568.4012465     
   2875589710.7136607     
   2736277278.9801402     
   2599360935.6039405     
   3329690746.3088655     
   3175694015.4878640     
   3023142980.2144547     
   2872175750.8902321     
   2723007847.4758034     
   3528780465.7895494     
   3363862489.5102267     
   3199939151.6823483     
   3037065080.4505043     
   2875368747.4382119     
   3753292891.7832685     
   3576975252.5350008     
   3401188595.4753890     
   3225907560.4002414     
   3051177287.5940843     
   2509894833.8728771     
   2371090447.3259583     
   2235943148.9749928     
   2104978126.0136411     
   1978879693.9834974     
   2599360935.6039405     
   2450575966.4391866     
   2303838708.7264342     
   2159466464.5382700     
   2017887636.7024140     
   2723007847.4758034     
   2566682314.1502862     
   2411175355.3100877     
   2256623920.5249534     
   2103220061.0286341     
   2875368747.4382119     
   2714069661.0271792     
   2552786358.1904950     
   2391546338.2981424     
   2230394157.6429505     
   3051177287.5940843     
   2887365593.3332210     
   2723156222.8652349     
   2558543691.4488888     
   2393527526.3120928     
   1978879693.9834974     
   1848123840.5251458     
   1717408615.9920506     
   1587078166.4473119     
   1457632809.6525364     
   2017887636.7024140     
   1880970846.9997232     
   1744401895.2316880     
   1608308962.3867745     
   1472868271.8949928     
   2103220061.0286341     
   1962738121.5134449     
   1823245989.4153323     
   1684775074.4503813     
   1547386331.8131557     
   2230394157.6429505     
   2087207052.9161503     
   1945695153.3895674     
   1805858901.5425501     
   1667776590.2037466     
   2393527526.3120928     
   2246855104.9374166     
   2102370118.5628760     
   1960071912.5141466     
   1820128344.9014277     
   1457632809.6525364     
   1348622012.3450990     
   1274588981.9121237     
   1243667020.3559878     
   1262898350.9787481     
   1472868271.8949928     
   1328642955.9841342     
   1198870066.7235260     
   1088032386.1695666     
   1002035463.1484524     
   1547386331.8131557     
   1397554416.8414502     
   1244147631.0299411     
   1084892564.9525502     
   917756390.81426966     
   1667776590.2037466     
   1552455151.3851938     
   1428009572.8355508     
   1294798914.4885221     
   1158953068.3189261     
   1820128344.9014277     
   1779625119.0197124     
   1735605492.6252539     
   1696703798.1560693     
   1681421813.4754047     
   1262898350.9787481     
   1446668788.5028276     
   1715662340.4100883     
   2110469413.1470029     
   2663542960.8501859     
   1002035463.1484524     
   1164695936.1351600     
   1425400783.7480028     
   1808737349.2599211     
   2334796165.8575125     
   917756390.81426966     
   963123614.95914817     
   1144912828.3072298     
   1476476958.0194561     
   1957499509.6911097     
   1158953068.3189261     
   1008466492.1436375     
   985223635.02187228     
   1161492028.7884939     
   1544167649.8841965     
   1681421813.4754047     
   1383841450.6764350     
   1129513163.0833294     
   1010164348.7661803     
   1153088793.6711457     
 </DataArray>
 <DataArray  type="Float64" Name="strain" NumberOfComponents="3" format="ascii">
  0.10216934566327263       -2.8054184399528892E-002   2.4996878103566988E-003
   9.8116308972033606E-002  -2.8274497762981854E-002   1.4614851347508617E-003
   9.4063272280794585E-002  -2.8088284947195341E-002   7.8140829236428289E-004
   9.0010235589555676E-002  -2.7495545952168979E-002   4.5945728319746193E-004
   8.5957198898316656E-002  -2.6496280777903336E-002   4.9563210724978823E-004
   9.5501184024343266E-002  -2.6936398468900613E-002   8.1486614939013657E-003
   9.1776466616216190E-002  -2.6776285041854031E-002   7.6460871937570896E-003
   8.8051749208089058E-002  -2.6361586592257680E-002   7.4420256266166662E-003
   8.4327031799961927E-002  -2.5692303120111268E-002   7.5364767924807619E-003
   8.0602314391834851E-002  -2.4768434625415225E-002   7.9294406913489879E-003
   8.9067901710088604E-002  -2.5818612538272112E-002   1.4254032546290263E-002
   8.5611890484858039E-002  -2.5278072320725986E-002   1.4135145464917676E-002
   8.2155879259627473E-002  -2.4634888237319880E-002   1.4255158016334174E-002
   7.8699868034396908E-002  -2.3889060288053661E-002   1.4614070200539342E-002
   7.5243856809166260E-002  -2.3040588472927392E-002   1.5211882017533429E-002
   8.2869498720508666E-002  -2.4700826607643778E-002   2.0815800967523432E-002
   7.9622580577959290E-002  -2.3779859599598011E-002   2.0928659948233327E-002
   7.6375662435409886E-002  -2.2908189882382093E-002   2.1220805461516327E-002
   7.3128744292860398E-002  -2.2085817455995835E-002   2.1692237507373164E-002
   6.9881826150310994E-002  -2.1312742320439365E-002   2.2342956085803362E-002
   7.6905975055603482E-002  -2.3583040677015388E-002   2.7833966757601247E-002
   7.3808536895519750E-002  -2.2281646878470174E-002   2.8026630643703421E-002
   7.0711098735436240E-002  -2.1181491527444460E-002   2.8338967962163869E-002
   6.7613660575352647E-002  -2.0282574623938201E-002   2.8770978712982023E-002
   6.4516222415268998E-002  -1.9584896167951449E-002   2.9322662896158480E-002
   8.5957198898316656E-002  -2.6496280777903336E-002   4.9563210724978823E-004
   8.3358549874097965E-002  -2.5340597906135465E-002   2.9031718208039070E-004
   8.0759900849879329E-002  -2.4278605818603527E-002   2.7775733445500883E-004
   7.8161251825660638E-002  -2.3310304515306968E-002   4.5795256437414222E-004
   7.5562602801442003E-002  -2.2435693996245676E-002   8.3090287183784639E-004
   8.0602314391834851E-002  -2.4768434625415225E-002   7.9294406913489879E-003
   7.8190995482093045E-002  -2.3747801256357892E-002   7.6377546978940725E-003
   7.5779676572351240E-002  -2.2788223161127219E-002   7.5279738558483300E-003
   7.3368357662609462E-002  -2.1889700339723248E-002   7.6000981652119409E-003
   7.0957038752867629E-002  -2.1052232792145964E-002   7.8541276259849746E-003
   7.5243856809166260E-002  -2.3040588472927392E-002   1.5211882017533429E-002
   7.3009018087766331E-002  -2.2155004606580181E-002   1.4866460466201659E-002
   7.0774179366366374E-002  -2.1297840503650911E-002   1.4692094140144385E-002
   6.8539340644966376E-002  -2.0469096164139750E-002   1.4688783039361178E-002
   6.6304501923566461E-002  -1.9668771588046419E-002   1.4856527163852301E-002
   6.9881826150310994E-002  -2.1312742320439365E-002   2.2342956085803362E-002
   6.7812617691117821E-002  -2.0562207956802372E-002   2.1976434487003635E-002
   6.5743409231924607E-002  -1.9807457846174603E-002   2.1770118187343396E-002
   6.3674200772731351E-002  -1.9048491988556140E-002   2.1724007186822228E-002
   6.1604992313538214E-002  -1.8285310383946735E-002   2.1838101485440277E-002
   6.4516222415268998E-002  -1.9584896167951449E-002   2.9322662896158480E-002
   6.2601794292147517E-002  -1.8969411307024731E-002   2.8967676760299849E-002
   6.0687366169026008E-002  -1.8317075188698295E-002   2.8762045997445251E-002
   5.8772938045904471E-002  -1.7627887812972587E-002   2.8705770607595021E-002
   5.6858509922783018E-002  -1.6901849179847106E-002   2.8798850590748881E-002
   7.5562602801442003E-002  -2.2435693996245676E-002   8.3090287183784639E-004
   7.2310304761483146E-002  -2.1592562758316836E-002   5.9285294338973227E-004
   6.9058006721524345E-002  -2.0718699298416049E-002   5.0634617891581746E-004
   6.5805708681565461E-002  -1.9814103616544003E-002   5.7138257841665707E-004
   6.2553410641606688E-002  -1.8878775712700469E-002   7.8796214189191804E-004
   7.0957038752867629E-002  -2.1052232792145964E-002   7.8541276259849746E-003
   6.7862706131144201E-002  -2.0234712678788680E-002   7.6014734847499321E-003
   6.4768373509420801E-002  -1.9396032160043458E-002   7.5132070160117415E-003
   6.1674040887697359E-002  -1.8536191235910320E-002   7.5893282197691536E-003
   5.8579708265973918E-002  -1.7655189906389812E-002   7.8298370960234731E-003
   6.6304501923566461E-002  -1.9668771588046419E-002   1.4856527163852301E-002
   6.3380979228600004E-002  -1.8876862599260441E-002   1.4579696993247404E-002
   6.0457456533633644E-002  -1.8073365021670437E-002   1.4480099003660041E-002
   5.7533933838667263E-002  -1.7258278855276418E-002   1.4557733195090565E-002
   5.4610411143700827E-002  -1.6431604100079267E-002   1.4812599567539442E-002
   6.1604992313538214E-002  -1.8285310383946735E-002   2.1838101485440277E-002
   5.8865124053850568E-002  -1.7519012519732133E-002   2.1527523468880837E-002
   5.6125255794162929E-002  -1.6750697883297520E-002   2.1407022141861156E-002
   5.3385387534475297E-002  -1.5980366474643071E-002   2.1476597504381120E-002
   5.0645519274787686E-002  -1.5208018293768666E-002   2.1736249556440643E-002
   5.6858509922783018E-002  -1.6901849179847106E-002   2.8798850590748881E-002
   5.4315140606895795E-002  -1.6161162440203991E-002   2.8444952911651222E-002
   5.1771771291008656E-002  -1.5428030744924659E-002   2.8293976430615098E-002
   4.9228401975121530E-002  -1.4702454094009318E-002   2.8345921147640077E-002
   4.6685032659234349E-002  -1.3984432487458121E-002   2.8600787062726785E-002
   6.2553410641606688E-002  -1.8878775712700469E-002   7.8796214189191804E-004
   5.9620963106915781E-002  -1.7947278082492746E-002   4.4456182127794452E-004
   5.6688515572224873E-002  -1.7054173221527413E-002   3.1846927306555806E-004
   5.3756068037533994E-002  -1.6199461129804735E-002   4.0968449725484191E-004
   5.0823620502843059E-002  -1.5383141807324696E-002   7.1820749384632343E-004
   5.8579708265973918E-002  -1.7655189906389812E-002   7.8298370960234731E-003
   5.5852097783482157E-002  -1.6775713276567850E-002   7.4470700215522045E-003
   5.3124487300990564E-002  -1.5920446451531067E-002   7.2566692790779763E-003
   5.0396876818498804E-002  -1.5089389431278813E-002   7.2586348686002056E-003
   4.7669266336007099E-002  -1.4282542215811822E-002   7.4529667901187535E-003
   5.4610411143700827E-002  -1.6431604100079267E-002   1.4812599567539442E-002
   5.2062696273003140E-002  -1.5604148470643620E-002   1.4404648703669809E-002
   4.9514981402305383E-002  -1.4786719681534860E-002   1.4164122731390977E-002
   4.6967266531607661E-002  -1.3979317732752898E-002   1.4091021650704055E-002
   4.4419551660909967E-002  -1.3181942624298393E-002   1.4185345461608101E-002
   5.0645519274787686E-002  -1.5208018293768666E-002   2.1736249556440643E-002
   4.8252758575478671E-002  -1.4432583664718834E-002   2.1317297867629717E-002
   4.5859997876169567E-002  -1.3652992911538250E-002   2.1040829630005128E-002
   4.3467237176860532E-002  -1.2869246034227202E-002   2.0906844843566221E-002
   4.1074476477551455E-002  -1.2081343032785241E-002   2.0915343508313450E-002
   4.6685032659234349E-002  -1.3984432487458121E-002   2.8600787062726785E-002
   4.4422284690908698E-002  -1.3261018858794382E-002   2.8185017513432720E-002
   4.2159536722583046E-002  -1.2519266141542015E-002   2.7886789974919474E-002
   3.9896788754257409E-002  -1.1759174335701322E-002   2.7706104447186977E-002
   3.7634040785931744E-002  -1.0980743441271978E-002   2.7642960930235549E-002
   5.0823620502843059E-002  -1.5383141807324696E-002   7.1820749384632343E-004
   4.8089388634960040E-002  -1.4571571371687519E-002   4.9176349976620681E-004
   4.5355156767076799E-002  -1.3731105940491539E-002   3.0068113776504646E-004
   4.2620924899193668E-002  -1.2861745513737338E-002   1.4496040784289788E-004
   3.9886693031310538E-002  -1.1963490091425166E-002   2.4601310000038623E-005
   4.7669266336007099E-002  -1.4282542215811822E-002   7.4529667901187535E-003
   4.4982664925863669E-002  -1.3480080203404854E-002   7.1655983105495258E-003
   4.2296063515720156E-002  -1.2662178792334638E-002   6.9381291143802426E-003
   3.9609462105576657E-002  -1.1828837982600086E-002   6.7705592016112370E-003
   3.6922860695433157E-002  -1.0980057774202079E-002   6.6628885722427311E-003
   4.4419551660909967E-002  -1.3181942624298393E-002   1.4185345461608101E-002
   4.1805118359827420E-002  -1.2388589035122799E-002   1.3823596899654900E-002
   3.9190685058744845E-002  -1.1593251644177738E-002   1.3546285272422826E-002
   3.6576251757662270E-002  -1.0795930451463057E-002   1.3353410579912600E-002
   3.3961818456579779E-002  -9.9966254569786583E-003   1.3244972822123779E-002
   4.1074476477551455E-002  -1.2081343032785241E-002   2.0915343508313450E-002
   3.8556748936851196E-002  -1.1297097866840439E-002   2.0465759267081822E-002
   3.6039021396150887E-002  -1.0524324496020837E-002   2.0125149611893156E-002
   3.3521293855450579E-002  -9.7630229203255828E-003   1.9893514542746994E-002
   3.1003566314750257E-002  -9.0131931397555154E-003   1.9770854059644252E-002
   3.7634040785931744E-002  -1.0980743441271978E-002   2.7642960930235549E-002
   3.5237556656934954E-002  -1.0205606698558189E-002   2.7092085412830924E-002
   3.2841072527938220E-002  -9.4553973478635756E-003   2.6674722132790596E-002
   3.0444588398941458E-002  -8.7301153891885183E-003   2.6390871090114731E-002
   2.8048104269944696E-002  -8.0297608225324835E-003   2.6240532284802498E-002
   3.9886693031310538E-002  -1.1963490091425166E-002   2.4601310000038623E-005
   3.7467589129510315E-002  -1.1131505931533003E-002  -2.7720004405695775E-004
   3.5048485227710202E-002  -1.0460959292040439E-002  -4.8395664334677235E-004
   3.2629381325910062E-002  -9.9518501729471548E-003  -5.9566848786996029E-004
   3.0210277424109866E-002  -9.6041785742519981E-003  -6.1233557762641055E-004
   3.6922860695433157E-002  -1.0980057774202079E-002   6.6628885722427311E-003
   3.4579812746382665E-002  -1.0176798047306646E-002   6.2109295721575197E-003
   3.2236764797332118E-002  -9.4800186820837018E-003   5.8160377228043125E-003
   2.9893716848281487E-002  -8.8897196785305554E-003   5.4782130241834426E-003
   2.7550668899230968E-002  -8.4059010366497322E-003   5.1974554762957981E-003
   3.3961818456579779E-002  -9.9966254569786583E-003   1.3244972822123779E-002
   3.1656848856244341E-002  -9.2220901630811203E-003   1.2697813334738239E-002
   2.9351879255908972E-002  -8.4990780721269366E-003   1.2169743394050553E-002
   2.7046909655573569E-002  -7.8275891841150594E-003   1.1660763000060831E-002
   2.4741940055238137E-002  -7.2076234990471333E-003   1.1170872152768796E-002
   3.1003566314750257E-002  -9.0131931397555154E-003   1.9770854059644252E-002
   2.8698697459095562E-002  -8.2673822788554008E-003   1.9183451243686117E-002
   2.6393828603440857E-002  -7.5181374621701852E-003   1.8577160370391581E-002
   2.4088959747786139E-002  -6.7654586896998999E-003   1.7951981439760598E-002
   2.1784090892131458E-002  -6.0093459614442568E-003   1.7307914451792805E-002
   2.8048104269944696E-002  -8.0297608225324835E-003   2.6240532284802498E-002
   2.5705358554936220E-002  -7.3126743946292372E-003   2.5667843299000404E-002
   2.3362612839927743E-002  -6.5371968522135449E-003   2.5038288651827501E-002
   2.1019867124919239E-002  -5.7033281952841020E-003   2.4351868343283734E-002
   1.8677121409910791E-002  -4.8110684238417134E-003   2.3608582373368603E-002
   3.0210277424109866E-002  -9.6041785742519981E-003  -6.1233557762641055E-004
   2.9603109345598622E-002  -9.1340781554243300E-003  -3.6341914816540033E-004
   2.8995941267087322E-002  -8.2576825759292927E-003  -1.7972642834903629E-003
   2.8388773188576077E-002  -6.9749918357677188E-003  -4.9138709835987449E-003
   2.7781605110064778E-002  -5.2860059349402189E-003  -9.7132392484919894E-003
   2.7550668899230968E-002  -8.4059010366497322E-003   5.1974554762957981E-003
   2.5530434234945554E-002  -7.8704026196423360E-003   5.8750141019474622E-003
   2.3510199570660140E-002  -7.1250642907124129E-003   5.4092011208350943E-003
   2.1489964906374698E-002  -6.1698860498587554E-003   3.8000165329585833E-003
   1.9469730242089311E-002  -5.0048678970830984E-003   1.0474603383190395E-003
   2.4741940055238137E-002  -7.2076234990471333E-003   1.1170872152768796E-002
   2.1848028763199329E-002  -6.6067270838603420E-003   1.2080617725867659E-002
   1.8954117471160492E-002  -5.9924460054946449E-003   1.2386381650223599E-002
   1.6060206179121697E-002  -5.3647802639495701E-003   1.2088163925837545E-002
   1.3166294887082874E-002  -4.7237298592256449E-003   1.1185964552706984E-002
   2.1784090892131458E-002  -6.0093459614442568E-003   1.7307914451792805E-002
   1.8555892930359939E-002  -5.3430515480783480E-003   1.8253391723595788E-002
   1.5327694968588421E-002  -4.8598277202772100E-003   1.9134277304676317E-002
   1.2099497006816961E-002  -4.5596744780404957E-003   1.9950571195034919E-002
   8.8712990450454873E-003  -4.4425918213681359E-003   2.0702273394671136E-002
   1.8677121409910791E-002  -4.8110684238417134E-003   2.3608582373368603E-002
   1.5654026736427407E-002  -4.0793760122963540E-003   2.4393336095131390E-002
   1.2630932062943995E-002  -3.7272094350599139E-003   2.5652888084192804E-002
   9.6078373894605967E-003  -3.7545686921311230E-003   2.7387238340552511E-002
   6.5847427159771987E-003  -4.1614537835110710E-003   2.9596386864210844E-002
   2.7781605110064778E-002  -5.2860059349402189E-003  -9.7132392484919894E-003
   2.3354572527618522E-002  -4.2066893315813036E-003  -4.1871014381671401E-003
   1.8927539945172267E-002  -4.7530064838275377E-003   2.6038421264096279E-003
   1.4500507362725873E-002  -6.9249573916786017E-003   1.0659591445238037E-002
   1.0073474780279756E-002  -1.0722542055134454E-002   1.9980146518317810E-002
   1.9469730242089311E-002  -5.0048678970830984E-003   1.0474603383190395E-003
   1.6234976968179160E-002  -4.6907752084749399E-003   6.7408489179662245E-003
   1.3000223694268898E-002  -6.2883733601244440E-003   1.3553990360433477E-002
   9.7654704203586629E-003  -9.7976623520325545E-003   2.1486884665720962E-002
   6.5307171464483726E-003  -1.5218642184198217E-002   3.0539531833829070E-002
   1.3166294887082874E-002  -4.7237298592256449E-003   1.1185964552706984E-002
   1.0978768030277419E-002  -5.1748610853673549E-003   1.6760546817022048E-002
   8.7912411734719920E-003  -7.8237402364211006E-003   2.3309829052726688E-002
   6.6037143166664744E-003  -1.2670367312385390E-002   3.0833811259821112E-002
   4.4161874598611650E-003  -1.9714742313261979E-002   3.9332493438303251E-002
   8.8712990450454873E-003  -4.4425918213681359E-003   2.0702273394671136E-002
   7.5859457139135222E-003  -5.6589469622608246E-003   2.5871992259001469E-002
   6.3005923827814496E-003  -9.3591071127178821E-003   3.1871358203290172E-002
   5.0152390516494862E-003  -1.5543072272739673E-002   3.8700371227537000E-002
   3.7298857205176061E-003  -2.4210842442325742E-002   4.6359031331740352E-002
   6.5847427159771987E-003  -4.1614537835110710E-003   2.9596386864210844E-002
   6.0565100190873022E-003  -6.1430328391544053E-003   3.4075185243903849E-002
   5.5282773221974890E-003  -1.0894473989014719E-002   3.9238577812123254E-002
   5.0000446253075786E-003  -1.8415777233093081E-002   4.5086564568869114E-002
   4.4718119284177238E-003  -2.8706942571389504E-002   5.1619145514141707E-002
   7.6905975055603482E-002  -2.3583040677015388E-002   2.7833966757601247E-002
   7.3808536895519750E-002  -2.2281646878470174E-002   2.8026630643703421E-002
   7.0711098735436240E-002  -2.1181491527444460E-002   2.8338967962163869E-002
   6.7613660575352647E-002  -2.0282574623938201E-002   2.8770978712982023E-002
   6.4516222415268998E-002  -1.9584896167951449E-002   2.9322662896158480E-002
   7.0933256735137951E-002  -2.1152989014725454E-002   3.4005626153740975E-002
   6.7988226555377423E-002  -2.0215160941199378E-002   3.3828167704102796E-002
   6.5043196375616952E-002  -1.9375270915974088E-002   3.3835851782752613E-002
   6.2098166195856452E-002  -1.8633318939049463E-002   3.4028678389690606E-002
   5.9153136016096008E-002  -1.7989305010425505E-002   3.4406647524916623E-002
   6.4707269778877224E-002  -1.8722937352435493E-002   3.9762069625252153E-002
   6.1980116675369817E-002  -1.8148675003928666E-002   3.9317789239092280E-002
   5.9252963571862396E-002  -1.7569050304503751E-002   3.9124120477150796E-002
   5.6525810468354996E-002  -1.6984063254160728E-002   3.9181063339427058E-002
   5.3798657364847582E-002  -1.6393713852899561E-002   3.9488617825921585E-002
   5.8228014186821379E-002  -1.6292885690145517E-002   4.5103297172134571E-002
   5.5784207255496980E-002  -1.6082189066657968E-002   4.4495495248672107E-002
   5.3340400324172615E-002  -1.5762829693033397E-002   4.4203774045357698E-002
   5.0896593392848223E-002  -1.5334807569271906E-002   4.4228133562191442E-002
   4.8452786461523858E-002  -1.4798122695373561E-002   4.4568573799172923E-002
   5.1495489958970297E-002  -1.3862834027855597E-002   5.0029308794388383E-002
   4.9400498295758877E-002  -1.4015703129387158E-002   4.9361285732842042E-002
   4.7305506632547539E-002  -1.3956609081563043E-002   4.9074812487373720E-002
   4.5210514969336132E-002  -1.3685551884383251E-002   4.9169889057983418E-002
   4.3115523306124753E-002  -1.3202531537847673E-002   4.9646515444671024E-002
   6.4516222415268998E-002  -1.9584896167951449E-002   2.9322662896158480E-002
   6.2601794292147517E-002  -1.8969411307024731E-002   2.8967676760299849E-002
   6.0687366169026008E-002  -1.8317075188698295E-002   2.8762045997445251E-002
   5.8772938045904471E-002  -1.7627887812972587E-002   2.8705770607595021E-002
   5.6858509922783018E-002  -1.6901849179847106E-002   2.8798850590748881E-002
   5.9153136016096008E-002  -1.7989305010425505E-002   3.4406647524916623E-002
   5.7388117068549321E-002  -1.7384259858090875E-002   3.4088748816114137E-002
   5.5623098121002565E-002  -1.6759214210034290E-002   3.3920313085456733E-002
   5.3858079173455843E-002  -1.6114168066255749E-002   3.3901340332945132E-002
   5.2093060225909121E-002  -1.5449121426755197E-002   3.4031830558578835E-002
   5.3798657364847582E-002  -1.6393713852899561E-002   3.9488617825921585E-002
   5.2183155198016945E-002  -1.5799108409157075E-002   3.9190955782497441E-002
   5.0567653031186321E-002  -1.5201353231370229E-002   3.9042864322359927E-002
   4.8952150864355642E-002  -1.4600448319538967E-002   3.9044343445509180E-002
   4.7336648697525047E-002  -1.3996393673663204E-002   3.9195393151945063E-002
   4.8452786461523858E-002  -1.4798122695373561E-002   4.4568573799172923E-002
   4.6986908680550540E-002  -1.4213956960223303E-002   4.4274297659449728E-002
   4.5521030899577208E-002  -1.3643492252706113E-002   4.4129699708154529E-002
   4.4055153118603849E-002  -1.3086728572822073E-002   4.4134779945287264E-002
   4.2589275337630503E-002  -1.2543665920571198E-002   4.4289538370847981E-002
   4.3115523306124753E-002  -1.3202531537847673E-002   4.9646515444671024E-002
   4.1799377516150010E-002  -1.2628805511289448E-002   4.9338774446971129E-002
   4.0483231726175253E-002  -1.2085631274042191E-002   4.9180819242840568E-002
   3.9167085936200510E-002  -1.1573008826105437E-002   4.9172649832279161E-002
   3.7850940146225753E-002  -1.1090938167479303E-002   4.9314266215286895E-002
   5.6858509922783018E-002  -1.6901849179847106E-002   2.8798850590748881E-002
   5.4315140606895795E-002  -1.6161162440203991E-002   2.8444952911651222E-002
   5.1771771291008656E-002  -1.5428030744924659E-002   2.8293976430615098E-002
   4.9228401975121530E-002  -1.4702454094009318E-002   2.8345921147640077E-002
   4.6685032659234349E-002  -1.3984432487458121E-002   2.8600787062726785E-002
   5.2093060225909121E-002  -1.5449121426755197E-002   3.4031830558578835E-002
   4.9751199909854146E-002  -1.4773386587982301E-002   3.3682469278971033E-002
   4.7409339593799060E-002  -1.4096275846387521E-002   3.3533204800965916E-002
   4.5067479277743974E-002  -1.3417789201970180E-002   3.3584037124564051E-002
   4.2725618961688971E-002  -1.2737926654730725E-002   3.3834966249764953E-002
   4.7336648697525047E-002  -1.3996393673663204E-002   3.9195393151945063E-002
   4.5193472984843691E-002  -1.3385610735760972E-002   3.8859499219013147E-002
   4.3050297272162398E-002  -1.2764520947850327E-002   3.8720877691225730E-002
   4.0907121559481049E-002  -1.2133124309930986E-002   3.8779528568582883E-002
   3.8763945846799749E-002  -1.1491420822003412E-002   3.9035451851084577E-002
   4.2589275337630503E-002  -1.2543665920571198E-002   4.4289538370847981E-002
   4.0641959831864589E-002  -1.1997834883539574E-002   4.3976042731777881E-002
   3.8694644326098628E-002  -1.1432766049313217E-002   4.3856995101394340E-002
   3.6747328820332679E-002  -1.0848459417891958E-002   4.3932395479696837E-002
   3.4800013314566766E-002  -1.0244914989276002E-002   4.4202243866685503E-002
   3.7850940146225753E-002  -1.1090938167479303E-002   4.9314266215286895E-002
   3.6096660450916807E-002  -1.0610059031317953E-002   4.9032099817265418E-002
   3.4342380755607818E-002  -1.0101011150776024E-002   4.8941557031471711E-002
   3.2588101060298837E-002  -9.5637945258526050E-003   4.9042637857905885E-002
   3.0833821364989883E-002  -8.9984091565488145E-003   4.9335342296567664E-002
   4.6685032659234349E-002  -1.3984432487458121E-002   2.8600787062726785E-002
   4.4422284690908698E-002  -1.3261018858794382E-002   2.8185017513432720E-002
   4.2159536722583046E-002  -1.2519266141542015E-002   2.7886789974919474E-002
   3.9896788754257409E-002  -1.1759174335701322E-002   2.7706104447186977E-002
   3.7634040785931744E-002  -1.0980743441271978E-002   2.7642960930235549E-002
   4.2725618961688971E-002  -1.2737926654730725E-002   3.3834966249764953E-002
   4.0589147796310204E-002  -1.2050432227798613E-002   3.3441785547868974E-002
   3.8452676630931451E-002  -1.1349049944303524E-002   3.3183616441086028E-002
   3.6316205465552732E-002  -1.0633779804245458E-002   3.3060458929416378E-002
   3.4179734300173931E-002  -9.9046218076246362E-003   3.3072313012859289E-002
   3.8763945846799749E-002  -1.1491420822003412E-002   3.9035451851084577E-002
   3.6771221068700219E-002  -1.0839845596802677E-002   3.8660408764561061E-002
   3.4778496290600598E-002  -1.0178833747064818E-002   3.8437846857482728E-002
   3.2785771512501005E-002  -9.5083852727896514E-003   3.8367766129849823E-002
   3.0793046734401447E-002  -8.8285001739773494E-003   3.8450166581662087E-002
   3.4800013314566766E-002  -1.0244914989276002E-002   4.4202243866685503E-002
   3.2968504508078547E-002  -9.6292589658070471E-003   4.3840887163508646E-002
   3.1136995701590377E-002  -9.0086175498261360E-003   4.3649481224109311E-002
   2.9305486895102179E-002  -8.3829907413338726E-003   4.3628026048487527E-002
   2.7473978088613994E-002  -7.7523785403298129E-003   4.3776521636643452E-002
   3.0833821364989883E-002  -8.9984091565488145E-003   4.9335342296567664E-002
   2.9180998114445356E-002  -8.4186723348109171E-003   4.8983220744712064E-002
   2.7528174863900856E-002  -7.8384013525875929E-003   4.8818519540965943E-002
   2.5875351613356357E-002  -7.2575962098778909E-003   4.8841238685330052E-002
   2.4222528362811802E-002  -6.6762569066826094E-003   4.9051378177803584E-002
   3.7634040785931744E-002  -1.0980743441271978E-002   2.7642960930235549E-002
   3.5237556656934954E-002  -1.0205606698558189E-002   2.7092085412830924E-002
   3.2841072527938220E-002  -9.4553973478635756E-003   2.6674722132790596E-002
   3.0444588398941458E-002  -8.7301153891885183E-003   2.6390871090114731E-002
   2.8048104269944696E-002  -8.0297608225324835E-003   2.6240532284802498E-002
   3.4179734300173931E-002  -9.9046218076246362E-003   3.3072313012859289E-002
   3.1921097484265692E-002  -9.1765115579507950E-003   3.2572936119926232E-002
   2.9662460668357413E-002  -8.4643846587334481E-003   3.2215741615806037E-002
   2.7403823852449168E-002  -7.7682411099733450E-003   3.2000729500498593E-002
   2.5145187036540895E-002  -7.0880809116696808E-003   3.1927899774003843E-002
   3.0793046734401447E-002  -8.8285001739773494E-003   3.8450166581662087E-002
   2.8680927383030241E-002  -8.1474164173433450E-003   3.8011232354763058E-002
   2.6568808031658994E-002  -7.4733719696035567E-003   3.7723150668125260E-002
   2.4456688680287768E-002  -6.8063668307581753E-003   3.7585921521748854E-002
   2.2344569328916555E-002  -6.1464010008068226E-003   3.7599544915633998E-002
   2.7473978088613994E-002  -7.7523785403298129E-003   4.3776521636643452E-002
   2.5517046353228531E-002  -7.1183212767361448E-003   4.3406974117340902E-002
   2.3560114617842989E-002  -6.4823592804736582E-003   4.3196949289748501E-002
   2.1603182882457467E-002  -5.8444925515430037E-003   4.3146447153865772E-002
   1.9646251147071983E-002  -5.2047210899438257E-003   4.3255467709693407E-002
   2.4222528362811802E-002  -6.6762569066826094E-003   4.9051378177803584E-002
   2.2429454394860576E-002  -6.0892261361283895E-003   4.8760161407660207E-002
   2.0636380426909351E-002  -5.4913465913434822E-003   4.8637137480675330E-002
   1.8843306458958098E-002  -4.8826182723278183E-003   4.8682306396849284E-002
   1.7050232491006845E-002  -4.2630411790811618E-003   4.8895668156181515E-002
   2.8048104269944696E-002  -8.0297608225324835E-003   2.6240532284802498E-002
   2.5705358554936220E-002  -7.3126743946292372E-003   2.5667843299000404E-002
   2.3362612839927743E-002  -6.5371968522135449E-003   2.5038288651827501E-002
   2.1019867124919239E-002  -5.7033281952841020E-003   2.4351868343283734E-002
   1.8677121409910791E-002  -4.8110684238417134E-003   2.3608582373368603E-002
   2.5145187036540895E-002  -7.0880809116696808E-003   3.1927899774003843E-002
   2.2784974692433679E-002  -6.4087685802882710E-003   3.1533248711816397E-002
   2.0424762348326519E-002  -5.7151686322943485E-003   3.1160530052802504E-002
   1.8064550004219346E-002  -5.0072810676882948E-003   3.0809743796962274E-002
   1.5704337660112144E-002  -4.2851058864696867E-003   3.0480889944295209E-002
   2.2344569328916555E-002  -6.1464010008068226E-003   3.7599544915633998E-002
   2.0045688420255212E-002  -5.5048627659467497E-003   3.7338828279160463E-002
   1.7746807511593854E-002  -4.8931404123752631E-003   3.7178842110404869E-002
   1.5447926602932448E-002  -4.3112339400922656E-003   3.7119586409367494E-002
   1.3149045694271139E-002  -3.7591433490977155E-003   3.7161061176048199E-002
   1.9646251147071983E-002  -5.2047210899438257E-003   4.3255467709693407E-002
   1.7487499738400993E-002  -4.6009569516052840E-003   4.3084582001032400E-002
   1.5328748329729920E-002  -4.0711121924561777E-003   4.3093224824634541E-002
   1.3169996921058896E-002  -3.6151868124961253E-003   4.3281396180499331E-002
   1.1011245512387854E-002  -3.2331808117256611E-003   4.3649096068626277E-002
   1.7050232491006845E-002  -4.2630411790811618E-003   4.8895668156181515E-002
   1.5110408646870715E-002  -3.6970511372641512E-003   4.8770509877432811E-002
   1.3170584802734586E-002  -3.2490839725370091E-003   4.8903678195491518E-002
   1.1230760958598443E-002  -2.9191396849004916E-003   4.9295173110357471E-002
   9.2909371144623276E-003  -2.7072182743538287E-003   4.9944994622030170E-002
   1.8677121409910791E-002  -4.8110684238417134E-003   2.3608582373368603E-002
   1.5654026736427407E-002  -4.0793760122963540E-003   2.4393336095131390E-002
   1.2630932062943995E-002  -3.7272094350599139E-003   2.5652888084192804E-002
   9.6078373894605967E-003  -3.7545686921311230E-003   2.7387238340552511E-002
   6.5847427159771987E-003  -4.1614537835110710E-003   2.9596386864210844E-002
   1.5704337660112144E-002  -4.2851058864696867E-003   3.0480889944295209E-002
   1.3137423596074893E-002  -3.7738825774983886E-003   3.1256659194456193E-002
   1.0570509532037670E-002  -3.6988506296338208E-003   3.2469991396211095E-002
   8.0035954680004323E-003  -4.0600100428764274E-003   3.4120886549559554E-002
   5.4366814039631950E-003  -4.8573608172259863E-003   3.6209344654502318E-002
   1.3149045694271139E-002  -3.7591433490977155E-003   3.7161061176048199E-002
   1.1001076923975575E-002  -3.4683891426999791E-003   3.7871180427808210E-002
   8.8531081536800185E-003  -3.6704918242080470E-003   3.8981627315457554E-002
   6.7051393833845209E-003  -4.3654513936216173E-003   4.0492401838996363E-002
   4.5571706130889539E-003  -5.5532678509409017E-003   4.2403503998424685E-002
   1.1011245512387854E-002  -3.2331808117256611E-003   4.3649096068626277E-002
   9.2449867201295118E-003  -3.1628957079017916E-003   4.4236899795187121E-002
   7.4787279278711195E-003  -3.6421330187822246E-003   4.5187795841932568E-002
   5.7124691356127280E-003  -4.6708927443669754E-003   4.6501784208862570E-002
   3.9462103433543887E-003  -6.2491748846557060E-003   4.8178864895978391E-002
   9.2909371144623276E-003  -2.7072182743538287E-003   4.9944994622030170E-002
   7.8691529845366093E-003  -2.8574022731036597E-003   5.0353817296592607E-002
   6.4473688546108909E-003  -3.6137742133562079E-003   5.1088496975635556E-002
   5.0255847246851865E-003  -4.9763340951121185E-003   5.2149033659159100E-002
   3.6038005947595098E-003  -6.9450819183707324E-003   5.3535427347162434E-002
   6.5847427159771987E-003  -4.1614537835110710E-003   2.9596386864210844E-002
   6.0565100190873022E-003  -6.1430328391544053E-003   3.4075185243903849E-002
   5.5282773221974890E-003  -1.0894473989014719E-002   3.9238577812123254E-002
   5.0000446253075786E-003  -1.8415777233093081E-002   4.5086564568869114E-002
   4.4718119284177238E-003  -2.8706942571389504E-002   5.1619145514141707E-002
   5.4366814039631950E-003  -4.8573608172259863E-003   3.6209344654502318E-002
   5.4893683365108970E-003  -6.9910610737826673E-003   3.8349834147483719E-002
   5.5420552690586267E-003  -1.1361268933646473E-002   4.0967568710813307E-002
   5.5947422016063841E-003  -1.7967984396817696E-002   4.4062548344491859E-002
   5.6474291341540028E-003  -2.6811207463295794E-002   4.7634773048518930E-002
   4.5571706130889539E-003  -5.5532678509409017E-003   4.2403503998424685E-002
   4.9834280568964301E-003  -7.8390893084110957E-003   4.2739039095604781E-002
   5.4096855007038022E-003  -1.1828063878277978E-002   4.3344470144955738E-002
   5.8359429445112056E-003  -1.7520191560541860E-002   4.4219797146477419E-002
   6.2622003883187616E-003  -2.4915472355202084E-002   4.5365020100169740E-002
   3.9462103433543887E-003  -6.2491748846557060E-003   4.8178864895978391E-002
   4.5386891802436900E-003  -8.6871175430398850E-003   4.7242800088267520E-002
   5.1311680171330209E-003  -1.2294858822909829E-002   4.6369282114550124E-002
   5.7236468540223526E-003  -1.7072398724266361E-002   4.5558310974825530E-002
   6.3161256909117086E-003  -2.3019737247108374E-002   4.4809886669093885E-002
   3.6038005947595098E-003  -6.9450819183707324E-003   5.3535427347162434E-002
   4.1551517065528953E-003  -9.5351457776681192E-003   5.1861117125471923E-002
   4.7065028183463087E-003  -1.2761653767541237E-002   5.0042004619596847E-002
   5.2578539301397220E-003  -1.6624605887990529E-002   4.8078089829536708E-002
   5.8092050419331631E-003  -2.1124002139014664E-002   4.5969372755291449E-002
   5.1495489958970297E-002  -1.3862834027855597E-002   5.0029308794388383E-002
   4.9400498295758877E-002  -1.4015703129387158E-002   4.9361285732842042E-002
   4.7305506632547539E-002  -1.3956609081563043E-002   4.9074812487373720E-002
   4.5210514969336132E-002  -1.3685551884383251E-002   4.9169889057983418E-002
   4.3115523306124753E-002  -1.3202531537847673E-002   4.9646515444671024E-002
   4.4747245165390331E-002  -1.2589396067734016E-002   5.2312125235302043E-002
   4.3003186512909644E-002  -1.2532190914061520E-002   5.2005501979701385E-002
   4.1259127860428957E-002  -1.2346570695833337E-002   5.2019194929484258E-002
   3.9515069207948283E-002  -1.2032535413049494E-002   5.2353204084650551E-002
   3.7771010555467596E-002  -1.1590085065709993E-002   5.3007529445200402E-002
   3.8220827876147653E-002  -1.1315958107612462E-002   5.4846789973819671E-002
   3.6766468623703141E-002  -1.1048678698735825E-002   5.4818018439364707E-002
   3.5312109371258650E-002  -1.0736532310103519E-002   5.5048329499598897E-002
   3.3857750118814131E-002  -1.0379518941715737E-002   5.5537723154521865E-002
   3.2403390866369647E-002  -9.9776385935723133E-003   5.6286199404133791E-002
   3.1916238091242347E-002  -1.0042520147490908E-002   5.7633303009941392E-002
   3.0690344628139507E-002  -9.5651664834101036E-003   5.7798835111832272E-002
   2.9464451165036647E-002  -9.1264939243738130E-003   5.8162216197717456E-002
   2.8238557701933783E-002  -8.7265024703819805E-003   5.8723446267597096E-002
   2.7012664238830926E-002  -8.3651921214346892E-003   5.9482525321471073E-002
   2.5833475810674383E-002  -8.7690821873693259E-003   6.0671664343667553E-002
   2.4774814526218630E-002  -8.0816542680845205E-003   6.0947951997103900E-002
   2.3716153241762905E-002  -7.5164555386440235E-003   6.1360855023840088E-002
   2.2657491957307166E-002  -7.0734859990483137E-003   6.1910373423876119E-002
   2.1598830672851427E-002  -6.7527456492970095E-003   6.2596507197212103E-002
   4.3115523306124753E-002  -1.3202531537847673E-002   4.9646515444671024E-002
   4.1799377516150010E-002  -1.2628805511289448E-002   4.9338774446971129E-002
   4.0483231726175253E-002  -1.2085631274042191E-002   4.9180819242840568E-002
   3.9167085936200510E-002  -1.1573008826105437E-002   4.9172649832279161E-002
   3.7850940146225753E-002  -1.1090938167479303E-002   4.9314266215286895E-002
   3.7771010555467596E-002  -1.1590085065709993E-002   5.3007529445200402E-002
   3.6607341185762213E-002  -1.1093784505566556E-002   5.2653738921630749E-002
   3.5443671816056822E-002  -1.0618198584370846E-002   5.2455115445030662E-002
   3.4280002446351446E-002  -1.0163327302123144E-002   5.2411659015400076E-002
   3.3116333076646048E-002  -9.7291706588230609E-003   5.2523369632738903E-002
   3.2403390866369647E-002  -9.9776385935723133E-003   5.6286199404133791E-002
   3.1397579170333950E-002  -9.5587634998435395E-003   5.5896196505057068E-002
   3.0391767474298226E-002  -9.1507658946997222E-003   5.5666741906350306E-002
   2.9385955778262529E-002  -8.7536457781407402E-003   5.5597835608013201E-002
   2.8380144082226812E-002  -8.3674031501667079E-003   5.5689477610046195E-002
   2.7012664238830926E-002  -8.3651921214346892E-003   5.9482525321471073E-002
   2.6170091469865219E-002  -8.0237424941205851E-003   5.9066147197250257E-002
   2.5327518700899505E-002  -7.6833332050285710E-003   5.8815698626799695E-002
   2.4484945931933781E-002  -7.3439642541584475E-003   5.8731179610119220E-002
   2.3642373162968085E-002  -7.0056356415104659E-003   5.8812590147208958E-002
   2.1598830672851427E-002  -6.7527456492970095E-003   6.2596507197212103E-002
   2.0924878084356030E-002  -6.4887214883975752E-003   6.2163590998210116E-002
   2.0250925495860619E-002  -6.2159005153572672E-003   6.1901985606378690E-002
   1.9576972907365209E-002  -5.9342827301761859E-003   6.1811691021717699E-002
   1.8903020318869812E-002  -5.6438681328541129E-003   6.1892707244227185E-002
   3.7850940146225753E-002  -1.1090938167479303E-002   4.9314266215286895E-002
   3.6096660450916807E-002  -1.0610059031317953E-002   4.9032099817265418E-002
   3.4342380755607818E-002  -1.0101011150776024E-002   4.8941557031471711E-002
   3.2588101060298837E-002  -9.5637945258526050E-003   4.9042637857905885E-002
   3.0833821364989883E-002  -8.9984091565488145E-003   4.9335342296567664E-002
   3.3116333076646048E-002  -9.7291706588230609E-003   5.2523369632738903E-002
   3.1558092067957261E-002  -9.2945999124564305E-003   5.2268892179001075E-002
   2.9999851059268501E-002  -8.8384863210092257E-003   5.2214868486275962E-002
   2.8441610050579720E-002  -8.3608298844811621E-003   5.2361298554563229E-002
   2.6883369041890953E-002  -7.8616306028725380E-003   5.2708182383863267E-002
   2.8380144082226812E-002  -8.3674031501667079E-003   5.5689477610046195E-002
   2.7026771908943037E-002  -7.9791407935948522E-003   5.5456063201291955E-002
   2.5673399735659300E-002  -7.5759614912425249E-003   5.5431932702335041E-002
   2.4320027562375536E-002  -7.1578652431096602E-003   5.5617086113175680E-002
   2.2966655389091789E-002  -6.7248520491963171E-003   5.6011523433813576E-002
   2.3642373162968085E-002  -7.0056356415104659E-003   5.8812590147208958E-002
   2.2502699973874128E-002  -6.6636816747332461E-003   5.8593612884137926E-002
   2.1363026784780186E-002  -6.3134366614758866E-003   5.8592749679649156E-002
   2.0223353595686232E-002  -5.9549006017381324E-003   5.8810000533742551E-002
   1.9083680406592286E-002  -5.5880734955200684E-003   5.9245365446418154E-002
   1.8903020318869812E-002  -5.6438681328541129E-003   6.1892707244227185E-002
   1.7985876262750500E-002  -5.3482225558716956E-003   6.1681541227539216E-002
   1.7068732206631174E-002  -5.0509118317090818E-003   6.1697319418218266E-002
   1.6151588150511861E-002  -4.7519359603666461E-003   6.1940041816264335E-002
   1.5234444094392535E-002  -4.4512949418439307E-003   6.2409708421677590E-002
   3.0833821364989883E-002  -8.9984091565488145E-003   4.9335342296567664E-002
   2.9180998114445356E-002  -8.4186723348109171E-003   4.8983220744712064E-002
   2.7528174863900856E-002  -7.8384013525875929E-003   4.8818519540965943E-002
   2.5875351613356357E-002  -7.2575962098778909E-003   4.8841238685330052E-002
   2.4222528362811802E-002  -6.6762569066826094E-003   4.9051378177803584E-002
   2.6883369041890953E-002  -7.8616306028725380E-003   5.2708182383863267E-002
   2.5420582212795653E-002  -7.3496839995617069E-003   5.2394658555051377E-002
   2.3957795383700367E-002  -6.8337855979278550E-003   5.2273787221027962E-002
   2.2495008554605067E-002  -6.3139353979705243E-003   5.2345568381793425E-002
   2.1032221725509753E-002  -5.7901333996900894E-003   5.2610002037347448E-002
   2.2966655389091789E-002  -6.7248520491963171E-003   5.6011523433813576E-002
   2.1699137128124532E-002  -6.2806956643123024E-003   5.5740014965882767E-002
   2.0431618867157310E-002  -5.8291698432679645E-003   5.5666391139419222E-002
   1.9164100606190060E-002  -5.3702745860631611E-003   5.5790651954423266E-002
   1.7896582345222831E-002  -4.9040098926977360E-003   5.6112797410894588E-002
   1.9083680406592286E-002  -5.5880734955200684E-003   5.9245365446418154E-002
   1.8016662860431947E-002  -5.2117073290630506E-003   5.9019289977205666E-002
   1.6949645314271622E-002  -4.8245540886083169E-003   5.8996331296139348E-002
   1.5882627768111293E-002  -4.4266137741557406E-003   5.9176489403219255E-002
   1.4815610221950961E-002  -4.0178863857054659E-003   5.9559764298445714E-002
   1.5234444094392535E-002  -4.4512949418439307E-003   6.2409708421677590E-002
   1.4373159409717964E-002  -4.1427189938135767E-003   6.2232483589020449E-002
   1.3511874725043380E-002  -3.8199383339484472E-003   6.2263607691188438E-002
   1.2650590040368802E-002  -3.4829529622483479E-003   6.2503080728181615E-002
   1.1789305355694224E-002  -3.1317628787129737E-003   6.2950902700000255E-002
   2.4222528362811802E-002  -6.6762569066826094E-003   4.9051378177803584E-002
   2.2429454394860576E-002  -6.0892261361283895E-003   4.8760161407660207E-002
   2.0636380426909351E-002  -5.4913465913434822E-003   4.8637137480675330E-002
   1.8843306458958098E-002  -4.8826182723278183E-003   4.8682306396849284E-002
   1.7050232491006845E-002  -4.2630411790811618E-003   4.8895668156181515E-002
   2.1032221725509753E-002  -5.7901333996900894E-003   5.2610002037347448E-002
   1.9416438945874637E-002  -5.2633011063777935E-003   5.2389029652362529E-002
   1.7800656166239506E-002  -4.7343600213247267E-003   5.2354446800851079E-002
   1.6184873386604404E-002  -4.2033101445309480E-003   5.2506253482813514E-002
   1.4569090606969259E-002  -3.6701514759966969E-003   5.2844449698249585E-002
   1.7896582345222831E-002  -4.9040098926977360E-003   5.6112797410894588E-002
   1.6476287444218883E-002  -4.4373760766269199E-003   5.5953329428577878E-002
   1.5055992543214942E-002  -3.9773734513057490E-003   5.5998447670049883E-002
   1.3635697642211002E-002  -3.5240020167340777E-003   5.6248152135310564E-002
   1.2215402741207054E-002  -3.0772617729120100E-003   5.6702442824359989E-002
   1.4815610221950961E-002  -4.0178863857054659E-003   5.9559764298445714E-002
   1.3608999889893282E-002  -3.6114510468760741E-003   5.9453060736306754E-002
   1.2402389557835600E-002  -3.2203868812868824E-003   5.9569140088271723E-002
   1.1195779225777924E-002  -2.8446938889373184E-003   5.9908002354340559E-002
   9.9891688937202364E-003  -2.4843720698273786E-003   6.0469647534512790E-002
   1.1789305355694224E-002  -3.1317628787129737E-003   6.2950902700000255E-002
   1.0814576282897864E-002  -2.7855260171253948E-003   6.2888223575548796E-002
   9.8398472101015322E-003  -2.4634003112679326E-003   6.3066524055516604E-002
   8.8651181373051863E-003  -2.1653857611404273E-003   6.3485804139903151E-002
   7.8903890645088404E-003  -1.8914823667429692E-003   6.4146063828708466E-002
   1.7050232491006845E-002  -4.2630411790811618E-003   4.8895668156181515E-002
   1.5110408646870715E-002  -3.6970511372641512E-003   4.8770509877432811E-002
   1.3170584802734586E-002  -3.2490839725370091E-003   4.8903678195491518E-002
   1.1230760958598443E-002  -2.9191396849004916E-003   4.9295173110357471E-002
   9.2909371144623276E-003  -2.7072182743538287E-003   4.9944994622030170E-002
   1.4569090606969259E-002  -3.6701514759966969E-003   5.2844449698249585E-002
   1.2885961532005483E-002  -3.1937809263235528E-003   5.2728259656864507E-002
   1.1202832457041706E-002  -2.8330954061145108E-003   5.2867132557017249E-002
   9.5197033820779431E-003  -2.5880949153689256E-003   5.3261068398707534E-002
   7.8365743071141525E-003  -2.4587794540874564E-003   5.3910067181935528E-002
   1.2215402741207054E-002  -3.0772617729120100E-003   5.6702442824359989E-002
   1.0785704780146059E-002  -2.6905107153834540E-003   5.6597558867965136E-002
   9.3560068190850429E-003  -2.4171068396919987E-003   5.6744474197838499E-002
   7.9263088580240372E-003  -2.2570501458379112E-003   5.7143188813979583E-002
   6.4966108969630315E-003  -2.2103406338209175E-003   5.7793702716388812E-002
   9.9891688937202364E-003  -2.4843720698273786E-003   6.0469647534512790E-002
   8.8096383912924479E-003  -2.1872405044431054E-003   6.0378407510734776E-002
   7.6301078888646370E-003  -2.0011182732695490E-003   6.0535703117955197E-002
   6.4505773864368234E-003  -1.9260053763066210E-003   6.0941534356173749E-002
   5.2710468840090098E-003  -1.9619018135544619E-003   6.1595901225390833E-002
   7.8903890645088404E-003  -1.8914823667429692E-003   6.4146063828708466E-002
   6.9577623654446252E-003  -1.6839702935027567E-003   6.4070805585173307E-002
   6.0251356663804378E-003  -1.5851297068469883E-003   6.4240819317367026E-002
   5.0925089673162158E-003  -1.5949606067753308E-003   6.4656105025289762E-002
   4.1598822682520353E-003  -1.7134629932881174E-003   6.5316662708940987E-002
   9.2909371144623276E-003  -2.7072182743538287E-003   4.9944994622030170E-002
   7.8691529845366093E-003  -2.8574022731036597E-003   5.0353817296592607E-002
   6.4473688546108909E-003  -3.6137742133562079E-003   5.1088496975635556E-002
   5.0255847246851865E-003  -4.9763340951121185E-003   5.2149033659159100E-002
   3.6038005947595098E-003  -6.9450819183707324E-003   5.3535427347162434E-002
   7.8365743071141525E-003  -2.4587794540874564E-003   5.3910067181935528E-002
   6.7148703136814397E-003  -2.6438351336970367E-003   5.3847889788796233E-002
   5.5931663202487686E-003  -3.3419480656267375E-003   5.4060015664162825E-002
   4.4714623268160489E-003  -4.5531182498754277E-003   5.4546444808035013E-002
   3.3497583333833847E-003  -6.2773456864441135E-003   5.5307177220412451E-002
   6.4966108969630315E-003  -2.2103406338209175E-003   5.7793702716388812E-002
   5.6234333040485474E-003  -2.4302679942908301E-003   5.7353655944731602E-002
   4.7502557111340632E-003  -3.0701219178968092E-003   5.7136358705605031E-002
   3.8770781182195686E-003  -4.1299024046388445E-003   5.7141810999009439E-002
   3.0039005253050949E-003  -5.6096094545172726E-003   5.7370012824944583E-002
   5.2710468840090098E-003  -1.9619018135544619E-003   6.1595901225390833E-002
   4.5948419556379322E-003  -2.2167008548843042E-003   6.0871115764398735E-002
   3.9186370272668372E-003  -2.7982957701667768E-003   6.0317526099962562E-002
   3.2424320988957154E-003  -3.7066865594025406E-003   5.9935132232082133E-002
   2.5662271705246369E-003  -4.9418732225904316E-003   5.9723934160758052E-002
   4.1598822682520353E-003  -1.7134629932881174E-003   6.5316662708940987E-002
   3.6290962684495387E-003  -2.0031337154780560E-003   6.4400269247797404E-002
   3.0983102686470421E-003  -2.5264696224368832E-003   6.3603517847234892E-002
   2.5675242688445454E-003  -3.2834707141655498E-003   6.2926408507253700E-002
   2.0367382690420488E-003  -4.2741369906638127E-003   6.2368941227853636E-002
   3.6038005947595098E-003  -6.9450819183707324E-003   5.3535427347162434E-002
   4.1551517065528953E-003  -9.5351457776681192E-003   5.1861117125471923E-002
   4.7065028183463087E-003  -1.2761653767541237E-002   5.0042004619596847E-002
   5.2578539301397220E-003  -1.6624605887990529E-002   4.8078089829536708E-002
   5.8092050419331631E-003  -2.1124002139014664E-002   4.5969372755291449E-002
   3.3497583333833847E-003  -6.2773456864441135E-003   5.5307177220412451E-002
   3.7736674999381548E-003  -8.5457975216309823E-003   5.2952493953219548E-002
   4.1975766664929387E-003  -1.1389640901735887E-002   5.0487729079734089E-002
   4.6214858330477088E-003  -1.4808875826758466E-002   4.7912882599956491E-002
   5.0453949996024927E-003  -1.8803502296698804E-002   4.5227954513886059E-002
   3.0039005253050949E-003  -5.6096094545172726E-003   5.7370012824944583E-002
   3.3350884245136880E-003  -7.5564492655934568E-003   5.4396009097906900E-002
   3.6662763237223159E-003  -1.0017628035929871E-002   5.1346644442468975E-002
   3.9974642229309298E-003  -1.2993145765526515E-002   4.8221918858631058E-002
   4.3286521221395091E-003  -1.6483002454382945E-002   4.5021832346392898E-002
   2.5662271705246369E-003  -4.9418732225904316E-003   5.9723934160758052E-002
   2.8394144802795160E-003  -6.5671010095563476E-003   5.6191662559533270E-002
   3.1126017900343691E-003  -8.6456151701241879E-003   5.2618750707800838E-002
   3.3857890997892187E-003  -1.1177415704294619E-002   4.9005198605560504E-002
   3.6589764095440735E-003  -1.4162502612067085E-002   4.5351006252813381E-002
   2.0367382690420488E-003  -4.2741369906638127E-003   6.2368941227853636E-002
   2.2866456672356039E-003  -5.5777527535185722E-003   5.8339454338099284E-002
   2.5365530654291729E-003  -7.2736023043182829E-003   5.4304047875730177E-002
   2.7864604636227211E-003  -9.3616856430626672E-003   5.0262721840745261E-002
   3.0363678618162693E-003  -1.1842002769751225E-002   4.6215476233145480E-002
   2.5833475810674383E-002  -8.7690821873693259E-003   6.0671664343667553E-002
   2.4774814526218630E-002  -8.0816542680845205E-003   6.0947951997103900E-002
   2.3716153241762905E-002  -7.5164555386440235E-003   6.1360855023840088E-002
   2.2657491957307166E-002  -7.0734859990483137E-003   6.1910373423876119E-002
   2.1598830672851427E-002  -6.7527456492970095E-003   6.2596507197212103E-002
   1.9733631708168858E-002  -6.0297435830662938E-003   6.2656235130080340E-002
   1.8844801893024385E-002  -5.6680876808622438E-003   6.2620481556144719E-002
   1.7955972077879925E-002  -5.3627349391554002E-003   6.2787775547531843E-002
   1.7067142262735473E-002  -5.1136853579459296E-003   6.3158117104241629E-002
   1.6178312447590992E-002  -4.9209389372335544E-003   6.3731506226273993E-002
   1.3377796457450922E-002  -3.2904049787632061E-003   6.4282070884738390E-002
   1.2725230303640554E-002  -3.2545210936400643E-003   6.4000202112778237E-002
   1.2072664149830201E-002  -3.2090143396668186E-003   6.3987813098163565E-002
   1.1420097996019837E-002  -3.1538847168435143E-003   6.4244903840894541E-002
   1.0767531842209466E-002  -3.0891322251701270E-003   6.4771474340970955E-002
   6.7659700585204902E-003  -5.5106637446011852E-004   6.5549171607642120E-002
   6.4160997580670759E-003  -8.4095450641782921E-004   6.5087113667004676E-002
   6.0662294576136686E-003  -1.0552937401782161E-003   6.4960967675735462E-002
   5.7163591571602595E-003  -1.1940840757411145E-003   6.5170733633834799E-002
   5.3664888567068469E-003  -1.2573255131066857E-003   6.5716411541302297E-002
  -1.0184748862237386E-004   2.1882722298429136E-003   6.6457537298791169E-002
  -8.2589743695987705E-005   1.5726120808043642E-003   6.5881216218823702E-002
  -6.3331998769622366E-005   1.0984268593104002E-003   6.5707239280247437E-002
  -4.4074253843248354E-005   7.6571656536127478E-004   6.5935606483062389E-002
  -2.4816508916870872E-005   5.7448119895675553E-004   6.6566317827268573E-002
   2.1598830672851427E-002  -6.7527456492970095E-003   6.2596507197212103E-002
   2.0924878084356030E-002  -6.4887214883975752E-003   6.2163590998210116E-002
   2.0250925495860619E-002  -6.2159005153572672E-003   6.1901985606378690E-002
   1.9576972907365209E-002  -5.9342827301761859E-003   6.1811691021717699E-002
   1.8903020318869812E-002  -5.6438681328541129E-003   6.1892707244227185E-002
   1.6178312447590992E-002  -4.9209389372335544E-003   6.3731506226273993E-002
   1.5675374565329761E-002  -4.7504616960557383E-003   6.3318312352999354E-002
   1.5172436683068516E-002  -4.5682196534498759E-003   6.3075837085022318E-002
   1.4669498800807264E-002  -4.3742128094158249E-003   6.3004080422343234E-002
   1.4166560918546026E-002  -4.1684411639535957E-003   6.3103042364961837E-002
   1.0767531842209466E-002  -3.0891322251701270E-003   6.4771474340970955E-002
   1.0435016464309780E-002  -3.0122019037139569E-003   6.4380970782710392E-002
   1.0102501086410077E-002  -2.9205387915424222E-003   6.4160593627875240E-002
   9.7699857085103807E-003  -2.8141428886554621E-003   6.4110342876465179E-002
   9.4374703306106880E-003  -2.6930141950531894E-003   6.4230218528480570E-002
   5.3664888567068469E-003  -1.2573255131066857E-003   6.5716411541302297E-002
   5.2038037812960963E-003  -1.2739421113722588E-003   6.5351566287343593E-002
   5.0411187058853318E-003  -1.2728579296350830E-003   6.5156255234937413E-002
   4.8784336304745759E-003  -1.2540729678952667E-003   6.5130478384083798E-002
   4.7157485550638149E-003  -1.2175872261526444E-003   6.5274235734782998E-002
  -2.4816508916870872E-005   5.7448119895675553E-004   6.6566317827268573E-002
  -1.8263483711304651E-005   4.6431768096963366E-004   6.6230098866898679E-002
  -1.1710458505734961E-005   3.7482293227243668E-004   6.6062821906208741E-002
  -5.1574333001670053E-006   3.0599695286520970E-004   6.6064486945198911E-002
   1.3955919054009502E-006   2.5783974274773414E-004   6.6235093983869064E-002
   1.8903020318869812E-002  -5.6438681328541129E-003   6.1892707244227185E-002
   1.7985876262750500E-002  -5.3482225558716956E-003   6.1681541227539216E-002
   1.7068732206631174E-002  -5.0509118317090818E-003   6.1697319418218266E-002
   1.6151588150511861E-002  -4.7519359603666461E-003   6.1940041816264335E-002
   1.5234444094392535E-002  -4.4512949418439307E-003   6.2409708421677590E-002
   1.4166560918546026E-002  -4.1684411639535957E-003   6.3103042364961837E-002
   1.3477104759434165E-002  -3.9550355458674302E-003   6.2902572995802930E-002
   1.2787648600322304E-002  -3.7381267839611404E-003   6.2930535213291700E-002
   1.2098192441210440E-002  -3.5177148782351599E-003   6.3186929017428520E-002
   1.1408736282098583E-002  -3.2937998286892700E-003   6.3671754408213044E-002
   9.4374703306106880E-003  -2.6930141950531894E-003   6.4230218528480570E-002
   8.9771894477871546E-003  -2.5618485358632481E-003   6.4042283803490210E-002
   8.5169085649636177E-003  -2.4253417362133656E-003   6.4084268044428655E-002
   8.0566276821400773E-003  -2.2834937961038956E-003   6.4356171251295877E-002
   7.5963467993165473E-003  -2.1363047155344428E-003   6.4857993424091820E-002
   4.7157485550638149E-003  -1.2175872261526444E-003   6.5274235734782998E-002
   4.4861303278094658E-003  -1.1686615258590244E-003   6.5100673650601237E-002
   4.2565121005551133E-003  -1.1125566884656185E-003   6.5158517911629243E-002
   4.0268938733007548E-003  -1.0492727139725759E-003   6.5447768517866753E-002
   3.7972756460464118E-003  -9.7880960237975434E-004   6.5968425469313974E-002
   1.3955919054009502E-006   2.5783974274773414E-004   6.6235093983869064E-002
   3.9273995010996599E-006   2.2452548414517159E-004   6.6077742537135942E-002
   6.4592070967914306E-006   2.0022835928236449E-004   6.6153284814893298E-002
   8.9910146924866707E-006   1.8494836815880281E-004   6.6461720817141093E-002
   1.1522822288181911E-005   1.7868551077498962E-004   6.7003050543879283E-002
   1.5234444094392535E-002  -4.4512949418439307E-003   6.2409708421677590E-002
   1.4373159409717964E-002  -4.1427189938135767E-003   6.2232483589020449E-002
   1.3511874725043380E-002  -3.8199383339484472E-003   6.2263607691188438E-002
   1.2650590040368802E-002  -3.4829529622483479E-003   6.2503080728181615E-002
   1.1789305355694224E-002  -3.1317628787129737E-003   6.2950902700000255E-002
   1.1408736282098583E-002  -3.2937998286892700E-003   6.3671754408213044E-002
   1.0757287754223785E-002  -3.0643845022510496E-003   6.3520186187942085E-002
   1.0105839226348994E-002  -2.8274717658489379E-003   6.3579941346445346E-002
   9.4543906984741917E-003  -2.5830616194824005E-003   6.3851019883723131E-002
   8.8029421705994038E-003  -2.3311540631519856E-003   6.4333421799775303E-002
   7.5963467993165473E-003  -2.1363047155344428E-003   6.4857993424091820E-002
   7.1577088721907628E-003  -1.9860500106884671E-003   6.4725374514336131E-002
   6.7190709450649748E-003  -1.8350051977493176E-003   6.4807053427303862E-002
   6.2804330179391816E-003  -1.6831702767166751E-003   6.5103030162995304E-002
   5.8417950908133884E-003  -1.5305452475909420E-003   6.5613304721410526E-002
   3.7972756460464118E-003  -9.7880960237975434E-004   6.5968425469313974E-002
   3.5744227636188564E-003  -9.0771551912585680E-004   6.5848048568202533E-002
   3.3515698811913009E-003  -8.4253862964964177E-004   6.5944943933764003E-002
   3.1287169987637459E-003  -7.8327893395083864E-004   6.6259111565998285E-002
   2.9058641163361831E-003  -7.2993643202970415E-004   6.6790551464905368E-002
   1.1522822288181911E-005   1.7868551077498962E-004   6.7003050543879283E-002
   7.4294285080829525E-006   1.7061897243675350E-004   6.6888208349541456E-002
   3.3360347279839941E-006   1.4992793844996466E-004   6.6993612865825641E-002
  -7.5735905211496424E-007   1.1661240881500820E-004   6.7319264092732020E-002
  -4.8507528322139226E-006   7.0672383531200644E-005   6.7865162030260162E-002
   1.1789305355694224E-002  -3.1317628787129737E-003   6.2950902700000255E-002
   1.0814576282897864E-002  -2.7855260171253948E-003   6.2888223575548796E-002
   9.8398472101015322E-003  -2.4634003112679326E-003   6.3066524055516604E-002
   8.8651181373051863E-003  -2.1653857611404273E-003   6.3485804139903151E-002
   7.8903890645088404E-003  -1.8914823667429692E-003   6.4146063828708466E-002
   8.8029421705994038E-003  -2.3311540631519856E-003   6.4333421799775303E-002
   8.0699815321296706E-003  -2.0825472021069324E-003   6.4277642632408039E-002
   7.3370208936599235E-003  -1.8480391415969799E-003   6.4464420729275079E-002
   6.6040602551901903E-003  -1.6276298816220863E-003   6.4893756090376328E-002
   5.8710996167204571E-003  -1.4213194221823766E-003   6.5565648715712022E-002
   5.8417950908133884E-003  -1.5305452475909420E-003   6.5613304721410526E-002
   5.3521805464857228E-003  -1.3795683870884978E-003   6.5574437866322111E-002
   4.8625660021580433E-003  -1.2326779719261244E-003   6.5779705935283497E-002
   4.3729514578303638E-003  -1.0898740021038529E-003   6.6229108928294700E-002
   3.8833369135026843E-003  -9.5115647762172850E-004   6.6922646845355760E-002
   2.9058641163361831E-003  -7.2993643202970415E-004   6.6790551464905368E-002
   2.6611733259660321E-003  -6.7658957206999382E-004   6.6778609277290915E-002
   2.4164825355958725E-003  -6.1731680225516478E-004   6.7012379673541789E-002
   2.1717917452257242E-003  -5.5211812258584327E-004   6.7491862653657822E-002
   1.9271009548555620E-003  -4.8099353306116366E-004   6.8217058217639293E-002
  -4.8507528322139226E-006   7.0672383531200644E-005   6.7865162030260162E-002
  -3.0401294293935788E-006   2.6389242948565705E-005   6.7890156865314799E-002
  -1.2295060265662960E-006  -1.9556325843717026E-006   6.8162441944050023E-002
   5.8111737625751725E-007  -1.4362243067236879E-005   6.8682017266465917E-002
   2.3917407790813305E-006  -1.0830588500487792E-005   6.9448882832562453E-002
   7.8903890645088404E-003  -1.8914823667429692E-003   6.4146063828708466E-002
   6.9577623654446252E-003  -1.6839702935027567E-003   6.4070805585173307E-002
   6.0251356663804378E-003  -1.5851297068469883E-003   6.4240819317367026E-002
   5.0925089673162158E-003  -1.5949606067753308E-003   6.4656105025289762E-002
   4.1598822682520353E-003  -1.7134629932881174E-003   6.5316662708940987E-002
   5.8710996167204571E-003  -1.4213194221823766E-003   6.5565648715712022E-002
   5.1806570911613961E-003  -1.2632973493295618E-003   6.5423254684912446E-002
   4.4902145656023559E-003  -1.1877532491161302E-003   6.5519957025394149E-002
   3.7997720400433158E-003  -1.1946871215415267E-003   6.5855755737157406E-002
   3.1093295144842686E-003  -1.2840989666058622E-003   6.6430650820202108E-002
   3.8833369135026843E-003  -9.5115647762172850E-004   6.6922646845355760E-002
   3.4289029570014826E-003  -8.4262440515658898E-004   6.6739310541236663E-002
   2.9744690005002808E-003  -7.9037679138516115E-004   6.6788895003951521E-002
   2.5200350439990808E-003  -7.9441363630750050E-004   6.7071400233500861E-002
   2.0656010874978772E-003  -8.5473493992366256E-004   6.7586826229884073E-002
   1.9271009548555620E-003  -4.8099353306116366E-004   6.8217058217639293E-002
   1.7024999629648915E-003  -4.2195146098350511E-004   6.8018973154145818E-002
   1.4778989710742280E-003  -3.9300033365435860E-004   6.8047633253039419E-002
   1.2532979791835537E-003  -3.9414015107369638E-004   6.8303038514319611E-002
   1.0286969872928941E-003  -4.2537091324154619E-004   6.8785188937987324E-002
   2.3917407790813305E-006  -1.0830588500487792E-005   6.9448882832562453E-002
   1.4481090516299533E-006  -1.2785168104767486E-006   6.9262242523640327E-002
   5.0447732416816771E-007   4.3761240766382326E-006   6.9296171772657678E-002
  -4.3915440328667898E-007   6.1333341603228564E-006   6.9550670579614504E-002
  -1.3827861307449951E-006   3.9931134407922286E-006   7.0025738944510807E-002
   4.1598822682520353E-003  -1.7134629932881174E-003   6.5316662708940987E-002
   3.6290962684495387E-003  -2.0031337154780560E-003   6.4400269247797404E-002
   3.0983102686470421E-003  -2.5264696224368832E-003   6.3603517847234892E-002
   2.5675242688445454E-003  -3.2834707141655498E-003   6.2926408507253700E-002
   2.0367382690420488E-003  -4.2741369906638127E-003   6.2368941227853636E-002
   3.1093295144842686E-003  -1.2840989666058622E-003   6.6430650820202108E-002
   2.7014788688843050E-003  -1.5021969246714617E-003   6.5320095260394617E-002
   2.2936282232843344E-003  -1.8951891361011497E-003   6.4335768348410843E-002
   1.8857775776843638E-003  -2.4630756008943572E-003   6.3477670084251328E-002
   1.4779269320844002E-003  -3.2058563190514588E-003   6.2745800467914892E-002
   2.0656010874978772E-003  -8.5473493992366256E-004   6.7586826229884073E-002
   1.7872723833431102E-003  -1.0012601338657279E-003   6.6340879502818473E-002
   1.5089436791883362E-003  -1.2639086497656243E-003   6.5227748010819361E-002
   1.2306149750335692E-003  -1.6426804876232722E-003   6.4247431753886919E-002
   9.5228627087879519E-004  -2.1375756474391050E-003   6.3399930732020826E-002
   1.0286969872928941E-003  -4.2537091324154619E-004   6.8785188937987324E-002
   8.8647681182596645E-004  -5.0032334305967485E-004   6.7462621975069068E-002
   7.4425663635905789E-004  -6.3262816342999489E-004   6.6279456834460473E-002
   6.0203646089214326E-004  -8.2228537435224437E-004   6.5235693516160820E-002
   4.5981628542522170E-004  -1.0692949758265291E-003   6.4331332020170384E-002
  -1.3827861307449951E-006   3.9931134407922286E-006   7.0025738944510807E-002
  -9.0784566713492110E-007   6.1344774648919298E-007   6.8685322677146332E-002
  -4.3290520351790818E-007  -1.3476770943932070E-006   6.7490894819333902E-002
   4.2035260095635296E-008  -1.8902610808349540E-006   6.6442455371073267E-002
   5.1697572370917877E-007  -1.0143042145083214E-006   6.5540004332364288E-002
   2.0367382690420488E-003  -4.2741369906638127E-003   6.2368941227853636E-002
   2.2866456672356039E-003  -5.5777527535185722E-003   5.8339454338099284E-002
   2.5365530654291729E-003  -7.2736023043182829E-003   5.4304047875730177E-002
   2.7864604636227211E-003  -9.3616856430626672E-003   5.0262721840745261E-002
   3.0363678618162693E-003  -1.1842002769751225E-002   4.6215476233145480E-002
   1.4779269320844002E-003  -3.2058563190514588E-003   6.2745800467914892E-002
   1.7077600143098892E-003  -4.1832574932924582E-003   5.8392039287185393E-002
   1.9375930965353852E-003  -5.4550053263379694E-003   5.4004049047134683E-002
   2.1674261787608708E-003  -7.0210998181880341E-003   4.9581829747762901E-002
   2.3972592609863841E-003  -8.8815409688427494E-003   4.5125381389070185E-002
   9.5228627087879519E-004  -2.1375756474391050E-003   6.3399930732020826E-002
   1.1337355504302954E-003  -2.7887622330659001E-003   5.8819782389455455E-002
   1.3151848299817852E-003  -3.6364083483574339E-003   5.4177095500863248E-002
   1.4966341095332767E-003  -4.6805139933135675E-003   4.9471870066244233E-002
   1.6780833890847613E-003  -5.9210791679342734E-003   4.4704106085597828E-002
   4.5981628542522170E-004  -1.0692949758265291E-003   6.4331332020170384E-002
   5.6457227559678080E-004  -1.3942669728393420E-003   5.9622683644909732E-002
   6.6932826576833904E-004  -1.8178113703767873E-003   5.4823187236915885E-002
   7.7408425593990119E-004  -2.3399281684390177E-003   4.9932842796189203E-002
   8.7884024611147027E-004  -2.9606173670257974E-003   4.4951650322729964E-002
   5.1697572370917877E-007  -1.0143042145083214E-006   6.5540004332364288E-002
   2.7018980939402804E-007   2.2828738699409712E-007   6.0800743053548101E-002
   2.3403895078877301E-008   7.8560760360946169E-007   5.5942324255292830E-002
  -2.2338201923453871E-007   6.5765643541410013E-007   5.0964747937598615E-002
  -4.7016793354448527E-007  -1.5556611732137071E-007   4.5868014100466148E-002
  -1.0184748862237386E-004   2.1882722298429136E-003   6.6457537298791169E-002
  -8.2589743695987705E-005   1.5726120808043642E-003   6.5881216218823702E-002
  -6.3331998769622366E-005   1.0984268593104002E-003   6.5707239280247437E-002
  -4.4074253843248354E-005   7.6571656536127478E-004   6.5935606483062389E-002
  -2.4816508916870872E-005   5.7448119895675553E-004   6.6566317827268573E-002
  -6.9504799648003358E-003   2.8628681251304799E-003   6.4423409458760378E-002
  -6.5660437294239732E-003   2.5263602312045608E-003   6.4207052632812650E-002
  -6.1816074940476053E-003   2.2539146393717180E-003   6.4318708646373970E-002
  -5.7971712586712401E-003   2.0455313496318059E-003   6.4758377499443881E-002
  -5.4127350232948748E-003   1.9012103619847620E-003   6.5526059192022618E-002
  -1.3504751150835999E-002   3.5374640204180463E-003   6.2707140186567936E-002
  -1.2829467726892080E-002   3.4801083816049100E-003   6.2773334989188551E-002
  -1.2154184302948179E-002   3.4094024194330011E-003   6.3093211329435461E-002
  -1.1478900879004269E-002   3.3253461339023353E-003   6.3666769207308765E-002
  -1.0803617455060364E-002   3.2279395250128240E-003   6.4494008622808338E-002
  -1.9764661046729391E-002   4.2120599157056265E-003   6.1308729482214219E-002
  -1.8872861736100376E-002   4.4338565320051690E-003   6.1580063287951438E-002
  -1.7981062425471355E-002   4.5648901994942460E-003   6.2030747329432222E-002
  -1.7089263114842348E-002   4.6051609181728100E-003   6.2660781606657015E-002
  -1.6197463804213327E-002   4.5546686880408860E-003   6.3470166119625707E-002
  -2.5730209652480483E-002   4.8866558109931790E-003   6.0228177345699185E-002
  -2.4696225757048787E-002   5.3876046824054835E-003   6.0627237529100819E-002
  -2.3662241861617129E-002   5.7203779795556298E-003   6.1131316646364009E-002
  -2.2628257966185457E-002   5.8849757024433610E-003   6.1740414697488616E-002
  -2.1594274070753774E-002   5.8813978510688925E-003   6.2454531682474612E-002
  -2.4816508916870872E-005   5.7448119895675553E-004   6.6566317827268573E-002
  -1.8263483711304651E-005   4.6431768096963366E-004   6.6230098866898679E-002
  -1.1710458505734961E-005   3.7482293227243668E-004   6.6062821906208741E-002
  -5.1574333001670053E-006   3.0599695286520970E-004   6.6064486945198911E-002
   1.3955919054009502E-006   2.5783974274773414E-004   6.6235093983869064E-002
  -5.4127350232948748E-003   1.9012103619847620E-003   6.5526059192022618E-002
  -5.2378604551987619E-003   1.7921301824495722E-003   6.5199799899185992E-002
  -5.0629858871026456E-003   1.6894693170448477E-003   6.5041241692450416E-002
  -4.8881113190065283E-003   1.5932277657705780E-003   6.5050384571815945E-002
  -4.7132367509104094E-003   1.5034055286268777E-003   6.5227228537282494E-002
  -1.0803617455060364E-002   3.2279395250128240E-003   6.4494008622808338E-002
  -1.0461662257652656E-002   3.1199426839295524E-003   6.4163459542345522E-002
  -1.0119707060244929E-002   3.0041157018173073E-003   6.3999370634404862E-002
  -9.7777518628372161E-003   2.8804585786761667E-003   6.4001741898986289E-002
  -9.4357966654295064E-003   2.7489713145060213E-003   6.4170573336089817E-002
  -1.6197463804213327E-002   4.5546686880408860E-003   6.3470166119625707E-002
  -1.5689668891072955E-002   4.4477551854094841E-003   6.3121077796377281E-002
  -1.5181873977932584E-002   4.3187620865897149E-003   6.2937208732072106E-002
  -1.4674079064792220E-002   4.1676893915816452E-003   6.2918558926709958E-002
  -1.4166284151651855E-002   3.9945371003852481E-003   6.3065128380291186E-002
  -2.1594274070753774E-002   5.8813978510688925E-003   6.2454531682474612E-002
  -2.0921880355459704E-002   5.7755676868894712E-003   6.2072654661281201E-002
  -2.0249486640165619E-002   5.6334084713622196E-003   6.1854755985452009E-002
  -1.9577092924871541E-002   5.4549202044871618E-003   6.1800835654987105E-002
  -1.8904699209577464E-002   5.2401028862642529E-003   6.1910893669886391E-002
   1.3955919054009502E-006   2.5783974274773414E-004   6.6235093983869064E-002
   3.9273995010996599E-006   2.2452548414517159E-004   6.6077742537135942E-002
   6.4592070967914306E-006   2.0022835928236449E-004   6.6153284814893298E-002
   8.9910146924866707E-006   1.8494836815880281E-004   6.6461720817141093E-002
   1.1522822288181911E-005   1.7868551077498962E-004   6.7003050543879283E-002
  -4.7132367509104094E-003   1.5034055286268777E-003   6.5227228537282494E-002
  -4.4788774905335921E-003   1.4179959922676344E-003   6.5066594857725840E-002
  -4.2445182301567661E-003   1.3349925433470827E-003   6.5136722359240881E-002
  -4.0101589697799488E-003   1.2543951818649486E-003   6.5437611041827881E-002
  -3.7757997094031229E-003   1.1762039078213049E-003   6.5969260905486327E-002
  -9.4357966654295064E-003   2.7489713145060213E-003   6.4170573336089817E-002
  -8.9717424956902488E-003   2.6114665003902221E-003   6.4000046377408540E-002
  -8.5076883259509982E-003   2.4697567274119051E-003   6.4058148056380326E-002
  -8.0436341562117354E-003   2.3238419955709817E-003   6.4344878373005190E-002
  -7.5795799864724900E-003   2.1737223048676479E-003   6.4860237327283174E-002
  -1.4166284151651855E-002   3.9945371003852481E-003   6.3065128380291186E-002
  -1.3474667615968864E-002   3.8049370085125531E-003   6.2878097096184193E-002
  -1.2783051080285874E-002   3.6045209114766198E-003   6.2917561906311564E-002
  -1.2091434544602889E-002   3.3932888092770711E-003   6.3183522810673381E-002
  -1.1399818008919906E-002   3.1712407019138661E-003   6.3675979809269506E-002
  -1.8904699209577464E-002   5.2401028862642529E-003   6.1910893669886391E-002
  -1.7987652851369433E-002   4.9984075166353004E-003   6.1700747014052593E-002
  -1.7070606493161423E-002   4.7392850955414872E-003   6.1714963909034581E-002
  -1.6153560134953407E-002   4.4627356229832264E-003   6.1953544354832232E-002
  -1.5236513776745383E-002   4.1687590989603063E-003   6.2416488351445532E-002
   1.1522822288181911E-005   1.7868551077498962E-004   6.7003050543879283E-002
   7.4294285080829525E-006   1.7061897243675350E-004   6.6888208349541456E-002
   3.3360347279839941E-006   1.4992793844996466E-004   6.6993612865825641E-002
  -7.5735905211496424E-007   1.1661240881500820E-004   6.7319264092732020E-002
  -4.8507528322139226E-006   7.0672383531200644E-005   6.7865162030260162E-002
  -3.7757997094031229E-003   1.1762039078213049E-003   6.5969260905486327E-002
  -3.5605795749567553E-003   1.0954191950861281E-003   6.5826919053139948E-002
  -3.3453594405103929E-003   1.0070415175299774E-003   6.5902957546624480E-002
  -3.1301393060640175E-003   9.1107087515208268E-004   6.6197376385939755E-002
  -2.9149191716176560E-003   8.0750726795314476E-004   6.6710175571085939E-002
  -7.5795799864724900E-003   2.1737223048676479E-003   6.4860237327283174E-002
  -7.1469126885908554E-003   2.0202194177357247E-003   6.4695427347755213E-002
  -6.7142453907092278E-003   1.8641550966097195E-003   6.4747131349267045E-002
  -6.2815780928275966E-003   1.7055293414894920E-003   6.5015349331818531E-002
  -5.8489107949459516E-003   1.5443421523750334E-003   6.5500081295409601E-002
  -1.1399818008919906E-002   3.1712407019138661E-003   6.3675979809269506E-002
  -1.0751569912394211E-002   2.9450196403853768E-003   6.3493733233387167E-002
  -1.0103321815868529E-002   2.7212686756895414E-003   6.3526134273753518E-002
  -9.4550737193428366E-003   2.4999878078267338E-003   6.3773182930368266E-002
  -8.8068256228171632E-003   2.2811770367967832E-003   6.4234879203231537E-002
  -1.5236513776745383E-002   4.1687590989603063E-003   6.2416488351445532E-002
  -1.4374551246366829E-002   3.8698198630348069E-003   6.2221836710036116E-002
  -1.3512588715988288E-002   3.5783822547693633E-003   6.2239966320083939E-002
  -1.2650626185609748E-002   3.2944462741640868E-003   6.2470877181588946E-002
  -1.1788663655231194E-002   3.0180119212187551E-003   6.2914569294551415E-002
  -4.8507528322139226E-006   7.0672383531200644E-005   6.7865162030260162E-002
  -3.0401294293935788E-006   2.6389242948565705E-005   6.7890156865314799E-002
  -1.2295060265662960E-006  -1.9556325843717026E-006   6.8162441944050023E-002
   5.8111737625751725E-007  -1.4362243067236879E-005   6.8682017266465917E-002
   2.3917407790813305E-006  -1.0830588500487792E-005   6.9448882832562453E-002
  -2.9149191716176560E-003   8.0750726795314476E-004   6.6710175571085939E-002
  -2.6669036311488918E-003   7.0586260215260710E-004   6.6723846431316902E-002
  -2.4188880906801345E-003   6.1564878397003808E-004   6.6982636881998875E-002
  -2.1708725502113764E-003   5.3686581340628772E-004   6.7486546923132204E-002
  -1.9228570097426130E-003   4.6951369046022151E-004   6.8235576554716570E-002
  -5.8489107949459516E-003   1.5443421523750334E-003   6.5500081295409601E-002
  -5.3568609906408174E-003   1.3853359613567873E-003   6.5497920763385273E-002
  -4.8648111863356675E-003   1.2332532005248920E-003   6.5738709168582654E-002
  -4.3727613820305255E-003   1.0880938698798678E-003   6.6222446511001523E-002
  -3.8807115777253695E-003   9.4985796942126388E-004   6.6949132790642213E-002
  -8.8068256228171632E-003   2.2811770367967832E-003   6.4234879203231537E-002
  -8.0729122079051547E-003   2.0648093205606760E-003   6.4212379861520216E-002
  -7.3389987929931705E-003   1.8508576170797458E-003   6.4430658803801111E-002
  -6.6050853780811889E-003   1.6393219263535312E-003   6.4889716030073902E-002
  -5.8711719631691795E-003   1.4302022483820842E-003   6.5589551540338936E-002
  -1.1788663655231194E-002   3.0180119212187551E-003   6.2914569294551415E-002
  -1.0815057282941909E-002   2.7442826797649533E-003   6.2867223725721566E-002
  -9.8414509106526382E-003   2.4684620336344332E-003   6.3058485787654273E-002
  -8.8678445383633502E-003   2.1905499828270419E-003   6.3488355480349590E-002
  -7.8942381660740829E-003   1.9105465273431266E-003   6.4156832803807240E-002
   2.3917407790813305E-006  -1.0830588500487792E-005   6.9448882832562453E-002
   1.4481090516299533E-006  -1.2785168104767486E-006   6.9262242523640327E-002
   5.0447732416816771E-007   4.3761240766382326E-006   6.9296171772657678E-002
  -4.3915440328667898E-007   6.1333341603228564E-006   6.9550670579614504E-002
  -1.3827861307449951E-006   3.9931134407922286E-006   7.0025738944510807E-002
  -1.9228570097426130E-003   4.6951369046022151E-004   6.8235576554716570E-002
  -1.6999472298794803E-003   4.2081114654024532E-004   6.8030599721799312E-002
  -1.4770374500163407E-003   3.9797691305240579E-004   6.8052760154123398E-002
  -1.2541276701531993E-003   4.0101098999816703E-004   6.8302057851688955E-002
  -1.0312178902900683E-003   4.2991337737641189E-004   6.8778492814496772E-002
  -3.8807115777253695E-003   9.4985796942126388E-004   6.6949132790642213E-002
  -3.4273806789695653E-003   8.4290080989032901E-004   6.6755585174965520E-002
  -2.9740497802137620E-003   7.9157770202852029E-004   6.6795742531832694E-002
  -2.5207188814579586E-003   7.9588864583579264E-004   6.7069604861243665E-002
  -2.0673879827021405E-003   8.5583364131203155E-004   6.7577172163198002E-002
  -5.8711719631691795E-003   1.4302022483820842E-003   6.5589551540338936E-002
  -5.1808522382186546E-003   1.2649904732409539E-003   6.5437198883139480E-002
  -4.4905325132681001E-003   1.1851784910045723E-003   6.5525118905785787E-002
  -3.8002127883175470E-003   1.1907663016735275E-003   6.5853311608277745E-002
  -3.1098930633670211E-003   1.2817539052477067E-003   6.6421776990615550E-002
  -7.8942381660740829E-003   1.9105465273431266E-003   6.4156832803807240E-002
  -6.9603619076267081E-003   1.6870801365911348E-003   6.4075440846320997E-002
  -6.0264856491793542E-003   1.5787792799804301E-003   6.4240889275982538E-002
  -5.0926093907319864E-003   1.5856439575112138E-003   6.4653178092791946E-002
  -4.1587331322846255E-003   1.7076741691832709E-003   6.5312307296749084E-002
  -1.3827861307449951E-006   3.9931134407922286E-006   7.0025738944510807E-002
  -9.0784566713492110E-007   6.1344774648919298E-007   6.8685322677146332E-002
  -4.3290520351790818E-007  -1.3476770943932070E-006   6.7490894819333902E-002
   4.2035260095635296E-008  -1.8902610808349540E-006   6.6442455371073267E-002
   5.1697572370917877E-007  -1.0143042145083214E-006   6.5540004332364288E-002
  -1.0312178902900683E-003   4.2991337737641189E-004   6.8778492814496772E-002
  -8.8813902507480988E-004   5.0119212552485193E-004   6.7458508550059804E-002
  -7.4506015985956013E-004   6.3135528478078240E-004   6.6277743725574267E-002
  -6.0198129464431299E-004   8.2040285514451555E-004   6.5236198341040275E-002
  -4.5890242942905196E-004   1.0683348366156142E-003   6.4333872396457714E-002
  -2.0673879827021405E-003   8.5583364131203155E-004   6.7577172163198002E-002
  -1.7884741623356969E-003   1.0017708033033812E-003   6.6335085771942803E-002
  -1.5095603419692594E-003   1.2640582466560829E-003   6.5225449851038328E-002
  -1.2306465216028158E-003   1.6426959713698695E-003   6.4248264400484811E-002
  -9.5173270123636439E-004   2.1376839774453482E-003   6.3403529420282573E-002
  -3.1098930633670211E-003   1.2817539052477067E-003   6.6421776990615550E-002
  -2.7019132574497987E-003   1.5023494810820492E-003   6.5315054342795525E-002
  -2.2939334515325975E-003   1.8967612085309879E-003   6.4334013195725695E-002
  -1.8859536456153861E-003   2.4649890875955548E-003   6.3478653549406627E-002
  -1.4779738396981743E-003   3.2070331182749434E-003   6.2748975403837837E-002
  -4.1587331322846255E-003   1.7076741691832709E-003   6.5312307296749084E-002
  -3.6284563104171108E-003   2.0029281588602732E-003   6.4398414262617942E-002
  -3.0981794885495927E-003   2.5294641704064480E-003   6.3603433759636896E-002
  -2.5679026666820849E-003   3.2872822038207683E-003   6.2927365787805778E-002
  -2.0376258448145598E-003   4.2763822591049827E-003   6.2370210347124866E-002
   5.1697572370917877E-007  -1.0143042145083214E-006   6.5540004332364288E-002
   2.7018980939402804E-007   2.2828738699409712E-007   6.0800743053548101E-002
   2.3403895078877301E-008   7.8560760360946169E-007   5.5942324255292830E-002
  -2.2338201923453871E-007   6.5765643541410013E-007   5.0964747937598615E-002
  -4.7016793354448527E-007  -1.5556611732137071E-007   4.5868014100466148E-002
  -4.5890242942905196E-004   1.0683348366156142E-003   6.4333872396457714E-002
  -5.6409942295921126E-004   1.3946353049265059E-003   5.9623991208403615E-002
  -6.6929641648935667E-004   1.8187883358094792E-003   5.4823367124556710E-002
  -7.7449341001952464E-004   2.3407939292650823E-003   4.9932000144916749E-002
  -8.7969040354967526E-004   2.9606520852925033E-003   4.4949890269484039E-002
  -9.5173270123636439E-004   2.1376839774453482E-003   6.3403529420282573E-002
  -1.1334652787363588E-003   2.7890423224657956E-003   5.8821566156947280E-002
  -1.3151978562363532E-003   3.6367910640152518E-003   5.4177274621465779E-002
  -1.4969304337363403E-003   4.6809302020944209E-003   4.9470654813837174E-002
  -1.6786630112363421E-003   5.9214597367023281E-003   4.4701706734061708E-002
  -1.4779738396981743E-003   3.2070331182749434E-003   6.2748975403837837E-002
  -1.7078273775220274E-003   4.1834493400049744E-003   5.8393467899179104E-002
  -1.9376809153458458E-003   5.4547937922210729E-003   5.4004046746019427E-002
  -2.1675344531696954E-003   7.0210664749235912E-003   4.9580711944358924E-002
  -2.3973879909935311E-003   8.8822673881121528E-003   4.5123463494197880E-002
  -2.0376258448145598E-003   4.2763822591049827E-003   6.2370210347124866E-002
  -2.2871857193162426E-003   5.5778563575443751E-003   5.8339696435099175E-002
  -2.5367455938179080E-003   7.2727965204269496E-003   5.4303683498218458E-002
  -2.7863054683196116E-003   9.3612027477533305E-003   5.0262171536483213E-002
  -3.0358653428212562E-003   1.1843075039521977E-002   4.6215160549893053E-002
  -2.5730209652480483E-002   4.8866558109931790E-003   6.0228177345699185E-002
  -2.4696225757048787E-002   5.3876046824054835E-003   6.0627237529100819E-002
  -2.3662241861617129E-002   5.7203779795556298E-003   6.1131316646364009E-002
  -2.2628257966185457E-002   5.8849757024433610E-003   6.1740414697488616E-002
  -2.1594274070753774E-002   5.8813978510688925E-003   6.2454531682474612E-002
  -3.1705237198385791E-002   7.8844430621625716E-003   5.8391120582630046E-002
  -3.0525424997923999E-002   8.0130095941044199E-003   5.8383865056750944E-002
  -2.9345612797462242E-002   8.0421398803111332E-003   5.8563247207070721E-002
  -2.8165800597000454E-002   7.9718339207828226E-003   5.8929267033589201E-002
  -2.6985988396538683E-002   7.8020917155194880E-003   5.9481924536306463E-002
  -3.7993583914741849E-002   1.0882230313331992E-002   5.6147311815826717E-002
  -3.6586324666912654E-002   1.0638414505803287E-002   5.5802479909194097E-002
  -3.5179065419083437E-002   1.0363901781066734E-002   5.5725904421097677E-002
  -3.3771806171254214E-002   1.0058692139122288E-002   5.5917585351537284E-002
  -3.2364546923425039E-002   9.7227855799700280E-003   5.6377522700513036E-002
  -4.4595249801548678E-002   1.3880017564501412E-002   5.3496751045289302E-002
  -4.2878924764014663E-002   1.3263819417502175E-002   5.2883082086430291E-002
  -4.1162599726480731E-002   1.2685663681822314E-002   5.2619288288444865E-002
  -3.9446274688946757E-002   1.2145550357461723E-002   5.2705369651332837E-002
  -3.7729949651412763E-002   1.1643479444420540E-002   5.3141326175094150E-002
  -5.1510234858806209E-002   1.6877804815670805E-002   5.0439438271017656E-002
  -4.9403225289230135E-002   1.5889224329201035E-002   4.9625671588459597E-002
  -4.7296215719654075E-002   1.5007425582577880E-002   4.9243398809112354E-002
  -4.5189206150078008E-002   1.4232408575801225E-002   4.9292619932975804E-002
  -4.3082196580501941E-002   1.3564173308871108E-002   4.9773334960050042E-002
  -2.1594274070753774E-002   5.8813978510688925E-003   6.2454531682474612E-002
  -2.0921880355459704E-002   5.7755676868894712E-003   6.2072654661281201E-002
  -2.0249486640165619E-002   5.6334084713622196E-003   6.1854755985452009E-002
  -1.9577092924871541E-002   5.4549202044871618E-003   6.1800835654987105E-002
  -1.8904699209577464E-002   5.2401028862642529E-003   6.1910893669886391E-002
  -2.6985988396538683E-002   7.8020917155194880E-003   5.9481924536306463E-002
  -2.6150928261096131E-002   7.5721850255187767E-003   5.9083280501252097E-002
  -2.5315868125653604E-002   7.3213856117783638E-003   5.8845990961130440E-002
  -2.4480807990211077E-002   7.0496934742981243E-003   5.8770055915941366E-002
  -2.3645747854768522E-002   6.7571086130782110E-003   5.8855475365685056E-002
  -3.2364546923425039E-002   9.7227855799700280E-003   5.6377522700513036E-002
  -3.1369444218265562E-002   9.3688023641479434E-003   5.5977547979205775E-002
  -3.0374341513106119E-002   9.0093627521942929E-003   5.5736303902399691E-002
  -2.9379238807946673E-002   8.6444667441090885E-003   5.5653790470094638E-002
  -2.8384136102787214E-002   8.2741143398922523E-003   5.5730007682290847E-002
  -3.7729949651412763E-002   1.1643479444420540E-002   5.3141326175094150E-002
  -3.6577428226967947E-002   1.1165419702777235E-002   5.2755457095142150E-002
  -3.5424906802523144E-002   1.0697339892610441E-002   5.2525694809259761E-002
  -3.4272385378078342E-002   1.0239240013920053E-002   5.2452039317446943E-002
  -3.3119863953633526E-002   9.7911200667062520E-003   5.2534490619703708E-002
  -4.3082196580501941E-002   1.3564173308871108E-002   4.9773334960050042E-002
  -4.1774880287203345E-002   1.2962037041406443E-002   4.9417007849061390E-002
  -4.0467563993904720E-002   1.2385317033026366E-002   4.9214163681710804E-002
  -3.9160247700606103E-002   1.1834013283731043E-002   4.9164802457998105E-002
  -3.7852931407307500E-002   1.1308125793520196E-002   4.9268924177923556E-002
  -1.8904699209577464E-002   5.2401028862642529E-003   6.1910893669886391E-002
  -1.7987652851369433E-002   4.9984075166353004E-003   6.1700747014052593E-002
  -1.7070606493161423E-002   4.7392850955414872E-003   6.1714963909034581E-002
  -1.6153560134953407E-002   4.4627356229832264E-003   6.1953544354832232E-002
  -1.5236513776745383E-002   4.1687590989603063E-003   6.2416488351445532E-002
  -2.3645747854768522E-002   6.7571086130782110E-003   5.8855475365685056E-002
  -2.2508209339406039E-002   6.4457565382818327E-003   5.8627083335923452E-002
  -2.1370670824043547E-002   6.1177627600721152E-003   5.8615312069655132E-002
  -2.0233132308681054E-002   5.7731272784488571E-003   5.8820161566880060E-002
  -1.9095593793318578E-002   5.4118500934121072E-003   5.9241631827598229E-002
  -2.8384136102787214E-002   8.2741143398922523E-003   5.5730007682290847E-002
  -2.7033848217592693E-002   7.8931055599285732E-003   5.5484155626652598E-002
  -2.5683560332398169E-002   7.4962404246025280E-003   5.5447181547185094E-002
  -2.4333272447203617E-002   7.0835189339144896E-003   5.5619085443888508E-002
  -2.2982984562009125E-002   6.6549410878640192E-003   5.5999867316762708E-002
  -3.3119863953633526E-002   9.7911200667062520E-003   5.2534490619703708E-002
  -3.1564569485929436E-002   9.3404545815751264E-003   5.2271963886239926E-002
  -3.0009275018225302E-002   8.8747180891331594E-003   5.2210572341624649E-002
  -2.8453980550521160E-002   8.3939105893799555E-003   5.2350315985857709E-002
  -2.6898686082817050E-002   7.8980320823159311E-003   5.2691194818939219E-002
  -3.7852931407307500E-002   1.1308125793520196E-002   4.9268924177923556E-002
  -3.6100373144416192E-002   1.0787803603221846E-002   4.8990508114685638E-002
  -3.4347814881524913E-002   1.0253195753663555E-002   4.8905484452973685E-002
  -3.2595256618633613E-002   9.7043022448457771E-003   4.9013853192787601E-002
  -3.0842698355742326E-002   9.1411230767678431E-003   4.9315614334127567E-002
  -1.5236513776745383E-002   4.1687590989603063E-003   6.2416488351445532E-002
  -1.4374551246366829E-002   3.8698198630348069E-003   6.2221836710036116E-002
  -1.3512588715988288E-002   3.5783822547693633E-003   6.2239966320083939E-002
  -1.2650626185609748E-002   3.2944462741640868E-003   6.2470877181588946E-002
  -1.1788663655231194E-002   3.0180119212187551E-003   6.2914569294551415E-002
  -1.9095593793318578E-002   5.4118500934121072E-003   5.9241631827598229E-002
  -1.8024392055803043E-002   5.0432174269986196E-003   5.9019843573911074E-002
  -1.6953190318287487E-002   4.6765155012452597E-003   5.9003752483040656E-002
  -1.5881988580771927E-002   4.3117443161516389E-003   5.9193358554987030E-002
  -1.4810786843256395E-002   3.9489038717182567E-003   5.9588661789750197E-002
  -2.2982984562009125E-002   6.6549410878640192E-003   5.5999867316762708E-002
  -2.1709627705997103E-002   6.2166149909625434E-003   5.5745371563797969E-002
  -2.0436270849985085E-002   5.7746487477208785E-003   5.5689488885009394E-002
  -1.9162913993973060E-002   5.3290423581393020E-003   5.5832219280397027E-002
  -1.7889557137961042E-002   4.8797958222175919E-003   5.6173562749960937E-002
  -2.6898686082817050E-002   7.8980320823159311E-003   5.2691194818939219E-002
  -2.5430258196949069E-002   7.3900125549264117E-003   5.2398420679696731E-002
  -2.3961830311081102E-002   6.8727819941966362E-003   5.2297175525989878E-002
  -2.2493402425213103E-002   6.3463404001267987E-003   5.2387459357818821E-002
  -2.1024974539345129E-002   5.8106877727170103E-003   5.2669272175183371E-002
  -3.0842698355742326E-002   9.1411230767678431E-003   4.9315614334127567E-002
  -2.9186283528658916E-002   8.5634101188901690E-003   4.8978990921607291E-002
  -2.7529868701575491E-002   7.9709152406723938E-003   4.8826812405982356E-002
  -2.5873453874492094E-002   7.3636384421144063E-003   4.8859078787252430E-002
  -2.4217039047408656E-002   6.7415797232164287E-003   4.9075790065417735E-002
  -1.1788663655231194E-002   3.0180119212187551E-003   6.2914569294551415E-002
  -1.0815057282941909E-002   2.7442826797649533E-003   6.2867223725721566E-002
  -9.8414509106526382E-003   2.4684620336344332E-003   6.3058485787654273E-002
  -8.8678445383633502E-003   2.1905499828270419E-003   6.3488355480349590E-002
  -7.8942381660740829E-003   1.9105465273431266E-003   6.4156832803807240E-002
  -1.4810786843256395E-002   3.9489038717182567E-003   5.9588661789750197E-002
  -1.3607099894227814E-002   3.5867078581730549E-003   5.9474775418437764E-002
  -1.2403412945199237E-002   3.2238699657448494E-003   5.9582442569841521E-002
  -1.1199725996170645E-002   2.8603901944336783E-003   5.9911663243961369E-002
  -9.9960390471420767E-003   2.4962685442393440E-003   6.0462437440797101E-002
  -1.7889557137961042E-002   4.8797958222175919E-003   5.6173562749960937E-002
  -1.6472843720239619E-002   4.4291330365810733E-003   5.5994585101959635E-002
  -1.5056130302518156E-002   3.9792778978553767E-003   5.6020106868628072E-002
  -1.3639416884796703E-002   3.5302304060400927E-003   5.6250128049966180E-002
  -1.2222703467075238E-002   3.0819905611355058E-003   5.6684648645973806E-002
  -2.1024974539345129E-002   5.8106877727170103E-003   5.2669272175183371E-002
  -1.9412288760977288E-002   5.2715582149894108E-003   5.2426652776287080E-002
  -1.7799602982609370E-002   4.7346858299658484E-003   5.2371478684013630E-002
  -1.6186917204241501E-002   4.2000706176463960E-003   5.2503749898363664E-002
  -1.4574231425873614E-002   3.6677125780317510E-003   5.2823466419336808E-002
  -2.4217039047408656E-002   6.7415797232164287E-003   4.9075790065417735E-002
  -2.2425435016440787E-002   6.1139833933971932E-003   4.8770978441419754E-002
  -2.0633830985472917E-002   5.4900937620764589E-003   4.8636558015998588E-002
  -1.8842226954505062E-002   4.8699108292530671E-003   4.8672528789154207E-002
  -1.7050622923537179E-002   4.2534345949279961E-003   4.8878890760886473E-002
  -7.8942381660740829E-003   1.9105465273431266E-003   6.4156832803807240E-002
  -6.9603619076267081E-003   1.6870801365911348E-003   6.4075440846320997E-002
  -6.0264856491793542E-003   1.5787792799804301E-003   6.4240889275982538E-002
  -5.0926093907319864E-003   1.5856439575112138E-003   6.4653178092791946E-002
  -4.1587331322846255E-003   1.7076741691832709E-003   6.5312307296749084E-002
  -9.9960390471420767E-003   2.4962685442393440E-003   6.0462437440797101E-002
  -8.8141521872930027E-003   2.1893184028131674E-003   6.0372427373980075E-002
  -7.6322653274439409E-003   1.9973531578075521E-003   6.0531598122818719E-002
  -6.4503784675948765E-003   1.9203728092213254E-003   6.0939949687313033E-002
  -5.2684916077458017E-003   1.9583773570556184E-003   6.1597482067462739E-002
  -1.2222703467075238E-002   3.0819905611355058E-003   5.6684648645973806E-002
  -1.0790465577316787E-002   2.6915566690355330E-003   5.6585839832104856E-002
  -9.3582276875583039E-003   2.4159270356342161E-003   5.6738552262399031E-002
  -7.9259897977998501E-003   2.2551016609316556E-003   5.7142785936856517E-002
  -6.4937519080413703E-003   2.2090805449277440E-003   5.7798540855477420E-002
  -1.4574231425873614E-002   3.6677125780317510E-003   5.2823466419336808E-002
  -1.2889302077698016E-002   3.1937949352575101E-003   5.2715678220694610E-002
  -1.1204372729522417E-002   2.8345009134609980E-003   5.2861751694723291E-002
  -9.5194433813468177E-003   2.5898305126418209E-003   5.3261686841423045E-002
  -7.8345140331712200E-003   2.4597837328000360E-003   5.3915483660793573E-002
  -1.7050622923537179E-002   4.2534345949279961E-003   4.8878890760886473E-002
  -1.5110661688436736E-002   3.6960332014799868E-003   4.8761942539749636E-002
  -1.3170700453336320E-002   3.2530747912879188E-003   4.8901196419791459E-002
  -1.1230739218235898E-002   2.9245593643522985E-003   4.9296652401012081E-002
  -9.2907779831354620E-003   2.7104869206722171E-003   4.9948310483411196E-002
  -4.1587331322846255E-003   1.7076741691832709E-003   6.5312307296749084E-002
  -3.6284563104171108E-003   2.0029281588602732E-003   6.4398414262617942E-002
  -3.0981794885495927E-003   2.5294641704064480E-003   6.3603433759636896E-002
  -2.5679026666820849E-003   3.2872822038207683E-003   6.2927365787805778E-002
  -2.0376258448145598E-003   4.2763822591049827E-003   6.2370210347124866E-002
  -5.2684916077458017E-003   1.9583773570556184E-003   6.1597482067462739E-002
  -4.5933119010110948E-003   2.2165575769477197E-003   6.0872401796996767E-002
  -3.9181321942764313E-003   2.8001042445368329E-003   6.0318214765115452E-002
  -3.2429524875417668E-003   3.7090173598223544E-003   5.9934920971818184E-002
  -2.5677727808070608E-003   4.9432969228045964E-003   5.9722520417105129E-002
  -6.4937519080413703E-003   2.2090805449277440E-003   5.7798540855477420E-002
  -5.6216886090053389E-003   2.4301869950353883E-003   5.7356357774504846E-002
  -4.7496253099693336E-003   3.0707443186674399E-003   5.7137048639550742E-002
  -3.8775620109333031E-003   4.1307525158237185E-003   5.7140613450614969E-002
  -3.0054987118972969E-003   5.6102115865043212E-003   5.7367052207697444E-002
  -7.8345140331712200E-003   2.4597837328000360E-003   5.3915483660793573E-002
  -6.7135864343997268E-003   2.6438164131230013E-003   5.3850282195141992E-002
  -5.5926588356282336E-003   3.3413843927979359E-003   5.4059935382943014E-002
  -4.4717312368567673E-003   4.5524876718250826E-003   5.4544443224196541E-002
  -3.3508036380852464E-003   6.2771262502042124E-003   5.5303805718902713E-002
  -9.2907779831354620E-003   2.7104869206722171E-003   4.9948310483411196E-002
  -7.8690053771943158E-003   2.8574458312105588E-003   5.0354175058908268E-002
  -6.4472327712531974E-003   3.6120244669286539E-003   5.1086874995292075E-002
  -5.0254601653120720E-003   4.9742228278265022E-003   5.2146410292562562E-002
  -3.6036875593709328E-003   6.9440409139038817E-003   5.3532780950719783E-002
  -2.0376258448145598E-003   4.2763822591049827E-003   6.2370210347124866E-002
  -2.2871857193162426E-003   5.5778563575443751E-003   5.8339696435099175E-002
  -2.5367455938179080E-003   7.2727965204269496E-003   5.4303683498218458E-002
  -2.7863054683196116E-003   9.3612027477533305E-003   5.0262171536483213E-002
  -3.0358653428212562E-003   1.1843075039521977E-002   4.6215160549893053E-002
  -2.5677727808070608E-003   4.9432969228045964E-003   5.9722520417105129E-002
  -2.8403249602873791E-003   6.5672637037793580E-003   5.6190671256223124E-002
  -3.1128771397676801E-003   8.6452384730412724E-003   5.2618336510239172E-002
  -3.3854293192480140E-003   1.1177221230592102E-002   4.9005516179152775E-002
  -3.6579814987283271E-003   1.4163211976430112E-002   4.5352210262963100E-002
  -3.0054987118972969E-003   5.6102115865043212E-003   5.7367052207697444E-002
  -3.3360297566038394E-003   7.5566710500135637E-003   5.4394409721804732E-002
  -3.6665608013104357E-003   1.0017680425655567E-002   5.1346295090561905E-002
  -3.9970918460169634E-003   1.2993239713430645E-002   4.8222708313968882E-002
  -4.3276228907235710E-003   1.6483348913338469E-002   4.5023649392025744E-002
  -3.3508036380852464E-003   6.2771262502042124E-003   5.5303805718902713E-002
  -3.7743001082656789E-003   8.5460783962481579E-003   5.2950911831843431E-002
  -4.1977965784460690E-003   1.1390122378269987E-002   5.0487559239186554E-002
  -4.6212930486264877E-003   1.4809258196269191E-002   4.7913747940931700E-002
  -5.0447895188069193E-003   1.8803485850246826E-002   4.5229477937079821E-002
  -3.6036875593709328E-003   6.9440409139038817E-003   5.3532780950719783E-002
  -4.1551360152728145E-003   9.5354857424826411E-003   5.1860177586339318E-002
  -4.7065844711746824E-003   1.2762564330884130E-002   5.0042128956113707E-002
  -5.2580329270765502E-003   1.6625276679108278E-002   4.8078635060042729E-002
  -5.8094813829784320E-003   2.1123622787154961E-002   4.5969695898126162E-002
  -5.1510234858806209E-002   1.6877804815670805E-002   5.0439438271017656E-002
  -4.9403225289230135E-002   1.5889224329201035E-002   4.9625671588459597E-002
  -4.7296215719654075E-002   1.5007425582577880E-002   4.9243398809112354E-002
  -4.5189206150078008E-002   1.4232408575801225E-002   4.9292619932975804E-002
  -4.3082196580501941E-002   1.3564173308871108E-002   4.9773334960050042E-002
  -5.8396898243651255E-002   1.7897705355124860E-002   4.4344517367936542E-002
  -5.5905909154657193E-002   1.7138025839530086E-002   4.3924040498251021E-002
  -5.3414920065663209E-002   1.6413247946868020E-002   4.3840028764190658E-002
  -5.0923930976669196E-002   1.5723371677138727E-002   4.4092482165755412E-002
  -4.8432941887675184E-002   1.5068397030342073E-002   4.4681400702945351E-002
  -6.4913599113220616E-002   1.8917605894578915E-002   3.8514437494187190E-002
  -6.2133659272394275E-002   1.8386827349859081E-002   3.8415370320460301E-002
  -5.9353719431567864E-002   1.7819070311158224E-002   3.8557739514773114E-002
  -5.6573779590741460E-002   1.7214334778476177E-002   3.8941545077125495E-002
  -5.3793839749915064E-002   1.6572620751813066E-002   3.9566787007517271E-002
  -7.1060337467514348E-002   1.9937506434032984E-002   3.2949198649769820E-002
  -6.8086475642441080E-002   1.9635628860188103E-002   3.3099661055087819E-002
  -6.5112613817367923E-002   1.9224892675448368E-002   3.3396531060859859E-002
  -6.2138751992294801E-002   1.8705297879813652E-002   3.3839808667085899E-002
  -5.9164890167221589E-002   1.8076844473284073E-002   3.4429493873765926E-002
  -7.6837113306532312E-002   2.0957406973487025E-002   2.7648800834684184E-002
  -7.3764358264797936E-002   2.0884430370517126E-002   2.7976912702133261E-002
  -7.0691603223063559E-002   2.0630715039738554E-002   2.8356403402450853E-002
  -6.7618848181329197E-002   2.0196260981151151E-002   2.8787272935636835E-002
  -6.4546093139594835E-002   1.9581068194755080E-002   2.9269521301691137E-002
  -4.3082196580501941E-002   1.3564173308871108E-002   4.9773334960050042E-002
  -4.1774880287203345E-002   1.2962037041406443E-002   4.9417007849061390E-002
  -4.0467563993904720E-002   1.2385317033026366E-002   4.9214163681710804E-002
  -3.9160247700606103E-002   1.1834013283731043E-002   4.9164802457998105E-002
  -3.7852931407307500E-002   1.1308125793520196E-002   4.9268924177923556E-002
  -4.8432941887675184E-002   1.5068397030342073E-002   4.4681400702945351E-002
  -4.6971982139558541E-002   1.4440648902741632E-002   4.4337565385342170E-002
  -4.5511022391441933E-002   1.3832452190600891E-002   4.4147534033736946E-002
  -4.4050062643325331E-002   1.3243806893919872E-002   4.4111306648129657E-002
  -4.2589102895208737E-002   1.2674713012698680E-002   4.4228883228520366E-002
  -5.3793839749915064E-002   1.6572620751813066E-002   3.9566787007517271E-002
  -5.2178915524620520E-002   1.5919260764076751E-002   3.9229578639674703E-002
  -5.0563991299325983E-002   1.5279587348175416E-002   3.9046495260189981E-002
  -4.8949067074031453E-002   1.4653600504108868E-002   3.9017536869063132E-002
  -4.7334142848736889E-002   1.4041300231877191E-002   3.9142703466294324E-002
  -5.9164890167221589E-002   1.8076844473284073E-002   3.4429493873765926E-002
  -5.7395680442389213E-002   1.7397872625411960E-002   3.4093047612059023E-002
  -5.5626470717556796E-002   1.6726722505749886E-002   3.3911047361069986E-002
  -5.3857260992724365E-002   1.6063394114297837E-002   3.3883493120798698E-002
  -5.2088051267892004E-002   1.5407887451055632E-002   3.4010384891245346E-002
  -6.4546093139594835E-002   1.9581068194755080E-002   2.9269521301691137E-002
  -6.2622276892864606E-002   1.8876484486747031E-002   2.8927972302495053E-002
  -6.0698460646134406E-002   1.8173857663324397E-002   2.8741190336376760E-002
  -5.8774644399404205E-002   1.7473187724486704E-002   2.8709175403336132E-002
  -5.6850828152673977E-002   1.6774474670234185E-002   2.8831927503373489E-002
  -3.7852931407307500E-002   1.1308125793520196E-002   4.9268924177923556E-002
  -3.6100373144416192E-002   1.0787803603221846E-002   4.8990508114685638E-002
  -3.4347814881524913E-002   1.0253195753663555E-002   4.8905484452973685E-002
  -3.2595256618633613E-002   9.7043022448457771E-003   4.9013853192787601E-002
  -3.0842698355742326E-002   9.1411230767678431E-003   4.9315614334127567E-002
  -4.2589102895208737E-002   1.2674713012698680E-002   4.4228883228520366E-002
  -4.0642193359016851E-002   1.2109227043579918E-002   4.3929246946172895E-002
  -3.8695283822824986E-002   1.1531405483206261E-002   4.3824920808900603E-002
  -3.6748374286633100E-002   1.0941248331578186E-002   4.3915904816703433E-002
  -3.4801464750441241E-002   1.0338755588694903E-002   4.4202198969581719E-002
  -4.7334142848736889E-002   1.4041300231877191E-002   3.9142703466294324E-002
  -4.5190964295695163E-002   1.3430650483938045E-002   3.8823797032842181E-002
  -4.3047785742653416E-002   1.2809615212749030E-002   3.8702118488014602E-002
  -4.0904607189611697E-002   1.2178194418310374E-002   3.8777667831811566E-002
  -3.8761428636569936E-002   1.1536388100621908E-002   3.9050445064232941E-002
  -5.2088051267892004E-002   1.5407887451055632E-002   3.4010384891245346E-002
  -4.9746685954451121E-002   1.4752073924296033E-002   3.3674158374693730E-002
  -4.7405320641010266E-002   1.4087824942291823E-002   3.3537077490315780E-002
  -4.5063955327569398E-002   1.3415140505042840E-002   3.3599142238111709E-002
  -4.2722590014128550E-002   1.2734020612548830E-002   3.3860352618081374E-002
  -5.6850828152673977E-002   1.6774474670234185E-002   2.8831927503373489E-002
  -5.4309358335284719E-002   1.6073497364654382E-002   2.8480330971727252E-002
  -5.1767888517895488E-002   1.5366034671834533E-002   2.8329797815804081E-002
  -4.9226418700506244E-002   1.4652086591775172E-002   2.8380328035603947E-002
  -4.6684948883117056E-002   1.3931653124475973E-002   2.8631921631126933E-002
  -3.0842698355742326E-002   9.1411230767678431E-003   4.9315614334127567E-002
  -2.9186283528658916E-002   8.5634101188901690E-003   4.8978990921607291E-002
  -2.7529868701575491E-002   7.9709152406723938E-003   4.8826812405982356E-002
  -2.5873453874492094E-002   7.3636384421144063E-003   4.8859078787252430E-002
  -2.4217039047408656E-002   6.7415797232164287E-003   4.9075790065417735E-002
  -3.4801464750441241E-002   1.0338755588694903E-002   4.4202198969581719E-002
  -3.2968848384379919E-002   9.7231600153267483E-003   4.3841808712686614E-002
  -3.1136232018318596E-002   9.0936943722432773E-003   4.3649376636852172E-002
  -2.9303615652257302E-002   8.4503586594444902E-003   4.3624902742078323E-002
  -2.7470999286195966E-002   7.7931528769303871E-003   4.3768387028365163E-002
  -3.8761428636569936E-002   1.1536388100621908E-002   3.9050445064232941E-002
  -3.6769097447365270E-002   1.0882909911763272E-002   3.8667199813587932E-002
  -3.4776766258160695E-002   1.0216473503814161E-002   3.8435426028168851E-002
  -3.2784435068956078E-002   9.5370788767744075E-003   3.8355123707975766E-002
  -3.0792103879751398E-002   8.8447260306442343E-003   3.8426292853008942E-002
  -4.2722590014128550E-002   1.2734020612548830E-002   3.3860352618081374E-002
  -4.0587030717615186E-002   1.2042659808199768E-002   3.3455164224311072E-002
  -3.8451471421101752E-002   1.1339252635385044E-002   3.3184960579932130E-002
  -3.6315912124588332E-002   1.0623799094104519E-002   3.3049741684944817E-002
  -3.4180352828074897E-002   9.8962991843582482E-003   3.3049507539348828E-002
  -4.6684948883117056E-002   1.3931653124475973E-002   2.8631921631126933E-002
  -4.4422648195129394E-002   1.3202409704636264E-002   2.8205701944856110E-002
  -4.2160347507141774E-002   1.2462031766955872E-002   2.7897980292142244E-002
  -3.9898046819154175E-002   1.1710519311434395E-002   2.7708756672985335E-002
  -3.7635746131166520E-002   1.0947872338072040E-002   2.7638031087385162E-002
  -2.4217039047408656E-002   6.7415797232164287E-003   4.9075790065417735E-002
  -2.2425435016440787E-002   6.1139833933971932E-003   4.8770978441419754E-002
  -2.0633830985472917E-002   5.4900937620764589E-003   4.8636558015998588E-002
  -1.8842226954505062E-002   4.8699108292530671E-003   4.8672528789154207E-002
  -1.7050622923537179E-002   4.2534345949279961E-003   4.8878890760886473E-002
  -2.7470999286195966E-002   7.7931528769303871E-003   4.3768387028365163E-002
  -2.5513733762064859E-002   7.1328347768537248E-003   4.3397377410729576E-002
  -2.3556468237933691E-002   6.4801621113667052E-003   4.3187299580843524E-002
  -2.1599202713802564E-002   5.8351348804697722E-003   4.3138153538707286E-002
  -1.9641937189671360E-002   5.1977530841624819E-003   4.3249939284320971E-002
  -3.0792103879751398E-002   8.8447260306442343E-003   3.8426292853008942E-002
  -2.8678636273284021E-002   8.1516861603098123E-003   3.7993023977827445E-002
  -2.6565168666816658E-002   7.4702304606570485E-003   3.7711227479568663E-002
  -2.4451701060349253E-002   6.8003589316862519E-003   3.7580903358232574E-002
  -2.2338233453881903E-002   6.1420715733971343E-003   3.7602051613819271E-002
  -3.4180352828074897E-002   9.8962991843582482E-003   3.3049507539348828E-002
  -3.1920142550098361E-002   9.1705375437660663E-003   3.2557918142713541E-002
  -2.9659932272121738E-002   8.4602988099475654E-003   3.2208341712173766E-002
  -2.7399721994145157E-002   7.7655829829026777E-003   3.2000778247729948E-002
  -2.5139511716168586E-002   7.0863900626319254E-003   3.1935227749381657E-002
  -3.7635746131166520E-002   1.0947872338072040E-002   2.7638031087385162E-002
  -3.5238252592507791E-002   1.0189388927222265E-002   2.7092059905387877E-002
  -3.2840759053849047E-002   9.4503671592376381E-003   2.6678642278659292E-002
  -3.0443265515190325E-002   8.7308070341194921E-003   2.6397778207199407E-002
  -2.8045771976531547E-002   8.0307085518663834E-003   2.6249467691008110E-002
  -1.7050622923537179E-002   4.2534345949279961E-003   4.8878890760886473E-002
  -1.5110661688436736E-002   3.6960332014799868E-003   4.8761942539749636E-002
  -1.3170700453336320E-002   3.2530747912879188E-003   4.8901196419791459E-002
  -1.1230739218235898E-002   2.9245593643522985E-003   4.9296652401012081E-002
  -9.2907779831354620E-003   2.7104869206722171E-003   4.9948310483411196E-002
  -1.9641937189671360E-002   5.1977530841624819E-003   4.3249939284320971E-002
  -1.7484683122355731E-002   4.5999316455095918E-003   4.3082058928131772E-002
  -1.5327429055040039E-002   4.0735854875758037E-003   4.3092562135194606E-002
  -1.3170174987724385E-002   3.6187146103606599E-003   4.3281448905509542E-002
  -1.1012920920408717E-002   3.2353190138645349E-003   4.3648719239075817E-002
  -2.2338233453881903E-002   6.1420715733971343E-003   3.7602051613819271E-002
  -2.0041505092277798E-002   5.5038300895398351E-003   3.7340271420040927E-002
  -1.7744776730673702E-002   4.8940961838638969E-003   3.7179056251587392E-002
  -1.5448048369069588E-002   4.3128698563696839E-003   3.7118406108458908E-002
  -1.3151320007465502E-002   3.7601511070569638E-003   3.7158320990655469E-002
  -2.5139511716168586E-002   7.0863900626319254E-003   3.1935227749381657E-002
  -2.2781127598202958E-002   6.4077285335698703E-003   3.1536580015476420E-002
  -2.0422743480237274E-002   5.7146068801519970E-003   3.1160678768969424E-002
  -1.8064359362271628E-002   5.0070251023783766E-003   3.0807524009860594E-002
  -1.5705975244305961E-002   4.2849832002495036E-003   3.0477115738149763E-002
  -2.8045771976531547E-002   8.0307085518663834E-003   2.6249467691008110E-002
  -2.5703550640131190E-002   7.3116269775996834E-003   2.5670984714438849E-002
  -2.3361329303730791E-002   6.5351175764398195E-003   2.5037429687340962E-002
  -2.1019107967330385E-002   5.7011803483873885E-003   2.4348802609714559E-002
  -1.8676886630930034E-002   4.8098152934417104E-003   2.3605103481559087E-002
  -9.2907779831354620E-003   2.7104869206722171E-003   4.9948310483411196E-002
  -7.8690053771943158E-003   2.8574458312105588E-003   5.0354175058908268E-002
  -6.4472327712531974E-003   3.6120244669286539E-003   5.1086874995292075E-002
  -5.0254601653120720E-003   4.9742228278265022E-003   5.2146410292562562E-002
  -3.6036875593709328E-003   6.9440409139038817E-003   5.3532780950719783E-002
  -1.1012920920408717E-002   3.2353190138645349E-003   4.3648719239075817E-002
  -9.2459437150463480E-003   3.1628970572749049E-003   4.4235742765460828E-002
  -7.4789665096839930E-003   3.6409470997799676E-003   4.5186340129801689E-002
  -5.7119893043216415E-003   4.6694691413786543E-003   4.6500511332098191E-002
  -3.9450120989592691E-003   6.2484631820717285E-003   4.8178256372350292E-002
  -1.3151320007465502E-002   3.7601511070569638E-003   3.7158320990655469E-002
  -1.1002399725612955E-002   3.4683482833395562E-003   3.7869355741842858E-002
  -8.8534794437603523E-003   3.6698697326308372E-003   3.8980702808055073E-002
  -6.7045591619077794E-003   4.3647154549310285E-003   4.0492362189291892E-002
  -4.5556388800552586E-003   5.5528854502399083E-003   4.2404333885553536E-002
  -1.5705975244305961E-002   4.2849832002495036E-003   3.0477115738149763E-002
  -1.3138373408894191E-002   3.7737995094040550E-003   3.1255013988054262E-002
  -1.0570771573482390E-002   3.6987923654818178E-003   3.2469963030052430E-002
  -8.0031697380706611E-003   4.0599617684835138E-003   3.4121962864144519E-002
  -5.4355679026588197E-003   4.8573077184080327E-003   3.6211013490330166E-002
  -1.8676886630930034E-002   4.8098152934417104E-003   2.3605103481559087E-002
  -1.5653864764890002E-002   4.0792507354684981E-003   2.4392717504094996E-002
  -1.2630842898849998E-002   3.7277149983331037E-003   2.5654120795793711E-002
  -9.6078210328099517E-003   3.7552080820355757E-003   2.7389313356655093E-002
  -6.5847991667699612E-003   4.1617299865758239E-003   2.9598295186679224E-002
  -3.6036875593709328E-003   6.9440409139038817E-003   5.3532780950719783E-002
  -4.1551360152728145E-003   9.5354857424826411E-003   5.1860177586339318E-002
  -4.7065844711746824E-003   1.2762564330884130E-002   5.0042128956113707E-002
  -5.2580329270765502E-003   1.6625276679108278E-002   4.8078635060042729E-002
  -5.8094813829784320E-003   2.1123622787154961E-002   4.5969695898126162E-002
  -3.9450120989592691E-003   6.2484631820717285E-003   4.8178256372350292E-002
  -4.5380600288261463E-003   8.6873262018283826E-003   4.7242646417769263E-002
  -5.1311079586930861E-003   1.2295455180615089E-002   4.6369282781103693E-002
  -5.7241558885600466E-003   1.7072850118433444E-002   4.5558165462353084E-002
  -6.3172038184269030E-003   2.3019511015282657E-002   4.4809294461518157E-002
  -4.5556388800552586E-003   5.5528854502399083E-003   4.2404333885553536E-002
  -4.9825947001266302E-003   7.8391666611731803E-003   4.2739349539980709E-002
  -5.4095505201979983E-003   1.1828346030345854E-002   4.3344303096083475E-002
  -5.8365063402694289E-003   1.7520423557758340E-002   4.4219194553862279E-002
  -6.2634621603407936E-003   2.4915399243410352E-002   4.5364023913316398E-002
  -5.4355679026588197E-003   4.8573077184080327E-003   3.6211013490330166E-002
  -5.4887400291741811E-003   6.9910071205184499E-003   3.8350286952973420E-002
  -5.5419121556896274E-003   1.1361236880076939E-002   4.0967189901053407E-002
  -5.5950842822050616E-003   1.7967996997083260E-002   4.4061722334569356E-002
  -5.6482564087204368E-003   2.6811287471538048E-002   4.7633884253521275E-002
  -6.5847991667699612E-003   4.1617299865758239E-003   2.9598295186679224E-002
  -6.0564960159688874E-003   6.1428475798637194E-003   3.4075458656747659E-002
  -5.5281928651678136E-003   1.0894127729807440E-002   3.9237943196012870E-002
  -4.9998897143667675E-003   1.8415570436408367E-002   4.5085748804475106E-002
  -4.4715865635657215E-003   2.8707175699665743E-002   5.1618875482133397E-002
  -7.6837113306532312E-002   2.0957406973487025E-002   2.7648800834684184E-002
  -7.3764358264797936E-002   2.0884430370517126E-002   2.7976912702133261E-002
  -7.0691603223063559E-002   2.0630715039738554E-002   2.8356403402450853E-002
  -6.7618848181329197E-002   2.0196260981151151E-002   2.8787272935636835E-002
  -6.4546093139594835E-002   1.9581068194755080E-002   2.9269521301691137E-002
  -8.2663757652614300E-002   2.3872033229886291E-002   2.1828584770453408E-002
  -7.9475079519638142E-002   2.3243181541255931E-002   2.1647900815859100E-002
  -7.6286401386661901E-002   2.2587787478408131E-002   2.1647684210880258E-002
  -7.3097723253685715E-002   2.1905851041343034E-002   2.1827934955516617E-002
  -6.9909045120709501E-002   2.1197372230060574E-002   2.2188653049768220E-002
  -8.8960101528100063E-002   2.6786659486285641E-002   1.5375395443766246E-002
  -8.5526411787135159E-002   2.5601932711994735E-002   1.4840112020720136E-002
  -8.2092722046170213E-002   2.4544859917077770E-002   1.4614384464036130E-002
  -7.8659032305205281E-002   2.3615441101534865E-002   1.4698212773714307E-002
  -7.5225342564240336E-002   2.2813676265366151E-002   1.5091596949754635E-002
  -9.5726144932989601E-002   2.9701285742684921E-002   8.2892328546229528E-003
  -9.1918355067289140E-002   2.7960683882733373E-002   7.5535463167163384E-003
  -8.8110565201588525E-002   2.6501932355747323E-002   7.2565041619186334E-003
  -8.4302775335887967E-002   2.5325031161726803E-002   7.3981063902301752E-003
  -8.0494985470187436E-002   2.4429980300671741E-002   7.9783530016504407E-003
 -0.10296188786728289        3.2615911999084202E-002   5.7009700302335098E-004
  -9.8650909360099792E-002   3.0319435053472343E-002  -2.1179629615236673E-004
  -9.4339930852916809E-002   2.8459004794416959E-002  -4.2595669547235149E-004
  -9.0028952345733770E-002   2.7034621221918624E-002  -7.2384194936450652E-005
  -8.5717973838550732E-002   2.6046284335977221E-002   8.4892120545571048E-004
  -6.4546093139594835E-002   1.9581068194755080E-002   2.9269521301691137E-002
  -6.2622276892864606E-002   1.8876484486747031E-002   2.8927972302495053E-002
  -6.0698460646134406E-002   1.8173857663324397E-002   2.8741190336376760E-002
  -5.8774644399404205E-002   1.7473187724486704E-002   2.8709175403336132E-002
  -5.6850828152673977E-002   1.6774474670234185E-002   2.8831927503373489E-002
  -6.9909045120709501E-002   2.1197372230060574E-002   2.2188653049768220E-002
  -6.7832204657172254E-002   2.0470981502954802E-002   2.1888353485462933E-002
  -6.5755364193635063E-002   1.9735309318419297E-002   2.1739335321693892E-002
  -6.3678523730097789E-002   1.8990355676454247E-002   2.1741598558461056E-002
  -6.1601683266560681E-002   1.8236120577059645E-002   2.1895143195764577E-002
  -7.5225342564240336E-002   2.2813676265366151E-002   1.5091596949754635E-002
  -7.2998963516437629E-002   2.2065478519162393E-002   1.4821308478325509E-002
  -7.0772584468634991E-002   2.1296760973514094E-002   1.4698815774890933E-002
  -6.8546205420832340E-002   2.0507523628421849E-002   1.4724118839451263E-002
  -6.6319826373029578E-002   1.9697766483884938E-002   1.4897217672006149E-002
  -8.0494985470187436E-002   2.4429980300671741E-002   7.9783530016504407E-003
  -7.8122553470660827E-002   2.3659975535369936E-002   7.7268372810827025E-003
  -7.5750121471134177E-002   2.2858212628608942E-002   7.6196316959680297E-003
  -7.3377689471607541E-002   2.2024691580389253E-002   7.6567362463064578E-003
  -7.1005257472080918E-002   2.1159412390710258E-002   7.8381509320983173E-003
  -8.5717973838550732E-002   2.6046284335977221E-002   8.4892120545571048E-004
  -8.3202974519841655E-002   2.5254472551577867E-002   6.0493989373444634E-004
  -8.0687975201132633E-002   2.4419664283703707E-002   5.0178308492494772E-004
  -7.8172975882423612E-002   2.3541859532356914E-002   5.3945077902727359E-004
  -7.5657976563714535E-002   2.2621058297535801E-002   7.1794297604099722E-004
  -5.6850828152673977E-002   1.6774474670234185E-002   2.8831927503373489E-002
  -5.4309358335284719E-002   1.6073497364654382E-002   2.8480330971727252E-002
  -5.1767888517895488E-002   1.5366034671834533E-002   2.8329797815804081E-002
  -4.9226418700506244E-002   1.4652086591775172E-002   2.8380328035603947E-002
  -4.6684948883117056E-002   1.3931653124475973E-002   2.8631921631126933E-002
  -6.1601683266560681E-002   1.8236120577059645E-002   2.1895143195764577E-002
  -5.8863125084455917E-002   1.7475018004894538E-002   2.1566814222853004E-002
  -5.6124566902351181E-002   1.6709461944618476E-002   2.1431598603649529E-002
  -5.3386008720246445E-002   1.5939452396231360E-002   2.1489496338153939E-002
  -5.0647450538141695E-002   1.5164989359733039E-002   2.1740507426366240E-002
  -6.6319826373029578E-002   1.9697766483884938E-002   1.4897217672006149E-002
  -6.3392129848224524E-002   1.8876538645134847E-002   1.4594188156958010E-002
  -6.0464433323419359E-002   1.8052889217402349E-002   1.4476321973602727E-002
  -5.7536736798614235E-002   1.7226818200687489E-002   1.4543619121940334E-002
  -5.4609040273809147E-002   1.6398325594990104E-002   1.4796079601970741E-002
  -7.1005257472080918E-002   2.1159412390710258E-002   7.8381509320983173E-003
  -6.7896372626590457E-002   2.0278059285375079E-002   7.5624527740423206E-003
  -6.4787487781099995E-002   1.9396316490186423E-002   7.4639679256639120E-003
  -6.1678602935609589E-002   1.8514184005143645E-002   7.5426963869633813E-003
  -5.8569718090119086E-002   1.7631661830247392E-002   7.7986381579406017E-003
  -7.5657976563714535E-002   2.2621058297535801E-002   7.1794297604099722E-004
  -7.2375853419553882E-002   2.1679579925615422E-002   4.7160807410601135E-004
  -6.9093730275393173E-002   2.0739743762970247E-002   3.9453645983306140E-004
  -6.5811607131232519E-002   1.9801549809599771E-002   4.8672813322332698E-004
  -6.2529483987071810E-002   1.8864998065504457E-002   7.4818309427593377E-004
  -4.6684948883117056E-002   1.3931653124475973E-002   2.8631921631126933E-002
  -4.4422648195129394E-002   1.3202409704636264E-002   2.8205701944856110E-002
  -4.2160347507141774E-002   1.2462031766955872E-002   2.7897980292142244E-002
  -3.9898046819154175E-002   1.1710519311434395E-002   2.7708756672985335E-002
  -3.7635746131166520E-002   1.0947872338072040E-002   2.7638031087385162E-002
  -5.0647450538141695E-002   1.5164989359733039E-002   2.1740507426366240E-002
  -4.8254633953731849E-002   1.4388541775130659E-002   2.1321892459348957E-002
  -4.5861817369321843E-002   1.3612578582430548E-002   2.1045811251619528E-002
  -4.3469000784911921E-002   1.2837099781633627E-002   2.0912263803177650E-002
  -4.1076184200501992E-002   1.2062105372738774E-002   2.0921250114023626E-002
  -5.4609040273809147E-002   1.6398325594990104E-002   1.4796079601970741E-002
  -5.2061672067246025E-002   1.5574673845624665E-002   1.4396688263950783E-002
  -4.9514303860683007E-002   1.4763125397905447E-002   1.4163866410949189E-002
  -4.6966935654119968E-002   1.3963680251832360E-002   1.4097614042966347E-002
  -4.4419567447556881E-002   1.3176338407405841E-002   1.4197931160001842E-002
  -5.8569718090119086E-002   1.7631661830247392E-002   7.7986381579406017E-003
  -5.5843762535672151E-002   1.6760805916118920E-002   7.4300893586612266E-003
  -5.3117806981225202E-002   1.5913672213380567E-002   7.2521457701313977E-003
  -5.0391851426778302E-002   1.5090260722031453E-002   7.2648073923507993E-003
  -4.7665895872331318E-002   1.4290571442072963E-002   7.4680742253193794E-003
  -6.2529483987071810E-002   1.8864998065504457E-002   7.4818309427593377E-004
  -5.9600905359010081E-002   1.7946937986613287E-002   4.2209574348073264E-004
  -5.6672326730948464E-002   1.7064219028855077E-002   3.1064932916594068E-004
  -5.3743748102886763E-002   1.6216841192230672E-002   4.1384385133150930E-004
  -5.0815169474825117E-002   1.5404804476739420E-002   7.3167930997675157E-004
  -3.7635746131166520E-002   1.0947872338072040E-002   2.7638031087385162E-002
  -3.5238252592507791E-002   1.0189388927222265E-002   2.7092059905387877E-002
  -3.2840759053849047E-002   9.4503671592376381E-003   2.6678642278659292E-002
  -3.0443265515190325E-002   8.7308070341194921E-003   2.6397778207199407E-002
  -2.8045771976531547E-002   8.0307085518663834E-003   2.6249467691008110E-002
  -4.1076184200501992E-002   1.2062105372738774E-002   2.0921250114023626E-002
  -3.8558429522639784E-002   1.1290664583619825E-002   2.0473083583498863E-002
  -3.6040674844777701E-002   1.0525846642149672E-002   2.0132885776112136E-002
  -3.3522920166915549E-002   9.7676515483278298E-003   1.9900656691863541E-002
  -3.1005165489053410E-002   9.0160793021545338E-003   1.9776396330753232E-002
  -4.4419567447556881E-002   1.3176338407405841E-002   1.4197931160001842E-002
  -4.1806136462621789E-002   1.2391940240017579E-002   1.3834730485732194E-002
  -3.9192705477686801E-002   1.1601326125061484E-002   1.3554913702470417E-002
  -3.6579274492751807E-002   1.0804496062536334E-002   1.3358480810216102E-002
  -3.3965843507816791E-002   1.0001450052442851E-002   1.3245431808969310E-002
  -4.7665895872331318E-002   1.4290571442072963E-002   7.4680742253193794E-003
  -4.4981373412453902E-002   1.3493215896415792E-002   7.1770006120882232E-003
  -4.2296850952576508E-002   1.2676805607973074E-002   6.9447260577337605E-003
  -3.9612328492699106E-002   1.1841340576744866E-002   6.7712505622567719E-003
  -3.6927806032821697E-002   1.0986820802731417E-002   6.6565741256566086E-003
  -5.0815169474825117E-002   1.5404804476739420E-002   7.3167930997675157E-004
  -4.8084140372135820E-002   1.4594491552812894E-002   4.9989396256649998E-004
  -4.5353111269446689E-002   1.3752285090885108E-002   3.0232284190287451E-004
  -4.2622082166757475E-002   1.2878185090953009E-002   1.3896594798592371E-004
  -3.9891053064068260E-002   1.1972191553019318E-002   9.8232808148912554E-006
  -2.8045771976531547E-002   8.0307085518663834E-003   2.6249467691008110E-002
  -2.5703550640131190E-002   7.3116269775996834E-003   2.5670984714438849E-002
  -2.3361329303730791E-002   6.5351175764398195E-003   2.5037429687340962E-002
  -2.1019107967330385E-002   5.7011803483873885E-003   2.4348802609714559E-002
  -1.8676886630930034E-002   4.8098152934417104E-003   2.3605103481559087E-002
  -3.1005165489053410E-002   9.0160793021545338E-003   1.9776396330753232E-002
  -2.8699374731429306E-002   8.2668534263871662E-003   1.9185591352829823E-002
  -2.6393583973805174E-002   7.5156974437830537E-003   1.8576997267882756E-002
  -2.4087793216181090E-002   6.7626113543422101E-003   1.7950614075911794E-002
  -2.1782002458556993E-002   6.0075951580644826E-003   1.7306441776916981E-002
  -3.3965843507816791E-002   1.0001450052442851E-002   1.3245431808969310E-002
  -3.1659200385464069E-002   9.2220798751746491E-003   1.2697802549748116E-002
  -2.9352557263111447E-002   8.4962773111262047E-003   1.2169667127008163E-002
  -2.7045914140758777E-002   7.8240423602969275E-003   1.1661025540749187E-002
  -2.4739271018406159E-002   7.2053750226875879E-003   1.1171877790971091E-002
  -3.6927806032821697E-002   1.0986820802731417E-002   6.6565741256566086E-003
  -3.4583027602235590E-002   1.0177306323962187E-002   6.2076183051935352E-003
  -3.2238249171649538E-002   9.4768571784696193E-003   5.8154392647171774E-003
  -2.9893470741063459E-002   8.8854733662516970E-003   5.4800370042260363E-003
  -2.7548692310477376E-002   8.4031548873101936E-003   5.2014115237211805E-003
  -3.9891053064068260E-002   1.1972191553019318E-002   9.8232808148912554E-006
  -3.7470856381743967E-002   1.1132532772749282E-002  -2.8496138083311529E-004
  -3.5050659699419562E-002   1.0457437045812534E-002  -4.8568631899018055E-004
  -3.2630463017095185E-002   9.9469043722066747E-003  -5.9235153365672782E-004
  -3.0210266334770863E-002   9.6009347519334653E-003  -6.0495702483243097E-004
  -1.8676886630930034E-002   4.8098152934417104E-003   2.3605103481559087E-002
  -1.5653864764890002E-002   4.0792507354684981E-003   2.4392717504094996E-002
  -1.2630842898849998E-002   3.7277149983331037E-003   2.5654120795793711E-002
  -9.6078210328099517E-003   3.7552080820355757E-003   2.7389313356655093E-002
  -6.5847991667699612E-003   4.1617299865758239E-003   2.9598295186679224E-002
  -2.1782002458556993E-002   6.0075951580644826E-003   1.7306441776916981E-002
  -1.8554619651430987E-002   5.3428257563144510E-003   1.8253200997518704E-002
  -1.5327236844305023E-002   4.8604800504548629E-003   1.9134892831129430E-002
  -1.2099854037179038E-002   4.5605580404876195E-003   1.9951517277749534E-002
  -8.8724712300530528E-003   4.4430597264111249E-003   2.0703074337378835E-002
  -2.4739271018406159E-002   7.2053750226875879E-003   1.1171877790971091E-002
  -2.1846383926347732E-002   6.6064007771600985E-003   1.2081177084692141E-002
  -1.8953496834289284E-002   5.9932451025773020E-003   1.2386552335268461E-002
  -1.6060609742230846E-002   5.3659079989392226E-003   1.2088003542700516E-002
  -1.3167722650172520E-002   4.7243894662467034E-003   1.1185530706988328E-002
  -2.7548692310477376E-002   8.4031548873101936E-003   5.2014115237211805E-003
  -2.5529157589640080E-002   7.8699757980056767E-003   5.8766457656145854E-003
  -2.3509622868802788E-002   7.1260101546997343E-003   5.4090993082105514E-003
  -2.1490088147965422E-002   6.1712579573918232E-003   3.7987721515081330E-003
  -1.9470553427128195E-002   5.0057192060824762E-003   1.0456642955080850E-003
  -3.0210266334770863E-002   9.6009347519334653E-003  -6.0495702483243097E-004
  -2.9602940641308195E-002   9.1335508188518100E-003  -3.6039295971268537E-004
  -2.8995614947845472E-002   8.2587752068213338E-003  -1.7974662500442884E-003
  -2.8388289254382804E-002   6.9766079158428279E-003  -4.9161768958272678E-003
  -2.7780963560920080E-002   5.2870489459173609E-003  -9.7165248970617624E-003
  -6.5847991667699612E-003   4.1617299865758239E-003   2.9598295186679224E-002
  -6.0564960159688874E-003   6.1428475798637194E-003   3.4075458656747659E-002
  -5.5281928651678136E-003   1.0894127729807440E-002   3.9237943196012870E-002
  -4.9998897143667675E-003   1.8415570436408367E-002   4.5085748804475106E-002
  -4.4715865635657215E-003   2.8707175699665743E-002   5.1618875482133397E-002
  -8.8724712300530528E-003   4.4430597264111249E-003   2.0703074337378835E-002
  -7.5865356195811418E-003   5.6588443068712468E-003   2.5872122166003764E-002
  -6.3006000091092723E-003   9.3587709805114105E-003   3.1871113844773480E-002
  -5.0146643986372433E-003   1.5542839747332171E-002   3.8700049373688594E-002
  -3.7287287881653808E-003   2.4211050607332751E-002   4.6358928752748829E-002
  -1.3167722650172520E-002   4.7243894662467034E-003   1.1185530706988328E-002
  -1.0979531799081309E-002   5.1748410338787743E-003   1.6760442430693689E-002
  -8.7913409479900978E-003   7.8234142312145066E-003   2.3309920785492086E-002
  -6.6031500968989076E-003   1.2670109058255257E-002   3.0833965771384204E-002
  -4.4149592458077869E-003   1.9714925514999981E-002   3.9332577388369483E-002
  -1.9470553427128195E-002   5.0057192060824762E-003   1.0456642955080850E-003
  -1.6235484554469444E-002   4.6908377608853025E-003   6.7404194508175544E-003
  -1.3000415681810745E-002   6.2880574819180399E-003   1.3554364018168532E-002
  -9.7653468091521145E-003   9.7973783691782581E-003   2.1487497997561375E-002
  -6.5302779364932936E-003   1.5218800422667100E-002   3.0539821388995914E-002
  -2.7780963560920080E-002   5.2870489459173609E-003  -9.7165248970617624E-003
  -2.3354393885745561E-002   4.2068344878942732E-003  -4.1879467736243292E-003
  -1.8927824210571043E-002   4.7527007326215176E-003   2.6044435428028423E-003
  -1.4501254535396441E-002   6.9246476801021334E-003   1.0660646052220356E-002
  -1.0074684860222005E-002   1.0722675330334219E-002   1.9980660754627788E-002
 </DataArray>
 </PointData>
 </Piece>
 </UnstructuredGrid>
 </VTKFile>
