 <VTKFile type="UnstructuredGrid"  version="0.1"   >
 <UnstructuredGrid>
 <Piece  NumberOfPoints="          1600 "  NumberOfCells="         1024 ">
 <Points>
 <DataArray  type="Float64" NumberOfComponents="3"  format="ascii" >
   0.0000000000000000        0.0000000000000000        0.0000000000000000     
   3.1250000000000000E-002   0.0000000000000000        0.0000000000000000     
   6.2500000000000000E-002   0.0000000000000000        0.0000000000000000     
   9.3750000000000000E-002   0.0000000000000000        0.0000000000000000     
  0.12500000000000000        0.0000000000000000        0.0000000000000000     
   0.0000000000000000        3.1250000000000000E-002   0.0000000000000000     
   3.1250000000000000E-002   3.1250000000000000E-002   0.0000000000000000     
   6.2500000000000000E-002   3.1250000000000000E-002   0.0000000000000000     
   9.3750000000000000E-002   3.1250000000000000E-002   0.0000000000000000     
  0.12500000000000000        3.1250000000000000E-002   0.0000000000000000     
   0.0000000000000000        6.2500000000000000E-002   0.0000000000000000     
   3.1250000000000000E-002   6.2500000000000000E-002   0.0000000000000000     
   6.2500000000000000E-002   6.2500000000000000E-002   0.0000000000000000     
   9.3750000000000000E-002   6.2500000000000000E-002   0.0000000000000000     
  0.12500000000000000        6.2500000000000000E-002   0.0000000000000000     
   0.0000000000000000        9.3750000000000000E-002   0.0000000000000000     
   3.1250000000000000E-002   9.3750000000000000E-002   0.0000000000000000     
   6.2500000000000000E-002   9.3750000000000000E-002   0.0000000000000000     
   9.3750000000000000E-002   9.3750000000000000E-002   0.0000000000000000     
  0.12500000000000000        9.3750000000000000E-002   0.0000000000000000     
   0.0000000000000000       0.12500000000000000        0.0000000000000000     
   3.1250000000000000E-002  0.12500000000000000        0.0000000000000000     
   6.2500000000000000E-002  0.12500000000000000        0.0000000000000000     
   9.3750000000000000E-002  0.12500000000000000        0.0000000000000000     
  0.12500000000000000       0.12500000000000000        0.0000000000000000     
  0.12500000000000000        0.0000000000000000        0.0000000000000000     
  0.15625000000000000        0.0000000000000000        0.0000000000000000     
  0.18750000000000000        0.0000000000000000        0.0000000000000000     
  0.21875000000000000        0.0000000000000000        0.0000000000000000     
  0.25000000000000000        0.0000000000000000        0.0000000000000000     
  0.12500000000000000        3.1250000000000000E-002   0.0000000000000000     
  0.15625000000000000        3.1250000000000000E-002   0.0000000000000000     
  0.18750000000000000        3.1250000000000000E-002   0.0000000000000000     
  0.21875000000000000        3.1250000000000000E-002   0.0000000000000000     
  0.25000000000000000        3.1250000000000000E-002   0.0000000000000000     
  0.12500000000000000        6.2500000000000000E-002   0.0000000000000000     
  0.15625000000000000        6.2500000000000000E-002   0.0000000000000000     
  0.18750000000000000        6.2500000000000000E-002   0.0000000000000000     
  0.21875000000000000        6.2500000000000000E-002   0.0000000000000000     
  0.25000000000000000        6.2500000000000000E-002   0.0000000000000000     
  0.12500000000000000        9.3750000000000000E-002   0.0000000000000000     
  0.15625000000000000        9.3750000000000000E-002   0.0000000000000000     
  0.18750000000000000        9.3750000000000000E-002   0.0000000000000000     
  0.21875000000000000        9.3750000000000000E-002   0.0000000000000000     
  0.25000000000000000        9.3750000000000000E-002   0.0000000000000000     
  0.12500000000000000       0.12500000000000000        0.0000000000000000     
  0.15625000000000000       0.12500000000000000        0.0000000000000000     
  0.18750000000000000       0.12500000000000000        0.0000000000000000     
  0.21875000000000000       0.12500000000000000        0.0000000000000000     
  0.25000000000000000       0.12500000000000000        0.0000000000000000     
  0.25000000000000000        0.0000000000000000        0.0000000000000000     
  0.28125000000000000        0.0000000000000000        0.0000000000000000     
  0.31250000000000000        0.0000000000000000        0.0000000000000000     
  0.34375000000000000        0.0000000000000000        0.0000000000000000     
  0.37500000000000000        0.0000000000000000        0.0000000000000000     
  0.25000000000000000        3.1250000000000000E-002   0.0000000000000000     
  0.28125000000000000        3.1250000000000000E-002   0.0000000000000000     
  0.31250000000000000        3.1250000000000000E-002   0.0000000000000000     
  0.34375000000000000        3.1250000000000000E-002   0.0000000000000000     
  0.37500000000000000        3.1250000000000000E-002   0.0000000000000000     
  0.25000000000000000        6.2500000000000000E-002   0.0000000000000000     
  0.28125000000000000        6.2500000000000000E-002   0.0000000000000000     
  0.31250000000000000        6.2500000000000000E-002   0.0000000000000000     
  0.34375000000000000        6.2500000000000000E-002   0.0000000000000000     
  0.37500000000000000        6.2500000000000000E-002   0.0000000000000000     
  0.25000000000000000        9.3750000000000000E-002   0.0000000000000000     
  0.28125000000000000        9.3750000000000000E-002   0.0000000000000000     
  0.31250000000000000        9.3750000000000000E-002   0.0000000000000000     
  0.34375000000000000        9.3750000000000000E-002   0.0000000000000000     
  0.37500000000000000        9.3750000000000000E-002   0.0000000000000000     
  0.25000000000000000       0.12500000000000000        0.0000000000000000     
  0.28125000000000000       0.12500000000000000        0.0000000000000000     
  0.31250000000000000       0.12500000000000000        0.0000000000000000     
  0.34375000000000000       0.12500000000000000        0.0000000000000000     
  0.37500000000000000       0.12500000000000000        0.0000000000000000     
  0.37500000000000000        0.0000000000000000        0.0000000000000000     
  0.40625000000000000        0.0000000000000000        0.0000000000000000     
  0.43750000000000000        0.0000000000000000        0.0000000000000000     
  0.46875000000000000        0.0000000000000000        0.0000000000000000     
  0.50000000000000000        0.0000000000000000        0.0000000000000000     
  0.37500000000000000        3.1250000000000000E-002   0.0000000000000000     
  0.40625000000000000        3.1250000000000000E-002   0.0000000000000000     
  0.43750000000000000        3.1250000000000000E-002   0.0000000000000000     
  0.46875000000000000        3.1250000000000000E-002   0.0000000000000000     
  0.50000000000000000        3.1250000000000000E-002   0.0000000000000000     
  0.37500000000000000        6.2500000000000000E-002   0.0000000000000000     
  0.40625000000000000        6.2500000000000000E-002   0.0000000000000000     
  0.43750000000000000        6.2500000000000000E-002   0.0000000000000000     
  0.46875000000000000        6.2500000000000000E-002   0.0000000000000000     
  0.50000000000000000        6.2500000000000000E-002   0.0000000000000000     
  0.37500000000000000        9.3750000000000000E-002   0.0000000000000000     
  0.40625000000000000        9.3750000000000000E-002   0.0000000000000000     
  0.43750000000000000        9.3750000000000000E-002   0.0000000000000000     
  0.46875000000000000        9.3750000000000000E-002   0.0000000000000000     
  0.50000000000000000        9.3750000000000000E-002   0.0000000000000000     
  0.37500000000000000       0.12500000000000000        0.0000000000000000     
  0.40625000000000000       0.12500000000000000        0.0000000000000000     
  0.43750000000000000       0.12500000000000000        0.0000000000000000     
  0.46875000000000000       0.12500000000000000        0.0000000000000000     
  0.50000000000000000       0.12500000000000000        0.0000000000000000     
  0.50000000000000000        0.0000000000000000        0.0000000000000000     
  0.53125000000000000        0.0000000000000000        0.0000000000000000     
  0.56250000000000000        0.0000000000000000        0.0000000000000000     
  0.59375000000000000        0.0000000000000000        0.0000000000000000     
  0.62500000000000000        0.0000000000000000        0.0000000000000000     
  0.50000000000000000        3.1250000000000000E-002   0.0000000000000000     
  0.53125000000000000        3.1250000000000000E-002   0.0000000000000000     
  0.56250000000000000        3.1250000000000000E-002   0.0000000000000000     
  0.59375000000000000        3.1250000000000000E-002   0.0000000000000000     
  0.62500000000000000        3.1250000000000000E-002   0.0000000000000000     
  0.50000000000000000        6.2500000000000000E-002   0.0000000000000000     
  0.53125000000000000        6.2500000000000000E-002   0.0000000000000000     
  0.56250000000000000        6.2500000000000000E-002   0.0000000000000000     
  0.59375000000000000        6.2500000000000000E-002   0.0000000000000000     
  0.62500000000000000        6.2500000000000000E-002   0.0000000000000000     
  0.50000000000000000        9.3750000000000000E-002   0.0000000000000000     
  0.53125000000000000        9.3750000000000000E-002   0.0000000000000000     
  0.56250000000000000        9.3750000000000000E-002   0.0000000000000000     
  0.59375000000000000        9.3750000000000000E-002   0.0000000000000000     
  0.62500000000000000        9.3750000000000000E-002   0.0000000000000000     
  0.50000000000000000       0.12500000000000000        0.0000000000000000     
  0.53125000000000000       0.12500000000000000        0.0000000000000000     
  0.56250000000000000       0.12500000000000000        0.0000000000000000     
  0.59375000000000000       0.12500000000000000        0.0000000000000000     
  0.62500000000000000       0.12500000000000000        0.0000000000000000     
  0.62500000000000000        0.0000000000000000        0.0000000000000000     
  0.65625000000000000        0.0000000000000000        0.0000000000000000     
  0.68750000000000000        0.0000000000000000        0.0000000000000000     
  0.71875000000000000        0.0000000000000000        0.0000000000000000     
  0.75000000000000000        0.0000000000000000        0.0000000000000000     
  0.62500000000000000        3.1250000000000000E-002   0.0000000000000000     
  0.65625000000000000        3.1250000000000000E-002   0.0000000000000000     
  0.68750000000000000        3.1250000000000000E-002   0.0000000000000000     
  0.71875000000000000        3.1250000000000000E-002   0.0000000000000000     
  0.75000000000000000        3.1250000000000000E-002   0.0000000000000000     
  0.62500000000000000        6.2500000000000000E-002   0.0000000000000000     
  0.65625000000000000        6.2500000000000000E-002   0.0000000000000000     
  0.68750000000000000        6.2500000000000000E-002   0.0000000000000000     
  0.71875000000000000        6.2500000000000000E-002   0.0000000000000000     
  0.75000000000000000        6.2500000000000000E-002   0.0000000000000000     
  0.62500000000000000        9.3750000000000000E-002   0.0000000000000000     
  0.65625000000000000        9.3750000000000000E-002   0.0000000000000000     
  0.68750000000000000        9.3750000000000000E-002   0.0000000000000000     
  0.71875000000000000        9.3750000000000000E-002   0.0000000000000000     
  0.75000000000000000        9.3750000000000000E-002   0.0000000000000000     
  0.62500000000000000       0.12500000000000000        0.0000000000000000     
  0.65625000000000000       0.12500000000000000        0.0000000000000000     
  0.68750000000000000       0.12500000000000000        0.0000000000000000     
  0.71875000000000000       0.12500000000000000        0.0000000000000000     
  0.75000000000000000       0.12500000000000000        0.0000000000000000     
  0.75000000000000000        0.0000000000000000        0.0000000000000000     
  0.78125000000000000        0.0000000000000000        0.0000000000000000     
  0.81250000000000000        0.0000000000000000        0.0000000000000000     
  0.84375000000000000        0.0000000000000000        0.0000000000000000     
  0.87500000000000000        0.0000000000000000        0.0000000000000000     
  0.75000000000000000        3.1250000000000000E-002   0.0000000000000000     
  0.78125000000000000        3.1250000000000000E-002   0.0000000000000000     
  0.81250000000000000        3.1250000000000000E-002   0.0000000000000000     
  0.84375000000000000        3.1250000000000000E-002   0.0000000000000000     
  0.87500000000000000        3.1250000000000000E-002   0.0000000000000000     
  0.75000000000000000        6.2500000000000000E-002   0.0000000000000000     
  0.78125000000000000        6.2500000000000000E-002   0.0000000000000000     
  0.81250000000000000        6.2500000000000000E-002   0.0000000000000000     
  0.84375000000000000        6.2500000000000000E-002   0.0000000000000000     
  0.87500000000000000        6.2500000000000000E-002   0.0000000000000000     
  0.75000000000000000        9.3750000000000000E-002   0.0000000000000000     
  0.78125000000000000        9.3750000000000000E-002   0.0000000000000000     
  0.81250000000000000        9.3750000000000000E-002   0.0000000000000000     
  0.84375000000000000        9.3750000000000000E-002   0.0000000000000000     
  0.87500000000000000        9.3750000000000000E-002   0.0000000000000000     
  0.75000000000000000       0.12500000000000000        0.0000000000000000     
  0.78125000000000000       0.12500000000000000        0.0000000000000000     
  0.81250000000000000       0.12500000000000000        0.0000000000000000     
  0.84375000000000000       0.12500000000000000        0.0000000000000000     
  0.87500000000000000       0.12500000000000000        0.0000000000000000     
  0.87500000000000000        0.0000000000000000        0.0000000000000000     
  0.90625000000000000        0.0000000000000000        0.0000000000000000     
  0.93750000000000000        0.0000000000000000        0.0000000000000000     
  0.96875000000000000        0.0000000000000000        0.0000000000000000     
   1.0000000000000000        0.0000000000000000        0.0000000000000000     
  0.87500000000000000        3.1250000000000000E-002   0.0000000000000000     
  0.90625000000000000        3.1250000000000000E-002   0.0000000000000000     
  0.93750000000000000        3.1250000000000000E-002   0.0000000000000000     
  0.96875000000000000        3.1250000000000000E-002   0.0000000000000000     
   1.0000000000000000        3.1250000000000000E-002   0.0000000000000000     
  0.87500000000000000        6.2500000000000000E-002   0.0000000000000000     
  0.90625000000000000        6.2500000000000000E-002   0.0000000000000000     
  0.93750000000000000        6.2500000000000000E-002   0.0000000000000000     
  0.96875000000000000        6.2500000000000000E-002   0.0000000000000000     
   1.0000000000000000        6.2500000000000000E-002   0.0000000000000000     
  0.87500000000000000        9.3750000000000000E-002   0.0000000000000000     
  0.90625000000000000        9.3750000000000000E-002   0.0000000000000000     
  0.93750000000000000        9.3750000000000000E-002   0.0000000000000000     
  0.96875000000000000        9.3750000000000000E-002   0.0000000000000000     
   1.0000000000000000        9.3750000000000000E-002   0.0000000000000000     
  0.87500000000000000       0.12500000000000000        0.0000000000000000     
  0.90625000000000000       0.12500000000000000        0.0000000000000000     
  0.93750000000000000       0.12500000000000000        0.0000000000000000     
  0.96875000000000000       0.12500000000000000        0.0000000000000000     
   1.0000000000000000       0.12500000000000000        0.0000000000000000     
   0.0000000000000000       0.12500000000000000        0.0000000000000000     
   3.1250000000000000E-002  0.12500000000000000        0.0000000000000000     
   6.2500000000000000E-002  0.12500000000000000        0.0000000000000000     
   9.3750000000000000E-002  0.12500000000000000        0.0000000000000000     
  0.12500000000000000       0.12500000000000000        0.0000000000000000     
   0.0000000000000000       0.15625000000000000        0.0000000000000000     
   3.1250000000000000E-002  0.15625000000000000        0.0000000000000000     
   6.2500000000000000E-002  0.15625000000000000        0.0000000000000000     
   9.3750000000000000E-002  0.15625000000000000        0.0000000000000000     
  0.12500000000000000       0.15625000000000000        0.0000000000000000     
   0.0000000000000000       0.18750000000000000        0.0000000000000000     
   3.1250000000000000E-002  0.18750000000000000        0.0000000000000000     
   6.2500000000000000E-002  0.18750000000000000        0.0000000000000000     
   9.3750000000000000E-002  0.18750000000000000        0.0000000000000000     
  0.12500000000000000       0.18750000000000000        0.0000000000000000     
   0.0000000000000000       0.21875000000000000        0.0000000000000000     
   3.1250000000000000E-002  0.21875000000000000        0.0000000000000000     
   6.2500000000000000E-002  0.21875000000000000        0.0000000000000000     
   9.3750000000000000E-002  0.21875000000000000        0.0000000000000000     
  0.12500000000000000       0.21875000000000000        0.0000000000000000     
   0.0000000000000000       0.25000000000000000        0.0000000000000000     
   3.1250000000000000E-002  0.25000000000000000        0.0000000000000000     
   6.2500000000000000E-002  0.25000000000000000        0.0000000000000000     
   9.3750000000000000E-002  0.25000000000000000        0.0000000000000000     
  0.12500000000000000       0.25000000000000000        0.0000000000000000     
  0.12500000000000000       0.12500000000000000        0.0000000000000000     
  0.15625000000000000       0.12500000000000000        0.0000000000000000     
  0.18750000000000000       0.12500000000000000        0.0000000000000000     
  0.21875000000000000       0.12500000000000000        0.0000000000000000     
  0.25000000000000000       0.12500000000000000        0.0000000000000000     
  0.12500000000000000       0.15625000000000000        0.0000000000000000     
  0.15625000000000000       0.15625000000000000        0.0000000000000000     
  0.18750000000000000       0.15625000000000000        0.0000000000000000     
  0.21875000000000000       0.15625000000000000        0.0000000000000000     
  0.25000000000000000       0.15625000000000000        0.0000000000000000     
  0.12500000000000000       0.18750000000000000        0.0000000000000000     
  0.15625000000000000       0.18750000000000000        0.0000000000000000     
  0.18750000000000000       0.18750000000000000        0.0000000000000000     
  0.21875000000000000       0.18750000000000000        0.0000000000000000     
  0.25000000000000000       0.18750000000000000        0.0000000000000000     
  0.12500000000000000       0.21875000000000000        0.0000000000000000     
  0.15625000000000000       0.21875000000000000        0.0000000000000000     
  0.18750000000000000       0.21875000000000000        0.0000000000000000     
  0.21875000000000000       0.21875000000000000        0.0000000000000000     
  0.25000000000000000       0.21875000000000000        0.0000000000000000     
  0.12500000000000000       0.25000000000000000        0.0000000000000000     
  0.15625000000000000       0.25000000000000000        0.0000000000000000     
  0.18750000000000000       0.25000000000000000        0.0000000000000000     
  0.21875000000000000       0.25000000000000000        0.0000000000000000     
  0.25000000000000000       0.25000000000000000        0.0000000000000000     
  0.25000000000000000       0.12500000000000000        0.0000000000000000     
  0.28125000000000000       0.12500000000000000        0.0000000000000000     
  0.31250000000000000       0.12500000000000000        0.0000000000000000     
  0.34375000000000000       0.12500000000000000        0.0000000000000000     
  0.37500000000000000       0.12500000000000000        0.0000000000000000     
  0.25000000000000000       0.15625000000000000        0.0000000000000000     
  0.28125000000000000       0.15625000000000000        0.0000000000000000     
  0.31250000000000000       0.15625000000000000        0.0000000000000000     
  0.34375000000000000       0.15625000000000000        0.0000000000000000     
  0.37500000000000000       0.15625000000000000        0.0000000000000000     
  0.25000000000000000       0.18750000000000000        0.0000000000000000     
  0.28125000000000000       0.18750000000000000        0.0000000000000000     
  0.31250000000000000       0.18750000000000000        0.0000000000000000     
  0.34375000000000000       0.18750000000000000        0.0000000000000000     
  0.37500000000000000       0.18750000000000000        0.0000000000000000     
  0.25000000000000000       0.21875000000000000        0.0000000000000000     
  0.28125000000000000       0.21875000000000000        0.0000000000000000     
  0.31250000000000000       0.21875000000000000        0.0000000000000000     
  0.34375000000000000       0.21875000000000000        0.0000000000000000     
  0.37500000000000000       0.21875000000000000        0.0000000000000000     
  0.25000000000000000       0.25000000000000000        0.0000000000000000     
  0.28125000000000000       0.25000000000000000        0.0000000000000000     
  0.31250000000000000       0.25000000000000000        0.0000000000000000     
  0.34375000000000000       0.25000000000000000        0.0000000000000000     
  0.37500000000000000       0.25000000000000000        0.0000000000000000     
  0.37500000000000000       0.12500000000000000        0.0000000000000000     
  0.40625000000000000       0.12500000000000000        0.0000000000000000     
  0.43750000000000000       0.12500000000000000        0.0000000000000000     
  0.46875000000000000       0.12500000000000000        0.0000000000000000     
  0.50000000000000000       0.12500000000000000        0.0000000000000000     
  0.37500000000000000       0.15625000000000000        0.0000000000000000     
  0.40625000000000000       0.15625000000000000        0.0000000000000000     
  0.43750000000000000       0.15625000000000000        0.0000000000000000     
  0.46875000000000000       0.15625000000000000        0.0000000000000000     
  0.50000000000000000       0.15625000000000000        0.0000000000000000     
  0.37500000000000000       0.18750000000000000        0.0000000000000000     
  0.40625000000000000       0.18750000000000000        0.0000000000000000     
  0.43750000000000000       0.18750000000000000        0.0000000000000000     
  0.46875000000000000       0.18750000000000000        0.0000000000000000     
  0.50000000000000000       0.18750000000000000        0.0000000000000000     
  0.37500000000000000       0.21875000000000000        0.0000000000000000     
  0.40625000000000000       0.21875000000000000        0.0000000000000000     
  0.43750000000000000       0.21875000000000000        0.0000000000000000     
  0.46875000000000000       0.21875000000000000        0.0000000000000000     
  0.50000000000000000       0.21875000000000000        0.0000000000000000     
  0.37500000000000000       0.25000000000000000        0.0000000000000000     
  0.40625000000000000       0.25000000000000000        0.0000000000000000     
  0.43750000000000000       0.25000000000000000        0.0000000000000000     
  0.46875000000000000       0.25000000000000000        0.0000000000000000     
  0.50000000000000000       0.25000000000000000        0.0000000000000000     
  0.50000000000000000       0.12500000000000000        0.0000000000000000     
  0.53125000000000000       0.12500000000000000        0.0000000000000000     
  0.56250000000000000       0.12500000000000000        0.0000000000000000     
  0.59375000000000000       0.12500000000000000        0.0000000000000000     
  0.62500000000000000       0.12500000000000000        0.0000000000000000     
  0.50000000000000000       0.15625000000000000        0.0000000000000000     
  0.53125000000000000       0.15625000000000000        0.0000000000000000     
  0.56250000000000000       0.15625000000000000        0.0000000000000000     
  0.59375000000000000       0.15625000000000000        0.0000000000000000     
  0.62500000000000000       0.15625000000000000        0.0000000000000000     
  0.50000000000000000       0.18750000000000000        0.0000000000000000     
  0.53125000000000000       0.18750000000000000        0.0000000000000000     
  0.56250000000000000       0.18750000000000000        0.0000000000000000     
  0.59375000000000000       0.18750000000000000        0.0000000000000000     
  0.62500000000000000       0.18750000000000000        0.0000000000000000     
  0.50000000000000000       0.21875000000000000        0.0000000000000000     
  0.53125000000000000       0.21875000000000000        0.0000000000000000     
  0.56250000000000000       0.21875000000000000        0.0000000000000000     
  0.59375000000000000       0.21875000000000000        0.0000000000000000     
  0.62500000000000000       0.21875000000000000        0.0000000000000000     
  0.50000000000000000       0.25000000000000000        0.0000000000000000     
  0.53125000000000000       0.25000000000000000        0.0000000000000000     
  0.56250000000000000       0.25000000000000000        0.0000000000000000     
  0.59375000000000000       0.25000000000000000        0.0000000000000000     
  0.62500000000000000       0.25000000000000000        0.0000000000000000     
  0.62500000000000000       0.12500000000000000        0.0000000000000000     
  0.65625000000000000       0.12500000000000000        0.0000000000000000     
  0.68750000000000000       0.12500000000000000        0.0000000000000000     
  0.71875000000000000       0.12500000000000000        0.0000000000000000     
  0.75000000000000000       0.12500000000000000        0.0000000000000000     
  0.62500000000000000       0.15625000000000000        0.0000000000000000     
  0.65625000000000000       0.15625000000000000        0.0000000000000000     
  0.68750000000000000       0.15625000000000000        0.0000000000000000     
  0.71875000000000000       0.15625000000000000        0.0000000000000000     
  0.75000000000000000       0.15625000000000000        0.0000000000000000     
  0.62500000000000000       0.18750000000000000        0.0000000000000000     
  0.65625000000000000       0.18750000000000000        0.0000000000000000     
  0.68750000000000000       0.18750000000000000        0.0000000000000000     
  0.71875000000000000       0.18750000000000000        0.0000000000000000     
  0.75000000000000000       0.18750000000000000        0.0000000000000000     
  0.62500000000000000       0.21875000000000000        0.0000000000000000     
  0.65625000000000000       0.21875000000000000        0.0000000000000000     
  0.68750000000000000       0.21875000000000000        0.0000000000000000     
  0.71875000000000000       0.21875000000000000        0.0000000000000000     
  0.75000000000000000       0.21875000000000000        0.0000000000000000     
  0.62500000000000000       0.25000000000000000        0.0000000000000000     
  0.65625000000000000       0.25000000000000000        0.0000000000000000     
  0.68750000000000000       0.25000000000000000        0.0000000000000000     
  0.71875000000000000       0.25000000000000000        0.0000000000000000     
  0.75000000000000000       0.25000000000000000        0.0000000000000000     
  0.75000000000000000       0.12500000000000000        0.0000000000000000     
  0.78125000000000000       0.12500000000000000        0.0000000000000000     
  0.81250000000000000       0.12500000000000000        0.0000000000000000     
  0.84375000000000000       0.12500000000000000        0.0000000000000000     
  0.87500000000000000       0.12500000000000000        0.0000000000000000     
  0.75000000000000000       0.15625000000000000        0.0000000000000000     
  0.78125000000000000       0.15625000000000000        0.0000000000000000     
  0.81250000000000000       0.15625000000000000        0.0000000000000000     
  0.84375000000000000       0.15625000000000000        0.0000000000000000     
  0.87500000000000000       0.15625000000000000        0.0000000000000000     
  0.75000000000000000       0.18750000000000000        0.0000000000000000     
  0.78125000000000000       0.18750000000000000        0.0000000000000000     
  0.81250000000000000       0.18750000000000000        0.0000000000000000     
  0.84375000000000000       0.18750000000000000        0.0000000000000000     
  0.87500000000000000       0.18750000000000000        0.0000000000000000     
  0.75000000000000000       0.21875000000000000        0.0000000000000000     
  0.78125000000000000       0.21875000000000000        0.0000000000000000     
  0.81250000000000000       0.21875000000000000        0.0000000000000000     
  0.84375000000000000       0.21875000000000000        0.0000000000000000     
  0.87500000000000000       0.21875000000000000        0.0000000000000000     
  0.75000000000000000       0.25000000000000000        0.0000000000000000     
  0.78125000000000000       0.25000000000000000        0.0000000000000000     
  0.81250000000000000       0.25000000000000000        0.0000000000000000     
  0.84375000000000000       0.25000000000000000        0.0000000000000000     
  0.87500000000000000       0.25000000000000000        0.0000000000000000     
  0.87500000000000000       0.12500000000000000        0.0000000000000000     
  0.90625000000000000       0.12500000000000000        0.0000000000000000     
  0.93750000000000000       0.12500000000000000        0.0000000000000000     
  0.96875000000000000       0.12500000000000000        0.0000000000000000     
   1.0000000000000000       0.12500000000000000        0.0000000000000000     
  0.87500000000000000       0.15625000000000000        0.0000000000000000     
  0.90625000000000000       0.15625000000000000        0.0000000000000000     
  0.93750000000000000       0.15625000000000000        0.0000000000000000     
  0.96875000000000000       0.15625000000000000        0.0000000000000000     
   1.0000000000000000       0.15625000000000000        0.0000000000000000     
  0.87500000000000000       0.18750000000000000        0.0000000000000000     
  0.90625000000000000       0.18750000000000000        0.0000000000000000     
  0.93750000000000000       0.18750000000000000        0.0000000000000000     
  0.96875000000000000       0.18750000000000000        0.0000000000000000     
   1.0000000000000000       0.18750000000000000        0.0000000000000000     
  0.87500000000000000       0.21875000000000000        0.0000000000000000     
  0.90625000000000000       0.21875000000000000        0.0000000000000000     
  0.93750000000000000       0.21875000000000000        0.0000000000000000     
  0.96875000000000000       0.21875000000000000        0.0000000000000000     
   1.0000000000000000       0.21875000000000000        0.0000000000000000     
  0.87500000000000000       0.25000000000000000        0.0000000000000000     
  0.90625000000000000       0.25000000000000000        0.0000000000000000     
  0.93750000000000000       0.25000000000000000        0.0000000000000000     
  0.96875000000000000       0.25000000000000000        0.0000000000000000     
   1.0000000000000000       0.25000000000000000        0.0000000000000000     
   0.0000000000000000       0.25000000000000000        0.0000000000000000     
   3.1250000000000000E-002  0.25000000000000000        0.0000000000000000     
   6.2500000000000000E-002  0.25000000000000000        0.0000000000000000     
   9.3750000000000000E-002  0.25000000000000000        0.0000000000000000     
  0.12500000000000000       0.25000000000000000        0.0000000000000000     
   0.0000000000000000       0.28125000000000000        0.0000000000000000     
   3.1250000000000000E-002  0.28125000000000000        0.0000000000000000     
   6.2500000000000000E-002  0.28125000000000000        0.0000000000000000     
   9.3750000000000000E-002  0.28125000000000000        0.0000000000000000     
  0.12500000000000000       0.28125000000000000        0.0000000000000000     
   0.0000000000000000       0.31250000000000000        0.0000000000000000     
   3.1250000000000000E-002  0.31250000000000000        0.0000000000000000     
   6.2500000000000000E-002  0.31250000000000000        0.0000000000000000     
   9.3750000000000000E-002  0.31250000000000000        0.0000000000000000     
  0.12500000000000000       0.31250000000000000        0.0000000000000000     
   0.0000000000000000       0.34375000000000000        0.0000000000000000     
   3.1250000000000000E-002  0.34375000000000000        0.0000000000000000     
   6.2500000000000000E-002  0.34375000000000000        0.0000000000000000     
   9.3750000000000000E-002  0.34375000000000000        0.0000000000000000     
  0.12500000000000000       0.34375000000000000        0.0000000000000000     
   0.0000000000000000       0.37500000000000000        0.0000000000000000     
   3.1250000000000000E-002  0.37500000000000000        0.0000000000000000     
   6.2500000000000000E-002  0.37500000000000000        0.0000000000000000     
   9.3750000000000000E-002  0.37500000000000000        0.0000000000000000     
  0.12500000000000000       0.37500000000000000        0.0000000000000000     
  0.12500000000000000       0.25000000000000000        0.0000000000000000     
  0.15625000000000000       0.25000000000000000        0.0000000000000000     
  0.18750000000000000       0.25000000000000000        0.0000000000000000     
  0.21875000000000000       0.25000000000000000        0.0000000000000000     
  0.25000000000000000       0.25000000000000000        0.0000000000000000     
  0.12500000000000000       0.28125000000000000        0.0000000000000000     
  0.15625000000000000       0.28125000000000000        0.0000000000000000     
  0.18750000000000000       0.28125000000000000        0.0000000000000000     
  0.21875000000000000       0.28125000000000000        0.0000000000000000     
  0.25000000000000000       0.28125000000000000        0.0000000000000000     
  0.12500000000000000       0.31250000000000000        0.0000000000000000     
  0.15625000000000000       0.31250000000000000        0.0000000000000000     
  0.18750000000000000       0.31250000000000000        0.0000000000000000     
  0.21875000000000000       0.31250000000000000        0.0000000000000000     
  0.25000000000000000       0.31250000000000000        0.0000000000000000     
  0.12500000000000000       0.34375000000000000        0.0000000000000000     
  0.15625000000000000       0.34375000000000000        0.0000000000000000     
  0.18750000000000000       0.34375000000000000        0.0000000000000000     
  0.21875000000000000       0.34375000000000000        0.0000000000000000     
  0.25000000000000000       0.34375000000000000        0.0000000000000000     
  0.12500000000000000       0.37500000000000000        0.0000000000000000     
  0.15625000000000000       0.37500000000000000        0.0000000000000000     
  0.18750000000000000       0.37500000000000000        0.0000000000000000     
  0.21875000000000000       0.37500000000000000        0.0000000000000000     
  0.25000000000000000       0.37500000000000000        0.0000000000000000     
  0.25000000000000000       0.25000000000000000        0.0000000000000000     
  0.28125000000000000       0.25000000000000000        0.0000000000000000     
  0.31250000000000000       0.25000000000000000        0.0000000000000000     
  0.34375000000000000       0.25000000000000000        0.0000000000000000     
  0.37500000000000000       0.25000000000000000        0.0000000000000000     
  0.25000000000000000       0.28125000000000000        0.0000000000000000     
  0.28125000000000000       0.28125000000000000        0.0000000000000000     
  0.31250000000000000       0.28125000000000000        0.0000000000000000     
  0.34375000000000000       0.28125000000000000        0.0000000000000000     
  0.37500000000000000       0.28125000000000000        0.0000000000000000     
  0.25000000000000000       0.31250000000000000        0.0000000000000000     
  0.28125000000000000       0.31250000000000000        0.0000000000000000     
  0.31250000000000000       0.31250000000000000        0.0000000000000000     
  0.34375000000000000       0.31250000000000000        0.0000000000000000     
  0.37500000000000000       0.31250000000000000        0.0000000000000000     
  0.25000000000000000       0.34375000000000000        0.0000000000000000     
  0.28125000000000000       0.34375000000000000        0.0000000000000000     
  0.31250000000000000       0.34375000000000000        0.0000000000000000     
  0.34375000000000000       0.34375000000000000        0.0000000000000000     
  0.37500000000000000       0.34375000000000000        0.0000000000000000     
  0.25000000000000000       0.37500000000000000        0.0000000000000000     
  0.28125000000000000       0.37500000000000000        0.0000000000000000     
  0.31250000000000000       0.37500000000000000        0.0000000000000000     
  0.34375000000000000       0.37500000000000000        0.0000000000000000     
  0.37500000000000000       0.37500000000000000        0.0000000000000000     
  0.37500000000000000       0.25000000000000000        0.0000000000000000     
  0.40625000000000000       0.25000000000000000        0.0000000000000000     
  0.43750000000000000       0.25000000000000000        0.0000000000000000     
  0.46875000000000000       0.25000000000000000        0.0000000000000000     
  0.50000000000000000       0.25000000000000000        0.0000000000000000     
  0.37500000000000000       0.28125000000000000        0.0000000000000000     
  0.40625000000000000       0.28125000000000000        0.0000000000000000     
  0.43750000000000000       0.28125000000000000        0.0000000000000000     
  0.46875000000000000       0.28125000000000000        0.0000000000000000     
  0.50000000000000000       0.28125000000000000        0.0000000000000000     
  0.37500000000000000       0.31250000000000000        0.0000000000000000     
  0.40625000000000000       0.31250000000000000        0.0000000000000000     
  0.43750000000000000       0.31250000000000000        0.0000000000000000     
  0.46875000000000000       0.31250000000000000        0.0000000000000000     
  0.50000000000000000       0.31250000000000000        0.0000000000000000     
  0.37500000000000000       0.34375000000000000        0.0000000000000000     
  0.40625000000000000       0.34375000000000000        0.0000000000000000     
  0.43750000000000000       0.34375000000000000        0.0000000000000000     
  0.46875000000000000       0.34375000000000000        0.0000000000000000     
  0.50000000000000000       0.34375000000000000        0.0000000000000000     
  0.37500000000000000       0.37500000000000000        0.0000000000000000     
  0.40625000000000000       0.37500000000000000        0.0000000000000000     
  0.43750000000000000       0.37500000000000000        0.0000000000000000     
  0.46875000000000000       0.37500000000000000        0.0000000000000000     
  0.50000000000000000       0.37500000000000000        0.0000000000000000     
  0.50000000000000000       0.25000000000000000        0.0000000000000000     
  0.53125000000000000       0.25000000000000000        0.0000000000000000     
  0.56250000000000000       0.25000000000000000        0.0000000000000000     
  0.59375000000000000       0.25000000000000000        0.0000000000000000     
  0.62500000000000000       0.25000000000000000        0.0000000000000000     
  0.50000000000000000       0.28125000000000000        0.0000000000000000     
  0.53125000000000000       0.28125000000000000        0.0000000000000000     
  0.56250000000000000       0.28125000000000000        0.0000000000000000     
  0.59375000000000000       0.28125000000000000        0.0000000000000000     
  0.62500000000000000       0.28125000000000000        0.0000000000000000     
  0.50000000000000000       0.31250000000000000        0.0000000000000000     
  0.53125000000000000       0.31250000000000000        0.0000000000000000     
  0.56250000000000000       0.31250000000000000        0.0000000000000000     
  0.59375000000000000       0.31250000000000000        0.0000000000000000     
  0.62500000000000000       0.31250000000000000        0.0000000000000000     
  0.50000000000000000       0.34375000000000000        0.0000000000000000     
  0.53125000000000000       0.34375000000000000        0.0000000000000000     
  0.56250000000000000       0.34375000000000000        0.0000000000000000     
  0.59375000000000000       0.34375000000000000        0.0000000000000000     
  0.62500000000000000       0.34375000000000000        0.0000000000000000     
  0.50000000000000000       0.37500000000000000        0.0000000000000000     
  0.53125000000000000       0.37500000000000000        0.0000000000000000     
  0.56250000000000000       0.37500000000000000        0.0000000000000000     
  0.59375000000000000       0.37500000000000000        0.0000000000000000     
  0.62500000000000000       0.37500000000000000        0.0000000000000000     
  0.62500000000000000       0.25000000000000000        0.0000000000000000     
  0.65625000000000000       0.25000000000000000        0.0000000000000000     
  0.68750000000000000       0.25000000000000000        0.0000000000000000     
  0.71875000000000000       0.25000000000000000        0.0000000000000000     
  0.75000000000000000       0.25000000000000000        0.0000000000000000     
  0.62500000000000000       0.28125000000000000        0.0000000000000000     
  0.65625000000000000       0.28125000000000000        0.0000000000000000     
  0.68750000000000000       0.28125000000000000        0.0000000000000000     
  0.71875000000000000       0.28125000000000000        0.0000000000000000     
  0.75000000000000000       0.28125000000000000        0.0000000000000000     
  0.62500000000000000       0.31250000000000000        0.0000000000000000     
  0.65625000000000000       0.31250000000000000        0.0000000000000000     
  0.68750000000000000       0.31250000000000000        0.0000000000000000     
  0.71875000000000000       0.31250000000000000        0.0000000000000000     
  0.75000000000000000       0.31250000000000000        0.0000000000000000     
  0.62500000000000000       0.34375000000000000        0.0000000000000000     
  0.65625000000000000       0.34375000000000000        0.0000000000000000     
  0.68750000000000000       0.34375000000000000        0.0000000000000000     
  0.71875000000000000       0.34375000000000000        0.0000000000000000     
  0.75000000000000000       0.34375000000000000        0.0000000000000000     
  0.62500000000000000       0.37500000000000000        0.0000000000000000     
  0.65625000000000000       0.37500000000000000        0.0000000000000000     
  0.68750000000000000       0.37500000000000000        0.0000000000000000     
  0.71875000000000000       0.37500000000000000        0.0000000000000000     
  0.75000000000000000       0.37500000000000000        0.0000000000000000     
  0.75000000000000000       0.25000000000000000        0.0000000000000000     
  0.78125000000000000       0.25000000000000000        0.0000000000000000     
  0.81250000000000000       0.25000000000000000        0.0000000000000000     
  0.84375000000000000       0.25000000000000000        0.0000000000000000     
  0.87500000000000000       0.25000000000000000        0.0000000000000000     
  0.75000000000000000       0.28125000000000000        0.0000000000000000     
  0.78125000000000000       0.28125000000000000        0.0000000000000000     
  0.81250000000000000       0.28125000000000000        0.0000000000000000     
  0.84375000000000000       0.28125000000000000        0.0000000000000000     
  0.87500000000000000       0.28125000000000000        0.0000000000000000     
  0.75000000000000000       0.31250000000000000        0.0000000000000000     
  0.78125000000000000       0.31250000000000000        0.0000000000000000     
  0.81250000000000000       0.31250000000000000        0.0000000000000000     
  0.84375000000000000       0.31250000000000000        0.0000000000000000     
  0.87500000000000000       0.31250000000000000        0.0000000000000000     
  0.75000000000000000       0.34375000000000000        0.0000000000000000     
  0.78125000000000000       0.34375000000000000        0.0000000000000000     
  0.81250000000000000       0.34375000000000000        0.0000000000000000     
  0.84375000000000000       0.34375000000000000        0.0000000000000000     
  0.87500000000000000       0.34375000000000000        0.0000000000000000     
  0.75000000000000000       0.37500000000000000        0.0000000000000000     
  0.78125000000000000       0.37500000000000000        0.0000000000000000     
  0.81250000000000000       0.37500000000000000        0.0000000000000000     
  0.84375000000000000       0.37500000000000000        0.0000000000000000     
  0.87500000000000000       0.37500000000000000        0.0000000000000000     
  0.87500000000000000       0.25000000000000000        0.0000000000000000     
  0.90625000000000000       0.25000000000000000        0.0000000000000000     
  0.93750000000000000       0.25000000000000000        0.0000000000000000     
  0.96875000000000000       0.25000000000000000        0.0000000000000000     
   1.0000000000000000       0.25000000000000000        0.0000000000000000     
  0.87500000000000000       0.28125000000000000        0.0000000000000000     
  0.90625000000000000       0.28125000000000000        0.0000000000000000     
  0.93750000000000000       0.28125000000000000        0.0000000000000000     
  0.96875000000000000       0.28125000000000000        0.0000000000000000     
   1.0000000000000000       0.28125000000000000        0.0000000000000000     
  0.87500000000000000       0.31250000000000000        0.0000000000000000     
  0.90625000000000000       0.31250000000000000        0.0000000000000000     
  0.93750000000000000       0.31250000000000000        0.0000000000000000     
  0.96875000000000000       0.31250000000000000        0.0000000000000000     
   1.0000000000000000       0.31250000000000000        0.0000000000000000     
  0.87500000000000000       0.34375000000000000        0.0000000000000000     
  0.90625000000000000       0.34375000000000000        0.0000000000000000     
  0.93750000000000000       0.34375000000000000        0.0000000000000000     
  0.96875000000000000       0.34375000000000000        0.0000000000000000     
   1.0000000000000000       0.34375000000000000        0.0000000000000000     
  0.87500000000000000       0.37500000000000000        0.0000000000000000     
  0.90625000000000000       0.37500000000000000        0.0000000000000000     
  0.93750000000000000       0.37500000000000000        0.0000000000000000     
  0.96875000000000000       0.37500000000000000        0.0000000000000000     
   1.0000000000000000       0.37500000000000000        0.0000000000000000     
   0.0000000000000000       0.37500000000000000        0.0000000000000000     
   3.1250000000000000E-002  0.37500000000000000        0.0000000000000000     
   6.2500000000000000E-002  0.37500000000000000        0.0000000000000000     
   9.3750000000000000E-002  0.37500000000000000        0.0000000000000000     
  0.12500000000000000       0.37500000000000000        0.0000000000000000     
   0.0000000000000000       0.40625000000000000        0.0000000000000000     
   3.1250000000000000E-002  0.40625000000000000        0.0000000000000000     
   6.2500000000000000E-002  0.40625000000000000        0.0000000000000000     
   9.3750000000000000E-002  0.40625000000000000        0.0000000000000000     
  0.12500000000000000       0.40625000000000000        0.0000000000000000     
   0.0000000000000000       0.43750000000000000        0.0000000000000000     
   3.1250000000000000E-002  0.43750000000000000        0.0000000000000000     
   6.2500000000000000E-002  0.43750000000000000        0.0000000000000000     
   9.3750000000000000E-002  0.43750000000000000        0.0000000000000000     
  0.12500000000000000       0.43750000000000000        0.0000000000000000     
   0.0000000000000000       0.46875000000000000        0.0000000000000000     
   3.1250000000000000E-002  0.46875000000000000        0.0000000000000000     
   6.2500000000000000E-002  0.46875000000000000        0.0000000000000000     
   9.3750000000000000E-002  0.46875000000000000        0.0000000000000000     
  0.12500000000000000       0.46875000000000000        0.0000000000000000     
   0.0000000000000000       0.50000000000000000        0.0000000000000000     
   3.1250000000000000E-002  0.50000000000000000        0.0000000000000000     
   6.2500000000000000E-002  0.50000000000000000        0.0000000000000000     
   9.3750000000000000E-002  0.50000000000000000        0.0000000000000000     
  0.12500000000000000       0.50000000000000000        0.0000000000000000     
  0.12500000000000000       0.37500000000000000        0.0000000000000000     
  0.15625000000000000       0.37500000000000000        0.0000000000000000     
  0.18750000000000000       0.37500000000000000        0.0000000000000000     
  0.21875000000000000       0.37500000000000000        0.0000000000000000     
  0.25000000000000000       0.37500000000000000        0.0000000000000000     
  0.12500000000000000       0.40625000000000000        0.0000000000000000     
  0.15625000000000000       0.40625000000000000        0.0000000000000000     
  0.18750000000000000       0.40625000000000000        0.0000000000000000     
  0.21875000000000000       0.40625000000000000        0.0000000000000000     
  0.25000000000000000       0.40625000000000000        0.0000000000000000     
  0.12500000000000000       0.43750000000000000        0.0000000000000000     
  0.15625000000000000       0.43750000000000000        0.0000000000000000     
  0.18750000000000000       0.43750000000000000        0.0000000000000000     
  0.21875000000000000       0.43750000000000000        0.0000000000000000     
  0.25000000000000000       0.43750000000000000        0.0000000000000000     
  0.12500000000000000       0.46875000000000000        0.0000000000000000     
  0.15625000000000000       0.46875000000000000        0.0000000000000000     
  0.18750000000000000       0.46875000000000000        0.0000000000000000     
  0.21875000000000000       0.46875000000000000        0.0000000000000000     
  0.25000000000000000       0.46875000000000000        0.0000000000000000     
  0.12500000000000000       0.50000000000000000        0.0000000000000000     
  0.15625000000000000       0.50000000000000000        0.0000000000000000     
  0.18750000000000000       0.50000000000000000        0.0000000000000000     
  0.21875000000000000       0.50000000000000000        0.0000000000000000     
  0.25000000000000000       0.50000000000000000        0.0000000000000000     
  0.25000000000000000       0.37500000000000000        0.0000000000000000     
  0.28125000000000000       0.37500000000000000        0.0000000000000000     
  0.31250000000000000       0.37500000000000000        0.0000000000000000     
  0.34375000000000000       0.37500000000000000        0.0000000000000000     
  0.37500000000000000       0.37500000000000000        0.0000000000000000     
  0.25000000000000000       0.40625000000000000        0.0000000000000000     
  0.28125000000000000       0.40625000000000000        0.0000000000000000     
  0.31250000000000000       0.40625000000000000        0.0000000000000000     
  0.34375000000000000       0.40625000000000000        0.0000000000000000     
  0.37500000000000000       0.40625000000000000        0.0000000000000000     
  0.25000000000000000       0.43750000000000000        0.0000000000000000     
  0.28125000000000000       0.43750000000000000        0.0000000000000000     
  0.31250000000000000       0.43750000000000000        0.0000000000000000     
  0.34375000000000000       0.43750000000000000        0.0000000000000000     
  0.37500000000000000       0.43750000000000000        0.0000000000000000     
  0.25000000000000000       0.46875000000000000        0.0000000000000000     
  0.28125000000000000       0.46875000000000000        0.0000000000000000     
  0.31250000000000000       0.46875000000000000        0.0000000000000000     
  0.34375000000000000       0.46875000000000000        0.0000000000000000     
  0.37500000000000000       0.46875000000000000        0.0000000000000000     
  0.25000000000000000       0.50000000000000000        0.0000000000000000     
  0.28125000000000000       0.50000000000000000        0.0000000000000000     
  0.31250000000000000       0.50000000000000000        0.0000000000000000     
  0.34375000000000000       0.50000000000000000        0.0000000000000000     
  0.37500000000000000       0.50000000000000000        0.0000000000000000     
  0.37500000000000000       0.37500000000000000        0.0000000000000000     
  0.40625000000000000       0.37500000000000000        0.0000000000000000     
  0.43750000000000000       0.37500000000000000        0.0000000000000000     
  0.46875000000000000       0.37500000000000000        0.0000000000000000     
  0.50000000000000000       0.37500000000000000        0.0000000000000000     
  0.37500000000000000       0.40625000000000000        0.0000000000000000     
  0.40625000000000000       0.40625000000000000        0.0000000000000000     
  0.43750000000000000       0.40625000000000000        0.0000000000000000     
  0.46875000000000000       0.40625000000000000        0.0000000000000000     
  0.50000000000000000       0.40625000000000000        0.0000000000000000     
  0.37500000000000000       0.43750000000000000        0.0000000000000000     
  0.40625000000000000       0.43750000000000000        0.0000000000000000     
  0.43750000000000000       0.43750000000000000        0.0000000000000000     
  0.46875000000000000       0.43750000000000000        0.0000000000000000     
  0.50000000000000000       0.43750000000000000        0.0000000000000000     
  0.37500000000000000       0.46875000000000000        0.0000000000000000     
  0.40625000000000000       0.46875000000000000        0.0000000000000000     
  0.43750000000000000       0.46875000000000000        0.0000000000000000     
  0.46875000000000000       0.46875000000000000        0.0000000000000000     
  0.50000000000000000       0.46875000000000000        0.0000000000000000     
  0.37500000000000000       0.50000000000000000        0.0000000000000000     
  0.40625000000000000       0.50000000000000000        0.0000000000000000     
  0.43750000000000000       0.50000000000000000        0.0000000000000000     
  0.46875000000000000       0.50000000000000000        0.0000000000000000     
  0.50000000000000000       0.50000000000000000        0.0000000000000000     
  0.50000000000000000       0.37500000000000000        0.0000000000000000     
  0.53125000000000000       0.37500000000000000        0.0000000000000000     
  0.56250000000000000       0.37500000000000000        0.0000000000000000     
  0.59375000000000000       0.37500000000000000        0.0000000000000000     
  0.62500000000000000       0.37500000000000000        0.0000000000000000     
  0.50000000000000000       0.40625000000000000        0.0000000000000000     
  0.53125000000000000       0.40625000000000000        0.0000000000000000     
  0.56250000000000000       0.40625000000000000        0.0000000000000000     
  0.59375000000000000       0.40625000000000000        0.0000000000000000     
  0.62500000000000000       0.40625000000000000        0.0000000000000000     
  0.50000000000000000       0.43750000000000000        0.0000000000000000     
  0.53125000000000000       0.43750000000000000        0.0000000000000000     
  0.56250000000000000       0.43750000000000000        0.0000000000000000     
  0.59375000000000000       0.43750000000000000        0.0000000000000000     
  0.62500000000000000       0.43750000000000000        0.0000000000000000     
  0.50000000000000000       0.46875000000000000        0.0000000000000000     
  0.53125000000000000       0.46875000000000000        0.0000000000000000     
  0.56250000000000000       0.46875000000000000        0.0000000000000000     
  0.59375000000000000       0.46875000000000000        0.0000000000000000     
  0.62500000000000000       0.46875000000000000        0.0000000000000000     
  0.50000000000000000       0.50000000000000000        0.0000000000000000     
  0.53125000000000000       0.50000000000000000        0.0000000000000000     
  0.56250000000000000       0.50000000000000000        0.0000000000000000     
  0.59375000000000000       0.50000000000000000        0.0000000000000000     
  0.62500000000000000       0.50000000000000000        0.0000000000000000     
  0.62500000000000000       0.37500000000000000        0.0000000000000000     
  0.65625000000000000       0.37500000000000000        0.0000000000000000     
  0.68750000000000000       0.37500000000000000        0.0000000000000000     
  0.71875000000000000       0.37500000000000000        0.0000000000000000     
  0.75000000000000000       0.37500000000000000        0.0000000000000000     
  0.62500000000000000       0.40625000000000000        0.0000000000000000     
  0.65625000000000000       0.40625000000000000        0.0000000000000000     
  0.68750000000000000       0.40625000000000000        0.0000000000000000     
  0.71875000000000000       0.40625000000000000        0.0000000000000000     
  0.75000000000000000       0.40625000000000000        0.0000000000000000     
  0.62500000000000000       0.43750000000000000        0.0000000000000000     
  0.65625000000000000       0.43750000000000000        0.0000000000000000     
  0.68750000000000000       0.43750000000000000        0.0000000000000000     
  0.71875000000000000       0.43750000000000000        0.0000000000000000     
  0.75000000000000000       0.43750000000000000        0.0000000000000000     
  0.62500000000000000       0.46875000000000000        0.0000000000000000     
  0.65625000000000000       0.46875000000000000        0.0000000000000000     
  0.68750000000000000       0.46875000000000000        0.0000000000000000     
  0.71875000000000000       0.46875000000000000        0.0000000000000000     
  0.75000000000000000       0.46875000000000000        0.0000000000000000     
  0.62500000000000000       0.50000000000000000        0.0000000000000000     
  0.65625000000000000       0.50000000000000000        0.0000000000000000     
  0.68750000000000000       0.50000000000000000        0.0000000000000000     
  0.71875000000000000       0.50000000000000000        0.0000000000000000     
  0.75000000000000000       0.50000000000000000        0.0000000000000000     
  0.75000000000000000       0.37500000000000000        0.0000000000000000     
  0.78125000000000000       0.37500000000000000        0.0000000000000000     
  0.81250000000000000       0.37500000000000000        0.0000000000000000     
  0.84375000000000000       0.37500000000000000        0.0000000000000000     
  0.87500000000000000       0.37500000000000000        0.0000000000000000     
  0.75000000000000000       0.40625000000000000        0.0000000000000000     
  0.78125000000000000       0.40625000000000000        0.0000000000000000     
  0.81250000000000000       0.40625000000000000        0.0000000000000000     
  0.84375000000000000       0.40625000000000000        0.0000000000000000     
  0.87500000000000000       0.40625000000000000        0.0000000000000000     
  0.75000000000000000       0.43750000000000000        0.0000000000000000     
  0.78125000000000000       0.43750000000000000        0.0000000000000000     
  0.81250000000000000       0.43750000000000000        0.0000000000000000     
  0.84375000000000000       0.43750000000000000        0.0000000000000000     
  0.87500000000000000       0.43750000000000000        0.0000000000000000     
  0.75000000000000000       0.46875000000000000        0.0000000000000000     
  0.78125000000000000       0.46875000000000000        0.0000000000000000     
  0.81250000000000000       0.46875000000000000        0.0000000000000000     
  0.84375000000000000       0.46875000000000000        0.0000000000000000     
  0.87500000000000000       0.46875000000000000        0.0000000000000000     
  0.75000000000000000       0.50000000000000000        0.0000000000000000     
  0.78125000000000000       0.50000000000000000        0.0000000000000000     
  0.81250000000000000       0.50000000000000000        0.0000000000000000     
  0.84375000000000000       0.50000000000000000        0.0000000000000000     
  0.87500000000000000       0.50000000000000000        0.0000000000000000     
  0.87500000000000000       0.37500000000000000        0.0000000000000000     
  0.90625000000000000       0.37500000000000000        0.0000000000000000     
  0.93750000000000000       0.37500000000000000        0.0000000000000000     
  0.96875000000000000       0.37500000000000000        0.0000000000000000     
   1.0000000000000000       0.37500000000000000        0.0000000000000000     
  0.87500000000000000       0.40625000000000000        0.0000000000000000     
  0.90625000000000000       0.40625000000000000        0.0000000000000000     
  0.93750000000000000       0.40625000000000000        0.0000000000000000     
  0.96875000000000000       0.40625000000000000        0.0000000000000000     
   1.0000000000000000       0.40625000000000000        0.0000000000000000     
  0.87500000000000000       0.43750000000000000        0.0000000000000000     
  0.90625000000000000       0.43750000000000000        0.0000000000000000     
  0.93750000000000000       0.43750000000000000        0.0000000000000000     
  0.96875000000000000       0.43750000000000000        0.0000000000000000     
   1.0000000000000000       0.43750000000000000        0.0000000000000000     
  0.87500000000000000       0.46875000000000000        0.0000000000000000     
  0.90625000000000000       0.46875000000000000        0.0000000000000000     
  0.93750000000000000       0.46875000000000000        0.0000000000000000     
  0.96875000000000000       0.46875000000000000        0.0000000000000000     
   1.0000000000000000       0.46875000000000000        0.0000000000000000     
  0.87500000000000000       0.50000000000000000        0.0000000000000000     
  0.90625000000000000       0.50000000000000000        0.0000000000000000     
  0.93750000000000000       0.50000000000000000        0.0000000000000000     
  0.96875000000000000       0.50000000000000000        0.0000000000000000     
   1.0000000000000000       0.50000000000000000        0.0000000000000000     
   0.0000000000000000       0.50000000000000000        0.0000000000000000     
   3.1250000000000000E-002  0.50000000000000000        0.0000000000000000     
   6.2500000000000000E-002  0.50000000000000000        0.0000000000000000     
   9.3750000000000000E-002  0.50000000000000000        0.0000000000000000     
  0.12500000000000000       0.50000000000000000        0.0000000000000000     
   0.0000000000000000       0.53125000000000000        0.0000000000000000     
   3.1250000000000000E-002  0.53125000000000000        0.0000000000000000     
   6.2500000000000000E-002  0.53125000000000000        0.0000000000000000     
   9.3750000000000000E-002  0.53125000000000000        0.0000000000000000     
  0.12500000000000000       0.53125000000000000        0.0000000000000000     
   0.0000000000000000       0.56250000000000000        0.0000000000000000     
   3.1250000000000000E-002  0.56250000000000000        0.0000000000000000     
   6.2500000000000000E-002  0.56250000000000000        0.0000000000000000     
   9.3750000000000000E-002  0.56250000000000000        0.0000000000000000     
  0.12500000000000000       0.56250000000000000        0.0000000000000000     
   0.0000000000000000       0.59375000000000000        0.0000000000000000     
   3.1250000000000000E-002  0.59375000000000000        0.0000000000000000     
   6.2500000000000000E-002  0.59375000000000000        0.0000000000000000     
   9.3750000000000000E-002  0.59375000000000000        0.0000000000000000     
  0.12500000000000000       0.59375000000000000        0.0000000000000000     
   0.0000000000000000       0.62500000000000000        0.0000000000000000     
   3.1250000000000000E-002  0.62500000000000000        0.0000000000000000     
   6.2500000000000000E-002  0.62500000000000000        0.0000000000000000     
   9.3750000000000000E-002  0.62500000000000000        0.0000000000000000     
  0.12500000000000000       0.62500000000000000        0.0000000000000000     
  0.12500000000000000       0.50000000000000000        0.0000000000000000     
  0.15625000000000000       0.50000000000000000        0.0000000000000000     
  0.18750000000000000       0.50000000000000000        0.0000000000000000     
  0.21875000000000000       0.50000000000000000        0.0000000000000000     
  0.25000000000000000       0.50000000000000000        0.0000000000000000     
  0.12500000000000000       0.53125000000000000        0.0000000000000000     
  0.15625000000000000       0.53125000000000000        0.0000000000000000     
  0.18750000000000000       0.53125000000000000        0.0000000000000000     
  0.21875000000000000       0.53125000000000000        0.0000000000000000     
  0.25000000000000000       0.53125000000000000        0.0000000000000000     
  0.12500000000000000       0.56250000000000000        0.0000000000000000     
  0.15625000000000000       0.56250000000000000        0.0000000000000000     
  0.18750000000000000       0.56250000000000000        0.0000000000000000     
  0.21875000000000000       0.56250000000000000        0.0000000000000000     
  0.25000000000000000       0.56250000000000000        0.0000000000000000     
  0.12500000000000000       0.59375000000000000        0.0000000000000000     
  0.15625000000000000       0.59375000000000000        0.0000000000000000     
  0.18750000000000000       0.59375000000000000        0.0000000000000000     
  0.21875000000000000       0.59375000000000000        0.0000000000000000     
  0.25000000000000000       0.59375000000000000        0.0000000000000000     
  0.12500000000000000       0.62500000000000000        0.0000000000000000     
  0.15625000000000000       0.62500000000000000        0.0000000000000000     
  0.18750000000000000       0.62500000000000000        0.0000000000000000     
  0.21875000000000000       0.62500000000000000        0.0000000000000000     
  0.25000000000000000       0.62500000000000000        0.0000000000000000     
  0.25000000000000000       0.50000000000000000        0.0000000000000000     
  0.28125000000000000       0.50000000000000000        0.0000000000000000     
  0.31250000000000000       0.50000000000000000        0.0000000000000000     
  0.34375000000000000       0.50000000000000000        0.0000000000000000     
  0.37500000000000000       0.50000000000000000        0.0000000000000000     
  0.25000000000000000       0.53125000000000000        0.0000000000000000     
  0.28125000000000000       0.53125000000000000        0.0000000000000000     
  0.31250000000000000       0.53125000000000000        0.0000000000000000     
  0.34375000000000000       0.53125000000000000        0.0000000000000000     
  0.37500000000000000       0.53125000000000000        0.0000000000000000     
  0.25000000000000000       0.56250000000000000        0.0000000000000000     
  0.28125000000000000       0.56250000000000000        0.0000000000000000     
  0.31250000000000000       0.56250000000000000        0.0000000000000000     
  0.34375000000000000       0.56250000000000000        0.0000000000000000     
  0.37500000000000000       0.56250000000000000        0.0000000000000000     
  0.25000000000000000       0.59375000000000000        0.0000000000000000     
  0.28125000000000000       0.59375000000000000        0.0000000000000000     
  0.31250000000000000       0.59375000000000000        0.0000000000000000     
  0.34375000000000000       0.59375000000000000        0.0000000000000000     
  0.37500000000000000       0.59375000000000000        0.0000000000000000     
  0.25000000000000000       0.62500000000000000        0.0000000000000000     
  0.28125000000000000       0.62500000000000000        0.0000000000000000     
  0.31250000000000000       0.62500000000000000        0.0000000000000000     
  0.34375000000000000       0.62500000000000000        0.0000000000000000     
  0.37500000000000000       0.62500000000000000        0.0000000000000000     
  0.37500000000000000       0.50000000000000000        0.0000000000000000     
  0.40625000000000000       0.50000000000000000        0.0000000000000000     
  0.43750000000000000       0.50000000000000000        0.0000000000000000     
  0.46875000000000000       0.50000000000000000        0.0000000000000000     
  0.50000000000000000       0.50000000000000000        0.0000000000000000     
  0.37500000000000000       0.53125000000000000        0.0000000000000000     
  0.40625000000000000       0.53125000000000000        0.0000000000000000     
  0.43750000000000000       0.53125000000000000        0.0000000000000000     
  0.46875000000000000       0.53125000000000000        0.0000000000000000     
  0.50000000000000000       0.53125000000000000        0.0000000000000000     
  0.37500000000000000       0.56250000000000000        0.0000000000000000     
  0.40625000000000000       0.56250000000000000        0.0000000000000000     
  0.43750000000000000       0.56250000000000000        0.0000000000000000     
  0.46875000000000000       0.56250000000000000        0.0000000000000000     
  0.50000000000000000       0.56250000000000000        0.0000000000000000     
  0.37500000000000000       0.59375000000000000        0.0000000000000000     
  0.40625000000000000       0.59375000000000000        0.0000000000000000     
  0.43750000000000000       0.59375000000000000        0.0000000000000000     
  0.46875000000000000       0.59375000000000000        0.0000000000000000     
  0.50000000000000000       0.59375000000000000        0.0000000000000000     
  0.37500000000000000       0.62500000000000000        0.0000000000000000     
  0.40625000000000000       0.62500000000000000        0.0000000000000000     
  0.43750000000000000       0.62500000000000000        0.0000000000000000     
  0.46875000000000000       0.62500000000000000        0.0000000000000000     
  0.50000000000000000       0.62500000000000000        0.0000000000000000     
  0.50000000000000000       0.50000000000000000        0.0000000000000000     
  0.53125000000000000       0.50000000000000000        0.0000000000000000     
  0.56250000000000000       0.50000000000000000        0.0000000000000000     
  0.59375000000000000       0.50000000000000000        0.0000000000000000     
  0.62500000000000000       0.50000000000000000        0.0000000000000000     
  0.50000000000000000       0.53125000000000000        0.0000000000000000     
  0.53125000000000000       0.53125000000000000        0.0000000000000000     
  0.56250000000000000       0.53125000000000000        0.0000000000000000     
  0.59375000000000000       0.53125000000000000        0.0000000000000000     
  0.62500000000000000       0.53125000000000000        0.0000000000000000     
  0.50000000000000000       0.56250000000000000        0.0000000000000000     
  0.53125000000000000       0.56250000000000000        0.0000000000000000     
  0.56250000000000000       0.56250000000000000        0.0000000000000000     
  0.59375000000000000       0.56250000000000000        0.0000000000000000     
  0.62500000000000000       0.56250000000000000        0.0000000000000000     
  0.50000000000000000       0.59375000000000000        0.0000000000000000     
  0.53125000000000000       0.59375000000000000        0.0000000000000000     
  0.56250000000000000       0.59375000000000000        0.0000000000000000     
  0.59375000000000000       0.59375000000000000        0.0000000000000000     
  0.62500000000000000       0.59375000000000000        0.0000000000000000     
  0.50000000000000000       0.62500000000000000        0.0000000000000000     
  0.53125000000000000       0.62500000000000000        0.0000000000000000     
  0.56250000000000000       0.62500000000000000        0.0000000000000000     
  0.59375000000000000       0.62500000000000000        0.0000000000000000     
  0.62500000000000000       0.62500000000000000        0.0000000000000000     
  0.62500000000000000       0.50000000000000000        0.0000000000000000     
  0.65625000000000000       0.50000000000000000        0.0000000000000000     
  0.68750000000000000       0.50000000000000000        0.0000000000000000     
  0.71875000000000000       0.50000000000000000        0.0000000000000000     
  0.75000000000000000       0.50000000000000000        0.0000000000000000     
  0.62500000000000000       0.53125000000000000        0.0000000000000000     
  0.65625000000000000       0.53125000000000000        0.0000000000000000     
  0.68750000000000000       0.53125000000000000        0.0000000000000000     
  0.71875000000000000       0.53125000000000000        0.0000000000000000     
  0.75000000000000000       0.53125000000000000        0.0000000000000000     
  0.62500000000000000       0.56250000000000000        0.0000000000000000     
  0.65625000000000000       0.56250000000000000        0.0000000000000000     
  0.68750000000000000       0.56250000000000000        0.0000000000000000     
  0.71875000000000000       0.56250000000000000        0.0000000000000000     
  0.75000000000000000       0.56250000000000000        0.0000000000000000     
  0.62500000000000000       0.59375000000000000        0.0000000000000000     
  0.65625000000000000       0.59375000000000000        0.0000000000000000     
  0.68750000000000000       0.59375000000000000        0.0000000000000000     
  0.71875000000000000       0.59375000000000000        0.0000000000000000     
  0.75000000000000000       0.59375000000000000        0.0000000000000000     
  0.62500000000000000       0.62500000000000000        0.0000000000000000     
  0.65625000000000000       0.62500000000000000        0.0000000000000000     
  0.68750000000000000       0.62500000000000000        0.0000000000000000     
  0.71875000000000000       0.62500000000000000        0.0000000000000000     
  0.75000000000000000       0.62500000000000000        0.0000000000000000     
  0.75000000000000000       0.50000000000000000        0.0000000000000000     
  0.78125000000000000       0.50000000000000000        0.0000000000000000     
  0.81250000000000000       0.50000000000000000        0.0000000000000000     
  0.84375000000000000       0.50000000000000000        0.0000000000000000     
  0.87500000000000000       0.50000000000000000        0.0000000000000000     
  0.75000000000000000       0.53125000000000000        0.0000000000000000     
  0.78125000000000000       0.53125000000000000        0.0000000000000000     
  0.81250000000000000       0.53125000000000000        0.0000000000000000     
  0.84375000000000000       0.53125000000000000        0.0000000000000000     
  0.87500000000000000       0.53125000000000000        0.0000000000000000     
  0.75000000000000000       0.56250000000000000        0.0000000000000000     
  0.78125000000000000       0.56250000000000000        0.0000000000000000     
  0.81250000000000000       0.56250000000000000        0.0000000000000000     
  0.84375000000000000       0.56250000000000000        0.0000000000000000     
  0.87500000000000000       0.56250000000000000        0.0000000000000000     
  0.75000000000000000       0.59375000000000000        0.0000000000000000     
  0.78125000000000000       0.59375000000000000        0.0000000000000000     
  0.81250000000000000       0.59375000000000000        0.0000000000000000     
  0.84375000000000000       0.59375000000000000        0.0000000000000000     
  0.87500000000000000       0.59375000000000000        0.0000000000000000     
  0.75000000000000000       0.62500000000000000        0.0000000000000000     
  0.78125000000000000       0.62500000000000000        0.0000000000000000     
  0.81250000000000000       0.62500000000000000        0.0000000000000000     
  0.84375000000000000       0.62500000000000000        0.0000000000000000     
  0.87500000000000000       0.62500000000000000        0.0000000000000000     
  0.87500000000000000       0.50000000000000000        0.0000000000000000     
  0.90625000000000000       0.50000000000000000        0.0000000000000000     
  0.93750000000000000       0.50000000000000000        0.0000000000000000     
  0.96875000000000000       0.50000000000000000        0.0000000000000000     
   1.0000000000000000       0.50000000000000000        0.0000000000000000     
  0.87500000000000000       0.53125000000000000        0.0000000000000000     
  0.90625000000000000       0.53125000000000000        0.0000000000000000     
  0.93750000000000000       0.53125000000000000        0.0000000000000000     
  0.96875000000000000       0.53125000000000000        0.0000000000000000     
   1.0000000000000000       0.53125000000000000        0.0000000000000000     
  0.87500000000000000       0.56250000000000000        0.0000000000000000     
  0.90625000000000000       0.56250000000000000        0.0000000000000000     
  0.93750000000000000       0.56250000000000000        0.0000000000000000     
  0.96875000000000000       0.56250000000000000        0.0000000000000000     
   1.0000000000000000       0.56250000000000000        0.0000000000000000     
  0.87500000000000000       0.59375000000000000        0.0000000000000000     
  0.90625000000000000       0.59375000000000000        0.0000000000000000     
  0.93750000000000000       0.59375000000000000        0.0000000000000000     
  0.96875000000000000       0.59375000000000000        0.0000000000000000     
   1.0000000000000000       0.59375000000000000        0.0000000000000000     
  0.87500000000000000       0.62500000000000000        0.0000000000000000     
  0.90625000000000000       0.62500000000000000        0.0000000000000000     
  0.93750000000000000       0.62500000000000000        0.0000000000000000     
  0.96875000000000000       0.62500000000000000        0.0000000000000000     
   1.0000000000000000       0.62500000000000000        0.0000000000000000     
   0.0000000000000000       0.62500000000000000        0.0000000000000000     
   3.1250000000000000E-002  0.62500000000000000        0.0000000000000000     
   6.2500000000000000E-002  0.62500000000000000        0.0000000000000000     
   9.3750000000000000E-002  0.62500000000000000        0.0000000000000000     
  0.12500000000000000       0.62500000000000000        0.0000000000000000     
   0.0000000000000000       0.65625000000000000        0.0000000000000000     
   3.1250000000000000E-002  0.65625000000000000        0.0000000000000000     
   6.2500000000000000E-002  0.65625000000000000        0.0000000000000000     
   9.3750000000000000E-002  0.65625000000000000        0.0000000000000000     
  0.12500000000000000       0.65625000000000000        0.0000000000000000     
   0.0000000000000000       0.68750000000000000        0.0000000000000000     
   3.1250000000000000E-002  0.68750000000000000        0.0000000000000000     
   6.2500000000000000E-002  0.68750000000000000        0.0000000000000000     
   9.3750000000000000E-002  0.68750000000000000        0.0000000000000000     
  0.12500000000000000       0.68750000000000000        0.0000000000000000     
   0.0000000000000000       0.71875000000000000        0.0000000000000000     
   3.1250000000000000E-002  0.71875000000000000        0.0000000000000000     
   6.2500000000000000E-002  0.71875000000000000        0.0000000000000000     
   9.3750000000000000E-002  0.71875000000000000        0.0000000000000000     
  0.12500000000000000       0.71875000000000000        0.0000000000000000     
   0.0000000000000000       0.75000000000000000        0.0000000000000000     
   3.1250000000000000E-002  0.75000000000000000        0.0000000000000000     
   6.2500000000000000E-002  0.75000000000000000        0.0000000000000000     
   9.3750000000000000E-002  0.75000000000000000        0.0000000000000000     
  0.12500000000000000       0.75000000000000000        0.0000000000000000     
  0.12500000000000000       0.62500000000000000        0.0000000000000000     
  0.15625000000000000       0.62500000000000000        0.0000000000000000     
  0.18750000000000000       0.62500000000000000        0.0000000000000000     
  0.21875000000000000       0.62500000000000000        0.0000000000000000     
  0.25000000000000000       0.62500000000000000        0.0000000000000000     
  0.12500000000000000       0.65625000000000000        0.0000000000000000     
  0.15625000000000000       0.65625000000000000        0.0000000000000000     
  0.18750000000000000       0.65625000000000000        0.0000000000000000     
  0.21875000000000000       0.65625000000000000        0.0000000000000000     
  0.25000000000000000       0.65625000000000000        0.0000000000000000     
  0.12500000000000000       0.68750000000000000        0.0000000000000000     
  0.15625000000000000       0.68750000000000000        0.0000000000000000     
  0.18750000000000000       0.68750000000000000        0.0000000000000000     
  0.21875000000000000       0.68750000000000000        0.0000000000000000     
  0.25000000000000000       0.68750000000000000        0.0000000000000000     
  0.12500000000000000       0.71875000000000000        0.0000000000000000     
  0.15625000000000000       0.71875000000000000        0.0000000000000000     
  0.18750000000000000       0.71875000000000000        0.0000000000000000     
  0.21875000000000000       0.71875000000000000        0.0000000000000000     
  0.25000000000000000       0.71875000000000000        0.0000000000000000     
  0.12500000000000000       0.75000000000000000        0.0000000000000000     
  0.15625000000000000       0.75000000000000000        0.0000000000000000     
  0.18750000000000000       0.75000000000000000        0.0000000000000000     
  0.21875000000000000       0.75000000000000000        0.0000000000000000     
  0.25000000000000000       0.75000000000000000        0.0000000000000000     
  0.25000000000000000       0.62500000000000000        0.0000000000000000     
  0.28125000000000000       0.62500000000000000        0.0000000000000000     
  0.31250000000000000       0.62500000000000000        0.0000000000000000     
  0.34375000000000000       0.62500000000000000        0.0000000000000000     
  0.37500000000000000       0.62500000000000000        0.0000000000000000     
  0.25000000000000000       0.65625000000000000        0.0000000000000000     
  0.28125000000000000       0.65625000000000000        0.0000000000000000     
  0.31250000000000000       0.65625000000000000        0.0000000000000000     
  0.34375000000000000       0.65625000000000000        0.0000000000000000     
  0.37500000000000000       0.65625000000000000        0.0000000000000000     
  0.25000000000000000       0.68750000000000000        0.0000000000000000     
  0.28125000000000000       0.68750000000000000        0.0000000000000000     
  0.31250000000000000       0.68750000000000000        0.0000000000000000     
  0.34375000000000000       0.68750000000000000        0.0000000000000000     
  0.37500000000000000       0.68750000000000000        0.0000000000000000     
  0.25000000000000000       0.71875000000000000        0.0000000000000000     
  0.28125000000000000       0.71875000000000000        0.0000000000000000     
  0.31250000000000000       0.71875000000000000        0.0000000000000000     
  0.34375000000000000       0.71875000000000000        0.0000000000000000     
  0.37500000000000000       0.71875000000000000        0.0000000000000000     
  0.25000000000000000       0.75000000000000000        0.0000000000000000     
  0.28125000000000000       0.75000000000000000        0.0000000000000000     
  0.31250000000000000       0.75000000000000000        0.0000000000000000     
  0.34375000000000000       0.75000000000000000        0.0000000000000000     
  0.37500000000000000       0.75000000000000000        0.0000000000000000     
  0.37500000000000000       0.62500000000000000        0.0000000000000000     
  0.40625000000000000       0.62500000000000000        0.0000000000000000     
  0.43750000000000000       0.62500000000000000        0.0000000000000000     
  0.46875000000000000       0.62500000000000000        0.0000000000000000     
  0.50000000000000000       0.62500000000000000        0.0000000000000000     
  0.37500000000000000       0.65625000000000000        0.0000000000000000     
  0.40625000000000000       0.65625000000000000        0.0000000000000000     
  0.43750000000000000       0.65625000000000000        0.0000000000000000     
  0.46875000000000000       0.65625000000000000        0.0000000000000000     
  0.50000000000000000       0.65625000000000000        0.0000000000000000     
  0.37500000000000000       0.68750000000000000        0.0000000000000000     
  0.40625000000000000       0.68750000000000000        0.0000000000000000     
  0.43750000000000000       0.68750000000000000        0.0000000000000000     
  0.46875000000000000       0.68750000000000000        0.0000000000000000     
  0.50000000000000000       0.68750000000000000        0.0000000000000000     
  0.37500000000000000       0.71875000000000000        0.0000000000000000     
  0.40625000000000000       0.71875000000000000        0.0000000000000000     
  0.43750000000000000       0.71875000000000000        0.0000000000000000     
  0.46875000000000000       0.71875000000000000        0.0000000000000000     
  0.50000000000000000       0.71875000000000000        0.0000000000000000     
  0.37500000000000000       0.75000000000000000        0.0000000000000000     
  0.40625000000000000       0.75000000000000000        0.0000000000000000     
  0.43750000000000000       0.75000000000000000        0.0000000000000000     
  0.46875000000000000       0.75000000000000000        0.0000000000000000     
  0.50000000000000000       0.75000000000000000        0.0000000000000000     
  0.50000000000000000       0.62500000000000000        0.0000000000000000     
  0.53125000000000000       0.62500000000000000        0.0000000000000000     
  0.56250000000000000       0.62500000000000000        0.0000000000000000     
  0.59375000000000000       0.62500000000000000        0.0000000000000000     
  0.62500000000000000       0.62500000000000000        0.0000000000000000     
  0.50000000000000000       0.65625000000000000        0.0000000000000000     
  0.53125000000000000       0.65625000000000000        0.0000000000000000     
  0.56250000000000000       0.65625000000000000        0.0000000000000000     
  0.59375000000000000       0.65625000000000000        0.0000000000000000     
  0.62500000000000000       0.65625000000000000        0.0000000000000000     
  0.50000000000000000       0.68750000000000000        0.0000000000000000     
  0.53125000000000000       0.68750000000000000        0.0000000000000000     
  0.56250000000000000       0.68750000000000000        0.0000000000000000     
  0.59375000000000000       0.68750000000000000        0.0000000000000000     
  0.62500000000000000       0.68750000000000000        0.0000000000000000     
  0.50000000000000000       0.71875000000000000        0.0000000000000000     
  0.53125000000000000       0.71875000000000000        0.0000000000000000     
  0.56250000000000000       0.71875000000000000        0.0000000000000000     
  0.59375000000000000       0.71875000000000000        0.0000000000000000     
  0.62500000000000000       0.71875000000000000        0.0000000000000000     
  0.50000000000000000       0.75000000000000000        0.0000000000000000     
  0.53125000000000000       0.75000000000000000        0.0000000000000000     
  0.56250000000000000       0.75000000000000000        0.0000000000000000     
  0.59375000000000000       0.75000000000000000        0.0000000000000000     
  0.62500000000000000       0.75000000000000000        0.0000000000000000     
  0.62500000000000000       0.62500000000000000        0.0000000000000000     
  0.65625000000000000       0.62500000000000000        0.0000000000000000     
  0.68750000000000000       0.62500000000000000        0.0000000000000000     
  0.71875000000000000       0.62500000000000000        0.0000000000000000     
  0.75000000000000000       0.62500000000000000        0.0000000000000000     
  0.62500000000000000       0.65625000000000000        0.0000000000000000     
  0.65625000000000000       0.65625000000000000        0.0000000000000000     
  0.68750000000000000       0.65625000000000000        0.0000000000000000     
  0.71875000000000000       0.65625000000000000        0.0000000000000000     
  0.75000000000000000       0.65625000000000000        0.0000000000000000     
  0.62500000000000000       0.68750000000000000        0.0000000000000000     
  0.65625000000000000       0.68750000000000000        0.0000000000000000     
  0.68750000000000000       0.68750000000000000        0.0000000000000000     
  0.71875000000000000       0.68750000000000000        0.0000000000000000     
  0.75000000000000000       0.68750000000000000        0.0000000000000000     
  0.62500000000000000       0.71875000000000000        0.0000000000000000     
  0.65625000000000000       0.71875000000000000        0.0000000000000000     
  0.68750000000000000       0.71875000000000000        0.0000000000000000     
  0.71875000000000000       0.71875000000000000        0.0000000000000000     
  0.75000000000000000       0.71875000000000000        0.0000000000000000     
  0.62500000000000000       0.75000000000000000        0.0000000000000000     
  0.65625000000000000       0.75000000000000000        0.0000000000000000     
  0.68750000000000000       0.75000000000000000        0.0000000000000000     
  0.71875000000000000       0.75000000000000000        0.0000000000000000     
  0.75000000000000000       0.75000000000000000        0.0000000000000000     
  0.75000000000000000       0.62500000000000000        0.0000000000000000     
  0.78125000000000000       0.62500000000000000        0.0000000000000000     
  0.81250000000000000       0.62500000000000000        0.0000000000000000     
  0.84375000000000000       0.62500000000000000        0.0000000000000000     
  0.87500000000000000       0.62500000000000000        0.0000000000000000     
  0.75000000000000000       0.65625000000000000        0.0000000000000000     
  0.78125000000000000       0.65625000000000000        0.0000000000000000     
  0.81250000000000000       0.65625000000000000        0.0000000000000000     
  0.84375000000000000       0.65625000000000000        0.0000000000000000     
  0.87500000000000000       0.65625000000000000        0.0000000000000000     
  0.75000000000000000       0.68750000000000000        0.0000000000000000     
  0.78125000000000000       0.68750000000000000        0.0000000000000000     
  0.81250000000000000       0.68750000000000000        0.0000000000000000     
  0.84375000000000000       0.68750000000000000        0.0000000000000000     
  0.87500000000000000       0.68750000000000000        0.0000000000000000     
  0.75000000000000000       0.71875000000000000        0.0000000000000000     
  0.78125000000000000       0.71875000000000000        0.0000000000000000     
  0.81250000000000000       0.71875000000000000        0.0000000000000000     
  0.84375000000000000       0.71875000000000000        0.0000000000000000     
  0.87500000000000000       0.71875000000000000        0.0000000000000000     
  0.75000000000000000       0.75000000000000000        0.0000000000000000     
  0.78125000000000000       0.75000000000000000        0.0000000000000000     
  0.81250000000000000       0.75000000000000000        0.0000000000000000     
  0.84375000000000000       0.75000000000000000        0.0000000000000000     
  0.87500000000000000       0.75000000000000000        0.0000000000000000     
  0.87500000000000000       0.62500000000000000        0.0000000000000000     
  0.90625000000000000       0.62500000000000000        0.0000000000000000     
  0.93750000000000000       0.62500000000000000        0.0000000000000000     
  0.96875000000000000       0.62500000000000000        0.0000000000000000     
   1.0000000000000000       0.62500000000000000        0.0000000000000000     
  0.87500000000000000       0.65625000000000000        0.0000000000000000     
  0.90625000000000000       0.65625000000000000        0.0000000000000000     
  0.93750000000000000       0.65625000000000000        0.0000000000000000     
  0.96875000000000000       0.65625000000000000        0.0000000000000000     
   1.0000000000000000       0.65625000000000000        0.0000000000000000     
  0.87500000000000000       0.68750000000000000        0.0000000000000000     
  0.90625000000000000       0.68750000000000000        0.0000000000000000     
  0.93750000000000000       0.68750000000000000        0.0000000000000000     
  0.96875000000000000       0.68750000000000000        0.0000000000000000     
   1.0000000000000000       0.68750000000000000        0.0000000000000000     
  0.87500000000000000       0.71875000000000000        0.0000000000000000     
  0.90625000000000000       0.71875000000000000        0.0000000000000000     
  0.93750000000000000       0.71875000000000000        0.0000000000000000     
  0.96875000000000000       0.71875000000000000        0.0000000000000000     
   1.0000000000000000       0.71875000000000000        0.0000000000000000     
  0.87500000000000000       0.75000000000000000        0.0000000000000000     
  0.90625000000000000       0.75000000000000000        0.0000000000000000     
  0.93750000000000000       0.75000000000000000        0.0000000000000000     
  0.96875000000000000       0.75000000000000000        0.0000000000000000     
   1.0000000000000000       0.75000000000000000        0.0000000000000000     
   0.0000000000000000       0.75000000000000000        0.0000000000000000     
   3.1250000000000000E-002  0.75000000000000000        0.0000000000000000     
   6.2500000000000000E-002  0.75000000000000000        0.0000000000000000     
   9.3750000000000000E-002  0.75000000000000000        0.0000000000000000     
  0.12500000000000000       0.75000000000000000        0.0000000000000000     
   0.0000000000000000       0.78125000000000000        0.0000000000000000     
   3.1250000000000000E-002  0.78125000000000000        0.0000000000000000     
   6.2500000000000000E-002  0.78125000000000000        0.0000000000000000     
   9.3750000000000000E-002  0.78125000000000000        0.0000000000000000     
  0.12500000000000000       0.78125000000000000        0.0000000000000000     
   0.0000000000000000       0.81250000000000000        0.0000000000000000     
   3.1250000000000000E-002  0.81250000000000000        0.0000000000000000     
   6.2500000000000000E-002  0.81250000000000000        0.0000000000000000     
   9.3750000000000000E-002  0.81250000000000000        0.0000000000000000     
  0.12500000000000000       0.81250000000000000        0.0000000000000000     
   0.0000000000000000       0.84375000000000000        0.0000000000000000     
   3.1250000000000000E-002  0.84375000000000000        0.0000000000000000     
   6.2500000000000000E-002  0.84375000000000000        0.0000000000000000     
   9.3750000000000000E-002  0.84375000000000000        0.0000000000000000     
  0.12500000000000000       0.84375000000000000        0.0000000000000000     
   0.0000000000000000       0.87500000000000000        0.0000000000000000     
   3.1250000000000000E-002  0.87500000000000000        0.0000000000000000     
   6.2500000000000000E-002  0.87500000000000000        0.0000000000000000     
   9.3750000000000000E-002  0.87500000000000000        0.0000000000000000     
  0.12500000000000000       0.87500000000000000        0.0000000000000000     
  0.12500000000000000       0.75000000000000000        0.0000000000000000     
  0.15625000000000000       0.75000000000000000        0.0000000000000000     
  0.18750000000000000       0.75000000000000000        0.0000000000000000     
  0.21875000000000000       0.75000000000000000        0.0000000000000000     
  0.25000000000000000       0.75000000000000000        0.0000000000000000     
  0.12500000000000000       0.78125000000000000        0.0000000000000000     
  0.15625000000000000       0.78125000000000000        0.0000000000000000     
  0.18750000000000000       0.78125000000000000        0.0000000000000000     
  0.21875000000000000       0.78125000000000000        0.0000000000000000     
  0.25000000000000000       0.78125000000000000        0.0000000000000000     
  0.12500000000000000       0.81250000000000000        0.0000000000000000     
  0.15625000000000000       0.81250000000000000        0.0000000000000000     
  0.18750000000000000       0.81250000000000000        0.0000000000000000     
  0.21875000000000000       0.81250000000000000        0.0000000000000000     
  0.25000000000000000       0.81250000000000000        0.0000000000000000     
  0.12500000000000000       0.84375000000000000        0.0000000000000000     
  0.15625000000000000       0.84375000000000000        0.0000000000000000     
  0.18750000000000000       0.84375000000000000        0.0000000000000000     
  0.21875000000000000       0.84375000000000000        0.0000000000000000     
  0.25000000000000000       0.84375000000000000        0.0000000000000000     
  0.12500000000000000       0.87500000000000000        0.0000000000000000     
  0.15625000000000000       0.87500000000000000        0.0000000000000000     
  0.18750000000000000       0.87500000000000000        0.0000000000000000     
  0.21875000000000000       0.87500000000000000        0.0000000000000000     
  0.25000000000000000       0.87500000000000000        0.0000000000000000     
  0.25000000000000000       0.75000000000000000        0.0000000000000000     
  0.28125000000000000       0.75000000000000000        0.0000000000000000     
  0.31250000000000000       0.75000000000000000        0.0000000000000000     
  0.34375000000000000       0.75000000000000000        0.0000000000000000     
  0.37500000000000000       0.75000000000000000        0.0000000000000000     
  0.25000000000000000       0.78125000000000000        0.0000000000000000     
  0.28125000000000000       0.78125000000000000        0.0000000000000000     
  0.31250000000000000       0.78125000000000000        0.0000000000000000     
  0.34375000000000000       0.78125000000000000        0.0000000000000000     
  0.37500000000000000       0.78125000000000000        0.0000000000000000     
  0.25000000000000000       0.81250000000000000        0.0000000000000000     
  0.28125000000000000       0.81250000000000000        0.0000000000000000     
  0.31250000000000000       0.81250000000000000        0.0000000000000000     
  0.34375000000000000       0.81250000000000000        0.0000000000000000     
  0.37500000000000000       0.81250000000000000        0.0000000000000000     
  0.25000000000000000       0.84375000000000000        0.0000000000000000     
  0.28125000000000000       0.84375000000000000        0.0000000000000000     
  0.31250000000000000       0.84375000000000000        0.0000000000000000     
  0.34375000000000000       0.84375000000000000        0.0000000000000000     
  0.37500000000000000       0.84375000000000000        0.0000000000000000     
  0.25000000000000000       0.87500000000000000        0.0000000000000000     
  0.28125000000000000       0.87500000000000000        0.0000000000000000     
  0.31250000000000000       0.87500000000000000        0.0000000000000000     
  0.34375000000000000       0.87500000000000000        0.0000000000000000     
  0.37500000000000000       0.87500000000000000        0.0000000000000000     
  0.37500000000000000       0.75000000000000000        0.0000000000000000     
  0.40625000000000000       0.75000000000000000        0.0000000000000000     
  0.43750000000000000       0.75000000000000000        0.0000000000000000     
  0.46875000000000000       0.75000000000000000        0.0000000000000000     
  0.50000000000000000       0.75000000000000000        0.0000000000000000     
  0.37500000000000000       0.78125000000000000        0.0000000000000000     
  0.40625000000000000       0.78125000000000000        0.0000000000000000     
  0.43750000000000000       0.78125000000000000        0.0000000000000000     
  0.46875000000000000       0.78125000000000000        0.0000000000000000     
  0.50000000000000000       0.78125000000000000        0.0000000000000000     
  0.37500000000000000       0.81250000000000000        0.0000000000000000     
  0.40625000000000000       0.81250000000000000        0.0000000000000000     
  0.43750000000000000       0.81250000000000000        0.0000000000000000     
  0.46875000000000000       0.81250000000000000        0.0000000000000000     
  0.50000000000000000       0.81250000000000000        0.0000000000000000     
  0.37500000000000000       0.84375000000000000        0.0000000000000000     
  0.40625000000000000       0.84375000000000000        0.0000000000000000     
  0.43750000000000000       0.84375000000000000        0.0000000000000000     
  0.46875000000000000       0.84375000000000000        0.0000000000000000     
  0.50000000000000000       0.84375000000000000        0.0000000000000000     
  0.37500000000000000       0.87500000000000000        0.0000000000000000     
  0.40625000000000000       0.87500000000000000        0.0000000000000000     
  0.43750000000000000       0.87500000000000000        0.0000000000000000     
  0.46875000000000000       0.87500000000000000        0.0000000000000000     
  0.50000000000000000       0.87500000000000000        0.0000000000000000     
  0.50000000000000000       0.75000000000000000        0.0000000000000000     
  0.53125000000000000       0.75000000000000000        0.0000000000000000     
  0.56250000000000000       0.75000000000000000        0.0000000000000000     
  0.59375000000000000       0.75000000000000000        0.0000000000000000     
  0.62500000000000000       0.75000000000000000        0.0000000000000000     
  0.50000000000000000       0.78125000000000000        0.0000000000000000     
  0.53125000000000000       0.78125000000000000        0.0000000000000000     
  0.56250000000000000       0.78125000000000000        0.0000000000000000     
  0.59375000000000000       0.78125000000000000        0.0000000000000000     
  0.62500000000000000       0.78125000000000000        0.0000000000000000     
  0.50000000000000000       0.81250000000000000        0.0000000000000000     
  0.53125000000000000       0.81250000000000000        0.0000000000000000     
  0.56250000000000000       0.81250000000000000        0.0000000000000000     
  0.59375000000000000       0.81250000000000000        0.0000000000000000     
  0.62500000000000000       0.81250000000000000        0.0000000000000000     
  0.50000000000000000       0.84375000000000000        0.0000000000000000     
  0.53125000000000000       0.84375000000000000        0.0000000000000000     
  0.56250000000000000       0.84375000000000000        0.0000000000000000     
  0.59375000000000000       0.84375000000000000        0.0000000000000000     
  0.62500000000000000       0.84375000000000000        0.0000000000000000     
  0.50000000000000000       0.87500000000000000        0.0000000000000000     
  0.53125000000000000       0.87500000000000000        0.0000000000000000     
  0.56250000000000000       0.87500000000000000        0.0000000000000000     
  0.59375000000000000       0.87500000000000000        0.0000000000000000     
  0.62500000000000000       0.87500000000000000        0.0000000000000000     
  0.62500000000000000       0.75000000000000000        0.0000000000000000     
  0.65625000000000000       0.75000000000000000        0.0000000000000000     
  0.68750000000000000       0.75000000000000000        0.0000000000000000     
  0.71875000000000000       0.75000000000000000        0.0000000000000000     
  0.75000000000000000       0.75000000000000000        0.0000000000000000     
  0.62500000000000000       0.78125000000000000        0.0000000000000000     
  0.65625000000000000       0.78125000000000000        0.0000000000000000     
  0.68750000000000000       0.78125000000000000        0.0000000000000000     
  0.71875000000000000       0.78125000000000000        0.0000000000000000     
  0.75000000000000000       0.78125000000000000        0.0000000000000000     
  0.62500000000000000       0.81250000000000000        0.0000000000000000     
  0.65625000000000000       0.81250000000000000        0.0000000000000000     
  0.68750000000000000       0.81250000000000000        0.0000000000000000     
  0.71875000000000000       0.81250000000000000        0.0000000000000000     
  0.75000000000000000       0.81250000000000000        0.0000000000000000     
  0.62500000000000000       0.84375000000000000        0.0000000000000000     
  0.65625000000000000       0.84375000000000000        0.0000000000000000     
  0.68750000000000000       0.84375000000000000        0.0000000000000000     
  0.71875000000000000       0.84375000000000000        0.0000000000000000     
  0.75000000000000000       0.84375000000000000        0.0000000000000000     
  0.62500000000000000       0.87500000000000000        0.0000000000000000     
  0.65625000000000000       0.87500000000000000        0.0000000000000000     
  0.68750000000000000       0.87500000000000000        0.0000000000000000     
  0.71875000000000000       0.87500000000000000        0.0000000000000000     
  0.75000000000000000       0.87500000000000000        0.0000000000000000     
  0.75000000000000000       0.75000000000000000        0.0000000000000000     
  0.78125000000000000       0.75000000000000000        0.0000000000000000     
  0.81250000000000000       0.75000000000000000        0.0000000000000000     
  0.84375000000000000       0.75000000000000000        0.0000000000000000     
  0.87500000000000000       0.75000000000000000        0.0000000000000000     
  0.75000000000000000       0.78125000000000000        0.0000000000000000     
  0.78125000000000000       0.78125000000000000        0.0000000000000000     
  0.81250000000000000       0.78125000000000000        0.0000000000000000     
  0.84375000000000000       0.78125000000000000        0.0000000000000000     
  0.87500000000000000       0.78125000000000000        0.0000000000000000     
  0.75000000000000000       0.81250000000000000        0.0000000000000000     
  0.78125000000000000       0.81250000000000000        0.0000000000000000     
  0.81250000000000000       0.81250000000000000        0.0000000000000000     
  0.84375000000000000       0.81250000000000000        0.0000000000000000     
  0.87500000000000000       0.81250000000000000        0.0000000000000000     
  0.75000000000000000       0.84375000000000000        0.0000000000000000     
  0.78125000000000000       0.84375000000000000        0.0000000000000000     
  0.81250000000000000       0.84375000000000000        0.0000000000000000     
  0.84375000000000000       0.84375000000000000        0.0000000000000000     
  0.87500000000000000       0.84375000000000000        0.0000000000000000     
  0.75000000000000000       0.87500000000000000        0.0000000000000000     
  0.78125000000000000       0.87500000000000000        0.0000000000000000     
  0.81250000000000000       0.87500000000000000        0.0000000000000000     
  0.84375000000000000       0.87500000000000000        0.0000000000000000     
  0.87500000000000000       0.87500000000000000        0.0000000000000000     
  0.87500000000000000       0.75000000000000000        0.0000000000000000     
  0.90625000000000000       0.75000000000000000        0.0000000000000000     
  0.93750000000000000       0.75000000000000000        0.0000000000000000     
  0.96875000000000000       0.75000000000000000        0.0000000000000000     
   1.0000000000000000       0.75000000000000000        0.0000000000000000     
  0.87500000000000000       0.78125000000000000        0.0000000000000000     
  0.90625000000000000       0.78125000000000000        0.0000000000000000     
  0.93750000000000000       0.78125000000000000        0.0000000000000000     
  0.96875000000000000       0.78125000000000000        0.0000000000000000     
   1.0000000000000000       0.78125000000000000        0.0000000000000000     
  0.87500000000000000       0.81250000000000000        0.0000000000000000     
  0.90625000000000000       0.81250000000000000        0.0000000000000000     
  0.93750000000000000       0.81250000000000000        0.0000000000000000     
  0.96875000000000000       0.81250000000000000        0.0000000000000000     
   1.0000000000000000       0.81250000000000000        0.0000000000000000     
  0.87500000000000000       0.84375000000000000        0.0000000000000000     
  0.90625000000000000       0.84375000000000000        0.0000000000000000     
  0.93750000000000000       0.84375000000000000        0.0000000000000000     
  0.96875000000000000       0.84375000000000000        0.0000000000000000     
   1.0000000000000000       0.84375000000000000        0.0000000000000000     
  0.87500000000000000       0.87500000000000000        0.0000000000000000     
  0.90625000000000000       0.87500000000000000        0.0000000000000000     
  0.93750000000000000       0.87500000000000000        0.0000000000000000     
  0.96875000000000000       0.87500000000000000        0.0000000000000000     
   1.0000000000000000       0.87500000000000000        0.0000000000000000     
   0.0000000000000000       0.87500000000000000        0.0000000000000000     
   3.1250000000000000E-002  0.87500000000000000        0.0000000000000000     
   6.2500000000000000E-002  0.87500000000000000        0.0000000000000000     
   9.3750000000000000E-002  0.87500000000000000        0.0000000000000000     
  0.12500000000000000       0.87500000000000000        0.0000000000000000     
   0.0000000000000000       0.90625000000000000        0.0000000000000000     
   3.1250000000000000E-002  0.90625000000000000        0.0000000000000000     
   6.2500000000000000E-002  0.90625000000000000        0.0000000000000000     
   9.3750000000000000E-002  0.90625000000000000        0.0000000000000000     
  0.12500000000000000       0.90625000000000000        0.0000000000000000     
   0.0000000000000000       0.93750000000000000        0.0000000000000000     
   3.1250000000000000E-002  0.93750000000000000        0.0000000000000000     
   6.2500000000000000E-002  0.93750000000000000        0.0000000000000000     
   9.3750000000000000E-002  0.93750000000000000        0.0000000000000000     
  0.12500000000000000       0.93750000000000000        0.0000000000000000     
   0.0000000000000000       0.96875000000000000        0.0000000000000000     
   3.1250000000000000E-002  0.96875000000000000        0.0000000000000000     
   6.2500000000000000E-002  0.96875000000000000        0.0000000000000000     
   9.3750000000000000E-002  0.96875000000000000        0.0000000000000000     
  0.12500000000000000       0.96875000000000000        0.0000000000000000     
   0.0000000000000000        1.0000000000000000        0.0000000000000000     
   3.1250000000000000E-002   1.0000000000000000        0.0000000000000000     
   6.2500000000000000E-002   1.0000000000000000        0.0000000000000000     
   9.3750000000000000E-002   1.0000000000000000        0.0000000000000000     
  0.12500000000000000        1.0000000000000000        0.0000000000000000     
  0.12500000000000000       0.87500000000000000        0.0000000000000000     
  0.15625000000000000       0.87500000000000000        0.0000000000000000     
  0.18750000000000000       0.87500000000000000        0.0000000000000000     
  0.21875000000000000       0.87500000000000000        0.0000000000000000     
  0.25000000000000000       0.87500000000000000        0.0000000000000000     
  0.12500000000000000       0.90625000000000000        0.0000000000000000     
  0.15625000000000000       0.90625000000000000        0.0000000000000000     
  0.18750000000000000       0.90625000000000000        0.0000000000000000     
  0.21875000000000000       0.90625000000000000        0.0000000000000000     
  0.25000000000000000       0.90625000000000000        0.0000000000000000     
  0.12500000000000000       0.93750000000000000        0.0000000000000000     
  0.15625000000000000       0.93750000000000000        0.0000000000000000     
  0.18750000000000000       0.93750000000000000        0.0000000000000000     
  0.21875000000000000       0.93750000000000000        0.0000000000000000     
  0.25000000000000000       0.93750000000000000        0.0000000000000000     
  0.12500000000000000       0.96875000000000000        0.0000000000000000     
  0.15625000000000000       0.96875000000000000        0.0000000000000000     
  0.18750000000000000       0.96875000000000000        0.0000000000000000     
  0.21875000000000000       0.96875000000000000        0.0000000000000000     
  0.25000000000000000       0.96875000000000000        0.0000000000000000     
  0.12500000000000000        1.0000000000000000        0.0000000000000000     
  0.15625000000000000        1.0000000000000000        0.0000000000000000     
  0.18750000000000000        1.0000000000000000        0.0000000000000000     
  0.21875000000000000        1.0000000000000000        0.0000000000000000     
  0.25000000000000000        1.0000000000000000        0.0000000000000000     
  0.25000000000000000       0.87500000000000000        0.0000000000000000     
  0.28125000000000000       0.87500000000000000        0.0000000000000000     
  0.31250000000000000       0.87500000000000000        0.0000000000000000     
  0.34375000000000000       0.87500000000000000        0.0000000000000000     
  0.37500000000000000       0.87500000000000000        0.0000000000000000     
  0.25000000000000000       0.90625000000000000        0.0000000000000000     
  0.28125000000000000       0.90625000000000000        0.0000000000000000     
  0.31250000000000000       0.90625000000000000        0.0000000000000000     
  0.34375000000000000       0.90625000000000000        0.0000000000000000     
  0.37500000000000000       0.90625000000000000        0.0000000000000000     
  0.25000000000000000       0.93750000000000000        0.0000000000000000     
  0.28125000000000000       0.93750000000000000        0.0000000000000000     
  0.31250000000000000       0.93750000000000000        0.0000000000000000     
  0.34375000000000000       0.93750000000000000        0.0000000000000000     
  0.37500000000000000       0.93750000000000000        0.0000000000000000     
  0.25000000000000000       0.96875000000000000        0.0000000000000000     
  0.28125000000000000       0.96875000000000000        0.0000000000000000     
  0.31250000000000000       0.96875000000000000        0.0000000000000000     
  0.34375000000000000       0.96875000000000000        0.0000000000000000     
  0.37500000000000000       0.96875000000000000        0.0000000000000000     
  0.25000000000000000        1.0000000000000000        0.0000000000000000     
  0.28125000000000000        1.0000000000000000        0.0000000000000000     
  0.31250000000000000        1.0000000000000000        0.0000000000000000     
  0.34375000000000000        1.0000000000000000        0.0000000000000000     
  0.37500000000000000        1.0000000000000000        0.0000000000000000     
  0.37500000000000000       0.87500000000000000        0.0000000000000000     
  0.40625000000000000       0.87500000000000000        0.0000000000000000     
  0.43750000000000000       0.87500000000000000        0.0000000000000000     
  0.46875000000000000       0.87500000000000000        0.0000000000000000     
  0.50000000000000000       0.87500000000000000        0.0000000000000000     
  0.37500000000000000       0.90625000000000000        0.0000000000000000     
  0.40625000000000000       0.90625000000000000        0.0000000000000000     
  0.43750000000000000       0.90625000000000000        0.0000000000000000     
  0.46875000000000000       0.90625000000000000        0.0000000000000000     
  0.50000000000000000       0.90625000000000000        0.0000000000000000     
  0.37500000000000000       0.93750000000000000        0.0000000000000000     
  0.40625000000000000       0.93750000000000000        0.0000000000000000     
  0.43750000000000000       0.93750000000000000        0.0000000000000000     
  0.46875000000000000       0.93750000000000000        0.0000000000000000     
  0.50000000000000000       0.93750000000000000        0.0000000000000000     
  0.37500000000000000       0.96875000000000000        0.0000000000000000     
  0.40625000000000000       0.96875000000000000        0.0000000000000000     
  0.43750000000000000       0.96875000000000000        0.0000000000000000     
  0.46875000000000000       0.96875000000000000        0.0000000000000000     
  0.50000000000000000       0.96875000000000000        0.0000000000000000     
  0.37500000000000000        1.0000000000000000        0.0000000000000000     
  0.40625000000000000        1.0000000000000000        0.0000000000000000     
  0.43750000000000000        1.0000000000000000        0.0000000000000000     
  0.46875000000000000        1.0000000000000000        0.0000000000000000     
  0.50000000000000000        1.0000000000000000        0.0000000000000000     
  0.50000000000000000       0.87500000000000000        0.0000000000000000     
  0.53125000000000000       0.87500000000000000        0.0000000000000000     
  0.56250000000000000       0.87500000000000000        0.0000000000000000     
  0.59375000000000000       0.87500000000000000        0.0000000000000000     
  0.62500000000000000       0.87500000000000000        0.0000000000000000     
  0.50000000000000000       0.90625000000000000        0.0000000000000000     
  0.53125000000000000       0.90625000000000000        0.0000000000000000     
  0.56250000000000000       0.90625000000000000        0.0000000000000000     
  0.59375000000000000       0.90625000000000000        0.0000000000000000     
  0.62500000000000000       0.90625000000000000        0.0000000000000000     
  0.50000000000000000       0.93750000000000000        0.0000000000000000     
  0.53125000000000000       0.93750000000000000        0.0000000000000000     
  0.56250000000000000       0.93750000000000000        0.0000000000000000     
  0.59375000000000000       0.93750000000000000        0.0000000000000000     
  0.62500000000000000       0.93750000000000000        0.0000000000000000     
  0.50000000000000000       0.96875000000000000        0.0000000000000000     
  0.53125000000000000       0.96875000000000000        0.0000000000000000     
  0.56250000000000000       0.96875000000000000        0.0000000000000000     
  0.59375000000000000       0.96875000000000000        0.0000000000000000     
  0.62500000000000000       0.96875000000000000        0.0000000000000000     
  0.50000000000000000        1.0000000000000000        0.0000000000000000     
  0.53125000000000000        1.0000000000000000        0.0000000000000000     
  0.56250000000000000        1.0000000000000000        0.0000000000000000     
  0.59375000000000000        1.0000000000000000        0.0000000000000000     
  0.62500000000000000        1.0000000000000000        0.0000000000000000     
  0.62500000000000000       0.87500000000000000        0.0000000000000000     
  0.65625000000000000       0.87500000000000000        0.0000000000000000     
  0.68750000000000000       0.87500000000000000        0.0000000000000000     
  0.71875000000000000       0.87500000000000000        0.0000000000000000     
  0.75000000000000000       0.87500000000000000        0.0000000000000000     
  0.62500000000000000       0.90625000000000000        0.0000000000000000     
  0.65625000000000000       0.90625000000000000        0.0000000000000000     
  0.68750000000000000       0.90625000000000000        0.0000000000000000     
  0.71875000000000000       0.90625000000000000        0.0000000000000000     
  0.75000000000000000       0.90625000000000000        0.0000000000000000     
  0.62500000000000000       0.93750000000000000        0.0000000000000000     
  0.65625000000000000       0.93750000000000000        0.0000000000000000     
  0.68750000000000000       0.93750000000000000        0.0000000000000000     
  0.71875000000000000       0.93750000000000000        0.0000000000000000     
  0.75000000000000000       0.93750000000000000        0.0000000000000000     
  0.62500000000000000       0.96875000000000000        0.0000000000000000     
  0.65625000000000000       0.96875000000000000        0.0000000000000000     
  0.68750000000000000       0.96875000000000000        0.0000000000000000     
  0.71875000000000000       0.96875000000000000        0.0000000000000000     
  0.75000000000000000       0.96875000000000000        0.0000000000000000     
  0.62500000000000000        1.0000000000000000        0.0000000000000000     
  0.65625000000000000        1.0000000000000000        0.0000000000000000     
  0.68750000000000000        1.0000000000000000        0.0000000000000000     
  0.71875000000000000        1.0000000000000000        0.0000000000000000     
  0.75000000000000000        1.0000000000000000        0.0000000000000000     
  0.75000000000000000       0.87500000000000000        0.0000000000000000     
  0.78125000000000000       0.87500000000000000        0.0000000000000000     
  0.81250000000000000       0.87500000000000000        0.0000000000000000     
  0.84375000000000000       0.87500000000000000        0.0000000000000000     
  0.87500000000000000       0.87500000000000000        0.0000000000000000     
  0.75000000000000000       0.90625000000000000        0.0000000000000000     
  0.78125000000000000       0.90625000000000000        0.0000000000000000     
  0.81250000000000000       0.90625000000000000        0.0000000000000000     
  0.84375000000000000       0.90625000000000000        0.0000000000000000     
  0.87500000000000000       0.90625000000000000        0.0000000000000000     
  0.75000000000000000       0.93750000000000000        0.0000000000000000     
  0.78125000000000000       0.93750000000000000        0.0000000000000000     
  0.81250000000000000       0.93750000000000000        0.0000000000000000     
  0.84375000000000000       0.93750000000000000        0.0000000000000000     
  0.87500000000000000       0.93750000000000000        0.0000000000000000     
  0.75000000000000000       0.96875000000000000        0.0000000000000000     
  0.78125000000000000       0.96875000000000000        0.0000000000000000     
  0.81250000000000000       0.96875000000000000        0.0000000000000000     
  0.84375000000000000       0.96875000000000000        0.0000000000000000     
  0.87500000000000000       0.96875000000000000        0.0000000000000000     
  0.75000000000000000        1.0000000000000000        0.0000000000000000     
  0.78125000000000000        1.0000000000000000        0.0000000000000000     
  0.81250000000000000        1.0000000000000000        0.0000000000000000     
  0.84375000000000000        1.0000000000000000        0.0000000000000000     
  0.87500000000000000        1.0000000000000000        0.0000000000000000     
  0.87500000000000000       0.87500000000000000        0.0000000000000000     
  0.90625000000000000       0.87500000000000000        0.0000000000000000     
  0.93750000000000000       0.87500000000000000        0.0000000000000000     
  0.96875000000000000       0.87500000000000000        0.0000000000000000     
   1.0000000000000000       0.87500000000000000        0.0000000000000000     
  0.87500000000000000       0.90625000000000000        0.0000000000000000     
  0.90625000000000000       0.90625000000000000        0.0000000000000000     
  0.93750000000000000       0.90625000000000000        0.0000000000000000     
  0.96875000000000000       0.90625000000000000        0.0000000000000000     
   1.0000000000000000       0.90625000000000000        0.0000000000000000     
  0.87500000000000000       0.93750000000000000        0.0000000000000000     
  0.90625000000000000       0.93750000000000000        0.0000000000000000     
  0.93750000000000000       0.93750000000000000        0.0000000000000000     
  0.96875000000000000       0.93750000000000000        0.0000000000000000     
   1.0000000000000000       0.93750000000000000        0.0000000000000000     
  0.87500000000000000       0.96875000000000000        0.0000000000000000     
  0.90625000000000000       0.96875000000000000        0.0000000000000000     
  0.93750000000000000       0.96875000000000000        0.0000000000000000     
  0.96875000000000000       0.96875000000000000        0.0000000000000000     
   1.0000000000000000       0.96875000000000000        0.0000000000000000     
  0.87500000000000000        1.0000000000000000        0.0000000000000000     
  0.90625000000000000        1.0000000000000000        0.0000000000000000     
  0.93750000000000000        1.0000000000000000        0.0000000000000000     
  0.96875000000000000        1.0000000000000000        0.0000000000000000     
   1.0000000000000000        1.0000000000000000        0.0000000000000000     
 </DataArray>
 </Points>
 <Cells>
 <DataArray  type="Int32"  Name="connectivity"  format="ascii">
           0           1           6           5
           1           2           7           6
           2           3           8           7
           3           4           9           8
           5           6          11          10
           6           7          12          11
           7           8          13          12
           8           9          14          13
          10          11          16          15
          11          12          17          16
          12          13          18          17
          13          14          19          18
          15          16          21          20
          16          17          22          21
          17          18          23          22
          18          19          24          23
          25          26          31          30
          26          27          32          31
          27          28          33          32
          28          29          34          33
          30          31          36          35
          31          32          37          36
          32          33          38          37
          33          34          39          38
          35          36          41          40
          36          37          42          41
          37          38          43          42
          38          39          44          43
          40          41          46          45
          41          42          47          46
          42          43          48          47
          43          44          49          48
          50          51          56          55
          51          52          57          56
          52          53          58          57
          53          54          59          58
          55          56          61          60
          56          57          62          61
          57          58          63          62
          58          59          64          63
          60          61          66          65
          61          62          67          66
          62          63          68          67
          63          64          69          68
          65          66          71          70
          66          67          72          71
          67          68          73          72
          68          69          74          73
          75          76          81          80
          76          77          82          81
          77          78          83          82
          78          79          84          83
          80          81          86          85
          81          82          87          86
          82          83          88          87
          83          84          89          88
          85          86          91          90
          86          87          92          91
          87          88          93          92
          88          89          94          93
          90          91          96          95
          91          92          97          96
          92          93          98          97
          93          94          99          98
         100         101         106         105
         101         102         107         106
         102         103         108         107
         103         104         109         108
         105         106         111         110
         106         107         112         111
         107         108         113         112
         108         109         114         113
         110         111         116         115
         111         112         117         116
         112         113         118         117
         113         114         119         118
         115         116         121         120
         116         117         122         121
         117         118         123         122
         118         119         124         123
         125         126         131         130
         126         127         132         131
         127         128         133         132
         128         129         134         133
         130         131         136         135
         131         132         137         136
         132         133         138         137
         133         134         139         138
         135         136         141         140
         136         137         142         141
         137         138         143         142
         138         139         144         143
         140         141         146         145
         141         142         147         146
         142         143         148         147
         143         144         149         148
         150         151         156         155
         151         152         157         156
         152         153         158         157
         153         154         159         158
         155         156         161         160
         156         157         162         161
         157         158         163         162
         158         159         164         163
         160         161         166         165
         161         162         167         166
         162         163         168         167
         163         164         169         168
         165         166         171         170
         166         167         172         171
         167         168         173         172
         168         169         174         173
         175         176         181         180
         176         177         182         181
         177         178         183         182
         178         179         184         183
         180         181         186         185
         181         182         187         186
         182         183         188         187
         183         184         189         188
         185         186         191         190
         186         187         192         191
         187         188         193         192
         188         189         194         193
         190         191         196         195
         191         192         197         196
         192         193         198         197
         193         194         199         198
         200         201         206         205
         201         202         207         206
         202         203         208         207
         203         204         209         208
         205         206         211         210
         206         207         212         211
         207         208         213         212
         208         209         214         213
         210         211         216         215
         211         212         217         216
         212         213         218         217
         213         214         219         218
         215         216         221         220
         216         217         222         221
         217         218         223         222
         218         219         224         223
         225         226         231         230
         226         227         232         231
         227         228         233         232
         228         229         234         233
         230         231         236         235
         231         232         237         236
         232         233         238         237
         233         234         239         238
         235         236         241         240
         236         237         242         241
         237         238         243         242
         238         239         244         243
         240         241         246         245
         241         242         247         246
         242         243         248         247
         243         244         249         248
         250         251         256         255
         251         252         257         256
         252         253         258         257
         253         254         259         258
         255         256         261         260
         256         257         262         261
         257         258         263         262
         258         259         264         263
         260         261         266         265
         261         262         267         266
         262         263         268         267
         263         264         269         268
         265         266         271         270
         266         267         272         271
         267         268         273         272
         268         269         274         273
         275         276         281         280
         276         277         282         281
         277         278         283         282
         278         279         284         283
         280         281         286         285
         281         282         287         286
         282         283         288         287
         283         284         289         288
         285         286         291         290
         286         287         292         291
         287         288         293         292
         288         289         294         293
         290         291         296         295
         291         292         297         296
         292         293         298         297
         293         294         299         298
         300         301         306         305
         301         302         307         306
         302         303         308         307
         303         304         309         308
         305         306         311         310
         306         307         312         311
         307         308         313         312
         308         309         314         313
         310         311         316         315
         311         312         317         316
         312         313         318         317
         313         314         319         318
         315         316         321         320
         316         317         322         321
         317         318         323         322
         318         319         324         323
         325         326         331         330
         326         327         332         331
         327         328         333         332
         328         329         334         333
         330         331         336         335
         331         332         337         336
         332         333         338         337
         333         334         339         338
         335         336         341         340
         336         337         342         341
         337         338         343         342
         338         339         344         343
         340         341         346         345
         341         342         347         346
         342         343         348         347
         343         344         349         348
         350         351         356         355
         351         352         357         356
         352         353         358         357
         353         354         359         358
         355         356         361         360
         356         357         362         361
         357         358         363         362
         358         359         364         363
         360         361         366         365
         361         362         367         366
         362         363         368         367
         363         364         369         368
         365         366         371         370
         366         367         372         371
         367         368         373         372
         368         369         374         373
         375         376         381         380
         376         377         382         381
         377         378         383         382
         378         379         384         383
         380         381         386         385
         381         382         387         386
         382         383         388         387
         383         384         389         388
         385         386         391         390
         386         387         392         391
         387         388         393         392
         388         389         394         393
         390         391         396         395
         391         392         397         396
         392         393         398         397
         393         394         399         398
         400         401         406         405
         401         402         407         406
         402         403         408         407
         403         404         409         408
         405         406         411         410
         406         407         412         411
         407         408         413         412
         408         409         414         413
         410         411         416         415
         411         412         417         416
         412         413         418         417
         413         414         419         418
         415         416         421         420
         416         417         422         421
         417         418         423         422
         418         419         424         423
         425         426         431         430
         426         427         432         431
         427         428         433         432
         428         429         434         433
         430         431         436         435
         431         432         437         436
         432         433         438         437
         433         434         439         438
         435         436         441         440
         436         437         442         441
         437         438         443         442
         438         439         444         443
         440         441         446         445
         441         442         447         446
         442         443         448         447
         443         444         449         448
         450         451         456         455
         451         452         457         456
         452         453         458         457
         453         454         459         458
         455         456         461         460
         456         457         462         461
         457         458         463         462
         458         459         464         463
         460         461         466         465
         461         462         467         466
         462         463         468         467
         463         464         469         468
         465         466         471         470
         466         467         472         471
         467         468         473         472
         468         469         474         473
         475         476         481         480
         476         477         482         481
         477         478         483         482
         478         479         484         483
         480         481         486         485
         481         482         487         486
         482         483         488         487
         483         484         489         488
         485         486         491         490
         486         487         492         491
         487         488         493         492
         488         489         494         493
         490         491         496         495
         491         492         497         496
         492         493         498         497
         493         494         499         498
         500         501         506         505
         501         502         507         506
         502         503         508         507
         503         504         509         508
         505         506         511         510
         506         507         512         511
         507         508         513         512
         508         509         514         513
         510         511         516         515
         511         512         517         516
         512         513         518         517
         513         514         519         518
         515         516         521         520
         516         517         522         521
         517         518         523         522
         518         519         524         523
         525         526         531         530
         526         527         532         531
         527         528         533         532
         528         529         534         533
         530         531         536         535
         531         532         537         536
         532         533         538         537
         533         534         539         538
         535         536         541         540
         536         537         542         541
         537         538         543         542
         538         539         544         543
         540         541         546         545
         541         542         547         546
         542         543         548         547
         543         544         549         548
         550         551         556         555
         551         552         557         556
         552         553         558         557
         553         554         559         558
         555         556         561         560
         556         557         562         561
         557         558         563         562
         558         559         564         563
         560         561         566         565
         561         562         567         566
         562         563         568         567
         563         564         569         568
         565         566         571         570
         566         567         572         571
         567         568         573         572
         568         569         574         573
         575         576         581         580
         576         577         582         581
         577         578         583         582
         578         579         584         583
         580         581         586         585
         581         582         587         586
         582         583         588         587
         583         584         589         588
         585         586         591         590
         586         587         592         591
         587         588         593         592
         588         589         594         593
         590         591         596         595
         591         592         597         596
         592         593         598         597
         593         594         599         598
         600         601         606         605
         601         602         607         606
         602         603         608         607
         603         604         609         608
         605         606         611         610
         606         607         612         611
         607         608         613         612
         608         609         614         613
         610         611         616         615
         611         612         617         616
         612         613         618         617
         613         614         619         618
         615         616         621         620
         616         617         622         621
         617         618         623         622
         618         619         624         623
         625         626         631         630
         626         627         632         631
         627         628         633         632
         628         629         634         633
         630         631         636         635
         631         632         637         636
         632         633         638         637
         633         634         639         638
         635         636         641         640
         636         637         642         641
         637         638         643         642
         638         639         644         643
         640         641         646         645
         641         642         647         646
         642         643         648         647
         643         644         649         648
         650         651         656         655
         651         652         657         656
         652         653         658         657
         653         654         659         658
         655         656         661         660
         656         657         662         661
         657         658         663         662
         658         659         664         663
         660         661         666         665
         661         662         667         666
         662         663         668         667
         663         664         669         668
         665         666         671         670
         666         667         672         671
         667         668         673         672
         668         669         674         673
         675         676         681         680
         676         677         682         681
         677         678         683         682
         678         679         684         683
         680         681         686         685
         681         682         687         686
         682         683         688         687
         683         684         689         688
         685         686         691         690
         686         687         692         691
         687         688         693         692
         688         689         694         693
         690         691         696         695
         691         692         697         696
         692         693         698         697
         693         694         699         698
         700         701         706         705
         701         702         707         706
         702         703         708         707
         703         704         709         708
         705         706         711         710
         706         707         712         711
         707         708         713         712
         708         709         714         713
         710         711         716         715
         711         712         717         716
         712         713         718         717
         713         714         719         718
         715         716         721         720
         716         717         722         721
         717         718         723         722
         718         719         724         723
         725         726         731         730
         726         727         732         731
         727         728         733         732
         728         729         734         733
         730         731         736         735
         731         732         737         736
         732         733         738         737
         733         734         739         738
         735         736         741         740
         736         737         742         741
         737         738         743         742
         738         739         744         743
         740         741         746         745
         741         742         747         746
         742         743         748         747
         743         744         749         748
         750         751         756         755
         751         752         757         756
         752         753         758         757
         753         754         759         758
         755         756         761         760
         756         757         762         761
         757         758         763         762
         758         759         764         763
         760         761         766         765
         761         762         767         766
         762         763         768         767
         763         764         769         768
         765         766         771         770
         766         767         772         771
         767         768         773         772
         768         769         774         773
         775         776         781         780
         776         777         782         781
         777         778         783         782
         778         779         784         783
         780         781         786         785
         781         782         787         786
         782         783         788         787
         783         784         789         788
         785         786         791         790
         786         787         792         791
         787         788         793         792
         788         789         794         793
         790         791         796         795
         791         792         797         796
         792         793         798         797
         793         794         799         798
         800         801         806         805
         801         802         807         806
         802         803         808         807
         803         804         809         808
         805         806         811         810
         806         807         812         811
         807         808         813         812
         808         809         814         813
         810         811         816         815
         811         812         817         816
         812         813         818         817
         813         814         819         818
         815         816         821         820
         816         817         822         821
         817         818         823         822
         818         819         824         823
         825         826         831         830
         826         827         832         831
         827         828         833         832
         828         829         834         833
         830         831         836         835
         831         832         837         836
         832         833         838         837
         833         834         839         838
         835         836         841         840
         836         837         842         841
         837         838         843         842
         838         839         844         843
         840         841         846         845
         841         842         847         846
         842         843         848         847
         843         844         849         848
         850         851         856         855
         851         852         857         856
         852         853         858         857
         853         854         859         858
         855         856         861         860
         856         857         862         861
         857         858         863         862
         858         859         864         863
         860         861         866         865
         861         862         867         866
         862         863         868         867
         863         864         869         868
         865         866         871         870
         866         867         872         871
         867         868         873         872
         868         869         874         873
         875         876         881         880
         876         877         882         881
         877         878         883         882
         878         879         884         883
         880         881         886         885
         881         882         887         886
         882         883         888         887
         883         884         889         888
         885         886         891         890
         886         887         892         891
         887         888         893         892
         888         889         894         893
         890         891         896         895
         891         892         897         896
         892         893         898         897
         893         894         899         898
         900         901         906         905
         901         902         907         906
         902         903         908         907
         903         904         909         908
         905         906         911         910
         906         907         912         911
         907         908         913         912
         908         909         914         913
         910         911         916         915
         911         912         917         916
         912         913         918         917
         913         914         919         918
         915         916         921         920
         916         917         922         921
         917         918         923         922
         918         919         924         923
         925         926         931         930
         926         927         932         931
         927         928         933         932
         928         929         934         933
         930         931         936         935
         931         932         937         936
         932         933         938         937
         933         934         939         938
         935         936         941         940
         936         937         942         941
         937         938         943         942
         938         939         944         943
         940         941         946         945
         941         942         947         946
         942         943         948         947
         943         944         949         948
         950         951         956         955
         951         952         957         956
         952         953         958         957
         953         954         959         958
         955         956         961         960
         956         957         962         961
         957         958         963         962
         958         959         964         963
         960         961         966         965
         961         962         967         966
         962         963         968         967
         963         964         969         968
         965         966         971         970
         966         967         972         971
         967         968         973         972
         968         969         974         973
         975         976         981         980
         976         977         982         981
         977         978         983         982
         978         979         984         983
         980         981         986         985
         981         982         987         986
         982         983         988         987
         983         984         989         988
         985         986         991         990
         986         987         992         991
         987         988         993         992
         988         989         994         993
         990         991         996         995
         991         992         997         996
         992         993         998         997
         993         994         999         998
        1000        1001        1006        1005
        1001        1002        1007        1006
        1002        1003        1008        1007
        1003        1004        1009        1008
        1005        1006        1011        1010
        1006        1007        1012        1011
        1007        1008        1013        1012
        1008        1009        1014        1013
        1010        1011        1016        1015
        1011        1012        1017        1016
        1012        1013        1018        1017
        1013        1014        1019        1018
        1015        1016        1021        1020
        1016        1017        1022        1021
        1017        1018        1023        1022
        1018        1019        1024        1023
        1025        1026        1031        1030
        1026        1027        1032        1031
        1027        1028        1033        1032
        1028        1029        1034        1033
        1030        1031        1036        1035
        1031        1032        1037        1036
        1032        1033        1038        1037
        1033        1034        1039        1038
        1035        1036        1041        1040
        1036        1037        1042        1041
        1037        1038        1043        1042
        1038        1039        1044        1043
        1040        1041        1046        1045
        1041        1042        1047        1046
        1042        1043        1048        1047
        1043        1044        1049        1048
        1050        1051        1056        1055
        1051        1052        1057        1056
        1052        1053        1058        1057
        1053        1054        1059        1058
        1055        1056        1061        1060
        1056        1057        1062        1061
        1057        1058        1063        1062
        1058        1059        1064        1063
        1060        1061        1066        1065
        1061        1062        1067        1066
        1062        1063        1068        1067
        1063        1064        1069        1068
        1065        1066        1071        1070
        1066        1067        1072        1071
        1067        1068        1073        1072
        1068        1069        1074        1073
        1075        1076        1081        1080
        1076        1077        1082        1081
        1077        1078        1083        1082
        1078        1079        1084        1083
        1080        1081        1086        1085
        1081        1082        1087        1086
        1082        1083        1088        1087
        1083        1084        1089        1088
        1085        1086        1091        1090
        1086        1087        1092        1091
        1087        1088        1093        1092
        1088        1089        1094        1093
        1090        1091        1096        1095
        1091        1092        1097        1096
        1092        1093        1098        1097
        1093        1094        1099        1098
        1100        1101        1106        1105
        1101        1102        1107        1106
        1102        1103        1108        1107
        1103        1104        1109        1108
        1105        1106        1111        1110
        1106        1107        1112        1111
        1107        1108        1113        1112
        1108        1109        1114        1113
        1110        1111        1116        1115
        1111        1112        1117        1116
        1112        1113        1118        1117
        1113        1114        1119        1118
        1115        1116        1121        1120
        1116        1117        1122        1121
        1117        1118        1123        1122
        1118        1119        1124        1123
        1125        1126        1131        1130
        1126        1127        1132        1131
        1127        1128        1133        1132
        1128        1129        1134        1133
        1130        1131        1136        1135
        1131        1132        1137        1136
        1132        1133        1138        1137
        1133        1134        1139        1138
        1135        1136        1141        1140
        1136        1137        1142        1141
        1137        1138        1143        1142
        1138        1139        1144        1143
        1140        1141        1146        1145
        1141        1142        1147        1146
        1142        1143        1148        1147
        1143        1144        1149        1148
        1150        1151        1156        1155
        1151        1152        1157        1156
        1152        1153        1158        1157
        1153        1154        1159        1158
        1155        1156        1161        1160
        1156        1157        1162        1161
        1157        1158        1163        1162
        1158        1159        1164        1163
        1160        1161        1166        1165
        1161        1162        1167        1166
        1162        1163        1168        1167
        1163        1164        1169        1168
        1165        1166        1171        1170
        1166        1167        1172        1171
        1167        1168        1173        1172
        1168        1169        1174        1173
        1175        1176        1181        1180
        1176        1177        1182        1181
        1177        1178        1183        1182
        1178        1179        1184        1183
        1180        1181        1186        1185
        1181        1182        1187        1186
        1182        1183        1188        1187
        1183        1184        1189        1188
        1185        1186        1191        1190
        1186        1187        1192        1191
        1187        1188        1193        1192
        1188        1189        1194        1193
        1190        1191        1196        1195
        1191        1192        1197        1196
        1192        1193        1198        1197
        1193        1194        1199        1198
        1200        1201        1206        1205
        1201        1202        1207        1206
        1202        1203        1208        1207
        1203        1204        1209        1208
        1205        1206        1211        1210
        1206        1207        1212        1211
        1207        1208        1213        1212
        1208        1209        1214        1213
        1210        1211        1216        1215
        1211        1212        1217        1216
        1212        1213        1218        1217
        1213        1214        1219        1218
        1215        1216        1221        1220
        1216        1217        1222        1221
        1217        1218        1223        1222
        1218        1219        1224        1223
        1225        1226        1231        1230
        1226        1227        1232        1231
        1227        1228        1233        1232
        1228        1229        1234        1233
        1230        1231        1236        1235
        1231        1232        1237        1236
        1232        1233        1238        1237
        1233        1234        1239        1238
        1235        1236        1241        1240
        1236        1237        1242        1241
        1237        1238        1243        1242
        1238        1239        1244        1243
        1240        1241        1246        1245
        1241        1242        1247        1246
        1242        1243        1248        1247
        1243        1244        1249        1248
        1250        1251        1256        1255
        1251        1252        1257        1256
        1252        1253        1258        1257
        1253        1254        1259        1258
        1255        1256        1261        1260
        1256        1257        1262        1261
        1257        1258        1263        1262
        1258        1259        1264        1263
        1260        1261        1266        1265
        1261        1262        1267        1266
        1262        1263        1268        1267
        1263        1264        1269        1268
        1265        1266        1271        1270
        1266        1267        1272        1271
        1267        1268        1273        1272
        1268        1269        1274        1273
        1275        1276        1281        1280
        1276        1277        1282        1281
        1277        1278        1283        1282
        1278        1279        1284        1283
        1280        1281        1286        1285
        1281        1282        1287        1286
        1282        1283        1288        1287
        1283        1284        1289        1288
        1285        1286        1291        1290
        1286        1287        1292        1291
        1287        1288        1293        1292
        1288        1289        1294        1293
        1290        1291        1296        1295
        1291        1292        1297        1296
        1292        1293        1298        1297
        1293        1294        1299        1298
        1300        1301        1306        1305
        1301        1302        1307        1306
        1302        1303        1308        1307
        1303        1304        1309        1308
        1305        1306        1311        1310
        1306        1307        1312        1311
        1307        1308        1313        1312
        1308        1309        1314        1313
        1310        1311        1316        1315
        1311        1312        1317        1316
        1312        1313        1318        1317
        1313        1314        1319        1318
        1315        1316        1321        1320
        1316        1317        1322        1321
        1317        1318        1323        1322
        1318        1319        1324        1323
        1325        1326        1331        1330
        1326        1327        1332        1331
        1327        1328        1333        1332
        1328        1329        1334        1333
        1330        1331        1336        1335
        1331        1332        1337        1336
        1332        1333        1338        1337
        1333        1334        1339        1338
        1335        1336        1341        1340
        1336        1337        1342        1341
        1337        1338        1343        1342
        1338        1339        1344        1343
        1340        1341        1346        1345
        1341        1342        1347        1346
        1342        1343        1348        1347
        1343        1344        1349        1348
        1350        1351        1356        1355
        1351        1352        1357        1356
        1352        1353        1358        1357
        1353        1354        1359        1358
        1355        1356        1361        1360
        1356        1357        1362        1361
        1357        1358        1363        1362
        1358        1359        1364        1363
        1360        1361        1366        1365
        1361        1362        1367        1366
        1362        1363        1368        1367
        1363        1364        1369        1368
        1365        1366        1371        1370
        1366        1367        1372        1371
        1367        1368        1373        1372
        1368        1369        1374        1373
        1375        1376        1381        1380
        1376        1377        1382        1381
        1377        1378        1383        1382
        1378        1379        1384        1383
        1380        1381        1386        1385
        1381        1382        1387        1386
        1382        1383        1388        1387
        1383        1384        1389        1388
        1385        1386        1391        1390
        1386        1387        1392        1391
        1387        1388        1393        1392
        1388        1389        1394        1393
        1390        1391        1396        1395
        1391        1392        1397        1396
        1392        1393        1398        1397
        1393        1394        1399        1398
        1400        1401        1406        1405
        1401        1402        1407        1406
        1402        1403        1408        1407
        1403        1404        1409        1408
        1405        1406        1411        1410
        1406        1407        1412        1411
        1407        1408        1413        1412
        1408        1409        1414        1413
        1410        1411        1416        1415
        1411        1412        1417        1416
        1412        1413        1418        1417
        1413        1414        1419        1418
        1415        1416        1421        1420
        1416        1417        1422        1421
        1417        1418        1423        1422
        1418        1419        1424        1423
        1425        1426        1431        1430
        1426        1427        1432        1431
        1427        1428        1433        1432
        1428        1429        1434        1433
        1430        1431        1436        1435
        1431        1432        1437        1436
        1432        1433        1438        1437
        1433        1434        1439        1438
        1435        1436        1441        1440
        1436        1437        1442        1441
        1437        1438        1443        1442
        1438        1439        1444        1443
        1440        1441        1446        1445
        1441        1442        1447        1446
        1442        1443        1448        1447
        1443        1444        1449        1448
        1450        1451        1456        1455
        1451        1452        1457        1456
        1452        1453        1458        1457
        1453        1454        1459        1458
        1455        1456        1461        1460
        1456        1457        1462        1461
        1457        1458        1463        1462
        1458        1459        1464        1463
        1460        1461        1466        1465
        1461        1462        1467        1466
        1462        1463        1468        1467
        1463        1464        1469        1468
        1465        1466        1471        1470
        1466        1467        1472        1471
        1467        1468        1473        1472
        1468        1469        1474        1473
        1475        1476        1481        1480
        1476        1477        1482        1481
        1477        1478        1483        1482
        1478        1479        1484        1483
        1480        1481        1486        1485
        1481        1482        1487        1486
        1482        1483        1488        1487
        1483        1484        1489        1488
        1485        1486        1491        1490
        1486        1487        1492        1491
        1487        1488        1493        1492
        1488        1489        1494        1493
        1490        1491        1496        1495
        1491        1492        1497        1496
        1492        1493        1498        1497
        1493        1494        1499        1498
        1500        1501        1506        1505
        1501        1502        1507        1506
        1502        1503        1508        1507
        1503        1504        1509        1508
        1505        1506        1511        1510
        1506        1507        1512        1511
        1507        1508        1513        1512
        1508        1509        1514        1513
        1510        1511        1516        1515
        1511        1512        1517        1516
        1512        1513        1518        1517
        1513        1514        1519        1518
        1515        1516        1521        1520
        1516        1517        1522        1521
        1517        1518        1523        1522
        1518        1519        1524        1523
        1525        1526        1531        1530
        1526        1527        1532        1531
        1527        1528        1533        1532
        1528        1529        1534        1533
        1530        1531        1536        1535
        1531        1532        1537        1536
        1532        1533        1538        1537
        1533        1534        1539        1538
        1535        1536        1541        1540
        1536        1537        1542        1541
        1537        1538        1543        1542
        1538        1539        1544        1543
        1540        1541        1546        1545
        1541        1542        1547        1546
        1542        1543        1548        1547
        1543        1544        1549        1548
        1550        1551        1556        1555
        1551        1552        1557        1556
        1552        1553        1558        1557
        1553        1554        1559        1558
        1555        1556        1561        1560
        1556        1557        1562        1561
        1557        1558        1563        1562
        1558        1559        1564        1563
        1560        1561        1566        1565
        1561        1562        1567        1566
        1562        1563        1568        1567
        1563        1564        1569        1568
        1565        1566        1571        1570
        1566        1567        1572        1571
        1567        1568        1573        1572
        1568        1569        1574        1573
        1575        1576        1581        1580
        1576        1577        1582        1581
        1577        1578        1583        1582
        1578        1579        1584        1583
        1580        1581        1586        1585
        1581        1582        1587        1586
        1582        1583        1588        1587
        1583        1584        1589        1588
        1585        1586        1591        1590
        1586        1587        1592        1591
        1587        1588        1593        1592
        1588        1589        1594        1593
        1590        1591        1596        1595
        1591        1592        1597        1596
        1592        1593        1598        1597
        1593        1594        1599        1598
 </DataArray>
 <DataArray  type="Int32"  Name="offsets"  format="ascii"> 
           4
           8
          12
          16
          20
          24
          28
          32
          36
          40
          44
          48
          52
          56
          60
          64
          68
          72
          76
          80
          84
          88
          92
          96
         100
         104
         108
         112
         116
         120
         124
         128
         132
         136
         140
         144
         148
         152
         156
         160
         164
         168
         172
         176
         180
         184
         188
         192
         196
         200
         204
         208
         212
         216
         220
         224
         228
         232
         236
         240
         244
         248
         252
         256
         260
         264
         268
         272
         276
         280
         284
         288
         292
         296
         300
         304
         308
         312
         316
         320
         324
         328
         332
         336
         340
         344
         348
         352
         356
         360
         364
         368
         372
         376
         380
         384
         388
         392
         396
         400
         404
         408
         412
         416
         420
         424
         428
         432
         436
         440
         444
         448
         452
         456
         460
         464
         468
         472
         476
         480
         484
         488
         492
         496
         500
         504
         508
         512
         516
         520
         524
         528
         532
         536
         540
         544
         548
         552
         556
         560
         564
         568
         572
         576
         580
         584
         588
         592
         596
         600
         604
         608
         612
         616
         620
         624
         628
         632
         636
         640
         644
         648
         652
         656
         660
         664
         668
         672
         676
         680
         684
         688
         692
         696
         700
         704
         708
         712
         716
         720
         724
         728
         732
         736
         740
         744
         748
         752
         756
         760
         764
         768
         772
         776
         780
         784
         788
         792
         796
         800
         804
         808
         812
         816
         820
         824
         828
         832
         836
         840
         844
         848
         852
         856
         860
         864
         868
         872
         876
         880
         884
         888
         892
         896
         900
         904
         908
         912
         916
         920
         924
         928
         932
         936
         940
         944
         948
         952
         956
         960
         964
         968
         972
         976
         980
         984
         988
         992
         996
        1000
        1004
        1008
        1012
        1016
        1020
        1024
        1028
        1032
        1036
        1040
        1044
        1048
        1052
        1056
        1060
        1064
        1068
        1072
        1076
        1080
        1084
        1088
        1092
        1096
        1100
        1104
        1108
        1112
        1116
        1120
        1124
        1128
        1132
        1136
        1140
        1144
        1148
        1152
        1156
        1160
        1164
        1168
        1172
        1176
        1180
        1184
        1188
        1192
        1196
        1200
        1204
        1208
        1212
        1216
        1220
        1224
        1228
        1232
        1236
        1240
        1244
        1248
        1252
        1256
        1260
        1264
        1268
        1272
        1276
        1280
        1284
        1288
        1292
        1296
        1300
        1304
        1308
        1312
        1316
        1320
        1324
        1328
        1332
        1336
        1340
        1344
        1348
        1352
        1356
        1360
        1364
        1368
        1372
        1376
        1380
        1384
        1388
        1392
        1396
        1400
        1404
        1408
        1412
        1416
        1420
        1424
        1428
        1432
        1436
        1440
        1444
        1448
        1452
        1456
        1460
        1464
        1468
        1472
        1476
        1480
        1484
        1488
        1492
        1496
        1500
        1504
        1508
        1512
        1516
        1520
        1524
        1528
        1532
        1536
        1540
        1544
        1548
        1552
        1556
        1560
        1564
        1568
        1572
        1576
        1580
        1584
        1588
        1592
        1596
        1600
        1604
        1608
        1612
        1616
        1620
        1624
        1628
        1632
        1636
        1640
        1644
        1648
        1652
        1656
        1660
        1664
        1668
        1672
        1676
        1680
        1684
        1688
        1692
        1696
        1700
        1704
        1708
        1712
        1716
        1720
        1724
        1728
        1732
        1736
        1740
        1744
        1748
        1752
        1756
        1760
        1764
        1768
        1772
        1776
        1780
        1784
        1788
        1792
        1796
        1800
        1804
        1808
        1812
        1816
        1820
        1824
        1828
        1832
        1836
        1840
        1844
        1848
        1852
        1856
        1860
        1864
        1868
        1872
        1876
        1880
        1884
        1888
        1892
        1896
        1900
        1904
        1908
        1912
        1916
        1920
        1924
        1928
        1932
        1936
        1940
        1944
        1948
        1952
        1956
        1960
        1964
        1968
        1972
        1976
        1980
        1984
        1988
        1992
        1996
        2000
        2004
        2008
        2012
        2016
        2020
        2024
        2028
        2032
        2036
        2040
        2044
        2048
        2052
        2056
        2060
        2064
        2068
        2072
        2076
        2080
        2084
        2088
        2092
        2096
        2100
        2104
        2108
        2112
        2116
        2120
        2124
        2128
        2132
        2136
        2140
        2144
        2148
        2152
        2156
        2160
        2164
        2168
        2172
        2176
        2180
        2184
        2188
        2192
        2196
        2200
        2204
        2208
        2212
        2216
        2220
        2224
        2228
        2232
        2236
        2240
        2244
        2248
        2252
        2256
        2260
        2264
        2268
        2272
        2276
        2280
        2284
        2288
        2292
        2296
        2300
        2304
        2308
        2312
        2316
        2320
        2324
        2328
        2332
        2336
        2340
        2344
        2348
        2352
        2356
        2360
        2364
        2368
        2372
        2376
        2380
        2384
        2388
        2392
        2396
        2400
        2404
        2408
        2412
        2416
        2420
        2424
        2428
        2432
        2436
        2440
        2444
        2448
        2452
        2456
        2460
        2464
        2468
        2472
        2476
        2480
        2484
        2488
        2492
        2496
        2500
        2504
        2508
        2512
        2516
        2520
        2524
        2528
        2532
        2536
        2540
        2544
        2548
        2552
        2556
        2560
        2564
        2568
        2572
        2576
        2580
        2584
        2588
        2592
        2596
        2600
        2604
        2608
        2612
        2616
        2620
        2624
        2628
        2632
        2636
        2640
        2644
        2648
        2652
        2656
        2660
        2664
        2668
        2672
        2676
        2680
        2684
        2688
        2692
        2696
        2700
        2704
        2708
        2712
        2716
        2720
        2724
        2728
        2732
        2736
        2740
        2744
        2748
        2752
        2756
        2760
        2764
        2768
        2772
        2776
        2780
        2784
        2788
        2792
        2796
        2800
        2804
        2808
        2812
        2816
        2820
        2824
        2828
        2832
        2836
        2840
        2844
        2848
        2852
        2856
        2860
        2864
        2868
        2872
        2876
        2880
        2884
        2888
        2892
        2896
        2900
        2904
        2908
        2912
        2916
        2920
        2924
        2928
        2932
        2936
        2940
        2944
        2948
        2952
        2956
        2960
        2964
        2968
        2972
        2976
        2980
        2984
        2988
        2992
        2996
        3000
        3004
        3008
        3012
        3016
        3020
        3024
        3028
        3032
        3036
        3040
        3044
        3048
        3052
        3056
        3060
        3064
        3068
        3072
        3076
        3080
        3084
        3088
        3092
        3096
        3100
        3104
        3108
        3112
        3116
        3120
        3124
        3128
        3132
        3136
        3140
        3144
        3148
        3152
        3156
        3160
        3164
        3168
        3172
        3176
        3180
        3184
        3188
        3192
        3196
        3200
        3204
        3208
        3212
        3216
        3220
        3224
        3228
        3232
        3236
        3240
        3244
        3248
        3252
        3256
        3260
        3264
        3268
        3272
        3276
        3280
        3284
        3288
        3292
        3296
        3300
        3304
        3308
        3312
        3316
        3320
        3324
        3328
        3332
        3336
        3340
        3344
        3348
        3352
        3356
        3360
        3364
        3368
        3372
        3376
        3380
        3384
        3388
        3392
        3396
        3400
        3404
        3408
        3412
        3416
        3420
        3424
        3428
        3432
        3436
        3440
        3444
        3448
        3452
        3456
        3460
        3464
        3468
        3472
        3476
        3480
        3484
        3488
        3492
        3496
        3500
        3504
        3508
        3512
        3516
        3520
        3524
        3528
        3532
        3536
        3540
        3544
        3548
        3552
        3556
        3560
        3564
        3568
        3572
        3576
        3580
        3584
        3588
        3592
        3596
        3600
        3604
        3608
        3612
        3616
        3620
        3624
        3628
        3632
        3636
        3640
        3644
        3648
        3652
        3656
        3660
        3664
        3668
        3672
        3676
        3680
        3684
        3688
        3692
        3696
        3700
        3704
        3708
        3712
        3716
        3720
        3724
        3728
        3732
        3736
        3740
        3744
        3748
        3752
        3756
        3760
        3764
        3768
        3772
        3776
        3780
        3784
        3788
        3792
        3796
        3800
        3804
        3808
        3812
        3816
        3820
        3824
        3828
        3832
        3836
        3840
        3844
        3848
        3852
        3856
        3860
        3864
        3868
        3872
        3876
        3880
        3884
        3888
        3892
        3896
        3900
        3904
        3908
        3912
        3916
        3920
        3924
        3928
        3932
        3936
        3940
        3944
        3948
        3952
        3956
        3960
        3964
        3968
        3972
        3976
        3980
        3984
        3988
        3992
        3996
        4000
        4004
        4008
        4012
        4016
        4020
        4024
        4028
        4032
        4036
        4040
        4044
        4048
        4052
        4056
        4060
        4064
        4068
        4072
        4076
        4080
        4084
        4088
        4092
        4096
 </DataArray>
 <DataArray  type="UInt8"  Name="types"  format="ascii">
 9
 9
 9
 9
 9
 9
 9
 9
 9
 9
 9
 9
 9
 9
 9
 9
 9
 9
 9
 9
 9
 9
 9
 9
 9
 9
 9
 9
 9
 9
 9
 9
 9
 9
 9
 9
 9
 9
 9
 9
 9
 9
 9
 9
 9
 9
 9
 9
 9
 9
 9
 9
 9
 9
 9
 9
 9
 9
 9
 9
 9
 9
 9
 9
 9
 9
 9
 9
 9
 9
 9
 9
 9
 9
 9
 9
 9
 9
 9
 9
 9
 9
 9
 9
 9
 9
 9
 9
 9
 9
 9
 9
 9
 9
 9
 9
 9
 9
 9
 9
 9
 9
 9
 9
 9
 9
 9
 9
 9
 9
 9
 9
 9
 9
 9
 9
 9
 9
 9
 9
 9
 9
 9
 9
 9
 9
 9
 9
 9
 9
 9
 9
 9
 9
 9
 9
 9
 9
 9
 9
 9
 9
 9
 9
 9
 9
 9
 9
 9
 9
 9
 9
 9
 9
 9
 9
 9
 9
 9
 9
 9
 9
 9
 9
 9
 9
 9
 9
 9
 9
 9
 9
 9
 9
 9
 9
 9
 9
 9
 9
 9
 9
 9
 9
 9
 9
 9
 9
 9
 9
 9
 9
 9
 9
 9
 9
 9
 9
 9
 9
 9
 9
 9
 9
 9
 9
 9
 9
 9
 9
 9
 9
 9
 9
 9
 9
 9
 9
 9
 9
 9
 9
 9
 9
 9
 9
 9
 9
 9
 9
 9
 9
 9
 9
 9
 9
 9
 9
 9
 9
 9
 9
 9
 9
 9
 9
 9
 9
 9
 9
 9
 9
 9
 9
 9
 9
 9
 9
 9
 9
 9
 9
 9
 9
 9
 9
 9
 9
 9
 9
 9
 9
 9
 9
 9
 9
 9
 9
 9
 9
 9
 9
 9
 9
 9
 9
 9
 9
 9
 9
 9
 9
 9
 9
 9
 9
 9
 9
 9
 9
 9
 9
 9
 9
 9
 9
 9
 9
 9
 9
 9
 9
 9
 9
 9
 9
 9
 9
 9
 9
 9
 9
 9
 9
 9
 9
 9
 9
 9
 9
 9
 9
 9
 9
 9
 9
 9
 9
 9
 9
 9
 9
 9
 9
 9
 9
 9
 9
 9
 9
 9
 9
 9
 9
 9
 9
 9
 9
 9
 9
 9
 9
 9
 9
 9
 9
 9
 9
 9
 9
 9
 9
 9
 9
 9
 9
 9
 9
 9
 9
 9
 9
 9
 9
 9
 9
 9
 9
 9
 9
 9
 9
 9
 9
 9
 9
 9
 9
 9
 9
 9
 9
 9
 9
 9
 9
 9
 9
 9
 9
 9
 9
 9
 9
 9
 9
 9
 9
 9
 9
 9
 9
 9
 9
 9
 9
 9
 9
 9
 9
 9
 9
 9
 9
 9
 9
 9
 9
 9
 9
 9
 9
 9
 9
 9
 9
 9
 9
 9
 9
 9
 9
 9
 9
 9
 9
 9
 9
 9
 9
 9
 9
 9
 9
 9
 9
 9
 9
 9
 9
 9
 9
 9
 9
 9
 9
 9
 9
 9
 9
 9
 9
 9
 9
 9
 9
 9
 9
 9
 9
 9
 9
 9
 9
 9
 9
 9
 9
 9
 9
 9
 9
 9
 9
 9
 9
 9
 9
 9
 9
 9
 9
 9
 9
 9
 9
 9
 9
 9
 9
 9
 9
 9
 9
 9
 9
 9
 9
 9
 9
 9
 9
 9
 9
 9
 9
 9
 9
 9
 9
 9
 9
 9
 9
 9
 9
 9
 9
 9
 9
 9
 9
 9
 9
 9
 9
 9
 9
 9
 9
 9
 9
 9
 9
 9
 9
 9
 9
 9
 9
 9
 9
 9
 9
 9
 9
 9
 9
 9
 9
 9
 9
 9
 9
 9
 9
 9
 9
 9
 9
 9
 9
 9
 9
 9
 9
 9
 9
 9
 9
 9
 9
 9
 9
 9
 9
 9
 9
 9
 9
 9
 9
 9
 9
 9
 9
 9
 9
 9
 9
 9
 9
 9
 9
 9
 9
 9
 9
 9
 9
 9
 9
 9
 9
 9
 9
 9
 9
 9
 9
 9
 9
 9
 9
 9
 9
 9
 9
 9
 9
 9
 9
 9
 9
 9
 9
 9
 9
 9
 9
 9
 9
 9
 9
 9
 9
 9
 9
 9
 9
 9
 9
 9
 9
 9
 9
 9
 9
 9
 9
 9
 9
 9
 9
 9
 9
 9
 9
 9
 9
 9
 9
 9
 9
 9
 9
 9
 9
 9
 9
 9
 9
 9
 9
 9
 9
 9
 9
 9
 9
 9
 9
 9
 9
 9
 9
 9
 9
 9
 9
 9
 9
 9
 9
 9
 9
 9
 9
 9
 9
 9
 9
 9
 9
 9
 9
 9
 9
 9
 9
 9
 9
 9
 9
 9
 9
 9
 9
 9
 9
 9
 9
 9
 9
 9
 9
 9
 9
 9
 9
 9
 9
 9
 9
 9
 9
 9
 9
 9
 9
 9
 9
 9
 9
 9
 9
 9
 9
 9
 9
 9
 9
 9
 9
 9
 9
 9
 9
 9
 9
 9
 9
 9
 9
 9
 9
 9
 9
 9
 9
 9
 9
 9
 9
 9
 9
 9
 9
 9
 9
 9
 9
 9
 9
 9
 9
 9
 9
 9
 9
 9
 9
 9
 9
 9
 9
 9
 9
 9
 9
 9
 9
 9
 9
 9
 9
 9
 9
 9
 9
 9
 9
 9
 9
 9
 9
 9
 9
 9
 9
 9
 9
 9
 9
 9
 9
 9
 9
 9
 9
 9
 9
 9
 9
 9
 9
 9
 9
 9
 9
 9
 9
 9
 9
 9
 9
 9
 9
 9
 9
 9
 9
 9
 9
 9
 9
 9
 9
 9
 9
 9
 9
 9
 9
 9
 9
 9
 9
 9
 9
 9
 9
 9
 9
 9
 9
 9
 9
 9
 9
 9
 9
 9
 9
 9
 9
 9
 9
 9
 9
 9
 9
 9
 9
 9
 9
 9
 9
 9
 9
 9
 9
 9
 9
 9
 9
 9
 9
 9
 9
 9
 9
 9
 9
 9
 9
 9
 9
 9
 9
 9
 9
 9
 9
 9
 9
 9
 9
 9
 9
 9
 9
 9
 9
 9
 9
 9
 9
 9
 9
 9
 9
 9
 9
 9
 9
 9
 9
 9
 9
 9
 9
 9
 9
 9
 9
 9
 9
 9
 9
 9
 9
 9
 9
 9
 9
 9
 9
 9
 9
 9
 9
 9
 9
 9
 9
 9
 9
 9
 9
 9
 9
 9
 9
 9
 9
 9
 9
 9
 9
 9
 9
 9
 9
 </DataArray>
 </Cells> 
 <PointData>
 <DataArray  type="Float64" Name="disp" NumberOfComponents="3" format="ascii">
   0.0000000000000000        0.0000000000000000        0.0000000000000000     
   6.0959507946740125E-003   3.7903750659522475E-003   0.0000000000000000     
   1.1665979503430662E-002   7.3237729844251032E-003   0.0000000000000000     
   1.6710086126269948E-002   1.0600193755418567E-002   0.0000000000000000     
   2.1228270663191870E-002   1.3619637378932639E-002   0.0000000000000000     
   0.0000000000000000        0.0000000000000000        0.0000000000000000     
   4.8911475607188492E-003   3.0221324835866593E-003   0.0000000000000000     
   9.5736279390921837E-003   6.0605114583804449E-003   0.0000000000000000     
   1.4047441135120003E-002   9.1151369243813556E-003   0.0000000000000000     
   1.8312587148802309E-002   1.2186008881589393E-002   0.0000000000000000     
   0.0000000000000000        0.0000000000000000        0.0000000000000000     
   3.9535686876731573E-003   2.4251301948146672E-003   0.0000000000000000     
   7.9106251781483079E-003   5.0629011462069674E-003   0.0000000000000000     
   1.1871169471425452E-002   7.9133128541769016E-003   0.0000000000000000     
   1.5835201567504592E-002   1.0976365318724469E-002   0.0000000000000000     
   0.0000000000000000        0.0000000000000000        0.0000000000000000     
   3.2832141755369361E-003   1.9993681996362707E-003   0.0000000000000000     
   6.6769712205990350E-003   4.3309420479046698E-003   0.0000000000000000     
   1.0181271135186297E-002   6.9947215448051990E-003   0.0000000000000000     
   1.3796113919298719E-002   9.9907066903378548E-003   0.0000000000000000     
   0.0000000000000000        0.0000000000000000        0.0000000000000000     
   2.8800840243101873E-003   1.7448464980514694E-003   0.0000000000000000     
   5.8726660664443660E-003   3.8646341634735533E-003   0.0000000000000000     
   8.9777461264025343E-003   6.3593629962662513E-003   0.0000000000000000     
   1.2195324204184692E-002   9.2290329964295620E-003   0.0000000000000000     
   2.1228270663191870E-002   1.3619637378932639E-002   0.0000000000000000     
   2.5433414635243741E-002   1.6612646034355354E-002   0.0000000000000000     
   2.9538399563472865E-002   1.9809761901074738E-002   0.0000000000000000     
   3.3543225447879250E-002   2.3210984979090795E-002   0.0000000000000000     
   3.7447892288462889E-002   2.6816315268403522E-002   0.0000000000000000     
   1.8312587148802309E-002   1.2186008881589393E-002   0.0000000000000000     
   2.2407286464884334E-002   1.5341467339334988E-002   0.0000000000000000     
   2.6369759568111314E-002   1.8649852306948565E-002   0.0000000000000000     
   3.0200006458483253E-002   2.2111163784430132E-002   0.0000000000000000     
   3.3898027136000153E-002   2.5725401771779684E-002   0.0000000000000000     
   1.5835201567504592E-002   1.0976365318724469E-002   0.0000000000000000     
   1.9730953518926009E-002   1.4210897416769478E-002   0.0000000000000000     
   2.3486657378230011E-002   1.7575748025231742E-002   0.0000000000000000     
   2.7102313145416577E-002   2.1070917144111263E-002   0.0000000000000000     
   3.0577920820485726E-002   2.4696404773408030E-002   0.0000000000000000     
   1.3796113919298719E-002   9.9907066903378548E-003   0.0000000000000000     
   1.7404415797368778E-002   1.3220936266658817E-002   0.0000000000000000     
   2.0889092993828941E-002   1.6587449055924255E-002   0.0000000000000000     
   2.4250145508679221E-002   2.0090245058134178E-002   0.0000000000000000     
   2.7487573341919608E-002   2.3729324273288575E-002   0.0000000000000000     
   1.2195324204184692E-002   9.2290329964295620E-003   0.0000000000000000     
   1.5427673300212628E-002   1.2371583889003012E-002   0.0000000000000000     
   1.8577066414908128E-002   1.5684955399026118E-002   0.0000000000000000     
   2.1643503548271183E-002   1.9169147526498884E-002   0.0000000000000000     
   2.4626984700301800E-002   2.2824160271421309E-002   0.0000000000000000     
   3.7447892288462889E-002   2.6816315268403522E-002   0.0000000000000000     
   4.1256684123958776E-002   3.0621262337526354E-002   0.0000000000000000     
   4.4973884993101898E-002   3.4621335754972719E-002   0.0000000000000000     
   4.8599494895892249E-002   3.8816535520742622E-002   0.0000000000000000     
   5.2133513832329836E-002   4.3206861634836051E-002   0.0000000000000000     
   3.3898027136000153E-002   2.5725401771779684E-002   0.0000000000000000     
   3.7486921858306835E-002   2.9521459024662973E-002   0.0000000000000000     
   4.0989790883048147E-002   3.3528228298745771E-002   0.0000000000000000     
   4.4406634210224082E-002   3.7745709594028079E-002   0.0000000000000000     
   4.7737451839834633E-002   4.2173902910509882E-002   0.0000000000000000     
   3.0577920820485726E-002   2.4696404773408030E-002   0.0000000000000000     
   3.3942829058887423E-002   2.8496767840468003E-002   0.0000000000000000     
   3.7226386516071637E-002   3.2516563272637113E-002   0.0000000000000000     
   4.0428593192038398E-002   3.6755791069915354E-002   0.0000000000000000     
   4.3549449086787678E-002   4.1214451232302753E-002   0.0000000000000000     
   2.7487573341919608E-002   2.3729324273288575E-002   0.0000000000000000     
   3.0624405725700524E-002   2.7547188784941435E-002   0.0000000000000000     
   3.3683671892172383E-002   3.1586340676646729E-002   0.0000000000000000     
   3.6665371841335198E-002   3.5846779948404468E-002   0.0000000000000000     
   3.9569505573188973E-002   4.0328506600214656E-002   0.0000000000000000     
   2.4626984700301800E-002   2.2824160271421309E-002   0.0000000000000000     
   2.7531651858746141E-002   2.6672721858083264E-002   0.0000000000000000     
   3.0361647011350374E-002   3.0737560510774632E-002   0.0000000000000000     
   3.3116970158114503E-002   3.5018676229495407E-002   0.0000000000000000     
   3.5797621299038518E-002   3.9516069014245585E-002   0.0000000000000000     
   5.2133513832329836E-002   4.3206861634836051E-002   0.0000000000000000     
   5.5573405862130679E-002   4.7796490144793438E-002   0.0000000000000000     
   5.8916635045010782E-002   5.2589597098155215E-002   0.0000000000000000     
   6.2163201380970139E-002   5.7586182494921360E-002   0.0000000000000000     
   6.5313104870008770E-002   6.2786246335091889E-002   0.0000000000000000     
   4.7737451839834633E-002   4.2173902910509882E-002   0.0000000000000000     
   5.0978528275400531E-002   4.6806175725423935E-002   0.0000000000000000     
   5.4126148020442494E-002   5.1635895516002998E-002   0.0000000000000000     
   5.7180311074960549E-002   5.6663062282247059E-002   0.0000000000000000     
   6.0141017438954655E-002   6.1887676024156124E-002   0.0000000000000000     
   4.3549449086787678E-002   4.1214451232302753E-002   0.0000000000000000     
   4.6585252889582582E-002   4.5880047382996759E-002   0.0000000000000000     
   4.9532303289686226E-002   5.0740083145194861E-002   0.0000000000000000     
   5.2390600287098577E-002   5.5794558518897065E-002   0.0000000000000000     
   5.5160143881819675E-002   6.1043473504103371E-002   0.0000000000000000     
   3.9569505573188973E-002   4.0328506600214656E-002   0.0000000000000000     
   4.2393579704676831E-002   4.5018105117511899E-002   0.0000000000000000     
   4.5135100852741923E-002   4.9902159985730797E-002   0.0000000000000000     
   4.7794069017384234E-002   5.4980671204871365E-002   0.0000000000000000     
   5.0370484198603800E-002   6.0253638774933616E-002   0.0000000000000000     
   3.5797621299038518E-002   3.9516069014245585E-002   0.0000000000000000     
   3.8403508720683273E-002   4.4220348928969339E-002   0.0000000000000000     
   4.0934540709609613E-002   4.9122126037610798E-002   0.0000000000000000     
   4.3390717265817537E-002   5.4221400340169978E-002   0.0000000000000000     
   4.5772038389307046E-002   5.9518171836646885E-002   0.0000000000000000     
   6.5313104870008770E-002   6.2786246335091889E-002   0.0000000000000000     
   6.8368660288675748E-002   6.8177136176856681E-002   0.0000000000000000     
   7.1332182413520212E-002   7.3746199578405627E-002   0.0000000000000000     
   7.4203671244542135E-002   7.9493436539738727E-002   0.0000000000000000     
   7.6983126781741545E-002   8.5418847060855979E-002   0.0000000000000000     
   6.0141017438954655E-002   6.1887676024156124E-002   0.0000000000000000     
   6.3011419634509028E-002   6.7301171615164371E-002   0.0000000000000000     
   6.5794670183707840E-002   7.2894983928705984E-002   0.0000000000000000     
   6.8490769086551093E-002   7.8669112964780963E-002   0.0000000000000000     
   7.1099716343038799E-002   8.4623558723389308E-002   0.0000000000000000     
   5.5160143881819675E-002   6.1043473504103371E-002   0.0000000000000000     
   5.7844205844254815E-002   6.6480356783000086E-002   0.0000000000000000     
   6.0446057944809381E-002   7.2098737037773558E-002   0.0000000000000000     
   6.2965700183483339E-002   7.7898614268423802E-002   0.0000000000000000     
   6.5403132560276717E-002   8.3879988474950776E-002   0.0000000000000000     
   5.0370484198603800E-002   6.0253638774933616E-002   0.0000000000000000     
   5.2867018917913136E-002   6.5714691680363854E-002   0.0000000000000000     
   5.5286345696824842E-002   7.1357458905608406E-002   0.0000000000000000     
   5.7628464535338896E-002   7.7181940450667258E-002   0.0000000000000000     
   5.9893375433455312E-002   8.3188136315540409E-002   0.0000000000000000     
   4.5772038389307046E-002   5.9518171836646885E-002   0.0000000000000000     
   4.8079858855483992E-002   6.5004176307255648E-002   0.0000000000000000     
   5.0315533439754222E-002   7.0671149532210459E-002   0.0000000000000000     
   5.2479062142117734E-002   7.6519091511511303E-002   0.0000000000000000     
   5.4570444962574551E-002   8.2548002245158195E-002   0.0000000000000000     
   7.6983126781741545E-002   8.5418847060855979E-002   0.0000000000000000     
   7.9665671530573828E-002   9.1512215576157768E-002   0.0000000000000000     
   8.2246427996494412E-002   9.7763326520044450E-002   0.0000000000000000     
   8.4725396179503309E-002  0.10417217989251606        0.0000000000000000     
   8.7102576079600508E-002  0.11073877569357260        0.0000000000000000     
   7.1099716343038799E-002   8.4623558723389308E-002   0.0000000000000000     
   7.3617276074312524E-002   9.0746631300386071E-002   0.0000000000000000     
   7.6039212401513817E-002   9.7026640791626262E-002   0.0000000000000000     
   7.8365525324642693E-002  0.10346358719710991        0.0000000000000000     
   8.0596214843699138E-002  0.11005747051683701        0.0000000000000000     
   6.5403132560276717E-002   8.3879988474950776E-002   0.0000000000000000     
   6.7754725434476859E-002   9.0030362135696138E-002   0.0000000000000000     
   7.0016849165371139E-002   9.6337237729001463E-002   0.0000000000000000     
   7.2189503752959544E-002  0.10280061525486676        0.0000000000000000     
   7.4272689197242073E-002  0.10942049471329204        0.0000000000000000     
   5.9893375433455312E-002   8.3188136315540409E-002   0.0000000000000000     
   6.2078019611066869E-002   8.9363408082087981E-002   0.0000000000000000     
   6.4179338288066407E-002   9.5695117332170038E-002   0.0000000000000000     
   6.6197331464453876E-002  0.10218326406578661        0.0000000000000000     
   6.8131999140229313E-002  0.10882784828293766        0.0000000000000000     
   5.4570444962574551E-002   8.2548002245158195E-002   0.0000000000000000     
   5.6587158604082533E-002   8.8745769139561601E-002   0.0000000000000000     
   5.8526679769599591E-002   9.5100279601132015E-002   0.0000000000000000     
   6.0389008459125676E-002  0.10161153362986948        0.0000000000000000     
   6.2174144672660851E-002  0.10827953122577390        0.0000000000000000     
   8.7102576079600508E-002  0.11073877569357260        0.0000000000000000     
   8.9386081810036488E-002  0.11745169312210318        0.0000000000000000     
   9.1584027484061747E-002  0.12429951137699694        0.0000000000000000     
   9.3696413101676243E-002  0.13128223045825391        0.0000000000000000     
   9.5723238662880017E-002  0.13839985036587407        0.0000000000000000     
   8.0596214843699138E-002  0.11005747051683701        0.0000000000000000     
   8.2739188562823834E-002  0.11679745406319797        0.0000000000000000     
   8.4802354086157425E-002  0.12367270114858320        0.0000000000000000     
   8.6785711413699909E-002  0.13068321177299266        0.0000000000000000     
   8.8689260545451315E-002  0.13782898593642637        0.0000000000000000     
   7.4272689197242073E-002  0.10942049471329204        0.0000000000000000     
   7.6273808864014969E-002  0.11618633913368905        0.0000000000000000     
   7.8200266119074394E-002  0.12308761154546943        0.0000000000000000     
   8.0052060962420402E-002  0.13012431194863325        0.0000000000000000     
   8.1829193394052965E-002  0.13729644034318050        0.0000000000000000     
   6.8131999140229313E-002  0.10882784828293766        0.0000000000000000     
   6.9989942713609865E-002  0.11561834833357633        0.0000000000000000     
   7.1777763582812668E-002  0.12254424256765568        0.0000000000000000     
   7.3495461747837734E-002  0.12960553098517569        0.0000000000000000     
   7.5143037208685010E-002  0.13680221358613642        0.0000000000000000     
   6.2174144672660851E-002  0.10827953122577390        0.0000000000000000     
   6.3887590111608550E-002  0.11509348166285989        0.0000000000000000     
   6.5534846477372191E-002  0.12204259421514194        0.0000000000000000     
   6.7115913769951838E-002  0.12912686888262001        0.0000000000000000     
   6.8630791989347434E-002  0.13634630566529418        0.0000000000000000     
   9.5723238662880017E-002  0.13839985036587407        0.0000000000000000     
   9.7649069165915564E-002  0.14563833826530631        0.0000000000000000     
   9.9458469609025463E-002  0.15298366132199953        0.0000000000000000     
  0.10115143999220966       0.16043581953595373        0.0000000000000000     
  0.10272798031546820       0.16799481290716892        0.0000000000000000     
   8.8689260545451315E-002  0.13782898593642637        0.0000000000000000     
   9.0501260582426218E-002  0.14509548206760373        0.0000000000000000     
   9.2209970625639334E-002  0.15246815859524404        0.0000000000000000     
   9.3815390675090607E-002  0.15994701551934740        0.0000000000000000     
   9.5317520730780050E-002  0.16753205283991374        0.0000000000000000     
   8.1829193394052965E-002  0.13729644034318050        0.0000000000000000     
   8.3522376290844427E-002  0.14458927534513169        0.0000000000000000     
   8.5122322529667102E-002  0.15198809557050738        0.0000000000000000     
   8.6629032110520990E-002  0.15949290101930755        0.0000000000000000     
   8.8042505033406104E-002  0.16710369169153225        0.0000000000000000     
   7.5143037208685010E-002  0.13680221358613642        0.0000000000000000     
   7.6712416291170177E-002  0.14411971809789023        0.0000000000000000     
   7.8195525321108794E-002  0.15154347224778947        0.0000000000000000     
   7.9592364298500862E-002  0.15907347603583427        0.0000000000000000     
   8.0902933223346379E-002  0.16670972946202448        0.0000000000000000     
   6.8630791989347434E-002  0.13634630566529418        0.0000000000000000     
   7.0071380583403481E-002  0.14368681032587935        0.0000000000000000     
   7.1429578999964397E-002  0.15113428862709041        0.0000000000000000     
   7.2705387239030181E-002  0.15868874056892743        0.0000000000000000     
   7.3898805300600862E-002  0.16635016615139037        0.0000000000000000     
   0.0000000000000000        0.0000000000000000        0.0000000000000000     
   2.8800840243101873E-003   1.7448464980514694E-003   0.0000000000000000     
   5.8726660664443660E-003   3.8646341634735533E-003   0.0000000000000000     
   8.9777461264025343E-003   6.3593629962662513E-003   0.0000000000000000     
   1.2195324204184692E-002   9.2290329964295620E-003   0.0000000000000000     
   0.0000000000000000        0.0000000000000000        0.0000000000000000     
   2.6103365705808937E-003   1.5889195741561021E-003   0.0000000000000000     
   5.2897358724187478E-003   3.5566802500769665E-003   0.0000000000000000     
   8.0381979055135604E-003   5.9032820277625927E-003   0.0000000000000000     
   1.0855722669865332E-002   8.6287249072129826E-003   0.0000000000000000     
   0.0000000000000000        0.0000000000000000        0.0000000000000000     
   2.3401301509370399E-003   1.4589419120460056E-003   0.0000000000000000     
   4.7202067952566273E-003   3.2997830648782592E-003   0.0000000000000000     
   7.1402299329587629E-003   5.5225234584967602E-003   0.0000000000000000     
   9.6001995640434459E-003   8.1271630929015109E-003   0.0000000000000000     
   0.0000000000000000        0.0000000000000000        0.0000000000000000     
   2.0694647653786260E-003   1.3549135117211810E-003   0.0000000000000000     
   4.1640788349580080E-003   3.0939426078774317E-003   0.0000000000000000     
   6.2838422087381470E-003   5.2170872884687528E-003   0.0000000000000000     
   8.4287548867190438E-003   7.7243475534951424E-003   0.0000000000000000     
   0.0000000000000000        0.0000000000000000        0.0000000000000000     
   1.7983404139056513E-003   1.2768343731816272E-003   0.0000000000000000     
   3.6213519915228882E-003   2.9391588790744841E-003   0.0000000000000000     
   5.4690347328517101E-003   4.9869735176785706E-003   0.0000000000000000     
   7.3413886378921166E-003   7.4202782889938859E-003   0.0000000000000000     
   1.2195324204184692E-002   9.2290329964295620E-003   0.0000000000000000     
   1.5427673300212628E-002   1.2371583889003012E-002   0.0000000000000000     
   1.8577066414908128E-002   1.5684955399026118E-002   0.0000000000000000     
   2.1643503548271183E-002   1.9169147526498884E-002   0.0000000000000000     
   2.4626984700301800E-002   2.2824160271421309E-002   0.0000000000000000     
   1.0855722669865332E-002   8.6287249072129826E-003   0.0000000000000000     
   1.3688982886590664E-002   1.1650739751668394E-002   0.0000000000000000     
   1.6484651276806161E-002   1.4887057424369092E-002   0.0000000000000000     
   1.9242727840511824E-002   1.8337677925315075E-002   0.0000000000000000     
   2.1963212577707655E-002   2.2002601254506343E-002   0.0000000000000000     
   9.6001995640434459E-003   8.1271630929015109E-003   0.0000000000000000     
   1.2076601415635983E-002   1.1046303322521305E-002   0.0000000000000000     
   1.4545921214861675E-002   1.4212545501784954E-002   0.0000000000000000     
   1.7008158961720518E-002   1.7625889630692448E-002   0.0000000000000000     
   1.9463314656212521E-002   2.1286335709243799E-002   0.0000000000000000     
   8.4287548867190438E-003   7.7243475534951424E-003   0.0000000000000000     
   1.0590528887348582E-002   1.0558274601561746E-002   0.0000000000000000     
   1.2760876229074658E-002   1.3661419631273699E-002   0.0000000000000000     
   1.4939796911897263E-002   1.7033782642631012E-002   0.0000000000000000     
   1.7127290935816403E-002   2.0675363635633669E-002   0.0000000000000000     
   7.3413886378921166E-003   7.4202782889938859E-003   0.0000000000000000     
   9.2307653017284653E-003   1.0186653588789712E-002   0.0000000000000000     
   1.1129516319445110E-002   1.3233679812835334E-002   0.0000000000000000     
   1.3037641691042054E-002   1.6561356961130751E-002   0.0000000000000000     
   1.4955141416519298E-002   2.0169685033675958E-002   0.0000000000000000     
   2.4626984700301800E-002   2.2824160271421309E-002   0.0000000000000000     
   2.7531651858746141E-002   2.6672721858083264E-002   0.0000000000000000     
   3.0361647011350374E-002   3.0737560510774632E-002   0.0000000000000000     
   3.3116970158114503E-002   3.5018676229495407E-002   0.0000000000000000     
   3.5797621299038518E-002   3.9516069014245585E-002   0.0000000000000000     
   2.1963212577707655E-002   2.2002601254506343E-002   0.0000000000000000     
   2.4629524224258320E-002   2.5879875773169643E-002   0.0000000000000000     
   2.7225081516028496E-002   2.9967549842531711E-002   0.0000000000000000     
   2.9749884453018183E-002   3.4265623462592557E-002   0.0000000000000000     
   3.2203933035227388E-002   3.8774096633352170E-002   0.0000000000000000     
   1.9463314656212521E-002   2.1286335709243799E-002   0.0000000000000000     
   2.1882979588471088E-002   2.5175159243476703E-002   0.0000000000000000     
   2.4238745048629627E-002   2.9273635739428865E-002   0.0000000000000000     
   2.6530611036688148E-002   3.3581765197100301E-002   0.0000000000000000     
   2.8758577552646630E-002   3.8099547616490995E-002   0.0000000000000000     
   1.7127290935816403E-002   2.0675363635633669E-002   0.0000000000000000     
   1.9292017951384448E-002   2.4558572269004448E-002   0.0000000000000000     
   2.1402637609153778E-002   2.8655818201466107E-002   0.0000000000000000     
   2.3459149909124379E-002   3.2967101433018640E-002   0.0000000000000000     
   2.5461554851296267E-002   3.7492421963662065E-002   0.0000000000000000     
   1.4955141416519298E-002   2.0169685033675958E-002   0.0000000000000000     
   1.6856639312998401E-002   2.4030114849752877E-002   0.0000000000000000     
   1.8716759197600932E-002   2.8114097228643421E-002   0.0000000000000000     
   2.0535501070326895E-002   3.2421632170347589E-002   0.0000000000000000     
   2.2312864931176280E-002   3.6952719674865381E-002   0.0000000000000000     
   3.5797621299038518E-002   3.9516069014245585E-002   0.0000000000000000     
   3.8403508720683273E-002   4.4220348928969339E-002   0.0000000000000000     
   4.0934540709609613E-002   4.9122126037610798E-002   0.0000000000000000     
   4.3390717265817537E-002   5.4221400340169978E-002   0.0000000000000000     
   4.5772038389307046E-002   5.9518171836646885E-002   0.0000000000000000     
   3.2203933035227388E-002   3.8774096633352170E-002   0.0000000000000000     
   3.4589226004067358E-002   4.3488492288472416E-002   0.0000000000000000     
   3.6907762100949378E-002   4.8404333361615155E-002   0.0000000000000000     
   3.9159541325873452E-002   5.3521619852780380E-002   0.0000000000000000     
   4.1344563678839569E-002   5.8840351761968099E-002   0.0000000000000000     
   2.8758577552646630E-002   3.8099547616490995E-002   0.0000000000000000     
   3.0924917621294547E-002   4.2824248667124441E-002   0.0000000000000000     
   3.3031904267421336E-002   4.7753134018524122E-002   0.0000000000000000     
   3.5079537491026991E-002   5.2886203670690045E-002   0.0000000000000000     
   3.7067817292111532E-002   5.8223457623622209E-002   0.0000000000000000     
   2.5461554851296267E-002   3.7492421963662065E-002   0.0000000000000000     
   2.7410583572364824E-002   4.2227618064925421E-002   0.0000000000000000     
   2.9306967209025449E-002   4.7168528008337714E-002   0.0000000000000000     
   3.1150705761278149E-002   5.2315151793899006E-002   0.0000000000000000     
   3.2941799229122916E-002   5.7667489421609243E-002   0.0000000000000000     
   2.2312864931176280E-002   3.6952719674865381E-002   0.0000000000000000     
   2.4046223857278198E-002   4.1698600481875320E-002   0.0000000000000000     
   2.5732950925761749E-002   4.6650515331055943E-002   0.0000000000000000     
   2.7373046136626927E-002   5.1808464222407230E-002   0.0000000000000000     
   2.8966509489873747E-002   5.7172447155929181E-002   0.0000000000000000     
   4.5772038389307046E-002   5.9518171836646885E-002   0.0000000000000000     
   4.8079858855483992E-002   6.5004176307255648E-002   0.0000000000000000     
   5.0315533439754222E-002   7.0671149532210459E-002   0.0000000000000000     
   5.2479062142117734E-002   7.6519091511511303E-002   0.0000000000000000     
   5.4570444962574551E-002   8.2548002245158195E-002   0.0000000000000000     
   4.1344563678839569E-002   5.8840351761968099E-002   0.0000000000000000     
   4.3462770912117109E-002   6.4349855970049968E-002   0.0000000000000000     
   4.5514104777975455E-002   7.0039459357897696E-002   0.0000000000000000     
   4.7498565276414613E-002   7.5909161925511254E-002   0.0000000000000000     
   4.9416152407434563E-002   8.1958963672890642E-002   0.0000000000000000     
   3.7067817292111532E-002   5.8223457623622209E-002   0.0000000000000000     
   3.8995800342962260E-002   6.3752775975121315E-002   0.0000000000000000     
   4.0862543315866487E-002   6.9462038822988029E-002   0.0000000000000000     
   4.2668046210824234E-002   7.5351246167222385E-002   0.0000000000000000     
   4.4412309027835481E-002   8.1420398007824329E-002   0.0000000000000000     
   3.2941799229122916E-002   5.7667489421609243E-002   0.0000000000000000     
   3.4678947148019425E-002   6.3212936322469673E-002   0.0000000000000000     
   3.6360849053427312E-002   6.8938887927481485E-002   0.0000000000000000     
   3.7987504945346598E-002   7.4845344236644670E-002   0.0000000000000000     
   3.9558914823777283E-002   8.0932305249959258E-002   0.0000000000000000     
   2.8966509489873747E-002   5.7172447155929181E-002   0.0000000000000000     
   3.0512211327288610E-002   6.2730337012095044E-002   0.0000000000000000     
   3.2009021990657936E-002   6.8470006671378009E-002   0.0000000000000000     
   3.3456941479981725E-002   7.4391456133778136E-002   0.0000000000000000     
   3.4855969795259983E-002   8.0494685399295385E-002   0.0000000000000000     
   5.4570444962574551E-002   8.2548002245158195E-002   0.0000000000000000     
   5.6587158604082533E-002   8.8745769139561601E-002   0.0000000000000000     
   5.8526679769599591E-002   9.5100279601132015E-002   0.0000000000000000     
   6.0389008459125676E-002  0.10161153362986948        0.0000000000000000     
   6.2174144672660851E-002  0.10827953122577390        0.0000000000000000     
   4.9416152407434563E-002   8.1958963672890642E-002   0.0000000000000000     
   5.1264762999866868E-002   8.8177386689536660E-002   0.0000000000000000     
   5.3042293882543050E-002   9.4552953064950027E-002   0.0000000000000000     
   5.4748745055463108E-002  0.10108566279913077        0.0000000000000000     
   5.6384116518627042E-002  0.10777551589207890        0.0000000000000000     
   4.4412309027835481E-002   8.1420398007824329E-002   0.0000000000000000     
   4.6093453384762902E-002   8.7658202113432823E-002   0.0000000000000000     
   4.7709600899469164E-002   9.4053366252686746E-002   0.0000000000000000     
   4.9260751571954281E-002  0.10060589042558608        0.0000000000000000     
   5.0746905402218233E-002  0.10731577463213086        0.0000000000000000     
   3.9558914823777283E-002   8.0932305249959258E-002   0.0000000000000000     
   4.1073229758770639E-002   8.7188215411250103E-002   0.0000000000000000     
   4.2528600820377953E-002   9.3601519164342131E-002   0.0000000000000000     
   4.3925028008599216E-002  0.10017221650923536        0.0000000000000000     
   4.5262511323434437E-002  0.10690030744592977        0.0000000000000000     
   3.4855969795259983E-002   8.0494685399295385E-002   0.0000000000000000     
   3.6204092121890068E-002   8.6767426582988513E-002   0.0000000000000000     
   3.7499293645269376E-002   9.3197411799916252E-002   0.0000000000000000     
   3.8741574365397893E-002   9.9784641050078629E-002   0.0000000000000000     
   3.9930934282275635E-002  0.10652911433347564        0.0000000000000000     
   6.2174144672660851E-002  0.10827953122577390        0.0000000000000000     
   6.3887590111608550E-002  0.11509348166285989        0.0000000000000000     
   6.5534846477372191E-002  0.12204259421514194        0.0000000000000000     
   6.7115913769951838E-002  0.12912686888262001        0.0000000000000000     
   6.8630791989347434E-002  0.13634630566529418        0.0000000000000000     
   5.6384116518627042E-002  0.10777551589207890        0.0000000000000000     
   5.7952865308971570E-002  0.11461142353634933        0.0000000000000000     
   5.9459448463433415E-002  0.12158229692449696        0.0000000000000000     
   6.0903865982012556E-002  0.12868813605652180        0.0000000000000000     
   6.2286117864709015E-002  0.13592894093242383        0.0000000000000000     
   5.0746905402218233E-002  0.10731577463213086        0.0000000000000000     
   5.2171882556659534E-002  0.11417185836885427        0.0000000000000000     
   5.3539503201676671E-002  0.12116298113228949        0.0000000000000000     
   5.4849767337269650E-002  0.12828914292243657        0.0000000000000000     
   5.6102674963438480E-002  0.13555034373929545        0.0000000000000000     
   4.5262511323434437E-002  0.10690030744592977        0.0000000000000000     
   4.6544641854672414E-002  0.11377478616037472        0.0000000000000000     
   4.7775010692101993E-002  0.12078464683851958        0.0000000000000000     
   4.8953617835723121E-002  0.12792988948036432        0.0000000000000000     
   5.0080463285535844E-002  0.13521051408590903        0.0000000000000000     
   3.9930934282275635E-002  0.10652911433347564        0.0000000000000000     
   4.1071143203010238E-002  0.11342020691091068        0.0000000000000000     
   4.2165970934709356E-002  0.12044729404318717        0.0000000000000000     
   4.3215417477372980E-002  0.12761037573030515        0.0000000000000000     
   4.4219482831001120E-002  0.13490945197226456        0.0000000000000000     
   6.8630791989347434E-002  0.13634630566529418        0.0000000000000000     
   7.0071380583403481E-002  0.14368681032587935        0.0000000000000000     
   7.1429578999964397E-002  0.15113428862709041        0.0000000000000000     
   7.2705387239030181E-002  0.15868874056892743        0.0000000000000000     
   7.3898805300600862E-002  0.16635016615139037        0.0000000000000000     
   6.2286117864709015E-002  0.13592894093242383        0.0000000000000000     
   6.3597632142944588E-002  0.14329112034675298        0.0000000000000000     
   6.4829836848141101E-002  0.15076108309405925        0.0000000000000000     
   6.5982731980298553E-002  0.15833882917434255        0.0000000000000000     
   6.7056317539416932E-002  0.16602435858760289        0.0000000000000000     
   5.6102674963438480E-002  0.13555034373929545        0.0000000000000000     
   5.7289533945193746E-002  0.14293321647816529        0.0000000000000000     
   5.8401652147546092E-002  0.15042439403434515        0.0000000000000000     
   5.9439029570495495E-002  0.15802387640783508        0.0000000000000000     
   6.0401666214041957E-002  0.16573166359863503        0.0000000000000000     
   5.0080463285535844E-002  0.13521051408590903        0.0000000000000000     
   5.1147085990150984E-002  0.14261309872011610        0.0000000000000000     
   5.2145024898179383E-002  0.15012422144794810        0.0000000000000000     
   5.3074280009621042E-002  0.15774388226940503        0.0000000000000000     
   5.3934851324475959E-002  0.16547208118448681        0.0000000000000000     
   4.4219482831001120E-002  0.13490945197226456        0.0000000000000000     
   4.5170288277816280E-002  0.14233076707260553        0.0000000000000000     
   4.6059955100040968E-002  0.14986056533486816        0.0000000000000000     
   4.6888483297675185E-002  0.15749884675905235        0.0000000000000000     
   4.7655872870718916E-002  0.16524561134515822        0.0000000000000000     
   0.0000000000000000        0.0000000000000000        0.0000000000000000     
   1.7983404139056513E-003   1.2768343731816272E-003   0.0000000000000000     
   3.6213519915228882E-003   2.9391588790744841E-003   0.0000000000000000     
   5.4690347328517101E-003   4.9869735176785706E-003   0.0000000000000000     
   7.3413886378921166E-003   7.4202782889938859E-003   0.0000000000000000     
   0.0000000000000000        0.0000000000000000        0.0000000000000000     
   1.5350330298730813E-003   1.2175799295782216E-003   0.0000000000000000     
   3.0993799090785882E-003   2.8209067524308253E-003   0.0000000000000000     
   4.6930406376165211E-003   4.8099804685578116E-003   0.0000000000000000     
   6.3160152154868796E-003   7.1848010779591801E-003   0.0000000000000000     
   0.0000000000000000        0.0000000000000000        0.0000000000000000     
   1.2878185466358811E-003   1.1700256140618395E-003   0.0000000000000000     
   2.6055162317524319E-003   2.7246611019078647E-003   0.0000000000000000     
   3.9530930553496524E-003   4.6639064635380749E-003   0.0000000000000000     
   5.3305490174275424E-003   6.9877616989524709E-003   0.0000000000000000     
   0.0000000000000000        0.0000000000000000        0.0000000000000000     
   1.0566969641940508E-003   1.1341714266324822E-003   0.0000000000000000     
   2.1397609595444188E-003   2.6504219275056023E-003   0.0000000000000000     
   3.2491919860511025E-003   4.5487515026193612E-003   0.0000000000000000     
   4.3849900437141036E-003   6.8291601519737573E-003   0.0000000000000000     
   0.0000000000000000        0.0000000000000000        0.0000000000000000     
   8.4166828254758999E-004   1.1100173672901484E-003   0.0000000000000000     
   1.7021140924545477E-003   2.5981892292240381E-003   0.0000000000000000     
   2.5813374297208730E-003   4.4645155858016690E-003   0.0000000000000000     
   3.4793382943465656E-003   6.7089964370230411E-003   0.0000000000000000     
   7.3413886378921166E-003   7.4202782889938859E-003   0.0000000000000000     
   9.2307653017284653E-003   1.0186653588789712E-002   0.0000000000000000     
   1.1129516319445110E-002   1.3233679812835334E-002   0.0000000000000000     
   1.3037641691042054E-002   1.6561356961130751E-002   0.0000000000000000     
   1.4955141416519298E-002   2.0169685033675958E-002   0.0000000000000000     
   6.3160152154868796E-003   7.1848010779591801E-003   0.0000000000000000     
   7.9556271930218258E-003   9.8958189521187769E-003   0.0000000000000000     
   9.5992001205535207E-003   1.2893484462520447E-002   0.0000000000000000     
   1.1246733998081964E-002   1.6177797609164199E-002   0.0000000000000000     
   1.2898228825607157E-002   1.9748758392050019E-002   0.0000000000000000     
   5.3305490174275424E-003   6.9877616989524709E-003   0.0000000000000000     
   6.7234310954748600E-003   9.6501493594625086E-003   0.0000000000000000     
   8.1172862669803662E-003   1.2604991996379641E-002   0.0000000000000000     
   9.5121145319440568E-003   1.5852289609703869E-002   0.0000000000000000     
   1.0907915890365938E-002   1.9392042199435203E-002   0.0000000000000000     
   4.3849900437141036E-003   6.8291601519737573E-003   0.0000000000000000     
   5.5341770090875705E-003   9.4496448108209018E-003   0.0000000000000000     
   6.6837747587256474E-003   1.2368202414412910E-002   0.0000000000000000     
   7.8337832926283369E-003   1.5584832962749779E-002   0.0000000000000000     
   8.9842026107956382E-003   1.9099536455831501E-002   0.0000000000000000     
   3.4793382943465656E-003   6.7089964370230411E-003   0.0000000000000000     
   4.3878649338599538E-003   9.2943053061939652E-003   0.0000000000000000     
   5.2986655957893650E-003   1.2183115716620257E-002   0.0000000000000000     
   6.2117402801347985E-003   1.5375427668301914E-002   0.0000000000000000     
   7.1270889868962559E-003   1.8871241161238936E-002   0.0000000000000000     
   1.4955141416519298E-002   2.0169685033675958E-002   0.0000000000000000     
   1.6856639312998401E-002   2.4030114849752877E-002   0.0000000000000000     
   1.8716759197600932E-002   2.8114097228643421E-002   0.0000000000000000     
   2.0535501070326895E-002   3.2421632170347589E-002   0.0000000000000000     
   2.2312864931176280E-002   3.6952719674865381E-002   0.0000000000000000     
   1.2898228825607157E-002   1.9748758392050019E-002   0.0000000000000000     
   1.4537292823689563E-002   2.3580230359655691E-002   0.0000000000000000     
   1.6147534212889635E-002   2.7646077060458987E-002   0.0000000000000000     
   1.7728952993207373E-002   3.1946298494459902E-002   0.0000000000000000     
   1.9281549164642784E-002   3.6480894661658436E-002   0.0000000000000000     
   1.0907915890365938E-002   1.9392042199435203E-002   0.0000000000000000     
   1.2294427633834541E-002   2.3199362172646586E-002   0.0000000000000000     
   1.3661387053938398E-002   2.7249361936410955E-002   0.0000000000000000     
   1.5008794150677508E-002   3.1542041490728347E-002   0.0000000000000000     
   1.6336648924051875E-002   3.6077400835598739E-002   0.0000000000000000     
   8.9842026107956382E-003   1.9099536455831501E-002   0.0000000000000000     
   1.0128043743433337E-002   2.2887510288725547E-002   0.0000000000000000     
   1.1258317720747224E-002   2.6923951856499352E-002   0.0000000000000000     
   1.2375024542737301E-002   3.1208861159152924E-002   0.0000000000000000     
   1.3478164209403561E-002   3.5742238196686260E-002   0.0000000000000000     
   7.1270889868962559E-003   1.8871241161238936E-002   0.0000000000000000     
   8.0381411524859565E-003   2.2644674707892595E-002   0.0000000000000000     
   8.9383262133161182E-003   2.6669846820724159E-002   0.0000000000000000     
   9.8276441693867459E-003   3.0946757499733638E-002   0.0000000000000000     
   1.0706095020697836E-002   3.5475406744921022E-002   0.0000000000000000     
   2.2312864931176280E-002   3.6952719674865381E-002   0.0000000000000000     
   2.4046223857278198E-002   4.1698600481875320E-002   0.0000000000000000     
   2.5732950925761749E-002   4.6650515331055943E-002   0.0000000000000000     
   2.7373046136626927E-002   5.1808464222407230E-002   0.0000000000000000     
   2.8966509489873747E-002   5.7172447155929181E-002   0.0000000000000000     
   1.9281549164642784E-002   3.6480894661658436E-002   0.0000000000000000     
   2.0799300672204236E-002   4.1235747792116972E-002   0.0000000000000000     
   2.2276185460900100E-002   4.6196740115897868E-002   0.0000000000000000     
   2.3712203530730388E-002   5.1363871633001108E-002   0.0000000000000000     
   2.5107354881695087E-002   5.6737142343426729E-002   0.0000000000000000     
   1.6336648924051875E-002   3.6077400835598739E-002   0.0000000000000000     
   1.7637276213312507E-002   4.0837611869793136E-002   0.0000000000000000     
   1.8903000857710409E-002   4.5804846492082579E-002   0.0000000000000000     
   2.0133822857245586E-002   5.0979104702467061E-002   0.0000000000000000     
   2.1329742211918030E-002   5.6360386500946581E-002   0.0000000000000000     
   1.3478164209403561E-002   3.5742238196686260E-002   0.0000000000000000     
   1.4560150480603015E-002   4.0504192714903825E-002   0.0000000000000000     
   1.5613397116192668E-002   4.5474834459610099E-002   0.0000000000000000     
   1.6637904116172521E-002   5.0654163430805074E-002   0.0000000000000000     
   1.7633671480542568E-002   5.6042179628488738E-002   0.0000000000000000     
   1.0706095020697836E-002   3.5475406744921022E-002   0.0000000000000000     
   1.1567923474075759E-002   4.0235490327449039E-002   0.0000000000000000     
   1.2407374236346877E-002   4.5206704018480412E-002   0.0000000000000000     
   1.3224447307511194E-002   5.0389047818015134E-002   0.0000000000000000     
   1.4019142687568712E-002   5.5782521726053226E-002   0.0000000000000000     
   2.8966509489873747E-002   5.7172447155929181E-002   0.0000000000000000     
   3.0512211327288610E-002   6.2730337012095044E-002   0.0000000000000000     
   3.2009021990657936E-002   6.8470006671378009E-002   0.0000000000000000     
   3.3456941479981725E-002   7.4391456133778136E-002   0.0000000000000000     
   3.4855969795259983E-002   8.0494685399295385E-002   0.0000000000000000     
   2.5107354881695087E-002   5.6737142343426729E-002   0.0000000000000000     
   2.6460859642342363E-002   6.2305096527083215E-002   0.0000000000000000     
   2.7771937941220386E-002   6.8056278463879127E-002   0.0000000000000000     
   2.9040589778329146E-002   7.3990688153814446E-002   0.0000000000000000     
   3.0266815153668650E-002   8.0108325596889185E-002   0.0000000000000000     
   2.1329742211918030E-002   5.6360386500946581E-002   0.0000000000000000     
   2.2490158854753240E-002   6.1937333350520013E-002   0.0000000000000000     
   2.3614472718776699E-002   6.7698586714186257E-002   0.0000000000000000     
   2.4702683803988414E-002   7.3644146591945264E-002   0.0000000000000000     
   2.5754792110388388E-002   7.9774012983797077E-002   0.0000000000000000     
   1.7633671480542568E-002   5.6042179628488738E-002   0.0000000000000000     
   1.8600108964521224E-002   6.1627047482405412E-002   0.0000000000000000     
   1.9536626323326877E-002   6.7396931422299369E-002   0.0000000000000000     
   2.0443223556959534E-002   7.3351831448170576E-002   0.0000000000000000     
   2.1319900665419191E-002   7.9491747560019088E-002   0.0000000000000000     
   1.4019142687568712E-002   5.5782521726053226E-002   0.0000000000000000     
   1.4790709971646320E-002   6.1374238922739424E-002   0.0000000000000000     
   1.5538398754870914E-002   6.7151312588218492E-002   0.0000000000000000     
   1.6262209037242497E-002   7.3113742722490396E-002   0.0000000000000000     
   1.6962140818761063E-002   7.9261529325555191E-002   0.0000000000000000     
   3.4855969795259983E-002   8.0494685399295385E-002   0.0000000000000000     
   3.6204092121890068E-002   8.6767426582988513E-002   0.0000000000000000     
   3.7499293645269376E-002   9.3197411799916252E-002   0.0000000000000000     
   3.8741574365397893E-002   9.9784641050078629E-002   0.0000000000000000     
   3.9930934282275635E-002  0.10652911433347564        0.0000000000000000     
   3.0266815153668650E-002   8.0108325596889185E-002   0.0000000000000000     
   3.1448429637886535E-002   8.6396125504422577E-002   0.0000000000000000     
   3.2583248801630452E-002   9.2841022587733885E-002   0.0000000000000000     
   3.3671272644900399E-002   9.9443016846823093E-002   0.0000000000000000     
   3.4712501167696364E-002  0.10620210828169023        0.0000000000000000     
   2.5754792110388388E-002   7.9774012983797077E-002   0.0000000000000000     
   2.6768631470525384E-002   8.6074602051326873E-002   0.0000000000000000     
   2.7742035716948180E-002   9.2532329956119860E-002   0.0000000000000000     
   2.8675004849656766E-002   9.9147196698175996E-002   0.0000000000000000     
   2.9567538868651152E-002  0.10591920227749531        0.0000000000000000     
   2.1319900665419191E-002   7.9491747560019088E-002   0.0000000000000000     
   2.2164697619806616E-002   8.5802856223701429E-002   0.0000000000000000     
   2.2975654391222556E-002   9.2271333905074193E-002   0.0000000000000000     
   2.3752770979667014E-002   9.8897180604137339E-002   0.0000000000000000     
   2.4496047385139993E-002  0.10568039632089091        0.0000000000000000     
   1.6962140818761063E-002   7.9261529325555191E-002   0.0000000000000000     
   1.7636628085730223E-002   8.5580888021546231E-002   0.0000000000000000     
   1.8284104824453581E-002   9.2058034434596883E-002   0.0000000000000000     
   1.8904571034931136E-002   9.8692968564707134E-002   0.0000000000000000     
   1.9498026717162890E-002  0.10548569041187700        0.0000000000000000     
   3.9930934282275635E-002  0.10652911433347564        0.0000000000000000     
   4.1071143203010238E-002  0.11342020691091068        0.0000000000000000     
   4.2165970934709356E-002  0.12044729404318717        0.0000000000000000     
   4.3215417477372980E-002  0.12761037573030515        0.0000000000000000     
   4.4219482831001120E-002  0.13490945197226456        0.0000000000000000     
   3.4712501167696364E-002  0.10620210828169023        0.0000000000000000     
   3.5710859684947735E-002  0.11310807608843168        0.0000000000000000     
   3.6670273511583855E-002  0.12015069946314388        0.0000000000000000     
   3.7590742647604744E-002  0.12732997840582685        0.0000000000000000     
   3.8472267093010395E-002  0.13464591291648056        0.0000000000000000     
   2.9567538868651152E-002  0.10591920227749531        0.0000000000000000     
   3.0423264383759644E-002  0.11283834916090724        0.0000000000000000     
   3.1245808004810586E-002  0.11989463981524125        0.0000000000000000     
   3.2035169731803960E-002  0.12708807424049734        0.0000000000000000     
   3.2791349564739773E-002  0.13441865243667547        0.0000000000000000     
   2.4496047385139993E-002  0.10568039632089091        0.0000000000000000     
   2.5208357299446003E-002  0.11261102612833739        0.0000000000000000     
   2.5892574414389545E-002  0.11967911509947927        0.0000000000000000     
   2.6548698729970635E-002  0.12688466323431657        0.0000000000000000     
   2.7176730246189260E-002  0.13422767053284931        0.0000000000000000     
   1.9498026717162890E-002  0.10548569041187700        0.0000000000000000     
   2.0066138432006775E-002  0.11242610699072209        0.0000000000000000     
   2.0610572740320732E-002  0.11950412531585794        0.0000000000000000     
   2.1131329642104756E-002  0.12671974538728462        0.0000000000000000     
   2.1628409137358848E-002  0.13407296720500206        0.0000000000000000     
   4.4219482831001120E-002  0.13490945197226456        0.0000000000000000     
   4.5170288277816280E-002  0.14233076707260553        0.0000000000000000     
   4.6059955100040968E-002  0.14986056533486816        0.0000000000000000     
   4.6888483297675185E-002  0.15749884675905235        0.0000000000000000     
   4.7655872870718916E-002  0.16524561134515822        0.0000000000000000     
   3.8472267093010395E-002  0.13464591291648056        0.0000000000000000     
   3.9307774304986054E-002  0.14208435806102554        0.0000000000000000     
   4.0090191740716943E-002  0.14963116890538233        0.0000000000000000     
   4.0819519400203085E-002  0.15728634544955086        0.0000000000000000     
   4.1495757283444470E-002  0.16504988769353118        0.0000000000000000     
   3.2791349564739773E-002  0.13441865243667547        0.0000000000000000     
   3.3508177568456698E-002  0.14187200821076812        0.0000000000000000     
   3.4179483807793433E-002  0.14943377536976771        0.0000000000000000     
   3.4805268282749949E-002  0.15710395391367424        0.0000000000000000     
   3.5385530993326260E-002  0.16488254384248766        0.0000000000000000     
   2.7176730246189260E-002  0.13422767053284931        0.0000000000000000     
   2.7771498068228252E-002  0.14169371752183332        0.0000000000000000     
   2.8327831301270413E-002  0.14926838472802434        0.0000000000000000     
   2.8845729945315753E-002  0.15695167215142247        0.0000000000000000     
   2.9325194000364270E-002  0.16474357979202769        0.0000000000000000     
   2.1628409137358848E-002  0.13407296720500206        0.0000000000000000     
   2.2097735804300675E-002  0.14154948599422101        0.0000000000000000     
   2.2535234221147896E-002  0.14913499698015223        0.0000000000000000     
   2.2940904387900508E-002  0.15682950016279559        0.0000000000000000     
   2.3314746304558515E-002  0.16463299554215122        0.0000000000000000     
   0.0000000000000000        0.0000000000000000        0.0000000000000000     
   8.4166828254758999E-004   1.1100173672901484E-003   0.0000000000000000     
   1.7021140924545477E-003   2.5981892292240381E-003   0.0000000000000000     
   2.5813374297208730E-003   4.4645155858016690E-003   0.0000000000000000     
   3.4793382943465656E-003   6.7089964370230411E-003   0.0000000000000000     
   0.0000000000000000        0.0000000000000000        0.0000000000000000     
   6.3382734145080903E-004   1.0940013714042097E-003   0.0000000000000000     
   1.2780374632760324E-003   2.5621134515313765E-003   0.0000000000000000     
   1.9326303654756704E-003   4.4043362403814994E-003   0.0000000000000000     
   2.5976060480497228E-003   6.6206697379545794E-003   0.0000000000000000     
   0.0000000000000000        0.0000000000000000        0.0000000000000000     
   4.2426898065801757E-004   1.0825613743440368E-003   0.0000000000000000     
   8.5299290480208537E-004   2.5363450388958212E-003   0.0000000000000000     
   1.2861717724322033E-003   4.3613509936553550E-003   0.0000000000000000     
   1.7238055835483716E-003   6.5575792386226373E-003   0.0000000000000000     
   0.0000000000000000        0.0000000000000000        0.0000000000000000     
   2.1299320016921570E-004   1.0756973761096287E-003   0.0000000000000000     
   4.2698041703270636E-004   2.5208839913173730E-003   0.0000000000000000     
   6.4196165059047204E-004   4.3355598456232330E-003   0.0000000000000000     
   8.5793690084251257E-004   6.5197249390272095E-003   0.0000000000000000     
   0.0000000000000000        0.0000000000000000        0.0000000000000000     
  -1.5596573511855727E-014   1.0734093767009862E-003   0.0000000000000000     
  -3.2104527369902769E-014   2.5157303087960316E-003   0.0000000000000000     
  -4.9523915784249750E-014   4.3269627962851361E-003   0.0000000000000000     
  -6.7854684544788046E-014   6.5071068391682994E-003   0.0000000000000000     
   3.4793382943465656E-003   6.7089964370230411E-003   0.0000000000000000     
   4.3878649338599538E-003   9.2943053061939652E-003   0.0000000000000000     
   5.2986655957893650E-003   1.2183115716620257E-002   0.0000000000000000     
   6.2117402801347985E-003   1.5375427668301914E-002   0.0000000000000000     
   7.1270889868962559E-003   1.8871241161238936E-002   0.0000000000000000     
   2.5976060480497228E-003   6.6206697379545794E-003   0.0000000000000000     
   3.2699925732523269E-003   9.1781429464030118E-003   0.0000000000000000     
   3.9468180033376222E-003   1.2043784867879187E-002   0.0000000000000000     
   4.6280823383056079E-003   1.5217595502383111E-002   0.0000000000000000     
   5.3137855781562838E-003   1.8699574849914781E-002   0.0000000000000000     
   1.7238055835483716E-003   6.5575792386226373E-003   0.0000000000000000     
   2.1660576307250068E-003   9.0951698322693595E-003   0.0000000000000000     
   2.6130912065365250E-003   1.1944262833067218E-002   0.0000000000000000     
   3.0649063109829270E-003   1.5104858241016208E-002   0.0000000000000000     
   3.5215029440642119E-003   1.8576956056116332E-002   0.0000000000000000     
   8.5793690084251257E-004   6.5197249390272095E-003   0.0000000000000000     
   1.0760601062779916E-003   9.0453859637930102E-003   0.0000000000000000     
   1.2974852053860724E-003   1.1884549612184339E-002   0.0000000000000000     
   1.5222121981667562E-003   1.5037215884201203E-002   0.0000000000000000     
   1.7502410846200413E-003   1.8503384779843597E-002   0.0000000000000000     
  -6.7854684544788046E-014   6.5071068391682994E-003   0.0000000000000000     
  -8.8717986949926608E-014   9.0287913409739604E-003   0.0000000000000000     
  -1.1373456972225970E-013   1.1864645205230562E-002   0.0000000000000000     
  -1.4290517147451734E-013   1.5014668431938098E-002   0.0000000000000000     
  -1.7622893162122510E-013   1.8478861021096572E-002   0.0000000000000000     
   7.1270889868962559E-003   1.8871241161238936E-002   0.0000000000000000     
   8.0381411524859565E-003   2.2644674707892595E-002   0.0000000000000000     
   8.9383262133161182E-003   2.6669846820724159E-002   0.0000000000000000     
   9.8276441693867459E-003   3.0946757499733638E-002   0.0000000000000000     
   1.0706095020697836E-002   3.5475406744921022E-002   0.0000000000000000     
   5.3137855781562838E-003   1.8699574849914781E-002   0.0000000000000000     
   5.9970108745272498E-003   2.2462388207266724E-002   0.0000000000000000     
   6.6708413790561019E-003   2.6478700871231494E-002   0.0000000000000000     
   7.3352770917428436E-003   3.0748512841809079E-002   0.0000000000000000     
   7.9903180125874725E-003   3.5271824118999477E-002   0.0000000000000000     
   3.5215029440642119E-003   1.8576956056116332E-002   0.0000000000000000     
   3.9769439230920717E-003   2.2332183563966962E-002   0.0000000000000000     
   4.4252920653781959E-003   2.6342168050167463E-002   0.0000000000000000     
   4.8665473709225858E-003   3.0606909514717846E-002   0.0000000000000000     
   5.3007098397252414E-003   3.5126407957618094E-002   0.0000000000000000     
   1.7502410846200413E-003   1.8503384779843597E-002   0.0000000000000000     
   1.9779402981804249E-003   2.2254060777993297E-002   0.0000000000000000     
   2.2016782722824031E-003   2.6260248357532073E-002   0.0000000000000000     
   2.4214550069259762E-003   3.0521947518459942E-002   0.0000000000000000     
   2.6372705021111423E-003   3.5039158260776873E-002   0.0000000000000000     
  -1.7622893162122510E-013   1.8478861021096572E-002   0.0000000000000000     
  -2.0769112341403884E-013   2.2228019849345731E-002   0.0000000000000000     
  -2.3127861930281879E-013   2.6232941793325325E-002   0.0000000000000000     
  -2.4698962357771678E-013   3.0493626853035357E-002   0.0000000000000000     
  -2.5482524076969604E-013   3.5010075028475821E-002   0.0000000000000000     
   1.0706095020697836E-002   3.5475406744921022E-002   0.0000000000000000     
   1.1567923474075759E-002   4.0235490327449039E-002   0.0000000000000000     
   1.2407374236346877E-002   4.5206704018480412E-002   0.0000000000000000     
   1.3224447307511194E-002   5.0389047818015134E-002   0.0000000000000000     
   1.4019142687568712E-002   5.5782521726053226E-002   0.0000000000000000     
   7.9903180125874725E-003   3.5271824118999477E-002   0.0000000000000000     
   8.6325950243526569E-003   4.0028689324172154E-002   0.0000000000000000     
   9.2587390098010647E-003   4.4999163078696544E-002   0.0000000000000000     
   9.8687499689326906E-003   5.0183245382572655E-002   0.0000000000000000     
   1.0462627901747542E-002   5.5580936235800481E-002   0.0000000000000000     
   5.3007098397252414E-003   3.5126407957618094E-002   0.0000000000000000     
   5.7261649620556397E-003   3.9880974321816545E-002   0.0000000000000000     
   6.1412982281832578E-003   4.4850919550261499E-002   0.0000000000000000     
   6.5461096381080955E-003   5.0036243642952963E-002   0.0000000000000000     
   6.9405991918301511E-003   5.5436946599890943E-002   0.0000000000000000     
   2.6372705021111423E-003   3.5039158260776873E-002   0.0000000000000000     
   2.8486332871847028E-003   3.9792345320382227E-002   0.0000000000000000     
   3.0550518914934563E-003   4.4761973433175298E-002   0.0000000000000000     
   3.2565263150374029E-003   4.9948042599156112E-002   0.0000000000000000     
   3.4530565578165416E-003   5.5350552818324648E-002   0.0000000000000000     
  -2.5482524076969604E-013   3.5010075028475821E-002   0.0000000000000000     
  -2.6015203446333457E-013   3.9762802319869187E-002   0.0000000000000000     
  -2.6833792349592600E-013   4.4732324727437940E-002   0.0000000000000000     
  -2.7938351773119235E-013   4.9918642251182067E-002   0.0000000000000000     
  -2.9328818020035730E-013   5.5321754891101575E-002   0.0000000000000000     
   1.4019142687568712E-002   5.5782521726053226E-002   0.0000000000000000     
   1.4790709971646320E-002   6.1374238922739424E-002   0.0000000000000000     
   1.5538398754870914E-002   6.7151312588218492E-002   0.0000000000000000     
   1.6262209037242497E-002   7.3113742722490396E-002   0.0000000000000000     
   1.6962140818761063E-002   7.9261529325555191E-002   0.0000000000000000     
   1.0462627901747542E-002   5.5580936235800481E-002   0.0000000000000000     
   1.1039485440252449E-002   6.1178177755472699E-002   0.0000000000000000     
   1.1598435216454255E-002   6.6960912058681973E-002   0.0000000000000000     
   1.2139477230352951E-002   7.2929139145428312E-002   0.0000000000000000     
   1.2662611481948544E-002   7.9082859015711729E-002   0.0000000000000000     
   6.9405991918301511E-003   5.5436946599890943E-002   0.0000000000000000     
   7.3239589344635293E-003   6.1038134064555875E-002   0.0000000000000000     
   7.6953809111223277E-003   6.6824911680428173E-002   0.0000000000000000     
   8.0548651218065453E-003   7.2797279447507884E-002   0.0000000000000000     
   8.4024115665161866E-003   7.8955237365794975E-002   0.0000000000000000     
   3.4530565578165416E-003   5.5350552818324648E-002   0.0000000000000000     
   3.6441304542795590E-003   6.0954107849988975E-002   0.0000000000000000     
   3.8292358388751380E-003   6.6743311453457119E-002   0.0000000000000000     
   4.0083727116032811E-003   7.2718163628729099E-002   0.0000000000000000     
   4.1815410724639849E-003   7.8878664375804944E-002   0.0000000000000000     
  -2.9328818020035730E-013   5.5321754891101575E-002   0.0000000000000000     
  -2.9946173579070701E-013   6.0926099111771964E-002   0.0000000000000000     
  -2.8731406359963629E-013   6.6716111377768783E-002   0.0000000000000000     
  -2.5684512296956369E-013   7.2691791689091997E-002   0.0000000000000000     
  -2.0805536113388534E-013   7.8853140045741649E-002   0.0000000000000000     
   1.6962140818761063E-002   7.9261529325555191E-002   0.0000000000000000     
   1.7636628085730223E-002   8.5580888021546231E-002   0.0000000000000000     
   1.8284104824453581E-002   9.2058034434596883E-002   0.0000000000000000     
   1.8904571034931136E-002   9.8692968564707134E-002   0.0000000000000000     
   1.9498026717162890E-002  0.10548569041187700        0.0000000000000000     
   1.2662611481948544E-002   7.9082859015711729E-002   0.0000000000000000     
   1.3166735798548998E-002   8.5408443555786626E-002   0.0000000000000000     
   1.3650748007462278E-002   9.1892264651907460E-002   0.0000000000000000     
   1.4114648108688387E-002   9.8534322304074273E-002   0.0000000000000000     
   1.4558436102227316E-002  0.10533461651228698        0.0000000000000000     
   8.4024115665161866E-003   7.8955237365794975E-002   0.0000000000000000     
   8.7373336885157339E-003   8.5285268937348002E-002   0.0000000000000000     
   9.0589449310696773E-003   9.1773857664225564E-002   0.0000000000000000     
   9.3672452941780185E-003   9.8421003546427646E-002   0.0000000000000000     
   9.6622347778407541E-003  0.10522670658395422        0.0000000000000000     
   4.1815410724639849E-003   7.8878664375804944E-002   0.0000000000000000     
   4.3484217556304253E-003   8.5211364166230374E-002   0.0000000000000000     
   4.5086955952757749E-003   9.1702813471551139E-002   0.0000000000000000     
   4.6623625914000346E-003   9.8353012291767267E-002   0.0000000000000000     
   4.8094227440032026E-003  0.10516196062687871        0.0000000000000000     
  -2.0805536113388534E-013   7.8853140045741649E-002   0.0000000000000000     
  -1.0692184984617548E-013   8.5186729242433701E-002   0.0000000000000000     
   8.0573785490867245E-014   9.1679132073884187E-002   0.0000000000000000     
   3.5443517695452065E-013   9.8330348540093121E-002   0.0000000000000000     
   7.1466010193033114E-013  0.10514037864106048        0.0000000000000000     
   1.9498026717162890E-002  0.10548569041187700        0.0000000000000000     
   2.0066138432006775E-002  0.11242610699072209        0.0000000000000000     
   2.0610572740320732E-002  0.11950412531585794        0.0000000000000000     
   2.1131329642104756E-002  0.12671974538728462        0.0000000000000000     
   2.1628409137358848E-002  0.13407296720500206        0.0000000000000000     
   1.4558436102227316E-002  0.10533461651228698        0.0000000000000000     
   1.4982598710823664E-002  0.11228285444933044        0.0000000000000000     
   1.5387622657222016E-002  0.11936874328798941        0.0000000000000000     
   1.5773507941422373E-002  0.12659228302826395        0.0000000000000000     
   1.6140254563424734E-002  0.13395347367015401        0.0000000000000000     
   9.6622347778407541E-003  0.10522670658395422        0.0000000000000000     
   9.9437290652783540E-003  0.11218053120543156        0.0000000000000000     
   1.0211543839711278E-002  0.11927204183948585        0.0000000000000000     
   1.0465679101139531E-002  0.12650123848611713        0.0000000000000000     
   1.0706134849563108E-002  0.13386812114532540        0.0000000000000000     
   4.8094227440032026E-003  0.10516196062687871        0.0000000000000000     
   4.9495294953708427E-003  0.11211913725902541        0.0000000000000000     
   5.0823362877885185E-003  0.11921402097034724        0.0000000000000000     
   5.2078431212562292E-003  0.12644661176084418        0.0000000000000000     
   5.3260499957739739E-003  0.13381690963051623        0.0000000000000000     
   7.1466010193033114E-013  0.10514037864106048        0.0000000000000000     
   1.1011326399301691E-012  0.11209867261011201        0.0000000000000000     
   1.4537343768009081E-012  0.11919468068057357        0.0000000000000000     
   1.7724668575306440E-012  0.12642840285244505        0.0000000000000000     
   2.0573286997616069E-012  0.13379983912572652        0.0000000000000000     
   2.1628409137358848E-002  0.13407296720500206        0.0000000000000000     
   2.2097735804300675E-002  0.14154948599422101        0.0000000000000000     
   2.2535234221147896E-002  0.14913499698015223        0.0000000000000000     
   2.2940904387900508E-002  0.15682950016279559        0.0000000000000000     
   2.3314746304558515E-002  0.16463299554215122        0.0000000000000000     
   1.6140254563424734E-002  0.13395347367015401        0.0000000000000000     
   1.6484899582336159E-002  0.14143818429067759        0.0000000000000000     
   1.6804480057263711E-002  0.14903228396685278        0.0000000000000000     
   1.7098995988207383E-002  0.15673577269867953        0.0000000000000000     
   1.7368447375167184E-002  0.16454865048615780        0.0000000000000000     
   1.0706134849563108E-002  0.13386812114532540        0.0000000000000000     
   1.0930998207996877E-002  0.14135868307394930        0.0000000000000000     
   1.1138356299455697E-002  0.14895891752882753        0.0000000000000000     
   1.1328209123939567E-002  0.15666882450996014        0.0000000000000000     
   1.1500556681448493E-002  0.16448840401734702        0.0000000000000000     
   5.3260499957739739E-003  0.13381690963051623        0.0000000000000000     
   5.4360316812828253E-003  0.14131098234403611        0.0000000000000000     
   5.5368629477238534E-003  0.14891489766607652        0.0000000000000000     
   5.6285437950970565E-003  0.15662865559663741        0.0000000000000000     
   5.7110742234024381E-003  0.16445225613571882        0.0000000000000000     
   2.0573286997616069E-012  0.13379983912572652        0.0000000000000000     
   2.1940043098273021E-012  0.14129508210093802        0.0000000000000000     
   2.0681775519601486E-012  0.14890022437859965        0.0000000000000000     
   1.6798490495763957E-012  0.15661526595871136        0.0000000000000000     
   1.0290188839912062E-012  0.16444020684127325        0.0000000000000000     
   0.0000000000000000        0.0000000000000000        0.0000000000000000     
  -1.5596573511855727E-014   1.0734093767009862E-003   0.0000000000000000     
  -3.2104527369902769E-014   2.5157303087960316E-003   0.0000000000000000     
  -4.9523915784249750E-014   4.3269627962851361E-003   0.0000000000000000     
  -6.7854684544788046E-014   6.5071068391682994E-003   0.0000000000000000     
   0.0000000000000000        0.0000000000000000        0.0000000000000000     
  -2.1299320019991684E-004   1.0756973761177967E-003   0.0000000000000000     
  -4.2698041709590239E-004   2.5208839913313376E-003   0.0000000000000000     
  -6.4196165068795700E-004   4.3355598456406236E-003   0.0000000000000000     
  -8.5793690097608021E-004   6.5197249390456513E-003   0.0000000000000000     
   0.0000000000000000        0.0000000000000000        0.0000000000000000     
  -4.2426898068724246E-004   1.0825613743597484E-003   0.0000000000000000     
  -8.5299290486224243E-004   2.5363450389228339E-003   0.0000000000000000     
  -1.2861717725249999E-003   4.3613509936892567E-003   0.0000000000000000     
  -1.7238055836755147E-003   6.5575792386590170E-003   0.0000000000000000     
   0.0000000000000000        0.0000000000000000        0.0000000000000000     
  -6.3382734147757354E-004   1.0940013714268412E-003   0.0000000000000000     
  -1.2780374633311244E-003   2.5621134515705201E-003   0.0000000000000000     
  -1.9326303655606523E-003   4.4043362404310379E-003   0.0000000000000000     
  -2.5976060481661587E-003   6.6206697380083914E-003   0.0000000000000000     
   0.0000000000000000        0.0000000000000000        0.0000000000000000     
  -8.4166828257090998E-004   1.1100173673190749E-003   0.0000000000000000     
  -1.7021140925025484E-003   2.5981892292743962E-003   0.0000000000000000     
  -2.5813374297949158E-003   4.4645155858659639E-003   0.0000000000000000     
  -3.4793382944480105E-003   6.7089964370937788E-003   0.0000000000000000     
  -6.7854684544788046E-014   6.5071068391682994E-003   0.0000000000000000     
  -8.8717986949926608E-014   9.0287913409739604E-003   0.0000000000000000     
  -1.1373456972225970E-013   1.1864645205230562E-002   0.0000000000000000     
  -1.4290517147451734E-013   1.5014668431938098E-002   0.0000000000000000     
  -1.7622893162122510E-013   1.8478861021096572E-002   0.0000000000000000     
  -8.5793690097608021E-004   6.5197249390456513E-003   0.0000000000000000     
  -1.0760601064526722E-003   9.0453859638121512E-003   0.0000000000000000     
  -1.2974852056101321E-003   1.1884549612205848E-002   0.0000000000000000     
  -1.5222121984484601E-003   1.5037215884226744E-002   0.0000000000000000     
  -1.7502410849676566E-003   1.8503384779874833E-002   0.0000000000000000     
  -1.7238055836755147E-003   6.5575792386590170E-003   0.0000000000000000     
  -2.1660576308914214E-003   9.0951698323075217E-003   0.0000000000000000     
  -2.6130912067503548E-003   1.1944262833110182E-002   0.0000000000000000     
  -3.0649063112523135E-003   1.5104858241066993E-002   0.0000000000000000     
  -3.5215029443972997E-003   1.8576956056177957E-002   0.0000000000000000     
  -2.5976060481661587E-003   6.6206697380083914E-003   0.0000000000000000     
  -3.2699925734049661E-003   9.1781429464600685E-003   0.0000000000000000     
  -3.9468180035344023E-003   1.2043784867943554E-002   0.0000000000000000     
  -4.6280823385544661E-003   1.5217595502458851E-002   0.0000000000000000     
  -5.3137855784651574E-003   1.8699574850005951E-002   0.0000000000000000     
  -3.4793382944480105E-003   6.7089964370937788E-003   0.0000000000000000     
  -4.3878649339933063E-003   9.2943053062697952E-003   0.0000000000000000     
  -5.2986655959622762E-003   1.2183115716705974E-002   0.0000000000000000     
  -6.2117402803549158E-003   1.5375427668402311E-002   0.0000000000000000     
  -7.1270889871712303E-003   1.8871241161358809E-002   0.0000000000000000     
  -1.7622893162122510E-013   1.8478861021096572E-002   0.0000000000000000     
  -2.0769112341403884E-013   2.2228019849345731E-002   0.0000000000000000     
  -2.3127861930281879E-013   2.6232941793325325E-002   0.0000000000000000     
  -2.4698962357771678E-013   3.0493626853035357E-002   0.0000000000000000     
  -2.5482524076969604E-013   3.5010075028475821E-002   0.0000000000000000     
  -1.7502410849676566E-003   1.8503384779874833E-002   0.0000000000000000     
  -1.9779402985903708E-003   2.2254060778023995E-002   0.0000000000000000     
  -2.2016782727392521E-003   2.6260248357548099E-002   0.0000000000000000     
  -2.4214550074143013E-003   3.0521947518447150E-002   0.0000000000000000     
  -2.6372705026155192E-003   3.5039158260721140E-002   0.0000000000000000     
  -3.5215029443972997E-003   1.8576956056177957E-002   0.0000000000000000     
  -3.9769439234857039E-003   2.2332183564027813E-002   0.0000000000000000     
  -4.4252920658179214E-003   2.6342168050201276E-002   0.0000000000000000     
  -4.8665473713939518E-003   3.0606909514698355E-002   0.0000000000000000     
  -5.3007098402137950E-003   3.5126407957519062E-002   0.0000000000000000     
  -5.3137855784651574E-003   1.8699574850005951E-002   0.0000000000000000     
  -5.9970108748936928E-003   2.2462388207357187E-002   0.0000000000000000     
  -6.6708413794672869E-003   2.6478700871284861E-002   0.0000000000000000     
  -7.3352770921859415E-003   3.0748512841788995E-002   0.0000000000000000     
  -7.9903180130496566E-003   3.5271824118869574E-002   0.0000000000000000     
  -7.1270889871712303E-003   1.8871241161358809E-002   0.0000000000000000     
  -8.0381411528143362E-003   2.2644674708012111E-002   0.0000000000000000     
  -8.9383262136873472E-003   2.6669846820798853E-002   0.0000000000000000     
  -9.8276441697902703E-003   3.0946757499719046E-002   0.0000000000000000     
  -1.0706095021123102E-002   3.5475406744772675E-002   0.0000000000000000     
  -2.5482524076969604E-013   3.5010075028475821E-002   0.0000000000000000     
  -2.6015203446333457E-013   3.9762802319869187E-002   0.0000000000000000     
  -2.6833792349592600E-013   4.4732324727437940E-002   0.0000000000000000     
  -2.7938351773119235E-013   4.9918642251182067E-002   0.0000000000000000     
  -2.9328818020035730E-013   5.5321754891101575E-002   0.0000000000000000     
  -2.6372705026155192E-003   3.5039158260721140E-002   0.0000000000000000     
  -2.8486332877011998E-003   3.9792345320287109E-002   0.0000000000000000     
  -3.0550518920296399E-003   4.4761973433062069E-002   0.0000000000000000     
  -3.2565263156008419E-003   4.9948042599046026E-002   0.0000000000000000     
  -3.4530565584148022E-003   5.5350552818238974E-002   0.0000000000000000     
  -5.3007098402137950E-003   3.5126407957519062E-002   0.0000000000000000     
  -5.7261649625607123E-003   3.9880974321645626E-002   0.0000000000000000     
  -6.1412982287179629E-003   4.4850919550060327E-002   0.0000000000000000     
  -6.5461096386855468E-003   5.0036243642763149E-002   0.0000000000000000     
  -6.9405991924634614E-003   5.5436946599754108E-002   0.0000000000000000     
  -7.9903180130496566E-003   3.5271824118869574E-002   0.0000000000000000     
  -8.6325950248386900E-003   4.0028689323944759E-002   0.0000000000000000     
  -9.2587390103333039E-003   4.4999163078432713E-002   0.0000000000000000     
  -9.8687499695334999E-003   5.0183245382333458E-002   0.0000000000000000     
  -1.0462627902439271E-002   5.5580936235646965E-002   0.0000000000000000     
  -1.0706095021123102E-002   3.5475406744772675E-002   0.0000000000000000     
  -1.1567923474535136E-002   4.0235490327184500E-002   0.0000000000000000     
  -1.2407374236875665E-002   4.5206704018179250E-002   0.0000000000000000     
  -1.3224447308144699E-002   5.0389047817756938E-002   0.0000000000000000     
  -1.4019142688342227E-002   5.5782521725917536E-002   0.0000000000000000     
  -2.9328818020035730E-013   5.5321754891101575E-002   0.0000000000000000     
  -2.9946173579070701E-013   6.0926099111771964E-002   0.0000000000000000     
  -2.8731406359963629E-013   6.6716111377768783E-002   0.0000000000000000     
  -2.5684512296956369E-013   7.2691791689091997E-002   0.0000000000000000     
  -2.0805536113388534E-013   7.8853140045741649E-002   0.0000000000000000     
  -3.4530565584148022E-003   5.5350552818238974E-002   0.0000000000000000     
  -3.6441304548975343E-003   6.0954107849922494E-002   0.0000000000000000     
  -3.8292358394750518E-003   6.6743311453378140E-002   0.0000000000000000     
  -4.0083727121473546E-003   7.2718163628605934E-002   0.0000000000000000     
  -4.1815410729144397E-003   7.8878664375605853E-002   0.0000000000000000     
  -6.9405991924634614E-003   5.5436946599754108E-002   0.0000000000000000     
  -7.3239589351386638E-003   6.1038134064458141E-002   0.0000000000000000     
  -7.6953809117980988E-003   6.6824911680300178E-002   0.0000000000000000     
  -8.0548651224417681E-003   7.2797279447280261E-002   0.0000000000000000     
  -8.4024115670696745E-003   7.8955237365398348E-002   0.0000000000000000     
  -1.0462627902439271E-002   5.5580936235646965E-002   0.0000000000000000     
  -1.1039485441022850E-002   6.1178177755378892E-002   0.0000000000000000     
  -1.1598435217256453E-002   6.6960912058534910E-002   0.0000000000000000     
  -1.2139477231140091E-002   7.2929139145115007E-002   0.0000000000000000     
  -1.2662611482673756E-002   7.9082859015119175E-002   0.0000000000000000     
  -1.4019142688342227E-002   5.5782521725917536E-002   0.0000000000000000     
  -1.4790709972550092E-002   6.1374238922684760E-002   0.0000000000000000     
  -1.5538398755850119E-002   6.7151312588082310E-002   0.0000000000000000     
  -1.6262209038242322E-002   7.3113742722110145E-002   0.0000000000000000     
  -1.6962140819726686E-002   7.9261529324768293E-002   0.0000000000000000     
  -2.0805536113388534E-013   7.8853140045741649E-002   0.0000000000000000     
  -1.0692184984617548E-013   8.5186729242433701E-002   0.0000000000000000     
   8.0573785490867245E-014   9.1679132073884187E-002   0.0000000000000000     
   3.5443517695452065E-013   9.8330348540093121E-002   0.0000000000000000     
   7.1466010193033114E-013  0.10514037864106048        0.0000000000000000     
  -4.1815410729144397E-003   7.8878664375605853E-002   0.0000000000000000     
  -4.3484217558808977E-003   8.5211364165949738E-002   0.0000000000000000     
  -4.5086955951513094E-003   9.1702813471209454E-002   0.0000000000000000     
  -4.6623625907256782E-003   9.8353012291384989E-002   0.0000000000000000     
  -4.8094227426040033E-003  0.10516196062647636        0.0000000000000000     
  -8.4024115670696745E-003   7.8955237365398348E-002   0.0000000000000000     
  -8.7373336888760793E-003   8.5285268936770270E-002   0.0000000000000000     
  -9.0589449310552583E-003   9.1773857663511718E-002   0.0000000000000000     
  -9.3672452936071991E-003   9.8421003545622707E-002   0.0000000000000000     
  -9.6622347765319156E-003  0.10522670658310328        0.0000000000000000     
  -1.2662611482673756E-002   7.9082859015119175E-002   0.0000000000000000     
  -1.3166735799092473E-002   8.5408443554895228E-002   0.0000000000000000     
  -1.3650748007631268E-002   9.1892264650790909E-002   0.0000000000000000     
  -1.4114648108290133E-002   9.8534322302806218E-002   0.0000000000000000     
  -1.4558436101069074E-002  0.10533461651094120        0.0000000000000000     
  -1.6962140819726686E-002   7.9261529324768293E-002   0.0000000000000000     
  -1.7636628086530073E-002   8.5580888020324639E-002   0.0000000000000000     
  -1.8284104824879337E-002   9.2058034433047053E-002   0.0000000000000000     
  -1.8904571034774477E-002   9.8692968562935579E-002   0.0000000000000000     
  -1.9498026716215491E-002  0.10548569040999016        0.0000000000000000     
   7.1466010193033114E-013  0.10514037864106048        0.0000000000000000     
   1.1011326399301691E-012  0.11209867261011201        0.0000000000000000     
   1.4537343768009081E-012  0.11919468068057357        0.0000000000000000     
   1.7724668575306440E-012  0.12642840285244505        0.0000000000000000     
   2.0573286997616069E-012  0.13379983912572652        0.0000000000000000     
  -4.8094227426040033E-003  0.10516196062647636        0.0000000000000000     
  -4.9495294931925886E-003  0.11211913725866687        0.0000000000000000     
  -5.0823362848977406E-003  0.11921402097013986        0.0000000000000000     
  -5.2078431177194611E-003  0.12644661176089528        0.0000000000000000     
  -5.3260499916577440E-003  0.13381690963093321        0.0000000000000000     
  -9.6622347765319156E-003  0.10522670658310328        0.0000000000000000     
  -9.9437290631721291E-003  0.11218053120466542        0.0000000000000000     
  -1.0211543836870575E-002  0.11927204183902113        0.0000000000000000     
  -1.0465679097627254E-002  0.12650123848617043        0.0000000000000000     
  -1.0706134845442158E-002  0.13386812114611329        0.0000000000000000     
  -1.4558436101069074E-002  0.10533461651094120        0.0000000000000000     
  -1.4982598708837490E-002  0.11228285444810766        0.0000000000000000     
  -1.5387622654464767E-002  0.11936874328721739        0.0000000000000000     
  -1.5773507937950907E-002  0.12659228302827039        0.0000000000000000     
  -1.6140254559295918E-002  0.13395347367126670        0.0000000000000000     
  -1.9498026716215491E-002  0.10548569040999016        0.0000000000000000     
  -2.0066138430188674E-002  0.11242610698899358        0.0000000000000000     
  -2.0610572737680317E-002  0.11950412531472861        0.0000000000000000     
  -2.1131329638690438E-002  0.12671974538719524        0.0000000000000000     
  -2.1628409133219017E-002  0.13407296720639353        0.0000000000000000     
   2.0573286997616069E-012  0.13379983912572652        0.0000000000000000     
   2.1940043098273021E-012  0.14129508210093802        0.0000000000000000     
   2.0681775519601486E-012  0.14890022437859965        0.0000000000000000     
   1.6798490495763957E-012  0.15661526595871136        0.0000000000000000     
   1.0290188839912062E-012  0.16444020684127325        0.0000000000000000     
  -5.3260499916577440E-003  0.13381690963093321        0.0000000000000000     
  -5.4360316768837097E-003  0.14131098234464451        0.0000000000000000     
  -5.5368629435684647E-003  0.14891489766642013        0.0000000000000000     
  -5.6285437917120099E-003  0.15662865559625999        0.0000000000000000     
  -5.7110742213143505E-003  0.16445225613416417        0.0000000000000000     
  -1.0706134845442158E-002  0.13386812114611329        0.0000000000000000     
  -1.0930998203564433E-002  0.14135868307514507        0.0000000000000000     
  -1.1138356295243207E-002  0.14895891752956103        0.0000000000000000     
  -1.1328209120478482E-002  0.15666882450936123        0.0000000000000000     
  -1.1500556679270258E-002  0.16448840401454559        0.0000000000000000     
  -1.6140254559295918E-002  0.13395347367126670        0.0000000000000000     
  -1.6484899577848169E-002  0.14143818429243959        0.0000000000000000     
  -1.6804480052956053E-002  0.14903228396802240        0.0000000000000000     
  -1.7098995984619558E-002  0.15673577269801497        0.0000000000000000     
  -1.7368447372838703E-002  0.16454865048241749        0.0000000000000000     
  -2.1628409133219017E-002  0.13407296720639353        0.0000000000000000     
  -2.2097735799734921E-002  0.14154948599652817        0.0000000000000000     
  -2.2535234216706997E-002  0.14913499698180416        0.0000000000000000     
  -2.2940904384135249E-002  0.15682950016222136        0.0000000000000000     
  -2.3314746302019681E-002  0.16463299553777982        0.0000000000000000     
   0.0000000000000000        0.0000000000000000        0.0000000000000000     
  -8.4166828257090998E-004   1.1100173673190749E-003   0.0000000000000000     
  -1.7021140925025484E-003   2.5981892292743962E-003   0.0000000000000000     
  -2.5813374297949158E-003   4.4645155858659639E-003   0.0000000000000000     
  -3.4793382944480105E-003   6.7089964370937788E-003   0.0000000000000000     
   0.0000000000000000        0.0000000000000000        0.0000000000000000     
  -1.0566969642129989E-003   1.1341714266669962E-003   0.0000000000000000     
  -2.1397609595834814E-003   2.6504219275659950E-003   0.0000000000000000     
  -3.2491919861114471E-003   4.5487515026969971E-003   0.0000000000000000     
  -4.3849900437968967E-003   6.8291601520600017E-003   0.0000000000000000     
   0.0000000000000000        0.0000000000000000        0.0000000000000000     
  -1.2878185466495874E-003   1.1700256141011513E-003   0.0000000000000000     
  -2.6055162317808900E-003   2.7246611019768495E-003   0.0000000000000000     
  -3.9530930553939086E-003   4.6639064636270948E-003   0.0000000000000000     
  -5.3305490174886429E-003   6.9877616990518861E-003   0.0000000000000000     
   0.0000000000000000        0.0000000000000000        0.0000000000000000     
  -1.5350330298806751E-003   1.2175799296215407E-003   0.0000000000000000     
  -3.0993799090947745E-003   2.8209067525069597E-003   0.0000000000000000     
  -4.6930406376422991E-003   4.8099804686562572E-003   0.0000000000000000     
  -6.3160152155232454E-003   7.1848010780694322E-003   0.0000000000000000     
   0.0000000000000000        0.0000000000000000        0.0000000000000000     
  -1.7983404139062626E-003   1.2768343732281636E-003   0.0000000000000000     
  -3.6213519915251351E-003   2.9391588791563249E-003   0.0000000000000000     
  -5.4690347328566185E-003   4.9869735177844841E-003   0.0000000000000000     
  -7.3413886379007113E-003   7.4202782891126416E-003   0.0000000000000000     
  -3.4793382944480105E-003   6.7089964370937788E-003   0.0000000000000000     
  -4.3878649339933063E-003   9.2943053062697952E-003   0.0000000000000000     
  -5.2986655959622762E-003   1.2183115716705974E-002   0.0000000000000000     
  -6.2117402803549158E-003   1.5375427668402311E-002   0.0000000000000000     
  -7.1270889871712303E-003   1.8871241161358809E-002   0.0000000000000000     
  -4.3849900437968967E-003   6.8291601520600017E-003   0.0000000000000000     
  -5.5341770091969587E-003   9.4496448109140894E-003   0.0000000000000000     
  -6.6837747588687629E-003   1.2368202414518342E-002   0.0000000000000000     
  -7.8337832928123078E-003   1.5584832962872759E-002   0.0000000000000000     
  -8.9842026110275967E-003   1.9099536455977340E-002   0.0000000000000000     
  -5.3305490174886429E-003   6.9877616990518861E-003   0.0000000000000000     
  -6.7234310955564406E-003   9.6501493595703407E-003   0.0000000000000000     
  -8.1172862670886546E-003   1.2604991996501570E-002   0.0000000000000000     
  -9.5121145320852842E-003   1.5852289609845575E-002   0.0000000000000000     
  -1.0907915890546327E-002   1.9392042199602354E-002   0.0000000000000000     
  -6.3160152155232454E-003   7.1848010780694322E-003   0.0000000000000000     
  -7.9556271930717529E-003   9.8958189522385439E-003   0.0000000000000000     
  -9.5992001206219538E-003   1.2893484462655657E-002   0.0000000000000000     
  -1.1246733998173842E-002   1.6177797609320758E-002   0.0000000000000000     
  -1.2898228825727427E-002   1.9748758392233862E-002   0.0000000000000000     
  -7.3413886379007113E-003   7.4202782891126416E-003   0.0000000000000000     
  -9.2307653017428947E-003   1.0186653588918709E-002   0.0000000000000000     
  -1.1129516319468654E-002   1.3233679812980601E-002   0.0000000000000000     
  -1.3037641691077986E-002   1.6561356961298315E-002   0.0000000000000000     
  -1.4955141416570892E-002   2.0169685033871849E-002   0.0000000000000000     
  -7.1270889871712303E-003   1.8871241161358809E-002   0.0000000000000000     
  -8.0381411528143362E-003   2.2644674708012111E-002   0.0000000000000000     
  -8.9383262136873472E-003   2.6669846820798853E-002   0.0000000000000000     
  -9.8276441697902703E-003   3.0946757499719046E-002   0.0000000000000000     
  -1.0706095021123102E-002   3.5475406744772675E-002   0.0000000000000000     
  -8.9842026110275967E-003   1.9099536455977340E-002   0.0000000000000000     
  -1.0128043743712676E-002   2.2887510288871666E-002   0.0000000000000000     
  -1.1258317721065607E-002   2.6923951856595314E-002   0.0000000000000000     
  -1.2375024543086385E-002   3.1208861159148293E-002   0.0000000000000000     
  -1.3478164209775014E-002   3.5742238196530600E-002   0.0000000000000000     
  -1.0907915890546327E-002   1.9392042199602354E-002   0.0000000000000000     
  -1.2294427634053759E-002   2.3199362172814930E-002   0.0000000000000000     
  -1.3661387054189567E-002   2.7249361936526325E-002   0.0000000000000000     
  -1.5008794150953738E-002   3.1542041490736528E-002   0.0000000000000000     
  -1.6336648924346279E-002   3.6077400835445535E-002   0.0000000000000000     
  -1.2898228825727427E-002   1.9748758392233862E-002   0.0000000000000000     
  -1.4537292823837589E-002   2.3580230359841910E-002   0.0000000000000000     
  -1.6147534213059221E-002   2.7646077060591870E-002   0.0000000000000000     
  -1.7728952993392319E-002   3.1946298494483737E-002   0.0000000000000000     
  -1.9281549164836893E-002   3.6480894661517507E-002   0.0000000000000000     
  -1.4955141416570892E-002   2.0169685033871849E-002   0.0000000000000000     
  -1.6856639313064158E-002   2.4030114849952596E-002   0.0000000000000000     
  -1.8716759197674574E-002   2.8114097228791955E-002   0.0000000000000000     
  -2.0535501070402144E-002   3.2421632170389923E-002   0.0000000000000000     
  -2.2312864931246866E-002   3.6952719674746490E-002   0.0000000000000000     
  -1.0706095021123102E-002   3.5475406744772675E-002   0.0000000000000000     
  -1.1567923474535136E-002   4.0235490327184500E-002   0.0000000000000000     
  -1.2407374236875665E-002   4.5206704018179250E-002   0.0000000000000000     
  -1.3224447308144699E-002   5.0389047817756938E-002   0.0000000000000000     
  -1.4019142688342227E-002   5.5782521725917536E-002   0.0000000000000000     
  -1.3478164209775014E-002   3.5742238196530600E-002   0.0000000000000000     
  -1.4560150481016531E-002   4.0504192714620399E-002   0.0000000000000000     
  -1.5613397116695980E-002   4.5474834459295857E-002   0.0000000000000000     
  -1.6637904116813360E-002   5.0654163430556988E-002   0.0000000000000000     
  -1.7633671481368674E-002   5.6042179628403785E-002   0.0000000000000000     
  -1.6336648924346279E-002   3.6077400835445535E-002   0.0000000000000000     
  -1.7637276213649369E-002   4.0837611869507982E-002   0.0000000000000000     
  -1.8903000858145169E-002   4.5804846491778482E-002   0.0000000000000000     
  -2.0133822857833706E-002   5.0979104702257007E-002   0.0000000000000000     
  -2.1329742212714956E-002   5.6360386500943611E-002   0.0000000000000000     
  -1.9281549164836893E-002   3.6480894661517507E-002   0.0000000000000000     
  -2.0799300672433636E-002   4.1235747791847265E-002   0.0000000000000000     
  -2.2276185461223248E-002   4.6196740115627098E-002   0.0000000000000000     
  -2.3712203531205723E-002   5.1363871632857022E-002   0.0000000000000000     
  -2.5107354882381073E-002   5.6737142343537016E-002   0.0000000000000000     
  -2.2312864931246866E-002   3.6952719674746490E-002   0.0000000000000000     
  -2.4046223857369344E-002   4.1698600481638232E-002   0.0000000000000000     
  -2.5732950925930198E-002   4.6650515330841739E-002   0.0000000000000000     
  -2.7373046136929428E-002   5.1808464222356999E-002   0.0000000000000000     
  -2.8966509490367023E-002   5.7172447156184004E-002   0.0000000000000000     
  -1.4019142688342227E-002   5.5782521725917536E-002   0.0000000000000000     
  -1.4790709972550092E-002   6.1374238922684760E-002   0.0000000000000000     
  -1.5538398755850119E-002   6.7151312588082310E-002   0.0000000000000000     
  -1.6262209038242322E-002   7.3113742722110145E-002   0.0000000000000000     
  -1.6962140819726686E-002   7.9261529324768293E-002   0.0000000000000000     
  -1.7633671481368674E-002   5.6042179628403785E-002   0.0000000000000000     
  -1.8600108965525657E-002   6.1627047482423751E-002   0.0000000000000000     
  -1.9536626324448064E-002   6.7396931422204362E-002   0.0000000000000000     
  -2.0443223558135881E-002   7.3351831447745638E-002   0.0000000000000000     
  -2.1319900666589120E-002   7.9491747559047574E-002   0.0000000000000000     
  -2.1329742212714956E-002   5.6360386500943611E-002   0.0000000000000000     
  -2.2490158855754838E-002   6.1937333350643775E-002   0.0000000000000000     
  -2.3614472719919257E-002   6.7698586714163039E-002   0.0000000000000000     
  -2.4702683805208216E-002   7.3644146591501425E-002   0.0000000000000000     
  -2.5754792111621700E-002   7.9774012982658862E-002   0.0000000000000000     
  -2.5107354882381073E-002   5.6737142343537016E-002   0.0000000000000000     
  -2.6460859643237616E-002   6.2305096527344860E-002   0.0000000000000000     
  -2.7771937942263698E-002   6.8056278463958356E-002   0.0000000000000000     
  -2.9040589779459301E-002   7.3990688153377435E-002   0.0000000000000000     
  -3.0266815154824440E-002   8.0108325595602187E-002   0.0000000000000000     
  -2.8966509490367023E-002   5.7172447156184004E-002   0.0000000000000000     
  -3.0512211327974010E-002   6.2730337012527018E-002   0.0000000000000000     
  -3.2009021991481389E-002   6.8470006671590269E-002   0.0000000000000000     
  -3.3456941480889166E-002   7.4391456133373765E-002   0.0000000000000000     
  -3.4855969796197338E-002   8.0494685397877519E-002   0.0000000000000000     
  -1.6962140819726686E-002   7.9261529324768293E-002   0.0000000000000000     
  -1.7636628086530073E-002   8.5580888020324639E-002   0.0000000000000000     
  -1.8284104824879337E-002   9.2058034433047053E-002   0.0000000000000000     
  -1.8904571034774477E-002   9.8692968562935579E-002   0.0000000000000000     
  -1.9498026716215491E-002  0.10548569040999016        0.0000000000000000     
  -2.1319900666589120E-002   7.9491747559047574E-002   0.0000000000000000     
  -2.2164697620829271E-002   8.5802856222146270E-002   0.0000000000000000     
  -2.2975654391877851E-002   9.2271333903077818E-002   0.0000000000000000     
  -2.3752770979734855E-002   9.8897180601842188E-002   0.0000000000000000     
  -2.4496047384400279E-002  0.10568039631843942        0.0000000000000000     
  -2.5754792111621700E-002   7.9774012982658862E-002   0.0000000000000000     
  -2.6768631471630451E-002   8.6074602049447863E-002   0.0000000000000000     
  -2.7742035717705182E-002   9.2532329953680770E-002   0.0000000000000000     
  -2.8675004849845889E-002   9.9147196695357598E-002   0.0000000000000000     
  -2.9567538868052575E-002  0.10591920227447833        0.0000000000000000     
  -3.0266815154824440E-002   8.0108325595602187E-002   0.0000000000000000     
  -3.1448429638933614E-002   8.6396125502229401E-002   0.0000000000000000     
  -3.2583248802361325E-002   9.2841022584855895E-002   0.0000000000000000     
  -3.3671272645107587E-002   9.9443016843481738E-002   0.0000000000000000     
  -3.4712501167172380E-002  0.10620210827810692        0.0000000000000000     
  -3.4855969796197338E-002   8.0494685397877519E-002   0.0000000000000000     
  -3.6204092122738764E-002   8.6767426580490900E-002   0.0000000000000000     
  -3.7499293645846296E-002   9.3197411796603263E-002   0.0000000000000000     
  -3.8741574365519942E-002   9.9784641046214678E-002   0.0000000000000000     
  -3.9930934281759700E-002  0.10652911432932510        0.0000000000000000     
  -1.9498026716215491E-002  0.10548569040999016        0.0000000000000000     
  -2.0066138430188674E-002  0.11242610698899358        0.0000000000000000     
  -2.0610572737680317E-002  0.11950412531472861        0.0000000000000000     
  -2.1131329638690438E-002  0.12671974538719524        0.0000000000000000     
  -2.1628409133219017E-002  0.13407296720639353        0.0000000000000000     
  -2.4496047384400279E-002  0.10568039631843942        0.0000000000000000     
  -2.5208357297809122E-002  0.11261102612607735        0.0000000000000000     
  -2.5892574411896376E-002  0.11967911509796378        0.0000000000000000     
  -2.6548698726662042E-002  0.12688466323409872        0.0000000000000000     
  -2.7176730242106123E-002  0.13422767053448217        0.0000000000000000     
  -2.9567538868052575E-002  0.10591920227447833        0.0000000000000000     
  -3.0423264382282291E-002  0.11283834915811305        0.0000000000000000     
  -3.1245808002492083E-002  0.11989463981333179        0.0000000000000000     
  -3.2035169728681950E-002  0.12708807424013446        0.0000000000000000     
  -3.2791349560851897E-002  0.13441865243852116        0.0000000000000000     
  -3.4712501167172380E-002  0.10620210827810692        0.0000000000000000     
  -3.5710859683608175E-002  0.11310807608510072        0.0000000000000000     
  -3.6670273509467444E-002  0.12015069946083262        0.0000000000000000     
  -3.7590742644750159E-002  0.12732997840530255        0.0000000000000000     
  -3.8472267089456343E-002  0.13464591291851052        0.0000000000000000     
  -3.9930934281759700E-002  0.10652911432932510        0.0000000000000000     
  -4.1071143201786779E-002  0.11342020690704036        0.0000000000000000     
  -4.2165970932822441E-002  0.12044729404046631        0.0000000000000000     
  -4.3215417474866673E-002  0.12761037572960293        0.0000000000000000     
  -4.4219482827919453E-002  0.13490945197445023        0.0000000000000000     
  -2.1628409133219017E-002  0.13407296720639353        0.0000000000000000     
  -2.2097735799734921E-002  0.14154948599652817        0.0000000000000000     
  -2.2535234216706997E-002  0.14913499698180416        0.0000000000000000     
  -2.2940904384135249E-002  0.15682950016222136        0.0000000000000000     
  -2.3314746302019681E-002  0.16463299553777982        0.0000000000000000     
  -2.7176730242106123E-002  0.13422767053448217        0.0000000000000000     
  -2.7771498063667910E-002  0.14169371752466489        0.0000000000000000     
  -2.8327831296786690E-002  0.14926838473019757        0.0000000000000000     
  -2.8845729941462471E-002  0.15695167215108019        0.0000000000000000     
  -2.9325193997695259E-002  0.16474357978731288        0.0000000000000000     
  -3.2791349560851897E-002  0.13441865243852116        0.0000000000000000     
  -3.3508177564090365E-002  0.14187200821410367        0.0000000000000000     
  -3.4179483803485775E-002  0.14943377537249375        0.0000000000000000     
  -3.4805268279038154E-002  0.15710395391369150        0.0000000000000000     
  -3.5385530990747482E-002  0.16488254383769679        0.0000000000000000     
  -3.8472267089456343E-002  0.13464591291851052        0.0000000000000000     
  -3.9307774301002275E-002  0.14208435806484457        0.0000000000000000     
  -4.0090191736804268E-002  0.14963116890869282        0.0000000000000000     
  -4.0819519396862299E-002  0.15728634545005513        0.0000000000000000     
  -4.1495757281176368E-002  0.16504988768893164        0.0000000000000000     
  -4.4219482827919453E-002  0.13490945197445023        0.0000000000000000     
  -4.5170288274403669E-002  0.14233076707688763        0.0000000000000000     
  -4.6059955096742135E-002  0.14986056533879466        0.0000000000000000     
  -4.6888483294934884E-002  0.15749884676017120        0.0000000000000000     
  -4.7655872868981902E-002  0.16524561134101734        0.0000000000000000     
   0.0000000000000000        0.0000000000000000        0.0000000000000000     
  -1.7983404139062626E-003   1.2768343732281636E-003   0.0000000000000000     
  -3.6213519915251351E-003   2.9391588791563249E-003   0.0000000000000000     
  -5.4690347328566185E-003   4.9869735177844841E-003   0.0000000000000000     
  -7.3413886379007113E-003   7.4202782891126416E-003   0.0000000000000000     
   0.0000000000000000        0.0000000000000000        0.0000000000000000     
  -2.0694647653722188E-003   1.3549135117692365E-003   0.0000000000000000     
  -4.1640788349460132E-003   3.0939426079622198E-003   0.0000000000000000     
  -6.2838422087213843E-003   5.2170872885789494E-003   0.0000000000000000     
  -8.4287548866983312E-003   7.7243475536194267E-003   0.0000000000000000     
   0.0000000000000000        0.0000000000000000        0.0000000000000000     
  -2.3401301509244129E-003   1.4589419120929752E-003   0.0000000000000000     
  -4.7202067952314504E-003   3.2997830649619171E-003   0.0000000000000000     
  -7.1402299329211150E-003   5.5225234586068249E-003   0.0000000000000000     
  -9.6001995639934060E-003   8.1271630930277016E-003   0.0000000000000000     
   0.0000000000000000        0.0000000000000000        0.0000000000000000     
  -2.6103365705628452E-003   1.5889195741993799E-003   0.0000000000000000     
  -5.2897358723814495E-003   3.5566802501554168E-003   0.0000000000000000     
  -8.0381979054558132E-003   5.9032820278681116E-003   0.0000000000000000     
  -1.0855722669785933E-002   8.6287249073374629E-003   0.0000000000000000     
   0.0000000000000000        0.0000000000000000        0.0000000000000000     
  -2.8800840242875153E-003   1.7448464980884502E-003   0.0000000000000000     
  -5.8726660663960062E-003   3.8646341635427193E-003   0.0000000000000000     
  -8.9777461263254744E-003   6.3593629963628077E-003   0.0000000000000000     
  -1.2195324204075918E-002   9.2290329965487149E-003   0.0000000000000000     
  -7.3413886379007113E-003   7.4202782891126416E-003   0.0000000000000000     
  -9.2307653017428947E-003   1.0186653588918709E-002   0.0000000000000000     
  -1.1129516319468654E-002   1.3233679812980601E-002   0.0000000000000000     
  -1.3037641691077986E-002   1.6561356961298315E-002   0.0000000000000000     
  -1.4955141416570892E-002   2.0169685033871849E-002   0.0000000000000000     
  -8.4287548866983312E-003   7.7243475536194267E-003   0.0000000000000000     
  -1.0590528887325248E-002   1.0558274601697292E-002   0.0000000000000000     
  -1.2760876229050524E-002   1.3661419631426187E-002   0.0000000000000000     
  -1.4939796911874161E-002   1.7033782642806115E-002   0.0000000000000000     
  -1.7127290935796159E-002   2.0675363635837069E-002   0.0000000000000000     
  -9.6001995639934060E-003   8.1271630930277016E-003   0.0000000000000000     
  -1.2076601415574187E-002   1.1046303322660754E-002   0.0000000000000000     
  -1.4545921214789325E-002   1.4212545501942200E-002   0.0000000000000000     
  -1.7008158961638813E-002   1.7625889630872037E-002   0.0000000000000000     
  -1.9463314656122666E-002   2.1286335709450266E-002   0.0000000000000000     
  -1.0855722669785933E-002   8.6287249073374629E-003   0.0000000000000000     
  -1.3688982886489716E-002   1.1650739751809094E-002   0.0000000000000000     
  -1.6484651276685056E-002   1.4887057424528638E-002   0.0000000000000000     
  -1.9242727840371957E-002   1.8337677925496083E-002   0.0000000000000000     
  -2.1963212577550413E-002   2.2002601254711436E-002   0.0000000000000000     
  -1.2195324204075918E-002   9.2290329965487149E-003   0.0000000000000000     
  -1.5427673300071835E-002   1.2371583889142319E-002   0.0000000000000000     
  -1.8577066414737723E-002   1.5684955399185501E-002   0.0000000000000000     
  -2.1643503548073574E-002   1.9169147526678258E-002   0.0000000000000000     
  -2.4626984700079402E-002   2.2824160271620590E-002   0.0000000000000000     
  -1.4955141416570892E-002   2.0169685033871849E-002   0.0000000000000000     
  -1.6856639313064158E-002   2.4030114849952596E-002   0.0000000000000000     
  -1.8716759197674574E-002   2.8114097228791955E-002   0.0000000000000000     
  -2.0535501070402144E-002   3.2421632170389923E-002   0.0000000000000000     
  -2.2312864931246866E-002   3.6952719674746490E-002   0.0000000000000000     
  -1.7127290935796159E-002   2.0675363635837069E-002   0.0000000000000000     
  -1.9292017951364350E-002   2.4558572269212160E-002   0.0000000000000000     
  -2.1402637609126578E-002   2.8655818201624470E-002   0.0000000000000000     
  -2.3459149909082828E-002   3.2967101433074020E-002   0.0000000000000000     
  -2.5461554851233116E-002   3.7492421963560792E-002   0.0000000000000000     
  -1.9463314656122666E-002   2.1286335709450266E-002   0.0000000000000000     
  -2.1882979588369059E-002   2.5175159243685737E-002   0.0000000000000000     
  -2.4238745048506174E-002   2.9273635739587300E-002   0.0000000000000000     
  -2.6530611036534011E-002   3.3581765197154965E-002   0.0000000000000000     
  -2.8758577552452581E-002   3.8099547616388722E-002   0.0000000000000000     
  -2.1963212577550413E-002   2.2002601254711436E-002   0.0000000000000000     
  -2.4629524224078270E-002   2.5879875773373348E-002   0.0000000000000000     
  -2.7225081515813362E-002   2.9967549842680453E-002   0.0000000000000000     
  -2.9749884452755691E-002   3.4265623462632760E-002   0.0000000000000000     
  -3.2203933034905249E-002   3.8774096633230268E-002   0.0000000000000000     
  -2.4626984700079402E-002   2.2824160271620590E-002   0.0000000000000000     
  -2.7531651858491987E-002   2.6672721858274982E-002   0.0000000000000000     
  -3.0361647011048144E-002   3.0737560510903917E-002   0.0000000000000000     
  -3.3116970157747859E-002   3.5018676229507398E-002   0.0000000000000000     
  -3.5797621298591147E-002   3.9516069014085428E-002   0.0000000000000000     
  -2.2312864931246866E-002   3.6952719674746490E-002   0.0000000000000000     
  -2.4046223857369344E-002   4.1698600481638232E-002   0.0000000000000000     
  -2.5732950925930198E-002   4.6650515330841739E-002   0.0000000000000000     
  -2.7373046136929428E-002   5.1808464222356999E-002   0.0000000000000000     
  -2.8966509490367023E-002   5.7172447156184004E-002   0.0000000000000000     
  -2.5461554851233116E-002   3.7492421963560792E-002   0.0000000000000000     
  -2.7410583572301840E-002   4.2227618064718073E-002   0.0000000000000000     
  -2.9306967209013410E-002   4.7168528008179167E-002   0.0000000000000000     
  -3.1150705761367831E-002   5.2315151793944047E-002   0.0000000000000000     
  -3.2941799229365104E-002   5.7667489422012719E-002   0.0000000000000000     
  -2.8758577552452581E-002   3.8099547616388722E-002   0.0000000000000000     
  -3.0924917621076464E-002   4.2824248666923977E-002   0.0000000000000000     
  -3.3031904267220268E-002   4.7753134018396176E-002   0.0000000000000000     
  -3.5079537490883980E-002   5.2886203670805258E-002   0.0000000000000000     
  -3.7067817292067616E-002   5.8223457624151286E-002   0.0000000000000000     
  -3.2203933034905249E-002   3.8774096633230268E-002   0.0000000000000000     
  -3.4589226003693220E-002   4.3488492288255930E-002   0.0000000000000000     
  -3.6907762100550752E-002   4.8404333361492725E-002   0.0000000000000000     
  -3.9159541325477866E-002   5.3521619852940662E-002   0.0000000000000000     
  -4.1344563678474548E-002   5.8840351762599725E-002   0.0000000000000000     
  -3.5797621298591147E-002   3.9516069014085428E-002   0.0000000000000000     
  -3.8403508720152114E-002   4.4220348928713932E-002   0.0000000000000000     
  -4.0934540709004902E-002   4.9122126037468870E-002   0.0000000000000000     
  -4.3390717265149495E-002   5.4221400340350230E-002   0.0000000000000000     
  -4.5772038388585914E-002   5.9518171837358018E-002   0.0000000000000000     
  -2.8966509490367023E-002   5.7172447156184004E-002   0.0000000000000000     
  -3.0512211327974010E-002   6.2730337012527018E-002   0.0000000000000000     
  -3.2009021991481389E-002   6.8470006671590269E-002   0.0000000000000000     
  -3.3456941480889166E-002   7.4391456133373765E-002   0.0000000000000000     
  -3.4855969796197338E-002   8.0494685397877519E-002   0.0000000000000000     
  -3.2941799229365104E-002   5.7667489422012719E-002   0.0000000000000000     
  -3.4678947148418474E-002   6.3212936323079366E-002   0.0000000000000000     
  -3.6360849053941172E-002   6.8938887927838186E-002   0.0000000000000000     
  -3.7987504945933205E-002   7.4845344236289163E-002   0.0000000000000000     
  -3.9558914824394574E-002   8.0932305248432326E-002   0.0000000000000000     
  -3.7067817292067616E-002   5.8223457624151286E-002   0.0000000000000000     
  -3.8995800343025473E-002   6.3752775975891074E-002   0.0000000000000000     
  -4.0862543316011891E-002   6.9462038823481467E-002   0.0000000000000000     
  -4.2668046211026850E-002   7.5351246166922445E-002   0.0000000000000000     
  -4.4412309028070349E-002   8.1420398006214020E-002   0.0000000000000000     
  -4.1344563678474548E-002   5.8840351762599725E-002   0.0000000000000000     
  -4.3462770911795026E-002   6.4349855970962114E-002   0.0000000000000000     
  -4.5514104777693541E-002   7.0039459358520087E-002   0.0000000000000000     
  -4.7498565276170079E-002   7.5909161925273611E-002   0.0000000000000000     
  -4.9416152407224648E-002   8.1958963671222670E-002   0.0000000000000000     
  -4.5772038388585914E-002   5.9518171837358018E-002   0.0000000000000000     
  -4.8079858854727126E-002   6.5004176308292527E-002   0.0000000000000000     
  -5.0315533438986128E-002   7.0671149532954058E-002   0.0000000000000000     
  -5.2479062141362914E-002   7.6519091511342632E-002   0.0000000000000000     
  -5.4570444961857478E-002   8.2548002243458221E-002   0.0000000000000000     
  -3.4855969796197338E-002   8.0494685397877519E-002   0.0000000000000000     
  -3.6204092122738764E-002   8.6767426580490900E-002   0.0000000000000000     
  -3.7499293645846296E-002   9.3197411796603263E-002   0.0000000000000000     
  -3.8741574365519942E-002   9.9784641046214678E-002   0.0000000000000000     
  -3.9930934281759700E-002  0.10652911432932510        0.0000000000000000     
  -3.9558914824394574E-002   8.0932305248432326E-002   0.0000000000000000     
  -4.1073229759321560E-002   8.7188215408475697E-002   0.0000000000000000     
  -4.2528600820710465E-002   9.3601519160627464E-002   0.0000000000000000     
  -4.3925028008561268E-002  0.10017221650488756        0.0000000000000000     
  -4.5262511322873976E-002  0.10690030744125600        0.0000000000000000     
  -4.4412309028070349E-002   8.1420398006214020E-002   0.0000000000000000     
  -4.6093453384957690E-002   8.7658202110427241E-002   0.0000000000000000     
  -4.7709600899504205E-002   9.4053366248633100E-002   0.0000000000000000     
  -4.9260751571709886E-002  0.10060589042083157        0.0000000000000000     
  -5.0746905401574713E-002  0.10731577462702267        0.0000000000000000     
  -4.9416152407224648E-002   8.1958963671222670E-002   0.0000000000000000     
  -5.1264762999647162E-002   8.8177386686345449E-002   0.0000000000000000     
  -5.3042293882227538E-002   9.4552953060620143E-002   0.0000000000000000     
  -5.4748745054965776E-002  0.10108566279404668        0.0000000000000000     
  -5.6384116517861883E-002  0.10777551588662515        0.0000000000000000     
  -5.4570444961857478E-002   8.2548002243458221E-002   0.0000000000000000     
  -5.6587158603389962E-002   8.8745769136230390E-002   0.0000000000000000     
  -5.8526679768880457E-002   9.5100279596588636E-002   0.0000000000000000     
  -6.0389008458328966E-002  0.10161153362453297        0.0000000000000000     
  -6.2174144671735487E-002  0.10827953122006340        0.0000000000000000     
  -3.9930934281759700E-002  0.10652911432932510        0.0000000000000000     
  -4.1071143201786779E-002  0.11342020690704036        0.0000000000000000     
  -4.2165970932822441E-002  0.12044729404046631        0.0000000000000000     
  -4.3215417474866673E-002  0.12761037572960293        0.0000000000000000     
  -4.4219482827919453E-002  0.13490945197445023        0.0000000000000000     
  -4.5262511322873976E-002  0.10690030744125600        0.0000000000000000     
  -4.6544641853541978E-002  0.11377478615601344        0.0000000000000000     
  -4.7775010690458614E-002  0.12078464683544056        0.0000000000000000     
  -4.8953617833623897E-002  0.12792988947953732        0.0000000000000000     
  -5.0080463283037835E-002  0.13521051408830378        0.0000000000000000     
  -5.0746905401574713E-002  0.10731577462702267        0.0000000000000000     
  -5.2171882555597605E-002  0.11417185836410151        0.0000000000000000     
  -5.3539503200277457E-002  0.12116298112896315        0.0000000000000000     
  -5.4849767335614273E-002  0.12828914292160754        0.0000000000000000     
  -5.6102674961608069E-002  0.13555034374203470        0.0000000000000000     
  -5.6384116517861883E-002  0.10777551588662515        0.0000000000000000     
  -5.7952865307953676E-002  0.11461142353130456        0.0000000000000000     
  -5.9459448462278984E-002  0.12158229692103401        0.0000000000000000     
  -6.0903865980837808E-002  0.12868813605581347        0.0000000000000000     
  -6.2286117863630162E-002  0.13592894093564298        0.0000000000000000     
  -6.2174144671735487E-002  0.10827953122006340        0.0000000000000000     
  -6.3887590110610182E-002  0.11509348165762256        0.0000000000000000     
  -6.5534846476463196E-002  0.12204259421165316        0.0000000000000000     
  -6.7115913769294488E-002  0.12912686888215522        0.0000000000000000     
  -6.8630791989104115E-002  0.13634630566912861        0.0000000000000000     
  -4.4219482827919453E-002  0.13490945197445023        0.0000000000000000     
  -4.5170288274403669E-002  0.14233076707688763        0.0000000000000000     
  -4.6059955096742135E-002  0.14986056533879466        0.0000000000000000     
  -4.6888483294934884E-002  0.15749884676017120        0.0000000000000000     
  -4.7655872868981902E-002  0.16524561134101734        0.0000000000000000     
  -5.0080463283037835E-002  0.13521051408830378        0.0000000000000000     
  -5.1147085987469788E-002  0.14261309872490044        0.0000000000000000     
  -5.2145024895689174E-002  0.15012422145248802        0.0000000000000000     
  -5.3074280007695950E-002  0.15774388227106642        0.0000000000000000     
  -5.3934851323490171E-002  0.16547208118063561        0.0000000000000000     
  -5.6102674961608069E-002  0.13555034374203470        0.0000000000000000     
  -5.7289533943375964E-002  0.14293321648355070        0.0000000000000000     
  -5.8401652146035134E-002  0.15042439403946162        0.0000000000000000     
  -5.9439029569585571E-002  0.15802387640976739        0.0000000000000000     
  -6.0401666214027261E-002  0.16573166359446806        0.0000000000000000     
  -6.2286117863630162E-002  0.13592894093564298        0.0000000000000000     
  -6.3597632142122176E-002  0.14329112035283839        0.0000000000000000     
  -6.4829836847780029E-002  0.15076108309971542        0.0000000000000000     
  -6.5982731980603684E-002  0.15833882917627420        0.0000000000000000     
  -6.7056317540593144E-002  0.16602435858251466        0.0000000000000000     
  -6.8630791989104115E-002  0.13634630566912861        0.0000000000000000     
  -7.0071380583708445E-002  0.14368681033276343        0.0000000000000000     
  -7.1429579000923837E-002  0.15113428863324949        0.0000000000000000     
  -7.2705387240750305E-002  0.15868874057058685        0.0000000000000000     
  -7.3898805303187876E-002  0.16635016614477549        0.0000000000000000     
   0.0000000000000000        0.0000000000000000        0.0000000000000000     
  -2.8800840242875153E-003   1.7448464980884502E-003   0.0000000000000000     
  -5.8726660663960062E-003   3.8646341635427193E-003   0.0000000000000000     
  -8.9777461263254744E-003   6.3593629963628077E-003   0.0000000000000000     
  -1.2195324204075918E-002   9.2290329965487149E-003   0.0000000000000000     
   0.0000000000000000        0.0000000000000000        0.0000000000000000     
  -3.2832141755106199E-003   1.9993681996660212E-003   0.0000000000000000     
  -6.6769712205421595E-003   4.3309420479627657E-003   0.0000000000000000     
  -1.0181271135094618E-002   6.9947215448902334E-003   0.0000000000000000     
  -1.3796113919168001E-002   9.9907066904484209E-003   0.0000000000000000     
   0.0000000000000000        0.0000000000000000        0.0000000000000000     
  -3.9535686876443557E-003   2.4251301948379285E-003   0.0000000000000000     
  -7.9106251780869438E-003   5.0629011462544980E-003   0.0000000000000000     
  -1.1871169471327768E-002   7.9133128542497062E-003   0.0000000000000000     
  -1.5835201567366827E-002   1.0976365318823553E-002   0.0000000000000000     
   0.0000000000000000        0.0000000000000000        0.0000000000000000     
  -4.8911475606887222E-003   3.0221324836041726E-003   0.0000000000000000     
  -9.5736279390303599E-003   6.0605114584179141E-003   0.0000000000000000     
  -1.4047441135024919E-002   9.1151369244412243E-003   0.0000000000000000     
  -1.8312587148672392E-002   1.2186008881674107E-002   0.0000000000000000     
   0.0000000000000000        0.0000000000000000        0.0000000000000000     
  -6.0959507946437173E-003   3.7903750659647518E-003   0.0000000000000000     
  -1.1665979503372406E-002   7.3237729844530166E-003   0.0000000000000000     
  -1.6710086126186071E-002   1.0600193755464796E-002   0.0000000000000000     
  -2.1228270663084706E-002   1.3619637379000085E-002   0.0000000000000000     
  -1.2195324204075918E-002   9.2290329965487149E-003   0.0000000000000000     
  -1.5427673300071835E-002   1.2371583889142319E-002   0.0000000000000000     
  -1.8577066414737723E-002   1.5684955399185501E-002   0.0000000000000000     
  -2.1643503548073574E-002   1.9169147526678258E-002   0.0000000000000000     
  -2.4626984700079402E-002   2.2824160271620590E-002   0.0000000000000000     
  -1.3796113919168001E-002   9.9907066904484209E-003   0.0000000000000000     
  -1.7404415797197394E-002   1.3220936266792906E-002   0.0000000000000000     
  -2.0889092993617898E-002   1.6587449056079260E-002   0.0000000000000000     
  -2.4250145508429521E-002   2.0090245058307487E-002   0.0000000000000000     
  -2.7487573341632245E-002   2.3729324273477573E-002   0.0000000000000000     
  -1.5835201567366827E-002   1.0976365318823553E-002   0.0000000000000000     
  -1.9730953518743252E-002   1.4210897416893346E-002   0.0000000000000000     
  -2.3486657377996184E-002   1.7575748025376394E-002   0.0000000000000000     
  -2.7102313145125623E-002   2.1070917144272696E-002   0.0000000000000000     
  -3.0577920820131568E-002   2.4696404773582245E-002   0.0000000000000000     
  -1.8312587148672392E-002   1.2186008881674107E-002   0.0000000000000000     
  -2.2407286464709408E-002   1.5341467339443639E-002   0.0000000000000000     
  -2.6369759567872571E-002   1.8649852307076904E-002   0.0000000000000000     
  -3.0200006458161892E-002   2.2111163784573892E-002   0.0000000000000000     
  -3.3898027135577366E-002   2.5725401771934615E-002   0.0000000000000000     
  -2.1228270663084706E-002   1.3619637379000085E-002   0.0000000000000000     
  -2.5433414635095859E-002   1.6612646034443783E-002   0.0000000000000000     
  -2.9538399563247067E-002   1.9809761901180778E-002   0.0000000000000000     
  -3.3543225447538329E-002   2.3210984979211081E-002   0.0000000000000000     
  -3.7447892287969645E-002   2.6816315268534674E-002   0.0000000000000000     
  -2.4626984700079402E-002   2.2824160271620590E-002   0.0000000000000000     
  -2.7531651858491987E-002   2.6672721858274982E-002   0.0000000000000000     
  -3.0361647011048144E-002   3.0737560510903917E-002   0.0000000000000000     
  -3.3116970157747859E-002   3.5018676229507398E-002   0.0000000000000000     
  -3.5797621298591147E-002   3.9516069014085428E-002   0.0000000000000000     
  -2.7487573341632245E-002   2.3729324273477573E-002   0.0000000000000000     
  -3.0624405725368901E-002   2.7547188785116632E-002   0.0000000000000000     
  -3.3683671891782271E-002   3.1586340676751763E-002   0.0000000000000000     
  -3.6665371840872388E-002   3.5846779948382972E-002   0.0000000000000000     
  -3.9569505572639226E-002   4.0328506600010250E-002   0.0000000000000000     
  -3.0577920820131568E-002   2.4696404773582245E-002   0.0000000000000000     
  -3.3942829058467648E-002   2.8496767840624288E-002   0.0000000000000000     
  -3.7226386515587497E-002   3.2516563272718055E-002   0.0000000000000000     
  -4.0428593191491113E-002   3.6755791069863541E-002   0.0000000000000000     
  -4.3549449086178499E-002   4.1214451232060773E-002   0.0000000000000000     
  -3.3898027135577366E-002   2.5725401771934615E-002   0.0000000000000000     
  -3.7486921857788263E-002   2.9521459024797955E-002   0.0000000000000000     
  -4.0989790882463815E-002   3.3528228298802788E-002   0.0000000000000000     
  -4.4406634209604036E-002   3.7745709593949142E-002   0.0000000000000000     
  -4.7737451839208946E-002   4.2173902910236982E-002   0.0000000000000000     
  -3.7447892287969645E-002   2.6816315268534674E-002   0.0000000000000000     
  -4.1256684123330722E-002   3.0621262337637623E-002   0.0000000000000000     
  -4.4973884992411228E-002   3.4621335755005977E-002   0.0000000000000000     
  -4.8599494895211183E-002   3.8816535520639732E-002   0.0000000000000000     
  -5.2133513831730580E-002   4.3206861634538893E-002   0.0000000000000000     
  -3.5797621298591147E-002   3.9516069014085428E-002   0.0000000000000000     
  -3.8403508720152114E-002   4.4220348928713932E-002   0.0000000000000000     
  -4.0934540709004902E-002   4.9122126037468870E-002   0.0000000000000000     
  -4.3390717265149495E-002   5.4221400340350230E-002   0.0000000000000000     
  -4.5772038388585914E-002   5.9518171837358018E-002   0.0000000000000000     
  -3.9569505572639226E-002   4.0328506600010250E-002   0.0000000000000000     
  -4.2393579704025630E-002   4.5018105117208752E-002   0.0000000000000000     
  -4.5135100851974398E-002   4.9902159985553626E-002   0.0000000000000000     
  -4.7794069016485557E-002   5.4980671205044893E-002   0.0000000000000000     
  -5.0370484197559073E-002   6.0253638775682537E-002   0.0000000000000000     
  -4.3549449086178499E-002   4.1214451232060773E-002   0.0000000000000000     
  -4.6585252888886250E-002   4.5880047382651126E-002   0.0000000000000000     
  -4.9532303288850998E-002   5.0740083144976064E-002   0.0000000000000000     
  -5.2390600286072730E-002   5.5794558519035573E-002   0.0000000000000000     
  -5.5160143880551439E-002   6.1043473504829644E-002   0.0000000000000000     
  -4.7737451839208946E-002   4.2173902910236982E-002   0.0000000000000000     
  -5.0978528274734002E-002   4.6806175725041081E-002   0.0000000000000000     
  -5.4126148019634703E-002   5.1635895515736170E-002   0.0000000000000000     
  -5.7180311073911021E-002   5.6663062282322256E-002   0.0000000000000000     
  -6.0141017437562991E-002   6.1887676024799353E-002   0.0000000000000000     
  -5.2133513831730580E-002   4.3206861634538893E-002   0.0000000000000000     
  -5.5573405861568864E-002   4.7796490144378589E-002   0.0000000000000000     
  -5.8916635044325483E-002   5.2589597097833944E-002   0.0000000000000000     
  -6.2163201380000449E-002   5.7586182494904971E-002   0.0000000000000000     
  -6.5313104868593735E-002   6.2786246335591656E-002   0.0000000000000000     
  -4.5772038388585914E-002   5.9518171837358018E-002   0.0000000000000000     
  -4.8079858854727126E-002   6.5004176308292527E-002   0.0000000000000000     
  -5.0315533438986128E-002   7.0671149532954058E-002   0.0000000000000000     
  -5.2479062141362914E-002   7.6519091511342632E-002   0.0000000000000000     
  -5.4570444961857478E-002   8.2548002243458221E-002   0.0000000000000000     
  -5.0370484197559073E-002   6.0253638775682537E-002   0.0000000000000000     
  -5.2867018916737563E-002   6.5714691681474105E-002   0.0000000000000000     
  -5.5286345695563559E-002   7.1357458906427182E-002   0.0000000000000000     
  -5.7628464534037083E-002   7.7181940450541761E-002   0.0000000000000000     
  -5.9893375432158148E-002   8.3188136313817829E-002   0.0000000000000000     
  -5.5160143880551439E-002   6.1043473504829644E-002   0.0000000000000000     
  -5.7844205842742122E-002   6.6480356784098721E-002   0.0000000000000000     
  -6.0446057943099762E-002   7.2098737038583258E-002   0.0000000000000000     
  -6.2965700181624354E-002   7.7898614268283178E-002   0.0000000000000000     
  -6.5403132558315910E-002   8.3879988473198580E-002   0.0000000000000000     
  -6.0141017437562991E-002   6.1887676024799353E-002   0.0000000000000000     
  -6.3011419632740831E-002   6.7301171616166375E-002   0.0000000000000000     
  -6.5794670181594725E-002   7.2894983929422244E-002   0.0000000000000000     
  -6.8490769084124714E-002   7.8669112964566940E-002   0.0000000000000000     
  -7.1099716340330771E-002   8.4623558721600475E-002   0.0000000000000000     
  -6.5313104868593735E-002   6.2786246335591656E-002   0.0000000000000000     
  -6.8368660286733648E-002   6.8177136177677053E-002   0.0000000000000000     
  -7.1332182411048453E-002   7.3746199578944141E-002   0.0000000000000000     
  -7.4203671241538149E-002   7.9493436539392989E-002   0.0000000000000000     
  -7.6983126778202737E-002   8.5418847059023542E-002   0.0000000000000000     
  -5.4570444961857478E-002   8.2548002243458221E-002   0.0000000000000000     
  -5.6587158603389962E-002   8.8745769136230390E-002   0.0000000000000000     
  -5.8526679768880457E-002   9.5100279596588636E-002   0.0000000000000000     
  -6.0389008458328966E-002  0.10161153362453297        0.0000000000000000     
  -6.2174144671735487E-002  0.10827953122006340        0.0000000000000000     
  -5.9893375432158148E-002   8.3188136313817829E-002   0.0000000000000000     
  -6.2078019609808736E-002   8.9363408078666315E-002   0.0000000000000000     
  -6.4179338286870877E-002   9.5695117327498164E-002   0.0000000000000000     
  -6.6197331463344569E-002  0.10218326406031332        0.0000000000000000     
  -6.8131999139229821E-002  0.10882784827711181        0.0000000000000000     
  -6.5403132558315910E-002   8.3879988473198580E-002   0.0000000000000000     
  -6.7754725432526128E-002   9.0030362132237543E-002   0.0000000000000000     
  -7.0016849163606745E-002   9.6337237724308245E-002   0.0000000000000000     
  -7.2189503751557763E-002  0.10280061524941070        0.0000000000000000     
  -7.4272689196379180E-002  0.10942049470754486        0.0000000000000000     
  -7.1099716340330771E-002   8.4623558721600475E-002   0.0000000000000000     
  -7.3617276071542143E-002   9.0746631296944089E-002   0.0000000000000000     
  -7.6039212399088063E-002   9.7026640787018947E-002   0.0000000000000000     
  -7.8365525322968518E-002  0.10346358719182512        0.0000000000000000     
  -8.0596214843183536E-002  0.11005747051136251        0.0000000000000000     
  -7.6983126778202737E-002   8.5418847059023542E-002   0.0000000000000000     
  -7.9665671526856774E-002   9.1512215572785938E-002   0.0000000000000000     
  -8.2246427993314816E-002   9.7763326515630272E-002   0.0000000000000000     
  -8.4725396177576850E-002  0.10417217988755655        0.0000000000000000     
  -8.7102576079642918E-002  0.11073877568856477        0.0000000000000000     
  -6.2174144671735487E-002  0.10827953122006340        0.0000000000000000     
  -6.3887590110610182E-002  0.11509348165762256        0.0000000000000000     
  -6.5534846476463196E-002  0.12204259421165316        0.0000000000000000     
  -6.7115913769294488E-002  0.12912686888215522        0.0000000000000000     
  -6.8630791989104115E-002  0.13634630566912861        0.0000000000000000     
  -6.8131999139229821E-002  0.10882784827711181        0.0000000000000000     
  -6.9989942712807535E-002  0.11561834832829598        0.0000000000000000     
  -7.1777763582358572E-002  0.12254424256426807        0.0000000000000000     
  -7.3495461747882948E-002  0.12960553098502814        0.0000000000000000     
  -7.5143037209380661E-002  0.13680221359057615        0.0000000000000000     
  -7.4272689196379180E-002  0.10942049470754486        0.0000000000000000     
  -7.6273808863786097E-002  0.11618633912856523        0.0000000000000000     
  -7.8200266119493614E-002  0.12308761154232620        0.0000000000000000     
  -8.0052060963501773E-002  0.13012431194882781        0.0000000000000000     
  -8.1829193395810504E-002  0.13729644034807004        0.0000000000000000     
  -8.0596214843183536E-002  0.11005747051136251        0.0000000000000000     
  -8.2739188563545882E-002  0.11679745405843030        0.0000000000000000     
  -8.4802354087868376E-002  0.12367270114582754        0.0000000000000000     
  -8.6785711416150962E-002  0.13068321177355424        0.0000000000000000     
  -8.8689260548393684E-002  0.13782898594161036        0.0000000000000000     
  -8.7102576079642918E-002  0.11073877568856477        0.0000000000000000     
  -8.9386081812086890E-002  0.11745169311789118        0.0000000000000000     
  -9.1584027487482789E-002  0.12429951137477202        0.0000000000000000     
  -9.3696413105830517E-002  0.13128223045920731        0.0000000000000000     
  -9.5723238667130159E-002  0.13839985037119706        0.0000000000000000     
  -6.8630791989104115E-002  0.13634630566912861        0.0000000000000000     
  -7.0071380583708445E-002  0.14368681033276343        0.0000000000000000     
  -7.1429579000923837E-002  0.15113428863324949        0.0000000000000000     
  -7.2705387240750305E-002  0.15868874057058685        0.0000000000000000     
  -7.3898805303187876E-002  0.16635016614477549        0.0000000000000000     
  -7.5143037209380661E-002  0.13680221359057615        0.0000000000000000     
  -7.6712416292549435E-002  0.14411971810546273        0.0000000000000000     
  -7.8195525323087003E-002  0.15154347225423861        0.0000000000000000     
  -7.9592364300993368E-002  0.15907347603690378        0.0000000000000000     
  -8.0902933226268514E-002  0.16670972945345816        0.0000000000000000     
  -8.1829193395810504E-002  0.13729644034807004        0.0000000000000000     
  -8.3522376293059919E-002  0.14458927535307325        0.0000000000000000     
  -8.5122322531889977E-002  0.15198809557685769        0.0000000000000000     
  -8.6629032112300761E-002  0.15949290101942337        0.0000000000000000     
  -8.8042505034292215E-002  0.16710369168077033        0.0000000000000000     
  -8.8689260548393684E-002  0.13782898594161036        0.0000000000000000     
  -9.0501260585239857E-002  0.14509548207559486        0.0000000000000000     
  -9.2209970627332771E-002  0.15246815860110666        0.0000000000000000     
  -9.3815390674672469E-002  0.15994701551814572        0.0000000000000000     
  -9.5317520727258923E-002  0.16753205282671205        0.0000000000000000     
  -9.5723238667130159E-002  0.13839985037119706        0.0000000000000000     
  -9.7649069169089248E-002  0.14563833827302763        0.0000000000000000     
  -9.9458469609415359E-002  0.15298366132698554        0.0000000000000000     
 -0.10115143998810852       0.16043581953307073        0.0000000000000000     
 -0.10272798030516869       0.16799481289128324        0.0000000000000000     
 </DataArray>
 <DataArray  type="Float64" Name="stress" NumberOfComponents="3" format="ascii">
   13416605195.884365        4024981558.7653098        2893930072.3878965     
   11766500429.995497        1890533689.0068672        1715794026.6850357     
   10313652450.258762        413608439.75555277        810744648.88421893     
   9058061256.6741676       -405794188.98863745        178781938.98544663     
   7999726849.2417126       -567674197.22570181       -180094103.01128078     
   10539916276.518555        3161974882.9555664        2225729898.8182869     
   9667573954.5504093        1589637110.0730457        1446693914.3555408     
   8943857958.2618523        512720422.78914499        863132350.34301901     
   8368768287.6528778       -68775178.896136284        475045206.78072119     
   7942304942.7234898       -154849694.98279810        282432483.66864794     
   8337916032.5742273        2501374809.7722683        1712351864.5113974     
   8021586876.0930367        1424622350.2355375        1275680404.0707893     
   7805253584.8188801        681189441.38892031        956871116.62858558     
   7688916158.7517557        271076083.23241520        755924002.18478489     
   7672574597.8916645        194282275.76602221        672839060.73938835     
   6810604464.0513868        2043181339.2154160        1353795969.4672289     
   6828539194.6233759        1395489409.4943433        1202753495.8307817     
   6897839329.9298477        919015495.55487680        1091960947.7409179     
   7018504869.9708023        613759597.39701700        1021418325.1976382     
   7190535814.7462368        479721715.02076364        991125628.20094085     
   5957981570.9500313        1787394471.2850094        1150062213.6857815     
   6088430910.1414309        1502238287.8494632        1227913189.6355174     
   6221615193.5947571        1226198585.2870159        1268401843.6800168     
   6357534421.3100166        959275363.59766936        1271528175.8192792     
   6496188593.2872038        701468622.78142285        1237292186.0533047     
   7999726849.2417126       -567674197.22570181       -180094103.01128078     
   7917614823.5945377       -200363068.91739607       -78249985.099496946     
   7794064312.0214567        28819772.971226215       -9038345.1573782079     
   7629075314.5224695        119874328.44015503        27540816.815068405     
   7422647831.0975761        72800597.489399433        31487500.817850567     
   7942304942.7234898       -154849694.98279810        282432483.66864794     
   7739760352.3867216        16249432.833576679        281125775.64607114     
   7513862854.5188818        109505535.54638910        265090803.63776705     
   7264612449.1199751        124918613.15564060        234327567.64373612     
   6992009136.1899996        62488665.661328793        188836067.66397178     
   7672574597.8916645        194282275.76602221        672839060.73938835     
   7400752339.9622688        184515872.21955681        589481368.24309576     
   7123662752.8966408        157191704.88565588        509299625.74501455     
   6841305836.6947832        112309773.76431775        432293833.24514300     
   6553681591.3566942        49870078.855545759        358463990.74347872     
   7190535814.7462368        479721715.02076364        991125628.20094085     
   6900590786.3211813        304436249.24054670        846816792.69157672     
   6623464007.1547308        171878280.98901987        723588121.16436017     
   6359155477.2468891        82047810.266185045        621439613.61929488     
   6107665196.5976543        34944837.072039366        540371270.05637443     
   6496188593.2872038        701468622.78142285        1237292186.0533047     
   6239275691.4634590        376010563.89654660        1053132048.9915116     
   6013266617.2931566        153565263.85648680        907956289.89580536     
   5818161370.7762995        34132722.661242008        801764908.76618969     
   5653959951.9128885        17712940.310816050        734557905.60265958     
   7422647831.0975761        72800597.489399433        31487500.817850567     
   7219597796.9094954       -17850665.146501541        14705165.181343183     
   7028585743.2915964       -68375325.881799698        2361312.0116375498     
   6849611670.2438726       -78773384.716517925       -5544058.6912605669     
   6682675577.7663326       -49044841.650616169       -9010946.9273607768     
   6992009136.1899996        62488665.661328793        188836067.66397178     
   6809053606.6079903        3201364.8063802719        180543309.00728887     
   6633790530.6899939       -30444423.835186958        176031541.78517357     
   6466219908.4360151       -38448700.263364315        175300765.99763191     
   6306341739.8460550       -20811464.478156328        178350981.64466169     
   6553681591.3566942        49870078.855545759        358463990.74347872     
   6388942020.5743713        21383176.039628506        353591027.67609632     
   6227549376.5499039        4052695.7498886585        351841565.01105249     
   6069503659.2832861       -2121362.0136759281        353215602.74834192     
   5914804868.7745237        2861002.7489335537        357713140.88797241     
   6107665196.5976543        34944837.072039366        540371270.05637443     
   5959263038.8086424        36694768.553244352        533848321.18777210     
   5809862280.8713188        35116032.873412132        529791381.68927002     
   5659462922.7856865        30208630.032549143        528200451.56087238     
   5508064964.5517416        21972560.030651569        529075530.80257583     
   5653959951.9128885        17712940.310816050        734557905.60265958     
   5520016661.3108025        49136142.347225189        721315189.54230976     
   5380729243.6542425        62745587.535390139        709880991.81982839     
   5236097698.9432077        58541275.875310898        700255312.43521905     
   5086122027.1777029        36523207.366987467        692438151.38847733     
   6682675577.7663326       -49044841.650616169       -9010946.9273607768     
   6508669965.3378916       -10421329.452695847       -3183474.8504578648     
   6329889553.7352943        12286185.498032093        4458833.4200775279     
   6146334342.9585457        19077703.201584339        13915977.884255650     
   5958004333.0076332        9953223.6579341888        25187958.542066254     
   6306341739.8460550       -20811464.478156328        178350981.64466169     
   6133200898.8858356        175218.34092998505        174956172.16431522     
   5957199416.6209145        11626430.144346714        174481772.86100686     
   5778337293.0512838        13542170.932062149        176927783.73472911     
   5596614528.1769524        5922440.7041122913        182294204.78548658     
   5914804868.7745237        2861002.7489335537        357713140.88797241     
   5745687582.0922298        7158491.0321004391        347329234.03141207     
   5575623811.9746819        8301034.5310862064        340971311.33528531     
   5404613558.4218798        6288633.2459011078        338639372.79958373     
   5232656821.4338322        1121287.1765494347        340333418.42431080     
   5508064964.5517416        21972560.030651569        529075530.80257583     
   5346130014.9570713        10528488.620800018        513935710.75082988     
   5185162739.7966003        2309998.6582853794        503927448.84290683     
   5025163139.0703306       -2682909.8569006920        499050745.07881206     
   4866131212.7782574       -4450236.9247515202        499305599.45853764     
   5086122027.1777029        36523207.366987467        692438151.38847733     
   4934528197.4803610        10285211.107034683        674775602.32257056     
   4785816200.0866680       -6346677.4740757942        663350185.38388526     
   4639986034.9966307       -13372458.376352787        658161900.57241392     
   4497037702.2102432       -10792131.599777699        659210747.88816845     
   5958004333.0076332        9953223.6579341888        25187958.542066254     
   5777885419.9254322       -1430072.8185298443        20472026.240401316     
   5599427803.1645823       -7275714.8904912472        19338798.403705698     
   5422631482.7250776       -7583702.5579721928        21788275.031988360     
   5247496458.6069221       -2354035.8209505081        27820456.125236493     
   5596614528.1769524        5922440.7041122913        182294204.78548658     
   5427290296.1894035       -721129.24550724030        178284354.50913757     
   5259017870.6135769       -3858677.8227038383        177901617.56520566     
   5091797251.4494791       -3490205.0274863243        181145993.95367345     
   4925628438.6971035        384289.14014911652        188017483.67455098     
   5232656821.4338322        1121287.1765494347        340333418.42431080     
   5074254153.0193176       -744491.50269961357        336318578.61205751     
   4916293801.1069069       -1135881.8416059017        335975260.99964875     
   4758775765.6965952       -52883.840183019638        339303465.58707881     
   4601700046.7883806        2504502.5015807152        346303192.37435931     
   4866131212.7782574       -4450236.9247515202        499305599.45853764     
   4718776990.4151726       -1500159.5901110172        494574698.54914886     
   4571255594.6445608        892673.05278110504        493559728.70703930     
   4423567025.4664326        2728261.0039381981        496260689.93221283     
   4275711282.8807726        4006604.2633388042        502677582.22465849     
   4497037702.2102432       -10792131.599777699        659210747.88816845     
   4360858808.3769646       -2988133.5077481270        653052714.32041836     
   4223903251.2265453        2226986.8604745865        650655020.68738258     
   4086171030.7589760        4853229.5048632622        652017666.98906374     
   3947662146.9742608        4890594.4254324436        657140653.22545755     
   5247496458.6069221       -2354035.8209505081        27820456.125236493     
   5052296561.8974800       -1575347.5509264469        22834608.088692002     
   4856469533.6867361       -2887097.6185641289        22405206.483397175     
   4660015373.9746895       -6289286.0238916874        26532251.309324469     
   4462934082.7613392       -11781912.766875744        35215742.566497587     
   4925628438.6971035        384289.14014911652        188017483.67455098     
   4741914753.0583076       -4876.9256744384766        181711743.55938458     
   4557808470.8753643       -1702698.1386666298        179954608.83714086     
   4373309592.1482601       -4709174.4988605976        182746079.50780833     
   4188418116.8770046       -9024306.0062255859        190086155.57140875     
   4601700046.7883806        2504502.5015807152        346303192.37435931     
   4429450169.2536163        940761.20992755890        338951184.29724193     
   4257042230.1318464       -1149852.0384140015        336139940.57472736     
   4084476229.4230676       -3767337.2434451580        337869461.20680737     
   3911752167.1272736       -6911694.4051914215        344139746.19349813     
   4275711282.8807726        4006604.2633388042        502677582.22465849     
   4114902810.4834027        1261566.8558638096        494552930.30226648     
   3954170811.4561825       -1228559.3178043365        490961201.69615072     
   3793515285.7990913       -3463774.2576982975        491902396.40631688     
   3632936233.5121479       -5444077.9637739658        497376514.43276584     
   3947662146.9742608        4890594.4254324436        657140653.22545755     
   3798272676.7476726        957540.01215291023        648516981.57445109     
   3649194214.8483706       -1938819.9768486023        644418392.20140743     
   3500426761.2763600       -3798485.5415451527        644844885.10632622     
   3351970316.0316286       -4621456.6819808483        649796460.28921306     
   4462934082.7613392       -11781912.766875744        35215742.566497587     
   4299925166.0299635       -7560607.5093898773        31545467.296713635     
   4137208580.5730081       -2364864.6705222130        32346501.976914499     
   3974784326.3904624        3805315.7497353554        37618846.607133485     
   3812652403.4823394        10949933.751377821        47362501.187337294     
   4188418116.8770046       -9024306.0062255859        190086155.57140875     
   4036782114.3919621       -3705194.5599682331        185707453.19062939     
   3885312950.9462790        2170047.0174703598        185352496.54424348     
   3734010626.5399747        8601418.7261736393        189021285.63225269     
   3582875141.1730328        15588920.566084146        196713820.45463806     
   3911752167.1272736       -6911694.4051914215        344139746.19349813     
   3770210323.9868078       -878403.24073600769        338906209.09418654     
   3628709827.6506677        5292710.6047976017        337248853.51364183     
   3487250678.1188378        11601647.131376982        339167679.45188260     
   3345832875.3913436        18048406.339059114        344662686.90890378     
   3632936233.5121479       -5444077.9637739658        497376514.43276584     
   3500209794.8145208        919766.44838809967        491141735.00735646     
   3367399210.6861711        7003126.0914461613        488035572.88511086     
   3234504481.1270962        12806000.965432525        488058028.06603593     
   3101525606.1372943        18328391.070334315        491209100.55013072     
   3351970316.0316286       -4621456.6819808483        649796460.28921306     
   3226780526.8750963        1689314.5073509216        642414030.93015599     
   3101381100.0527959        7301293.4774435759        637712654.65865171     
   2975772035.5647202        12214480.228285670        635692331.47470188     
   2849953333.4108715        16428874.759894133        636353061.37831199     
   3812652403.4823394        10949933.751377821        47362501.187337294     
   3585254384.1280603       -1891080.5718915462        44037968.211404406     
   3357296470.8239236       -16598408.061352730        51556584.539540313     
   3128778663.5699229       -33172048.717016459        69918350.171737984     
   2899700962.3660817       -51612002.538837552        99123265.108000621     
   3582875141.1730328        15588920.566084146        196713820.45463806     
   3382144567.0002322        7542966.7324340343        189223304.76795948     
   3181145002.7780824       -1399620.5990459919        190296506.72688615     
   2979876448.5066004       -11238841.428329229        199933426.33144814     
   2778338904.1857371       -21974695.755481839        218134063.58163458     
   3345832875.3913436        18048406.339059114        344662686.90890378     
   3165257084.5187764        12843714.430694818        333345576.39538682     
   2984703207.4973569        7712068.6928346157        328312751.86905414     
   2804171244.3270955        2653469.1255030632        329564213.32989782     
   2623661195.0079994       -2332084.2713042498        337099960.77792358     
   3101525606.1372943        18328391.070334315        491209100.55013072     
   2934591936.6836724        14011162.522836208        476404783.09370691     
   2767971084.9817185        10736659.814221501        465605319.96601844     
   2601663051.0314283        8504882.9444735050        458810711.16707140     
   2435667834.8327980        7315831.9136008024        456020956.69685543     
   2849953333.4108715        16428874.759894133        636353061.37831199     
   2690149123.4949436        11045311.008903265        618400924.86290944     
   2530948635.2311835        7674152.7651437521        602174211.01779509     
   2372351868.6195889        6315400.0286016464        587672919.84297299     
   2214358823.6601610        6969052.7992885113        574897051.33845127     
   5957981570.9500313        1787394471.2850094        1150062213.6857815     
   6088430910.1414309        1502238287.8494632        1227913189.6355174     
   6221615193.5947571        1226198585.2870159        1268401843.6800168     
   6357534421.3100166        959275363.59766936        1271528175.8192792     
   6496188593.2872038        701468622.78142285        1237292186.0533047     
   5434665926.9325666        1630399778.0797701        1033476201.8021324     
   5489896611.8158503        1372500580.9795103        1113868200.6291025     
   5547329412.2416649        1121941769.0210171        1167471944.2776935     
   5606964328.2100077        878723342.20429122        1194287432.7479062     
   5668801359.7208824        642845300.52933311        1194314666.0397391     
   4895276105.6613960        1468582831.6984189        936363538.45135903     
   4905499755.4561596        1247004106.6993234        1018674926.6495968     
   4917392692.0740528        1030989671.1106627        1084772126.3963137     
   4930954915.5150776        820539524.93243647        1134655137.6915092     
   4946186425.7792301        615653668.16464424        1168323960.5351832     
   4339812107.1365223        1301943632.1409566        858724223.63346171     
   4335240341.0623589        1125748865.0089045        942333367.69700050     
   4331805033.0919275        953342291.55595398        1020302390.0358763     
   4329506183.2252235        784723911.78210473        1092631290.6500890     
   4328343791.4622526        619893725.68735778        1159320069.5396383     
   3768273931.3579435        1130482179.4073830        800558257.34844005     
   3779118368.6344481        1008734855.9082520        884843523.77131355     
   3790566435.2952828        888999630.35688972        974062735.19638205     
   3802618131.3404484        771276502.75329638        1068215891.6236451     
   3815273456.7699442        655565473.09747183        1167302993.0531027     
   6496188593.2872038        701468622.78142285        1237292186.0533047     
   6239275691.4634590        376010563.89654660        1053132048.9915116     
   6013266617.2931566        153565263.85648680        907956289.89580536     
   5818161370.7762995        34132722.661242008        801764908.76618969     
   5653959951.9128885        17712940.310816050        734557905.60265958     
   5668801359.7208824        642845300.52933311        1194314666.0397391     
   5518780944.5235920        383364939.53464031        1073450079.7216481     
   5392902313.5811644        204357192.72283101        980600482.56008410     
   5291165466.8936024        105822060.09390569        915765874.55504942     
   5213570404.4609060        87759541.647861958        878946255.70653903     
   4946186425.7792301        615653668.16464424        1168323960.5351832     
   4871717386.3239365        412748671.79479742        1102865874.3291183     
   4814628087.7249269        267776144.94590187        1054453388.4700197     
   4774918529.9822025        180736087.61795712        1023086502.9578887     
   4752588713.0957613        151628499.81096125        1008765217.7927238     
   4328343791.4622526        619893725.68735778        1159320069.5396383     
   4298085016.8644962        464161760.67701900        1141379432.8139219     
   4278443939.7244434        343822120.52569890        1129515007.6256125     
   4269420560.0420957        258874805.23339534        1123726793.9747093     
   4271014877.8174543        209319814.80011153        1124014791.8612132     
   3815273456.7699442        655565473.09747183        1167302993.0531027     
   3797883836.1452665        537604206.18130386        1188990755.1760597     
   3784349869.5797138        432495119.46222162        1205785340.0268629     
   3774671557.0732870        340238212.94022655        1217686747.6055105     
   3768848898.6259851        260833486.61531246        1224694977.9120057     
   5653959951.9128885        17712940.310816050        734557905.60265958     
   5520016661.3108025        49136142.347225189        721315189.54230976     
   5380729243.6542425        62745587.535390139        709880991.81982839     
   5236097698.9432077        58541275.875310898        700255312.43521905     
   5086122027.1777029        36523207.366987467        692438151.38847733     
   5213570404.4609060        87759541.647861958        878946255.70653903     
   5077028733.8256235        85448510.125384092        855240486.55396199     
   4938390643.3647156        76149412.517483950        835512268.32080066     
   4797656133.0781765        59862248.824151993        819761601.00705266     
   4654825202.9660120        36587019.045392036        807988484.61272049     
   4752588713.0957613        151628499.81096125        1008765217.7927238     
   4619645898.3745584        117442405.51378179        978385387.31490481     
   4487854371.0565720        87093935.893990993        954152140.33804750     
   4357214131.1417999        60583090.951588869        936065476.86215091     
   4227725178.6302457        37909870.686573267        924125396.88721240     
   4271014877.8174543        209319814.80011153        1124014791.8612132     
   4147868154.9576006        145117828.51241088        1090749891.8251383     
   4029120426.7298055        95579157.664910555        1065800607.8715713     
   3914771693.1340747        60703802.257619143        1049166940.0005062     
   3804821954.1704059        40491762.290534496        1040848888.2119522     
   3768848898.6259851        260833486.61531246        1224694977.9120057     
   3661695503.5747519        168474779.12126958        1192334000.0846622     
   3562188810.3844261        101605077.83024907        1170457670.9213696     
   3470328819.0550079        60224382.742252111        1159065990.4221280     
   3386115529.5864925        44332693.857269645        1158158958.5869384     
   5086122027.1777029        36523207.366987467        692438151.38847733     
   4934528197.4803610        10285211.107034683        674775602.32257056     
   4785816200.0866680       -6346677.4740757942        663350185.38388526     
   4639986034.9966307       -13372458.376352787        658161900.57241392     
   4497037702.2102432       -10792131.599777699        659210747.88816845     
   4654825202.9660120        36587019.045392036        807988484.61272049     
   4520438491.9580116        15875296.216305971        794453770.66126370     
   4388168140.0405350        2218103.6889531612        786642875.85957503     
   4258014147.2135811       -4384558.5366535187        784555800.20765591     
   4129976513.4771442       -3932690.4605295658        788192543.70550239     
   4227725178.6302457        37909870.686573267        924125396.88721240     
   4109078977.8045855        22284438.736249924        913825465.96821892     
   3991783662.8563185        11161959.710562229        908736041.22154295     
   3875839233.7854404        4542433.6095092297        908857122.64718151     
   3761245690.5919509        2425860.4330904484        914188710.24513960     
   3804821954.1704059        40491762.290534496        1040848888.2119522     
   3700449655.0200810        29512638.666871071        1032890688.2434367     
   3596662768.5340176        20484890.590744495        1029629681.4697846     
   3493461294.7122116        13408518.062145233        1031065867.8910007     
   3390845233.5546675        8283521.0810856819        1037199247.5070802     
   3386115529.5864925        44332693.857269645        1158158958.5869384     
   3294550523.6045003        37559896.008173108        1151649437.4869165     
   3202805457.0736337        30186896.329500914        1149323796.6043046     
   3110880329.9938979        22213694.821262836        1151182035.9391086     
   3018775142.3652897        13640291.483449340        1157224155.4913249     
   4497037702.2102432       -10792131.599777699        659210747.88816845     
   4360858808.3769646       -2988133.5077481270        653052714.32041836     
   4223903251.2265453        2226986.8604745865        650655020.68738258     
   4086171030.7589760        4853229.5048632622        652017666.98906374     
   3947662146.9742608        4890594.4254324436        657140653.22545755     
   4129976513.4771442       -3932690.4605295658        788192543.70550239     
   4002589186.2810569       -567562.96464657784        780941200.02751958     
   3874877698.3181758        1717028.6419222355        777716614.73484814     
   3746842049.5884991        2921084.3591747284        778518787.82748830     
   3618482240.0920296        3044604.1871118546        783347719.30544043     
   3761245690.5919509        2425860.4330904484        914188710.24513960     
   3643411125.6061883        1580476.0047614574        906371976.09900045     
   3525704902.4039850        1162897.5216267109        902848418.78876817     
   3408127020.9853354        1173124.9836797714        903618038.31444979     
   3290677481.3502469        1611158.3909254074        908680834.67603612     
   3390845233.5546675        8283521.0810856819        1037199247.5070802     
   3283324626.3523664        3455983.4004871845        1029345042.5348613     
   3176384863.4839692        564593.49958837032        1026050432.8491515     
   3070025944.9494810       -390648.62162554264        1027315418.4499433     
   2964247870.7489066        590257.03687512875        1033139999.3372443     
   3018775142.3652897        13640291.483449340        1157224155.4913249     
   2922329688.5195794        5058959.2225204706        1149860399.3351035     
   2826917581.5581279       -77883.424210190773        1147322656.9159906     
   2732538821.4809403       -1770236.4567314386        1149610928.2339776     
   2639193408.2880125       -18099.875047802925        1156725213.2890708     
   3947662146.9742608        4890594.4254324436        657140653.22545755     
   3798272676.7476726        957540.01215291023        648516981.57445109     
   3649194214.8483706       -1938819.9768486023        644418392.20140743     
   3500426761.2763600       -3798485.5415451527        644844885.10632622     
   3351970316.0316286       -4621456.6819808483        649796460.28921306     
   3618482240.0920296        3044604.1871118546        783347719.30544043     
   3481182980.8561063        290549.17321634293        775489540.70390821     
   3344078823.0990658       -1813167.5777401924        772134365.34045112     
   3207169766.8209081       -3266546.0657567978        773282193.21506822     
   3070455812.0216360       -4069586.2908247709        778933024.32775366     
   3290677481.3502469        1611158.3909254074        908680834.67603612     
   3165405350.1338696        17177.885076522827        901452924.46750963     
   3040212413.5479727       -1312820.5191723108        898705938.45716500     
   2915098671.5925498       -2378836.8218338490        900439876.64500427     
   2790064124.2676134       -3180871.0228844881        906654739.03102779     
   2964247870.7489066        590257.03687512875        1033139999.3372443     
   2850939784.5809617        137426.14774143696        1026407132.8652539     
   2737594986.1950889       -437778.80114626884        1024133111.5515538     
   2624213475.5912924       -1135357.8097789288        1026317935.3961483     
   2510795252.7695785       -1955310.8781510592        1032961604.3990312     
   2639193408.2880125       -18099.875047802925        1156725213.2890708     
   2537786284.1973796        651293.96119081974        1150352165.8971429     
   2436226541.0404234        811957.57635855675        1148415884.6236184     
   2334514178.8171277        463890.97039735317        1150916369.4684908     
   2232649197.5275187       -392905.85661530495        1157853620.4317667     
   3351970316.0316286       -4621456.6819808483        649796460.28921306     
   3226780526.8750963        1689314.5073509216        642414030.93015599     
   3101381100.0527959        7301293.4774435759        637712654.65865171     
   2975772035.5647202        12214480.228285670        635692331.47470188     
   2849953333.4108715        16428874.759894133        636353061.37831199     
   3070455812.0216360       -4069586.2908247709        778933024.32775366     
   2952627646.5280147        1029931.7130074501        772088668.60394704     
   2834760525.5580654        5999598.1290732622        768505567.19148421     
   2716854449.1117940        10839412.957396269        768183720.09034836     
   2598909417.1891990        15549376.197968602        771123127.30055642     
   2790064124.2676134       -3180871.0228844881        906654739.03102779     
   2681255300.2191339        1204709.1301208735        900547586.16350055     
   2572578202.8837709        6029378.3268542290        898281888.83109081     
   2464032832.2615271        11293136.567317963        899857647.03379428     
   2355619188.3524036        16995983.851507664        905274860.77161276     
   2510795252.7695785       -1955310.8781510592        1032961604.3990312     
   2412663487.9484587        2213646.7586928606        1027790783.6088058     
   2314834132.0299077        7390634.0707609653        1027041619.5774645     
   2217307185.0139151        13575651.058026314        1030714112.3050253     
   2120082646.9004879        20768697.720510006        1038808261.7914765     
   2232649197.5275187       -392905.85661530495        1157853620.4317667     
   2146852209.7159903        4056744.5987384319        1153818260.9398572     
   2061528312.9964685        10083365.360783339        1154784759.4306164     
   1976677507.3689590        17686956.429536700        1160753115.9040508     
   1892299792.8334584        26867517.804981351        1171723330.3601565     
   2849953333.4108715        16428874.759894133        636353061.37831199     
   2690149123.4949436        11045311.008903265        618400924.86290944     
   2530948635.2311835        7674152.7651437521        602174211.01779509     
   2372351868.6195889        6315400.0286016464        587672919.84297299     
   2214358823.6601610        6969052.7992885113        574897051.33845127     
   2598909417.1891990        15549376.197968602        771123127.30055642     
   2444983731.8166528        10045025.739494085        757032193.26486588     
   2291479341.9221587        5944993.5411981344        745765652.37091577     
   2138396247.5057175        3249279.6030565500        737323504.61868632     
   1985734448.5673230        1957883.9251023531        731705750.00819099     
   2355619188.3524036        16995983.851507664        905274860.77161276     
   2210711943.1559157        12312821.375354528        894832298.67917705     
   2066043567.2633674        8425889.9123252630        888313100.19990802     
   1921614060.6747489        5335189.4623970985        885717265.33380342     
   1777423423.3900671        3040720.0255975723        887044794.08086395     
   2120082646.9004879        20768697.720510006        1038808261.7914765     
   1987333757.5127399        17848697.916481495        1031801241.1058254     
   1854641311.2548048        15116841.878516436        1029816554.5047767     
   1722005308.1266909        12573129.606606722        1032854201.9883296     
   1589425748.1283927        10217561.100760579        1040914183.5564864     
   1892299792.8334584        26867517.804981351        1171723330.3601565     
   1774849174.8871140        26652655.362870336        1167939020.5448186     
   1657272573.8964765        26017849.439781785        1170276015.2855170     
   1539569989.8615360        24963100.035683334        1178734314.5822537     
   1421741422.7823014        23488407.150605142        1193313918.4350324     
   3768273931.3579435        1130482179.4073830        800558257.34844005     
   3779118368.6344481        1008734855.9082520        884843523.77131355     
   3790566435.2952828        888999630.35688972        974062735.19638205     
   3802618131.3404484        771276502.75329638        1068215891.6236451     
   3815273456.7699442        655565473.09747183        1167302993.0531027     
   3207826507.6892171        962347952.30676508        756706325.86414540     
   3235872296.8010392        868225280.28531575        853065188.36715877     
   3263639498.4722152        773173983.46170986        951346995.40029573     
   3291128112.7027435        677194061.83594799        1051551746.9635559     
   3318338139.4926252        580285515.40802932        1153679443.0569396     
   2685634765.4939003        805690429.64817011        722009115.44842851     
   2722279047.9494081        736611551.55691266        829412321.06910801     
   2757762526.1392922        663663325.91357386        935727470.74783945     
   2792085200.0635514        586845752.71815276        1040954564.4846233     
   2825247069.7221861        506158831.97065020        1145093602.2794588     
   2201698704.7719927        660509611.43159771        696466626.10128963     
   2238338622.0795550        613893669.72304308        813884921.87716091     
   2272935518.2965140        560467657.71248078        927204161.23901331     
   2305489393.4228716        500231575.39991164        1036424344.1868465     
   2336000247.4586272        433185422.78533566        1141545470.7206604     
   1756018325.5234947        526805497.65704840        680078857.82272840     
   1784051019.1914778        500071634.78370619        806482990.79131806     
   1809158474.9438810        463586978.85843170        925777066.87381744     
   1831340692.7807045        417351529.88122416        1037961086.0702261     
   1850597672.7019482        361365287.85208464        1143035048.3805439     
   3815273456.7699442        655565473.09747183        1167302993.0531027     
   3797883836.1452665        537604206.18130386        1188990755.1760597     
   3784349869.5797138        432495119.46222162        1205785340.0268629     
   3774671557.0732870        340238212.94022655        1217686747.6055105     
   3768848898.6259851        260833486.61531246        1224694977.9120057     
   3318338139.4926252        580285515.40802932        1153679443.0569396     
   3293784934.9645500        473091420.33524716        1182036619.6828306     
   3272967518.3719716        378349951.71412659        1207291792.4605567     
   3255885889.7148924        296061109.54466581        1229444961.3901193     
   3242540048.9933105        226224893.82686591        1248496126.4715173     
   2825247069.7221861        506158831.97065020        1145093602.2794588     
   2798647919.6449704        411267200.24753231        1179980349.5973840     
   2775664691.3796248        328428641.23064995        1213556266.4911351     
   2756297384.9261513        257643154.92000377        1245821352.9607127     
   2740546000.2845469        198910741.31559253        1276775609.0061164     
   2336000247.4586272        433185422.78533566        1141545470.7206604     
   2312472790.1865287        352131545.91815877        1182821944.9197214     
   2292441388.6026735        282731188.01179171        1224578762.1185997     
   2275906042.7070618        224984349.06623662        1266815922.3172925     
   2262866752.4996920        178891029.08149087        1309533425.5158031     
   1850597672.7019482        361365287.85208464        1143035048.3805439     
   1835259546.5892243        295684457.34712547        1190561405.6498427     
   1823297610.0411170        241257592.05755275        1240359279.3429482     
   1814711863.0576253        198084691.98336548        1292428669.4598589     
   1809502305.6387486        166165757.12456381        1346769576.0005772     
   3768848898.6259851        260833486.61531246        1224694977.9120057     
   3661695503.5747519        168474779.12126958        1192334000.0846622     
   3562188810.3844261        101605077.83024907        1170457670.9213696     
   3470328819.0550079        60224382.742252111        1159065990.4221280     
   3386115529.5864925        44332693.857269645        1158158958.5869384     
   3242540048.9933105        226224893.82686591        1248496126.4715173     
   3164919121.7412758        151953166.50033772        1231424119.1058841     
   3093351646.7847815        97859613.492271781        1222410827.4984629     
   3027837624.1238251        63944234.802671432        1221456251.6492574     
   2968377053.7584095        50207030.431538105        1228560391.5582640     
   2740546000.2845469        198910741.31559253        1276775609.0061164     
   2685526303.9578886        140646623.09442973        1273133780.9425976     
   2634966810.3614030        97249847.307175159        1275124735.7314551     
   2588867519.4950895        68720413.953829050        1282748473.3726885     
   2547228431.3589482        55058323.034390092        1296004993.8662975     
   2262866752.4996920        178891029.08149087        1309533425.5158031     
   2223517050.2245893        134555148.90354812        1317462985.5948055     
   2187034301.1142907        99775779.274956584        1328599395.6203446     
   2153418505.1687970        74552920.195718646        1342942655.5924215     
   2122669662.3881102        58886571.665828705        1360492765.5110383     
   1809502305.6387486        166165757.12456381        1346769576.0005772     
   1778891360.5413775        133678743.92769533        1364411733.0625041     
   1749554119.0434449        105437409.39562094        1382834807.1651318     
   1721490581.1449504        81441753.528342187        1402038798.3084593     
   1694700746.8458946        61691776.325856030        1422023706.4924879     
   3386115529.5864925        44332693.857269645        1158158958.5869384     
   3294550523.6045003        37559896.008173108        1151649437.4869165     
   3202805457.0736337        30186896.329500914        1149323796.6043046     
   3110880329.9938979        22213694.821262836        1151182035.9391086     
   3018775142.3652897        13640291.483449340        1157224155.4913249     
   2968377053.7584095        50207030.431538105        1228560391.5582640     
   2886688048.4916034        39457346.948584437        1221008422.2549155     
   2805312218.1986599        29751580.045176268        1217787239.1998038     
   2724249562.8795815        21089729.721320271        1218896842.3929293     
   2643500082.5343685        13471795.977013469        1224337231.8342888     
   2547228431.3589482        55058323.034390092        1296004993.8662975     
   2475835158.3239641        40457673.372573256        1287986017.8028173     
   2405248295.7855787        28545058.699419260        1284444734.0183954     
   2335467843.7437963        19320479.014938712        1285381142.5130327     
   2266493802.1986132        12783934.319126725        1290795243.2867277     
   2122669662.3881102        58886571.665828705        1360492765.5110383     
   2061991853.1015849        40560875.280138850        1352582224.1306176     
   2002613689.8343954        26567332.292233944        1349296281.0600767     
   1944535172.5865409        16905942.702113748        1350634936.2994177     
   1887756301.3580253        11576706.509789586        1356598189.8486392     
   1694700746.8458946        61691776.325856030        1422023706.4924879     
   1645158132.8244646        39766952.671284854        1414797041.2383175     
   1597408400.3451035        23818400.823611379        1412341880.3248508     
   1551451549.4078164        13846120.782852232        1414658223.7520869     
   1507287580.0126028        9850112.5490019321        1421746071.5200284     
   3018775142.3652897        13640291.483449340        1157224155.4913249     
   2922329688.5195794        5058959.2225204706        1149860399.3351035     
   2826917581.5581279       -77883.424210190773        1147322656.9159906     
   2732538821.4809403       -1770236.4567314386        1149610928.2339776     
   2639193408.2880125       -18099.875047802925        1156725213.2890708     
   2643500082.5343685        13471795.977013469        1224337231.8342888     
   2560016134.7370105        6721325.3090773821        1217384731.5385973     
   2477331849.3143711        2636395.8902016878        1215154100.2523050     
   2395447226.2664437        1217007.7203700542        1217645337.9754145     
   2314362265.5932379        2463160.7996023893        1224858444.7079232     
   2266493802.1986132        12783934.319126725        1290795243.2867277     
   2195673804.0847430        7775058.3347281218        1283981366.9237597     
   2125419783.8360426        4652775.2342319489        1281785214.8424881     
   2055731741.4525146        3417085.0176420212        1284206787.0429151     
   1986609676.9341562        4067987.6849572659        1291246083.5250363     
   1887756301.3580253        11576706.509789586        1356598189.8486392     
   1829302696.5627744        8220158.2994685173        1349650305.4905939     
   1771181385.1231472        5971254.6078903675        1347216000.6865425     
   1713392367.0391500        4829995.4350845814        1349295275.4364827     
   1655935642.3107791        4796380.7810251713        1355888129.7404177     
   1507287580.0126028        9850112.5490019321        1421746071.5200284     
   1460902812.1711040        8056625.2032941580        1414391547.2391009     
   1414616653.1756866        6591834.0111906528        1411446457.7844646     
   1368429103.0263510        5455738.9726942778        1412910803.1561179     
   1322340161.7230949        4648340.0877975225        1418784583.3540618     
   2639193408.2880125       -18099.875047802925        1156725213.2890708     
   2537786284.1973796        651293.96119081974        1150352165.8971429     
   2436226541.0404234        811957.57635855675        1148415884.6236184     
   2334514178.8171277        463890.97039735317        1150916369.4684908     
   2232649197.5275187       -392905.85661530495        1157853620.4317667     
   2314362265.5932379        2463160.7996023893        1224858444.7079232     
   2224442677.9393234        2221252.9866452217        1217441109.9618523     
   2134489797.4944391        1868369.2037889957        1214633875.9677513     
   2044503624.2585900        1404509.4510486126        1216436742.7256172     
   1954484158.2317753        829673.72842371464        1222849710.2354524     
   1986609676.9341562        4067987.6849572659        1291246083.5250363     
   1908672867.5271540        3063350.7658523321        1282923675.4127424     
   1830822091.6045432        2345492.1280626059        1279384702.6859870     
   1753057349.1663265        1914411.7715820074        1280629165.3447654     
   1675378640.2125022        1770109.6964087486        1286657063.3890789     
   1655935642.3107791        4796380.7810251713        1355888129.7404177     
   1590476852.9608772        3177587.2988338470        1346799862.2498236     
   1525223423.3707304        2243326.3491560221        1342668364.7783296     
   1460175353.5403371        1993597.9319945574        1343493637.3259389     
   1395332643.4696944        2428402.0473309159        1349275679.8926499     
   1322340161.7230949        4648340.0877975225        1418784583.3540618     
   1269854634.2404890        2563962.5855787396        1409069670.4730837     
   1217693792.7929971        1561871.8670700788        1404484862.2447746     
   1165857637.3806193        1642067.9322792292        1405030158.6691353     
   1114346168.0033548        2804550.7811967731        1410705559.7461674     
   2232649197.5275187       -392905.85661530495        1157853620.4317667     
   2146852209.7159903        4056744.5987384319        1153818260.9398572     
   2061528312.9964685        10083365.360783339        1154784759.4306164     
   1976677507.3689590        17686956.429536700        1160753115.9040508     
   1892299792.8334584        26867517.804981351        1171723330.3601565     
   1954484158.2317753        829673.72842371464        1222849710.2354524     
   1881193866.0780258        5774719.8201143742        1218724564.5057547     
   1808267281.8706658        11932125.733101010        1219103773.8448291     
   1735704405.6096985        19301891.467402816        1223987338.2526784     
   1663505237.2951229        27884017.023006618        1233375257.7292962     
   1675378640.2125022        1770109.6964087486        1286657063.3890789     
   1613173606.8196702        6784120.3553719521        1282314517.7517071     
   1551222898.2276158        12645880.350250483        1281978824.2692099     
   1489526514.4363308        19355389.681036592        1285649982.9415817     
   1428084455.4458239        26912648.347741187        1293327993.7688291     
   1395332643.4696944        2428402.0473309159        1349275679.8926499     
   1342791431.9409273        7084946.2045171261        1344588120.6777184     
   1290395162.0673163        12224629.212223828        1343409910.7037616     
   1238143833.8488581        17847451.070438921        1345741049.9707720     
   1186037447.2855580        23953411.779183209        1351581538.4787540     
   1114346168.0033548        2804550.7811967731        1410705559.7461674     
   1070047341.4417896        6677197.3675356507        1405545373.2837863     
   1025784073.3897675        10668372.319021583        1403397033.1484773     
   981556363.84727538        14778075.635602236        1404260539.3402390     
   937364212.81432819        19006307.317336142        1408135891.8590739     
   1892299792.8334584        26867517.804981351        1171723330.3601565     
   1774849174.8871140        26652655.362870336        1167939020.5448186     
   1657272573.8964765        26017849.439781785        1170276015.2855170     
   1539569989.8615360        24963100.035683334        1178734314.5822537     
   1421741422.7823014        23488407.150605142        1193313918.4350324     
   1663505237.2951229        27884017.023006618        1233375257.7292962     
   1561631988.5594678        28081089.203926325        1227007487.8309538     
   1459736023.5817990        28202440.578138113        1226405943.2410216     
   1357817342.3621101        28248071.145619214        1231570623.9594991     
   1255875944.9004149        28217980.906407237        1242501529.9863763     
   1428084455.4458239        26912648.347741187        1293327993.7688291     
   1340774063.7847643        27217301.510853410        1284497241.7234831     
   1253544222.6839767        27790456.541543901        1281077635.7389107     
   1166394932.1434553        28632113.439789593        1283069175.8151205     
   1079326192.1632047        29742272.205599010        1290471861.9520977     
   1186037447.2855580        23953411.779183209        1351581538.4787540     
   1112275400.5630059        24061292.283669770        1340408282.2224009     
   1038697171.2030077        24781897.330009222        1334291092.7791920     
   965302759.20556152        26115226.918186724        1333229970.1491256     
   892092164.57066798        28061281.048202783        1337224914.3322079     
   937364212.81432819        19006307.317336142        1408135891.8590739     
   876135998.89419127        18613061.522359431        1394740609.3277137     
   815194869.13889909        19176762.943534285        1386046314.3618610     
   754540823.54843891        20697411.580808938        1382053006.9615297     
   694173862.12281144        23175007.434203982        1382760687.1267033     
   1756018325.5234947        526805497.65704840        680078857.82272840     
   1784051019.1914778        500071634.78370619        806482990.79131806     
   1809158474.9438810        463586978.85843170        925777066.87381744     
   1831340692.7807045        417351529.88122416        1037961086.0702261     
   1850597672.7019482        361365287.85208464        1143035048.3805439     
   1326352776.2924345        397905832.88773030        669744751.04694021     
   1339569932.7214406        375513226.58816463        791894455.25235844     
   1350593160.7135608        345807525.49898028        908755820.79685950     
   1359422460.2687957        308788729.62017727        1020328847.6804433     
   1366057831.3871450        264456838.95175585        1126613535.9031103     
   890461205.62284124        267138361.68685237        662363246.20811987     
   894067734.02765119        250648484.72549734        781111716.04217660     
   896211643.47426975        229283211.23683763        896393565.44048953     
   896892933.96269667        203042541.22087300        1008208794.4030585     
   896111605.49293220        171926474.67760360        1116557402.9298840     
   448343613.51471448        134503084.05441433        657934343.30626762     
   447544423.11010945        125477409.19570431        774134773.16077256     
   446013923.22600704        114014036.07200342        888690300.80470729     
   443752113.86240733        100112964.68331161        1001600926.2380708     
   440758995.01931059        83774195.029629126        1112866649.4608648     
  -3.1945600011449818E-002  -9.5836800034349457E-003   656458042.34138322     
  -3.1184653074120154E-002  -1.2143559967116493E-003   770963626.60814643     
  -3.1226829730060801E-002   4.4780628381248799E-003   885646026.88951242     
  -3.2072129979271752E-002   7.4933162925532506E-003   1000505243.1854814     
  -3.3720582416096025E-002   7.8313957882705561E-003   1115541275.4960532     
   1850597672.7019482        361365287.85208464        1143035048.3805439     
   1835259546.5892243        295684457.34712547        1190561405.6498427     
   1823297610.0411170        241257592.05755275        1240359279.3429482     
   1814711863.0576253        198084691.98336548        1292428669.4598589     
   1809502305.6387486        166165757.12456381        1346769576.0005772     
   1366057831.3871450        264456838.95175585        1126613535.9031103     
   1360321385.2594471        216926360.61021221        1182021351.4300284     
   1357117081.3053555        177836356.18068853        1238355015.4069881     
   1356444919.5248702        147186825.66318393        1295614527.8339880     
   1358304899.9179902        124977769.05769950        1353799888.7110288     
   896111605.49293220        171926474.67760360        1116557402.9298840     
   896132073.71093035        141392918.80767706        1178861954.7582440     
   897840636.71152437        116486345.54640332        1240746687.0628791     
   901237294.49471450        97206754.893782973        1302211599.8437898     
   906322047.06050062        83554146.849816859        1363256693.1009748     
   440758995.01931059        83774195.029629126        1112866649.4608648     
   442691611.94367373        69084131.939519316        1181083215.6344883     
   445468276.25962311        57207560.154697493        1247534294.3106215     
   449088987.96715826        48144479.675162166        1312219885.4892635     
   453553747.06628013        41894890.500914380        1375139989.1704166     
  -3.3720582416096025E-002   7.8313957882705561E-003   1115541275.4960532     
  -4.2322527122079207E-002   5.7408891056738107E-003   1188685134.0587621     
  -5.0348783349946996E-002   5.5695174891426426E-003   1258717837.1502154     
  -5.7798517932029919E-002   7.3200581642419577E-003   1325639384.7704120     
  -6.4671230824754566E-002   1.0993484053492698E-002   1389449776.9193528     
   1809502305.6387486        166165757.12456381        1346769576.0005772     
   1778891360.5413775        133678743.92769533        1364411733.0625041     
   1749554119.0434449        105437409.39562094        1382834807.1651318     
   1721490581.1449504        81441753.528342187        1402038798.3084593     
   1694700746.8458946        61691776.325856030        1422023706.4924879     
   1358304899.9179902        124977769.05769950        1353799888.7110288     
   1332721010.3442240        99824804.934661269        1372773707.7868912     
   1308092398.4688385        77856099.806225002        1393141102.7462509     
   1284419064.2918334        59071653.672390521        1414902073.5891058     
   1261701007.8132091        43471466.533159077        1438056620.3154564     
   906322047.06050062        83554146.849816859        1363256693.1009748     
   887515666.84689784        66260367.951576799        1383190677.3062065     
   869346138.43061793        51089428.377745748        1405130896.2377298     
   851813461.81166101        38041328.128324628        1429077349.8955443     
   834917636.99002671        27116067.203312278        1455030038.2796509     
   453553747.06628013        41894890.500914380        1375139989.1704166     
   443275330.04939902        32985432.978439465        1395662641.6204491     
   433315338.92878360        25137395.110183626        1418804187.6395698     
   423673773.70443255        18350776.896142349        1444564627.2277765     
   414350634.37634641        12625578.336317345        1472943960.3850703     
  -6.4671230824754566E-002   1.0993484053492698E-002   1389449776.9193528     
  -4.8272295044011197E-002   1.5251610642917194E-002   1410189600.7296197     
  -3.6666057095275609E-002   3.5335573752729270E-003   1434160976.9517691     
  -2.9851950810556201E-002  -2.4158007897237207E-002   1461363905.5858002     
  -2.7831811946674258E-002  -6.7829464572538883E-002   1491798386.6317143     
   1694700746.8458946        61691776.325856030        1422023706.4924879     
   1645158132.8244646        39766952.671284854        1414797041.2383175     
   1597408400.3451035        23818400.823611379        1412341880.3248508     
   1551451549.4078164        13846120.782852232        1414658223.7520869     
   1507287580.0126028        9850112.5490019321        1421746071.5200284     
   1261701007.8132091        43471466.533159077        1438056620.3154564     
   1225915986.4866927        27439430.538817227        1434675857.6037948     
   1191475626.3184483        15889598.405385673        1435746480.0874624     
   1158379927.3084764        8821970.1328598857        1441268487.7664618     
   1126628889.4567776        6236545.7212452292        1451241880.6407919     
   834917636.99002671        27116067.203312278        1455030038.2796509     
   811975582.22878754        16702431.030309260        1454972254.3293967     
   789929968.24202299        9276930.7722204328        1459045736.4291015     
   768780795.02973187        4839566.4290429354        1467250484.5787644     
   748528062.59191513        3390338.0007812679        1479586498.7783856     
   414350634.37634641        12625578.336317345        1472943960.3850703     
   403336920.05075145        7555954.1457663327        1475686231.4151256     
   392771426.11583066        3980397.9241301119        1482239649.3497679     
   382654152.57158434        1898909.6714084297        1492604214.1889968     
   372985099.41801274        1311489.3876025677        1506779925.9328110     
  -2.7831811946674258E-002  -6.7829464572538883E-002   1491798386.6317143     
  -4.7419280041055986E-002 -0.11482281471784608        1496817788.8609812     
  -6.0130380528246999E-002 -0.13889389867176533        1505328218.8494613     
  -6.5967509614191622E-002 -0.14005191809387749        1517329676.5971553     
  -6.4926635496525317E-002 -0.11828395406001034        1532822162.1040628     
   1507287580.0126028        9850112.5490019321        1421746071.5200284     
   1460902812.1711040        8056625.2032941580        1414391547.2391009     
   1414616653.1756866        6591834.0111906528        1411446457.7844646     
   1368429103.0263510        5455738.9726942778        1412910803.1561179     
   1322340161.7230949        4648340.0877975225        1418784583.3540618     
   1126628889.4567776        6236545.7212452292        1451241880.6407919     
   1091842662.5951428        4892134.9223334789        1444882997.7964461     
   1057130392.3657972        3794246.2310531735        1442933001.6764455     
   1022492078.7687395        2942879.6473989487        1445391892.2807879     
   987927721.80397046        2338035.1713705063        1452259669.6094770     
   748528062.59191513        3390338.0007812679        1479586498.7783856     
   725338810.70458829        2494533.9470002651        1474194496.4545276     
   702198863.23575795        1763077.9548724890        1473210832.7530696     
   679108220.18542290        1195970.0243955553        1476635507.6740117     
   656066881.55358100        793210.15556558967        1484468521.2173550     
   372985099.41801274        1311489.3876025677        1506779925.9328110     
   361391256.49943852        863822.27728657424        1502326043.2133491     
   349822065.78556651        498329.18264523149        1502279951.0143404     
   338277527.27639478        215010.10367201269        1506641649.3357892     
   326757640.97192806        13865.040380805731        1515411138.1776938     
  -6.4926635496525317E-002 -0.11828395406001034        1532822162.1040628     
  -2.0306512881463644E-002  -8.6805722866200280E-002   1529277638.0729055     
   1.5222987705563573E-002  -8.5628871209781354E-002   1530140356.4602582     
   4.1661591758863442E-002 -0.11475587536085824        1535410317.2661200     
   5.9008567263254874E-002 -0.17418726717421096        1545087520.4904947     
   1322340161.7230949        4648340.0877975225        1418784583.3540618     
   1269854634.2404890        2563962.5855787396        1409069670.4730837     
   1217693792.7929971        1561871.8670700788        1404484862.2447746     
   1165857637.3806193        1642067.9322792292        1405030158.6691353     
   1114346168.0033548        2804550.7811967731        1410705559.7461674     
   987927721.80397046        2338035.1713705063        1452259669.6094770     
   948871173.89461315        867031.33809441328        1443733380.5469277     
   910058140.51304758        207742.59745681286        1440265423.3490677     
   871488621.65927732        360168.94946950674        1441855798.0158966     
   833162617.33329690        1324310.3941171765        1448504504.5474122     
   656066881.55358100        793210.15556558967        1484468521.2173550     
   630234248.10895324       -125939.54133012891        1477036155.8813605     
   604563957.68479824       -503945.83664971590        1474590349.6220751     
   579056010.28111637       -340808.73039266467        1477131102.4394948     
   553710405.89790595        363471.77743595839        1484658414.3336265     
   326757640.97192806        13865.040380805731        1515411138.1776938     
   313943856.88351232       -414950.05268976092        1508977996.4763815     
   301211244.30825174       -573193.43524207175        1507459641.0637946     
   288559803.24613881       -460865.10730314255        1510856071.9399364     
   275989533.69718009       -77965.068849965930        1519167289.1048031     
   5.9008567263254874E-002 -0.17418726717421096        1545087520.4904947     
  0.21829090732807788      -0.19597691143894877        1539558902.3319907     
  0.38340452607626546      -0.19832965398186148        1538873297.6742315     
  0.55434827973409728      -0.18124791960323644        1543030706.5172179     
  0.73112468460375823      -0.14472470840790458        1552031128.8609490     
   1114346168.0033548        2804550.7811967731        1410705559.7461674     
   1070047341.4417896        6677197.3675356507        1405545373.2837863     
   1025784073.3897675        10668372.319021583        1403397033.1484773     
   981556363.84727538        14778075.635602236        1404260539.3402390     
   937364212.81432819        19006307.317336142        1408135891.8590739     
   833162617.33329690        1324310.3941171765        1448504504.5474122     
   797025567.72663558        3354916.4390817583        1444326427.9288714     
   760915187.01054657        5474418.7859539390        1443839881.2273450     
   724831475.18502665        7682817.4347231686        1447044864.4428384     
   688774432.25008321        9980112.3854137063        1453941377.5753505     
   553710405.89790595        363471.77743595839        1484658414.3336265     
   527677086.36027890        1134623.2152546346        1481452076.3367915     
   501661546.09426236        1965038.8917744160        1482616951.8469262     
   475663785.09984577        2854718.8069611788        1488153040.8640234     
   449683803.37703967        3803662.9608484507        1498060343.3880861     
   275989533.69718009       -77965.068849965930        1519167289.1048031     
   262001897.34272686        16317.696080118418        1516922318.5075555     
   248023150.64091283        140232.63647505641        1519728245.0072155     
   234053293.59173623        293779.75232888758        1527585068.6037924     
   220092326.19519895        476959.04364566505        1540492789.2972786     
  0.73112468460375823      -0.14472470840790458        1552031128.8609490     
  0.67397159282072439      -0.11846535657206964        1550737154.4411571     
  0.65049778750361076        2.0056895704718247E-002   1555173760.7082243     
  0.66069064139054356       0.27080099838363303        1565340947.6621468     
  0.70455930467128658       0.63379988071008564        1581238715.3029330     
   937364212.81432819        19006307.317336142        1408135891.8590739     
   876135998.89419127        18613061.522359431        1394740609.3277137     
   815194869.13889909        19176762.943534285        1386046314.3618610     
   754540823.54843891        20697411.580808938        1382053006.9615297     
   694173862.12281144        23175007.434203982        1382760687.1267033     
   688774432.25008321        9980112.3854137063        1453941377.5753505     
   640335420.93094575        8929822.8184272945        1444457612.4535294     
   592111722.69766510        8597243.5376268625        1440262333.4066594     
   544103337.55023038        8982374.5429879129        1441355540.4347382     
   496310265.48866558        10085215.834568053        1447737233.5377738     
   449683803.37703967        3803662.9608484507        1498060343.3880861     
   415712561.82871777        2599899.7727753520        1492404362.7503345     
   381884862.28727227        1874609.9409575611        1492624366.6969678     
   348200704.75269932        1627793.4653832614        1498720355.2279880     
   314660089.22500455        1859450.3460709900        1510692328.3434036     
   220092326.19519895        476959.04364566505        1540492789.2972786     
   202267421.58751383       -376707.61456681043        1538580860.2181149     
   184514287.90772778       -991137.84645012021        1543132414.2327781     
   166832925.15583763       -1366331.6520104930        1554147451.3412731     
   149223333.33183846       -1502289.0312742889        1571625971.5435858     
  0.70455930467128658       0.63379988071008564        1581238715.3029330     
  0.20733936545691312       0.65641315643090092        1582987104.8568807     
 -0.44096736335690406       0.17540449404296091        1591786476.0140934     
  -1.2403643130913262      -0.80924274836136678        1607636828.7745755     
  -2.1908381702202480       -2.2974727431867881        1630538163.1383140     
  -3.1945600011449818E-002  -9.5836800034349457E-003   656458042.34138322     
  -3.1184653074120154E-002  -1.2143559967116493E-003   770963626.60814643     
  -3.1226829730060801E-002   4.4780628381248799E-003   885646026.88951242     
  -3.2072129979271752E-002   7.4933162925532506E-003   1000505243.1854814     
  -3.3720582416096025E-002   7.8313957882705561E-003   1115541275.4960532     
  -448343613.57759798       -134503084.07327938        657934343.31317508     
  -447544423.17180520       -125477409.19912972        774134773.16665542     
  -446013923.28791136       -114014036.06464277        888690300.80960798     
  -443752113.92591625       -100112964.66981846        1001600926.2420328     
  -440758995.08582014       -83774195.014657155        1112866649.4639297     
  -890461205.68270135       -267138361.70481038        662363246.22135127     
  -894067734.08653617       -250648484.72927821        781111716.05360401     
  -896211643.53336549       -229283211.23039445        896393565.45019817     
  -896892934.02318907       -203042541.20815900        1008208794.4111338     
  -896111605.55600798       -171926474.66257238        1116557402.9364107     
  -1326352776.3472559       -397905832.90417677        669744751.06591177     
  -1339569932.7753775       -375513226.59165972        791894455.26899183     
  -1350593160.7675893       -345807525.49277705        908755820.81128252     
  -1359422460.3238909       -308788729.60752839        1020328847.6927838     
  -1366057831.4442837       -264456838.93591404        1126613535.9134960     
  -1756018325.5712614       -526805497.67137843        680078857.84685671     
  -1784051019.2383287       -500071634.78627431        806482990.81281877     
  -1809158474.9905820       -463586978.85179025        925777066.89286125     
  -1831340692.8280215       -417351529.86792606        1037961086.0869836     
  -1850597672.7506471       -361365287.83468175        1143035048.3951857     
  -3.3720582416096025E-002   7.8313957882705561E-003   1115541275.4960532     
  -4.2322527122079207E-002   5.7408891056738107E-003   1188685134.0587621     
  -5.0348783349946996E-002   5.5695174891426426E-003   1258717837.1502154     
  -5.7798517932029919E-002   7.3200581642419577E-003   1325639384.7704120     
  -6.4671230824754566E-002   1.0993484053492698E-002   1389449776.9193528     
  -440758995.08582014       -83774195.014657155        1112866649.4639297     
  -442691612.02705961       -69084131.927899554        1181083215.6396899     
  -445468276.35892910       -57207560.143241763        1247534294.3180201     
  -449088988.08142960       -48144479.660687834        1312219885.4989202     
  -453553747.19456011       -41894890.480234131        1375139989.1823909     
  -896111605.55600798       -171926474.66257238        1116557402.9364107     
  -896132073.79038024       -141392918.79511341        1178861954.7688138     
  -897840636.80659032       -116486345.53377908        1240746687.0776131     
  -901237294.60463738       -97206754.878568769        1302211599.8628087     
  -906322047.18452203       -83554146.829483241        1363256693.1244009     
  -1366057831.4442837       -264456838.93591404        1126613535.9134960     
  -1360321385.3322854       -216926360.59590265        1182021351.4461339     
  -1357117081.3933315       -177836356.16603985        1238355015.4289944     
  -1356444919.6274209       -147186825.64632243        1295614527.8620777     
  -1358304900.0345562       -124977769.03675461        1353799888.7453840     
  -1850597672.7506471       -361365287.83468175        1143035048.3951857     
  -1835259546.6527746       -295684457.33026797        1190561405.6716504     
  -1823297610.1191528       -241257592.04002398        1240359279.3721642     
  -1814711863.1497817       -198084691.96394998        1292428669.4967270     
  -1809502305.7446628       -166165757.10204661        1346769576.0453389     
  -6.4671230824754566E-002   1.0993484053492698E-002   1389449776.9193528     
  -4.8272295044011197E-002   1.5251610642917194E-002   1410189600.7296197     
  -3.6666057095275609E-002   3.5335573752729270E-003   1434160976.9517691     
  -2.9851950810556201E-002  -2.4158007897237207E-002   1461363905.5858002     
  -2.7831811946674258E-002  -6.7829464572538883E-002   1491798386.6317143     
  -453553747.19456011       -41894890.480234131        1375139989.1823909     
  -443275330.14537704       -32985432.948817149        1395662641.6228628     
  -433315339.00076914       -25137395.099317700        1418804187.6319420     
  -423673773.76073706       -18350776.931738168        1444564627.2096286     
  -414350634.42528105       -12625578.446077943        1472943960.3559222     
  -906322047.18452203       -83554146.829483241        1363256693.1244009     
  -887515666.94048285       -66260367.922284782        1383190677.3119984     
  -869346138.50080287       -51089428.362948954        1405130896.2249279     
  -851813461.86548162       -38041328.151475370        1429077349.8631892     
  -834917637.03451872       -27116067.287864178        1455030038.2267833     
  -1358304900.0345562       -124977769.03675461        1353799888.7453840     
  -1332721010.4335916       -99824804.905154765        1372773707.7970266     
  -1308092398.5367665       -77856099.787356257        1393141102.7307250     
  -1284419064.3440855       -59071653.683369875        1414902073.5464816     
  -1261701007.8555448       -43471466.593186378        1438056620.2442949     
  -1809502305.7446628       -166165757.10204661        1346769576.0453389     
  -1778891360.6246998       -133678743.89742267        1364411733.0779462     
  -1749554119.1086626       -105437409.37254882        1382834807.1493354     
  -1721490581.1965489       -81441753.527424037        1402038798.2595065     
  -1694700746.8883605       -61691776.362046242        1422023706.4084585     
  -2.7831811946674258E-002  -6.7829464572538883E-002   1491798386.6317143     
  -4.7419280041055986E-002 -0.11482281471784608        1496817788.8609812     
  -6.0130380528246999E-002 -0.13889389867176533        1505328218.8494613     
  -6.5967509614191622E-002 -0.14005191809387749        1517329676.5971553     
  -6.4926635496525317E-002 -0.11828395406001034        1532822162.1040628     
  -414350634.42528105       -12625578.446077943        1472943960.3559222     
  -403336920.13840002       -7555954.3361444473        1475686231.3995178     
  -392771426.22902155       -3980398.1512189507        1482239649.3449693     
  -382654152.69714653       -1898909.8913049251        1492604214.1922753     
  -372985099.54277474       -1311489.5564023256        1506779925.9414392     
  -834917637.03451872       -27116067.287864178        1455030038.2267833     
  -811975582.31933534       -16702431.184451997        1454972254.3029320     
  -789929968.36603427       -9276930.9539805949        1459045736.4235787     
  -768780795.17461538       -4839566.5964490473        1467250484.5887220     
  -748528062.74507821       -3390338.1118581891        1479586498.7983632     
  -1261701007.8555448       -43471466.593186378        1438056620.2442949     
  -1225915986.5902262       -27439430.659747243        1434675857.5712223     
  -1191475626.4711678       -15889598.547176778        1435746480.0852888     
  -1158379927.4983702       -8821970.2554752827        1441268487.7864935     
  -1126628889.6718354       -6236545.7846488357        1451241880.6748381     
  -1694700746.8883605       -61691776.362046242        1422023706.4084585     
  -1645158132.9510717       -39766952.762026846        1414797041.2043889     
  -1597408400.5444233       -23818400.930810094        1412341880.3300998     
  -1551451549.6684148       -13846120.868393481        1414658223.7855918     
  -1507287580.3230469       -9850112.5747758746        1421746071.5708640     
  -6.4926635496525317E-002 -0.11828395406001034        1532822162.1040628     
  -2.0306512881463644E-002  -8.6805722866200280E-002   1529277638.0729055     
   1.5222987705563573E-002  -8.5628871209781354E-002   1530140356.4602582     
   4.1661591758863442E-002 -0.11475587536085824        1535410317.2661200     
   5.9008567263254874E-002 -0.17418726717421096        1545087520.4904947     
  -372985099.54277474       -1311489.5564023256        1506779925.9414392     
  -361391256.53211755       -863822.38092373312        1502326043.1876795     
  -349822065.74811125       -498329.29428255558        1502279950.9560566     
  -338277527.19076401       -215010.29650415480        1506641649.2465646     
  -326757640.86007035       -13865.387571424246        1515411138.0592074     
  -748528062.74507821       -3390338.1118581891        1479586498.7983632     
  -725338810.75803125       -2494533.9892667532        1474194496.4015145     
  -702198863.21520233       -1763078.0140685737        1473210832.6304216     
  -679108220.11659253       -1195970.1862683892        1476635507.4850845     
  -656066881.46220231       -793210.50586649776        1484468520.9655027     
  -1126628889.6718354       -6236545.7846488357        1451241880.6748381     
  -1091842662.6980484       -4892134.9118386507        1444882997.7144074     
  -1057130392.3860459       -3794246.2449776530        1442933001.4833562     
  -1022492078.7358260       -2942879.7840582132        1445391891.9816809     
  -987927721.74738824       -2338035.5290786028        1452259669.2093861     
  -1507287580.3230469       -9850112.5747758746        1421746071.5708640     
  -1460902812.3521731       -8056625.1486520171        1414391547.1263597     
  -1414616653.2606447       -6591833.9870136976        1411446457.5148573     
  -1368429103.0484633       -5455739.0898643136        1412910802.7363546     
  -1322340161.7156301       -4648340.4572108388        1418784582.7908547     
   5.9008567263254874E-002 -0.17418726717421096        1545087520.4904947     
  0.21829090732807788      -0.19597691143894877        1539558902.3319907     
  0.38340452607626546      -0.19832965398186148        1538873297.6742315     
  0.55434827973409728      -0.18124791960323644        1543030706.5172179     
  0.73112468460375823      -0.14472470840790458        1552031128.8609490     
  -326757640.86007035       -13865.387571424246        1515411138.0592074     
  -313943856.45985335        414949.62513697147        1508977996.3696458     
  -301211243.55853540        573192.97484809160        1507459640.9720962     
  -288559802.15610898        460864.66158843040        1510856071.8665597     
  -275989532.25258434        77964.685321316123        1519167289.0530336     
  -656066881.46220231       -793210.50586649776        1484468520.9655027     
  -630234247.70314574        125939.07670974731        1477036155.6560349     
  -604563956.94771516        503945.31386721134        1474590349.4298468     
  -579056009.19590974        340808.20560842752        1477131102.2869360     
  -553710404.44773018       -363472.24807038903        1484658414.2273052     
  -987927721.74738824       -2338035.5290786028        1452259669.2093861     
  -948871173.51158822       -867031.84126251936        1443733380.1911621     
  -910058139.78414083       -207743.18129080534        1440265423.0474820     
  -871488620.56505001       -360169.54917174578        1441855797.7783489     
  -833162615.85430896       -1324310.9448885918        1448504504.3837600     
  -1322340161.7156301       -4648340.4572108388        1418784582.7908547     
  -1269854633.8851824       -2563963.1287869811        1409069669.9750233     
  -1217693792.0678127       -1561872.5106267929        1404484861.8250034     
  -1165857636.2635260       -1642068.6027438045        1405030158.3407977     
  -1114346166.4723237       -2804551.4051376581        1410705559.5224068     
  0.73112468460375823      -0.14472470840790458        1552031128.8609490     
  0.67397159282072439      -0.11846535657206964        1550737154.4411571     
  0.65049778750361076        2.0056895704718247E-002   1555173760.7082243     
  0.66069064139054356       0.27080099838363303        1565340947.6621468     
  0.70455930467128658       0.63379988071008564        1581238715.3029330     
  -275989532.25258434        77964.685321316123        1519167289.0530336     
  -262001896.01166371       -16318.032251581550        1516922318.5440829     
  -248023149.35483125       -140232.69678391516        1519728245.1338282     
  -234053292.28208780       -293779.30828116834        1527585068.8222754     
  -220092324.79343051       -476957.86673185229        1540492789.6094143     
  -553710404.44773018       -363472.24807038903        1484658414.2273052     
  -527677085.01776713       -1134623.6421815455        1481452076.4084730     
  -501661544.78965729       -1965039.0424675941        1482616952.1001780     
  -475663783.76339602       -2854718.4489156902        1488153041.3024175     
  -449683801.93898684       -3803661.8615384996        1498060344.0151951     
  -833162615.85430896       -1324310.9448885918        1448504504.3837600     
  -797025566.34434056       -3354916.9482592046        1444326428.0343270     
  -760915185.65398216       -5474419.0169956982        1443839881.6072657     
  -724831473.78323877       -7682817.1511172354        1447044865.1025820     
  -688774430.73210919       -9980111.3506158292        1453941378.5202723     
  -1114346166.4723237       -2804551.4051376581        1410705559.5224068     
  -1070047339.9913764       -6677197.9504589438        1405545373.4216452     
  -1025784071.9478090       -10668372.620383561        1403397033.6550951     
  -981556362.34161222       -14778075.414872766        1404260540.2227626     
  -937364211.17279327       -19006306.333958328        1408135893.1246397     
  0.70455930467128658       0.63379988071008564        1581238715.3029330     
  0.20733936545691312       0.65641315643090092        1582987104.8568807     
 -0.44096736335690406       0.17540449404296091        1591786476.0140934     
  -1.2403643130913262      -0.80924274836136678        1607636828.7745755     
  -2.1908381702202480       -2.2974727431867881        1630538163.1383140     
  -220092324.79343051       -476957.86673185229        1540492789.6094143     
  -202267421.16776779        376708.88841155171        1538580860.2074304     
  -184514288.74537802        991138.29930969328        1543132413.8968978     
  -166832927.52626696        1366330.3659477383        1554147450.6778133     
  -149223337.51042724        1502285.0883455947        1571625970.5501688     
  -449683801.93898684       -3803661.8615384996        1498060344.0151951     
  -415712561.36705780       -2599898.5268382132        1492404362.7630565     
  -381884863.05059254       -1874609.3770166934        1492624366.0905492     
  -348200706.98959458       -1627794.4120893776        1498720353.9976687     
  -314660093.18406415       -1859453.6320504546        1510692326.4844201     
  -688774430.73210919       -9980111.3506158292        1453941378.5202723     
  -640335420.39052868       -8929821.5893289745        1444457612.5237505     
  -592111723.35661054       -8597242.8535822630        1440262332.5950503     
  -544103339.63035393       -8982375.1433725655        1441355538.7341626     
  -496310269.21174741       -10085218.458663702        1447737230.9410784     
  -937364211.17279327       -19006306.333958328        1408135893.1246397     
  -876135998.23819447       -18613060.299104840        1394740609.4895227     
  -815194869.66343880       -19176762.130401701        1386046313.4103997     
  -754540825.44853163       -20697411.827859074        1382053004.8872669     
  -694173865.59347641       -23175009.391484022        1382760683.9201400     
  -1756018325.5712614       -526805497.67137843        680078857.84685671     
  -1784051019.2383287       -500071634.78627431        806482990.81281877     
  -1809158474.9905820       -463586978.85179025        925777066.89286125     
  -1831340692.8280215       -417351529.86792606        1037961086.0869836     
  -1850597672.7506471       -361365287.83468175        1143035048.3951857     
  -2201698704.8107405       -660509611.44322217        696466626.12996531     
  -2238338622.1174769       -613893669.72444963        813884921.90300965     
  -2272935518.3342900       -560467657.70593190        927204161.26215088     
  -2305489393.4611793       -500231575.38766873        1036424344.2073894     
  -2336000247.4981451       -433185422.76966047        1141545470.7387249     
  -2685634765.5217152       -805690429.65651453        722009115.48101759     
  -2722279047.9766436       -736611551.55663049        829412321.09877181     
  -2757762526.1665392       -663663325.90663600        935727470.77463996     
  -2792085200.0914016       -586845752.70653081        1040954564.5086222     
  -2825247069.7512302       -506158831.95631438        1145093602.3007188     
  -3207826507.7041855       -962347952.31125557        756706325.90001321     
  -3235872296.8158288       -868225280.28281677        853065188.40010524     
  -3263639498.4873281       -773173983.45390201        951346995.43032789     
  -3291128112.7186871       -677194061.82451177        1051551746.9906822     
  -3318338139.5099010       -580285515.39464474        1153679443.0811675     
  -3768273931.3581519       -1130482179.4074457        800558257.38695240     
  -3779118368.6350322       -1008734855.9030087        884843523.80700970     
  -3790566435.2966604       -888999630.34773088        974062735.22921526     
  -3802618131.3430362       -771276502.74161172        1068215891.6535691     
  -3815273456.7741590       -655565473.08465099        1167302993.0800710     
  -1850597672.7506471       -361365287.83468175        1143035048.3951857     
  -1835259546.6527746       -295684457.33026797        1190561405.6716504     
  -1823297610.1191528       -241257592.04002398        1240359279.3721642     
  -1814711863.1497817       -198084691.96394998        1292428669.4967270     
  -1809502305.7446628       -166165757.10204661        1346769576.0453389     
  -2336000247.4981451       -433185422.76966047        1141545470.7387249     
  -2312472790.2400379       -352131545.90348923        1182821944.9459219     
  -2292441388.6698942       -282731187.99719614        1224578762.1534605     
  -2275906042.7877140       -224984349.05078214        1266815922.3613410     
  -2262866752.5934963       -178891029.06424308        1309533425.5695617     
  -2825247069.7512302       -506158831.95631438        1145093602.3007188     
  -2798647919.6863389       -411267200.23442292        1179980349.6276512     
  -2775664691.4331231       -328428641.21811664        1213556266.5312169     
  -2756297384.9915833       -257643154.90739417        1245821353.0114164     
  -2740546000.3617182       -198910741.30225646        1276775609.0682492     
  -3318338139.5099010       -580285515.39464474        1153679443.0811675     
  -3293784934.9916763       -473091420.32306671        1182036619.7168372     
  -3272967518.4088407       -378349951.70278215        1207291792.5054331     
  -3255885889.7613912       -296061109.53378844        1229444961.4469550     
  -3242540049.0493288       -226224893.81608641        1248496126.5414023     
  -3815273456.7741590       -655565473.08465099        1167302993.0800710     
  -3797883836.1560526       -537604206.16942298        1188990755.2134809     
  -3784349869.5970449       -432495119.45119524        1205785340.0761092     
  -3774671557.0971365       -340238212.92996407        1217686747.6679556     
  -3768848898.6563292       -260833486.60573351        1224694977.9890199     
  -1809502305.7446628       -166165757.10204661        1346769576.0453389     
  -1778891360.6246998       -133678743.89742267        1364411733.0779462     
  -1749554119.1086626       -105437409.37254882        1382834807.1493354     
  -1721490581.1965489       -81441753.527424037        1402038798.2595065     
  -1694700746.8883605       -61691776.362046242        1422023706.4084585     
  -2262866752.5934963       -178891029.06424308        1309533425.5695617     
  -2223517050.3003063       -134555148.87938082        1317462985.6166966     
  -2187034301.1750002       -99775779.254131556        1328599395.6090136     
  -2153418505.2175765       -74552920.188491702        1342942655.5465157     
  -2122669662.4280381       -58886571.682466269        1360492765.4292018     
  -2740546000.3617182       -198910741.30225646        1276775609.0682492     
  -2685526304.0198660       -140646623.07452488        1273133780.9719584     
  -2634966810.4098573       -97249847.286268353        1275124735.7272532     
  -2588867519.5316906       -68720413.937487006        1282748473.3341341     
  -2547228431.3853669       -55058323.028182864        1296004993.7926013     
  -3242540049.0493288       -226224893.81608641        1248496126.5414023     
  -3164919121.7833800       -151953166.48285389        1231424119.1437337     
  -3093351646.8132343       -97859613.468962789        1222410827.5040529     
  -3027837624.1388884       -63944234.774406314        1221456251.6223609     
  -2968377053.7603450       -50207030.399193525        1228560391.4986565     
  -3768848898.6563292       -260833486.60573351        1224694977.9890199     
  -3661695503.5908489       -168474779.10437179        1192334000.1320214     
  -3562188810.3851309       -101605077.80221164        1170457670.9394131     
  -3470328819.0391712       -60224382.699252129        1159065990.4111960     
  -3386115529.5529747       -44332693.795499802        1158158958.5473678     
  -1694700746.8883605       -61691776.362046242        1422023706.4084585     
  -1645158132.9510717       -39766952.762026846        1414797041.2043889     
  -1597408400.5444233       -23818400.930810094        1412341880.3300998     
  -1551451549.6684148       -13846120.868393481        1414658223.7855918     
  -1507287580.3230469       -9850112.5747758746        1421746071.5708640     
  -2122669662.4280381       -58886571.682466269        1360492765.4292018     
  -2061991853.2472157       -40560875.343624115        1352582224.1173043     
  -2002613690.0751443       -26567332.367289186        1349296281.1078479     
  -1944535172.9118257       -16905942.753464222        1350634936.4008317     
  -1887756301.7572641       -11576706.502158523        1356598189.9962554     
  -2547228431.3853669       -55058323.028182864        1296004993.7926013     
  -2475835158.4676919       -40457673.402514815        1287986017.8150766     
  -2405248296.0368872       -28545058.733073235        1284444734.1126528     
  -2335467844.0929480       -19320479.019854188        1285381142.6853302     
  -2266493802.6358771       -12783934.262860656        1290795243.5331054     
  -2968377053.7603450       -50207030.399193525        1228560391.4986565     
  -2886688048.6125097       -39457346.938708544        1221008422.2977066     
  -2805312218.4296541       -29751580.028163791        1217787239.3445158     
  -2724249563.2117801       -21089729.667555809        1218896842.6390862     
  -2643500082.9588881       -13471795.856881142        1224337232.1814139     
  -3386115529.5529747       -44332693.795499802        1158158958.5473678     
  -3294550523.6816635       -37559895.952206731        1151649437.5651925     
  -3202805457.2534461       -30186896.252562881        1149323796.8034365     
  -3110880330.2683225       -22213694.696566582        1151182036.2620997     
  -3018775142.7262959       -13640291.284224033        1157224155.9411821     
  -1507287580.3230469       -9850112.5747758746        1421746071.5708640     
  -1460902812.3521731       -8056625.1486520171        1414391547.1263597     
  -1414616653.2606447       -6591833.9870136976        1411446457.5148573     
  -1368429103.0484633       -5455739.0898643136        1412910802.7363546     
  -1322340161.7156301       -4648340.4572108388        1418784582.7908547     
  -1887756301.7572641       -11576706.502158523        1356598189.9962554     
  -1829302696.8176069       -8220158.2046421766        1349650305.4507668     
  -1771181385.2687495       -5971254.5431232452        1347216000.4625580     
  -1713392367.1106920       -4829995.5176002979        1349295275.0316286     
  -1655935642.3434319       -4796381.1280761957        1355888129.1579781     
  -2266493802.6358771       -12783934.262860656        1290795243.5331054     
  -2195673804.3723578       -7775058.1874293089        1283981366.9566040     
  -2125419784.0110908       -4652775.1195034981        1281785214.6616607     
  -2055731741.5520754       -3417085.0590840578        1284206786.6482747     
  -1986609676.9953129       -4067988.0061686039        1291246082.9164479     
  -2643500082.9588881       -13471795.856881142        1224337232.1814139     
  -2560016135.0164232       -6721325.0970100164        1217384731.6438737     
  -2477331849.4876637       -2636395.7161549330        1215154100.1121669     
  -2395447226.3726091       -1217007.7143107653        1217645337.5862982     
  -2314362265.6712556       -2463161.0914796591        1224858444.0662680     
  -3018775142.7262959       -13640291.284224033        1157224155.9411821     
  -2922329688.7498059       -5058958.9333875179        1149860399.5125725     
  -2826917581.6984715        77883.666927576065        1147322656.8140764     
  -2732538821.5722961        1770236.5167161226        1149610927.8456962     
  -2639193408.3712754        18099.615986347198        1156725212.6074302     
  -1322340161.7156301       -4648340.4572108388        1418784582.7908547     
  -1269854633.8851824       -2563963.1287869811        1409069669.9750233     
  -1217693792.0678127       -1561872.5106267929        1404484861.8250034     
  -1165857636.2635260       -1642068.6027438045        1405030158.3407977     
  -1114346166.4723237       -2804551.4051376581        1410705559.5224068     
  -1655935642.3434319       -4796381.1280761957        1355888129.1579781     
  -1590476852.6260414       -3177587.8295257688        1346799861.7587166     
  -1525223422.6448929       -2243326.9851235747        1342668364.3828008     
  -1460175352.3999836       -1993598.5948463082        1343493637.0302305     
  -1395332641.8913207       -2428402.6587268710        1349275679.7010081     
  -1986609676.9953129       -4067988.0061686039        1291246082.9164479     
  -1908672867.2265930       -3063351.2881807089        1282923674.9234002     
  -1830822090.9172800       -2345492.7682052851        1279384702.3112328     
  -1753057348.0673678       -1914412.4462366104        1280629165.0799465     
  -1675378638.6768625       -1770110.3222860098        1286657063.2295356     
  -2314362265.6712556       -2463161.0914796591        1224858444.0662680     
  -2224442677.6868329       -2221253.5047379732        1217441109.4690785     
  -2134489796.8849719       -1868369.8598721027        1214633875.6103060     
  -2044503623.2656777       -1404510.1568979025        1216436742.4899430     
  -1954484156.8289504       -829674.39580726624        1222849710.1079986     
  -2639193408.3712754        18099.615986347198        1156725212.6074302     
  -2537786284.0067635       -651294.47920417786        1150352165.3957484     
  -2436226540.5479770       -811958.26015102863        1148415884.2800150     
  -2334514177.9949121       -463891.72683799267        1150916369.2602260     
  -2232649196.3475771        392905.12071275711        1157853620.3363841     
  -1114346166.4723237       -2804551.4051376581        1410705559.5224068     
  -1070047339.9913764       -6677197.9504589438        1405545373.4216452     
  -1025784071.9478090       -10668372.620383561        1403397033.6550951     
  -981556362.34161222       -14778075.414872766        1404260540.2227626     
  -937364211.17279327       -19006306.333958328        1408135893.1246397     
  -1395332641.8913207       -2428402.6587268710        1349275679.7010081     
  -1342791430.4284019       -7084946.7738273740        1344588120.8974986     
  -1290395160.5506589       -12224629.506174624        1343409911.3389313     
  -1238143832.2580936       -17847450.855784178        1345741051.0253077     
  -1186037445.5507081       -23953410.822659612        1351581539.9566298     
  -1675378638.6768625       -1770110.3222860098        1286657063.2295356     
  -1613173605.3441641       -6784120.9407935739        1282314518.0508420     
  -1551222896.7444494       -12645880.669248283        1281978825.0278218     
  -1489526512.8777142       -19355389.507630944        1285649984.1604753     
  -1428084453.7439656       -26912647.455968738        1293327995.4488008     
  -1954484156.8289504       -829674.39580726624        1222849710.1079986     
  -1881193864.7386703       -5774720.4513912201        1218724564.8816807     
  -1808267280.5291843       -11932126.109608293        1219103774.7217667     
  -1735704404.2004783       -19301891.370434165        1223987339.6282558     
  -1663505235.7525592       -27884016.233872771        1233375259.6011508     
  -2232649196.3475771        392905.12071275711        1157853620.3363841     
  -2146852208.6119239       -4056745.3056198359        1153818261.3900089     
  -2061528311.9048567       -10083365.827242255        1154784760.4207666     
  -1976677506.2263794       -17686956.444159746        1160753117.4286573     
  -1892299791.5764916       -26867517.156381845        1171723332.4136829     
  -937364211.17279327       -19006306.333958328        1408135893.1246397     
  -876135998.23819447       -18613060.299104840        1394740609.4895227     
  -815194869.66343880       -19176762.130401701        1386046313.4103997     
  -754540825.44853163       -20697411.827859074        1382053004.8872669     
  -694173865.59347641       -23175009.391484022        1382760683.9201400     
  -1186037445.5507081       -23953410.822659612        1351581539.9566298     
  -1112275399.8149590       -24061291.072039604        1340408282.3482885     
  -1038697171.6089817       -24781896.420660198        1334291091.5581207     
  -965302760.93277776       -26115226.868518412        1333229967.5861256     
  -892092167.78634703       -28061282.415621042        1337224910.4323006     
  -1428084453.7439656       -26912647.455968738        1293327995.4488008     
  -1340774063.0294135       -27217300.336284757        1284497241.8356531     
  -1253544223.0145612       -27790455.548932552        1281077634.3028584     
  -1166394933.6994045       -28632113.093895316        1283069172.8504169     
  -1079326195.0839422       -29742272.971182048        1290471857.4783225     
  -1663505235.7525592       -27884016.233872771        1233375259.6011508     
  -1561631987.8815532       -28081088.091830373        1227007487.9516253     
  -1459736023.8801765       -28202439.515210986        1226405941.6446252     
  -1357817343.7484195       -28248070.503990293        1231570620.6801529     
  -1255875947.4862761       -28217981.058158159        1242501525.0582209     
  -1892299791.5764916       -26867517.156381845        1171723332.4136829     
  -1774849174.3713853       -26652654.338690519        1167939020.6961937     
  -1657272574.2058296       -26017848.319513083        1170276013.5834131     
  -1539569991.0798106       -24963099.098789573        1178734311.0753443     
  -1421741424.9933424       -23488406.676560521        1193313913.1719809     
  -3768273931.3581519       -1130482179.4074457        800558257.38695240     
  -3779118368.6350322       -1008734855.9030087        884843523.80700970     
  -3790566435.2966604       -888999630.34773088        974062735.22921526     
  -3802618131.3430362       -771276502.74161172        1068215891.6535691     
  -3815273456.7741590       -655565473.08465099        1167302993.0800710     
  -4339812107.1221390       -1301943632.1366417        858724223.67312980     
  -4335240341.0495682       -1125748865.0046511        942333367.73319483     
  -4331805033.0804272       -953342291.55075979        1020302390.0689465     
  -4329506183.2147160       -784723911.77496755        1092631290.6803849     
  -4328343791.4524345       -619893725.67727494        1159320069.5675099     
  -4895276105.6346731       -1468582831.6904018        936363538.48984027     
  -4905499755.4311113       -1247004106.6963956        1018674926.6847841     
  -4917392692.0496635       -1030989671.1094298        1084772126.4289532     
  -4930954915.4903278       -820539524.92950320        1134655137.7223463     
  -4946186425.7531042       -615653668.15661621        1168323960.5649645     
  -5434665926.8957510       -1630399778.0687253        1033476201.8370841     
  -5489896611.7796640       -1372500580.9782434        1113868200.6617775     
  -5547329412.2043705       -1121941769.0237408        1167471944.3092341     
  -5606964328.1698713       -878723342.20521832        1194287432.7794540     
  -5668801359.6761675       -642845300.52267623        1194314666.0724363     
  -5957981570.9053755       -1787394471.2716126        1150062213.7148607     
  -6088430910.0952244       -1502238287.8501928        1227913189.6641750     
  -6221615193.5445490       -1226198585.2936935        1268401843.7097902     
  -6357534421.2533484       -959275363.60211384        1271528175.8517070     
  -6496188593.2216253       -701468622.77545428        1237292186.0899246     
  -3815273456.7741590       -655565473.08465099        1167302993.0800710     
  -3797883836.1560526       -537604206.16942298        1188990755.2134809     
  -3784349869.5970449       -432495119.45119524        1205785340.0761092     
  -3774671557.0971365       -340238212.92996407        1217686747.6679556     
  -3768848898.6563292       -260833486.60573351        1224694977.9890199     
  -4328343791.4524345       -619893725.67727494        1159320069.5675099     
  -4298085016.8575773       -464161760.66491044        1141379432.8524809     
  -4278443939.7208977       -343822120.51313317        1129515007.6756246     
  -4269420560.0423946       -258874805.22194457        1123726794.0369415     
  -4271014877.8220634       -209319814.79133821        1124014791.9364300     
  -4946186425.7531042       -615653668.15661621        1168323960.5649645     
  -4871717386.2987728       -412748671.78229928        1102865874.3692420     
  -4814628087.7016916       -267776144.93215585        1054453388.5206462     
  -4774918529.9618654       -180736087.60618711        1023086503.0191771     
  -4752588713.0792885       -151628499.80439138        1008765217.8648349     
  -5668801359.6761675       -642845300.52267623        1194314666.0724363     
  -5518780944.4796352       -383364939.52158952        1073450079.7637641     
  -5392902313.5394297       -204357192.70826054        980600482.61117280     
  -5291165466.8555508       -105822060.08269572        915765874.61466241     
  -5213570404.4280033       -87759541.644891024        878946255.77423322     
  -6496188593.2216253       -701468622.77545428        1237292186.0899246     
  -6239275691.4001637       -376010563.88277650        1053132049.0360466     
  -6013266617.2341061       -153565263.84144688        907956289.94720447     
  -5818161370.7234535       -34132722.651468039        801764908.82339811     
  -5653959951.8682079       -17712940.312837362        734557905.66462588     
  -3768848898.6563292       -260833486.60573351        1224694977.9890199     
  -3661695503.5908489       -168474779.10437179        1192334000.1320214     
  -3562188810.3851309       -101605077.80221164        1170457670.9394131     
  -3470328819.0391712       -60224382.699252129        1159065990.4111960     
  -3386115529.5529747       -44332693.795499802        1158158958.5473678     
  -4271014877.8220634       -209319814.79133821        1124014791.9364300     
  -4147868154.9473157       -145117828.50038338        1090749891.8704622     
  -4029120426.7040420       -95579157.647677898        1065800607.8880980     
  -3914771693.0922456       -60703802.233230352        1049166939.9893364     
  -3804821954.1119242       -40491762.257035732        1040848888.1741785     
  -4752588713.0792885       -151628499.80439138        1008765217.8648349     
  -4619645898.3403749       -117442405.50736785        978385387.35622895     
  -4487854371.0046530       -87093935.887653351        954152140.35043931     
  -4357214131.0721235       -60583090.945246458        936065476.84746647     
  -4227725178.5427852       -37909870.680145264        924125396.84730899     
  -5213570404.4280033       -87759541.644891024        878946255.77423322     
  -5077028733.7700300       -85448510.125333786        855240486.58932137     
  -4938390643.2869654       -76149412.522140265        835512268.32643783     
  -4797656132.9788094       -59862248.835304737        819761600.98558366     
  -4654825202.8455591       -36587019.064828396        807988484.56676006     
  -5653959951.8682079       -17712940.312837362        734557905.66462588     
  -5520016661.2362785       -49136142.354277372        721315189.56973958     
  -5380729243.5509777       -62745587.551137209        709880991.81609404     
  -5236097698.8122988       -58541275.903404713        700255312.40369081     
  -5086122027.0202446       -36523207.411086082        692438151.33253074     
  -3386115529.5529747       -44332693.795499802        1158158958.5473678     
  -3294550523.6816635       -37559895.952206731        1151649437.5651925     
  -3202805457.2534461       -30186896.252562881        1149323796.8034365     
  -3110880330.2683225       -22213694.696566582        1151182036.2620997     
  -3018775142.7262959       -13640291.284224033        1157224155.9411821     
  -3804821954.1119242       -40491762.257035732        1040848888.1741785     
  -3700449655.0624056       -29512638.644407034        1032890688.3364620     
  -3596662768.6677814       -20484890.548085213        1029629681.6994077     
  -3493461294.9280510       -13408517.968075037        1031065868.2630143     
  -3390845233.8432093       -8283520.9043679237        1037199248.0272807     
  -4227725178.5427852       -37909870.680145264        924125396.84730899     
  -4109078977.8000870       -22284438.743690968        913825466.07362199     
  -3991783662.9240785       -11161959.696202993        908736041.48083842     
  -3875839233.9147577       -4542433.5376746655        908857123.06895840     
  -3761245690.7721272       -2425860.2681140900        914188710.83797860     
  -4654825202.8455591       -36587019.064828396        807988484.56676006     
  -4520438491.8947020       -15875296.250053406        794453770.77667117     
  -4388168140.0223303       -2218103.6968989372        786642876.14772725     
  -4258014147.2284470        4384558.5946297646        784555800.67993081     
  -4129976513.5130486        3932690.6245379448        788192544.37327576     
  -5086122027.0202446       -36523207.411086082        692438151.33253074     
  -4934528197.3462543       -10285211.163500309        674775602.44561064     
  -4785816199.9625435        6346677.4498093128        663350185.70007861     
  -4639986034.8691196        13372458.428839922        658161901.09593379     
  -4497037702.0659781        10792131.773589611        659210748.63317323     
  -3018775142.7262959       -13640291.284224033        1157224155.9411821     
  -2922329688.7498059       -5058958.9333875179        1149860399.5125725     
  -2826917581.6984715        77883.666927576065        1147322656.8140764     
  -2732538821.5722961        1770236.5167161226        1149610927.8456962     
  -2639193408.3712754        18099.615986347198        1156725212.6074302     
  -3390845233.8432093       -8283520.9043679237        1037199248.0272807     
  -3283324626.5320587       -3455983.1301200390        1029345042.7473240     
  -3176384863.5928364       -564593.26230597496        1026050432.7431256     
  -3070025945.0255508        390648.69906103611        1027315418.0146873     
  -2964247870.8301916       -590257.24600112438        1033139998.5620102     
  -3761245690.7721272       -2425860.2681140900        914188710.83797860     
  -3643411125.7101841       -1580475.7456085682        906371976.35210288     
  -3525704902.4669490       -1162897.2854619026        902848418.68763065     
  -3408127021.0424194       -1173124.8876714706        903618037.84456515     
  -3290677481.4366007       -1611158.5522382259        908680833.82290125     
  -4129976513.5130486        3932690.6245379448        788192544.37327576     
  -4002589186.2841892        567563.22013640404        780941200.32690930     
  -3874877698.3208122       -1717028.4025459290        777716614.64759469     
  -3746842049.6229138       -2921084.2434952259        778518787.33532870     
  -3618482240.1904998       -3044604.3027181625        783347718.39011276     
  -4497037702.0659781        10792131.773589611        659210748.63317323     
  -4360858808.2540703        2988133.7671198845        653052714.67174625     
  -4223903251.1544199       -2226986.6135480404        650655020.62301421     
  -4086171030.7670269       -4853229.3684055805        652017666.48697889     
  -3947662147.0918908       -4890594.4974522591        657140652.26363719     
  -2639193408.3712754        18099.615986347198        1156725212.6074302     
  -2537786284.0067635       -651294.47920417786        1150352165.3957484     
  -2436226540.5479770       -811958.26015102863        1148415884.2800150     
  -2334514177.9949121       -463891.72683799267        1150916369.2602260     
  -2232649196.3475771        392905.12071275711        1157853620.3363841     
  -2964247870.8301916       -590257.24600112438        1033139998.5620102     
  -2850939784.4413033       -137426.59349572659        1026407132.2989084     
  -2737594985.8082771        437778.20612919331        1024133111.1706821     
  -2624213474.9311166        1135357.1528702974        1026317935.1773274     
  -2510795251.8098140        1955310.2467423677        1032961604.3188511     
  -3290677481.4366007       -1611158.5522382259        908680833.82290125     
  -3165405350.0549698       -17178.261529922485        901452923.84988809     
  -3040212413.2793441        1312820.0091695786        898705938.05067623     
  -2915098671.1097198        2378836.2598621845        900439876.42526603     
  -2790064123.5460949        3180870.4905521870        906654738.97365773     
  -3618482240.1904998       -3044604.3027181625        783347718.39011276     
  -3481182980.8477688       -290549.48330831528        775489540.04869127     
  -3344078822.9611788        1813167.1489746571        772134364.91999996     
  -3207169766.5307250        3266545.5941286087        773282193.00403345     
  -3070455811.5564117        4069585.8521529436        778933024.30080128     
  -3947662147.0918908       -4890594.4974522591        657140652.26363719     
  -3798272676.8196902       -957540.25880980492        648516980.89531541     
  -3649194214.8537722        1938819.6255688667        644418391.77865016     
  -3500426761.1941314        3798485.1556820869        644844884.91363931     
  -3351970315.8407640        4621456.3315463066        649796460.30028498     
  -2232649196.3475771        392905.12071275711        1157853620.3363841     
  -2146852208.6119239       -4056745.3056198359        1153818261.3900089     
  -2061528311.9048567       -10083365.827242255        1154784760.4207666     
  -1976677506.2263794       -17686956.444159746        1160753117.4286573     
  -1892299791.5764916       -26867517.156381845        1171723332.4136829     
  -2510795251.8098140        1955310.2467423677        1032961604.3188511     
  -2412663487.0853081       -2213647.3468850851        1027790784.1379994     
  -2314834131.1995182       -7390634.4029051065        1027041620.7023559     
  -2217307184.1524410       -13575650.921309233        1030714114.0119153     
  -2120082645.9440949       -20768696.902128100        1038808264.0666844     
  -2790064123.5460949        3180870.4905521870        906654738.97365773     
  -2681255299.6382418       -1204709.6120151281        900547586.77984631     
  -2572578202.3792324       -6029378.5440744162        898281890.09931481     
  -2464032831.7690763       -11293136.305633903        899857648.93205917     
  -2355619187.8077679       -16995982.896696806        905274863.27808344     
  -3070455811.5564117        4069585.8521529436        778933024.30080128     
  -2952627646.2707191       -1029932.1010082960        772088669.31554830     
  -2834760525.4440079       -5999598.2507736683        768505568.61164033     
  -2716854449.0762773       -10839412.597140074        768183722.18908668     
  -2598909417.1675215       -15549375.140092134        771123130.04787970     
  -3351970315.8407640        4621456.3315463066        649796460.30028498     
  -3226780526.9827447       -1689314.8138643503        642414031.74510026     
  -3101381100.3938351       -7301293.5229798555        637712656.23933673     
  -2975772036.0740318       -12214479.795780301        635692333.78299749     
  -2849953334.0233483       -16428873.632302880        636353064.37607169     
  -1892299791.5764916       -26867517.156381845        1171723332.4136829     
  -1774849174.3713853       -26652654.338690519        1167939020.6961937     
  -1657272574.2058296       -26017848.319513083        1170276013.5834131     
  -1539569991.0798106       -24963099.098789573        1178734311.0753443     
  -1421741424.9933424       -23488406.676560521        1193313913.1719809     
  -2120082645.9440949       -20768696.902128100        1038808264.0666844     
  -1987333757.1717906       -17848696.755000830        1031801241.3090175     
  -1854641311.6758621       -15116840.862463713        1029816552.6915362     
  -1722005309.4563305       -12573129.224572062        1032854198.2142476     
  -1589425750.5131724       -10217561.841274381        1040914177.8771348     
  -2355619187.8077679       -16995982.896696806        905274863.27808344     
  -2210711943.0811806       -12312820.103979588        894832298.87059021     
  -2066043567.8678174       -8425889.0220183134        888313098.13876700     
  -1921614062.1676795       -5335189.6507982016        885717261.08260560     
  -1777423425.9807582       -3040721.9903150797        887044787.70211124     
  -2598909417.1675215       -15549375.140092134        771123130.04787970     
  -2444983732.0995674       -10045024.385674357        757032193.38091600     
  -2291479342.7816706       -5944992.7981221676        745765649.92509723     
  -2138396249.2138500       -3249280.3774569035        737323499.68043172     
  -1985734451.3960857       -1957887.1236814260        731705742.64689744     
  -2849953334.0233483       -16428873.632302880        636353064.37607169     
  -2690149124.2269454       -11045309.600059748        618400924.83999574     
  -2530948636.4174461       -7674152.1908107996        602174208.05053473     
  -2372351870.5948501       -6315401.4045927525        587672914.00770962     
  -2214358826.7591610       -6969057.2413656712        574897042.71150088     
  -5957981570.9053755       -1787394471.2716126        1150062213.7148607     
  -6088430910.0952244       -1502238287.8501928        1227913189.6641750     
  -6221615193.5445490       -1226198585.2936935        1268401843.7097902     
  -6357534421.2533484       -959275363.60211384        1271528175.8517070     
  -6496188593.2216253       -701468622.77545428        1237292186.0899246     
  -6810604464.0003376       -2043181339.2001014        1353795969.4897182     
  -6828539194.5677176       -1395489409.4908159        1202753495.8544955     
  -6897839329.8677454       -919015495.55701661        1091960947.7661319     
  -7018504869.9004173       -613759597.39870262        1021418325.2246267     
  -7190535814.6657343       -479721715.01587462        991125628.22997975     
  -8337916032.5174246       -2501374809.7552276        1712351864.5282035     
  -8021586876.0321741       -1424622350.2290275        1275680404.0897460     
  -7805253584.7527409       -681189441.38887930        956871116.64870512     
  -7688916158.6791201       -271076083.23478174        755924002.20507991     
  -7672574597.8113174       -194282275.76673746        672839060.75887120     
  -10539916276.456640       -3161974882.9369922        2225729898.8303165     
  -9667573954.4885941       -1589637110.0648282        1446693914.3699272     
  -8943857958.1995316       -512720422.78928089        863132350.35751081     
  -8368768287.5894556        68775178.889649391        475045206.79306799     
  -7942304942.6583700        154849694.97195959        282432483.67659754     
  -13416605195.817982       -4024981558.7453942        2893930072.3960581     
  -11766500429.936975       -1890533688.9982171        1715794026.6950374     
  -10313652450.208126       -413608439.75822353        810744648.89254785     
  -9058061256.6314316        405794188.97458792        178781938.98858866     
  -7999726849.2068911        567674197.20021534       -180094103.01683980     
  -6496188593.2216253       -701468622.77545428        1237292186.0899246     
  -6239275691.4001637       -376010563.88277650        1053132049.0360466     
  -6013266617.2341061       -153565263.84144688        907956289.94720447     
  -5818161370.7234535       -34132722.651468039        801764908.82339811     
  -5653959951.8682079       -17712940.312837362        734557905.66462588     
  -7190535814.6657343       -479721715.01587462        991125628.22997975     
  -6900590786.2413292       -304436249.23141170        846816792.72347844     
  -6623464007.0767698       -171878280.97977257        723588121.20225525     
  -6359155477.1720581       -82047810.260956526        621439613.66631258     
  -6107665196.5271931       -34944837.074964762        540371270.11564791     
  -7672574597.8113174       -194282275.76673746        672839060.75887120     
  -7400752339.8689842       -184515872.21599340        589481368.26122868     
  -7123662752.7909412       -157191704.87954760        509299625.76911050     
  -6841305836.5771894       -112309773.75740123        432293833.28251445     
  -6553681591.2277279       -49870078.849557400        358463990.80144101     
  -7942304942.6583700        154849694.97195959        282432483.67659754     
  -7739760352.2831287       -16249432.836522579        281125775.64929998     
  -7513862854.3766212       -109505535.54077673        265090803.64776960     
  -7264612448.9388466       -124918613.14080811        234327567.67200330     
  -6992009135.9698048       -62488665.636612892        188836067.72200483     
  -7999726849.2068911        567674197.20021534       -180094103.01683980     
  -7917614823.4837627        200363068.90700531       -78249985.112309620     
  -7794064311.8338108       -28819772.963460922       -9038345.1617694069     
  -7629075314.2570295       -119874328.41116476        27540816.834781360     
  -7422647830.7534275       -72800597.436131954        31487500.877338879     
  -5653959951.8682079       -17712940.312837362        734557905.66462588     
  -5520016661.2362785       -49136142.354277372        721315189.56973958     
  -5380729243.5509777       -62745587.551137209        709880991.81609404     
  -5236097698.8122988       -58541275.903404713        700255312.40369081     
  -5086122027.0202446       -36523207.411086082        692438151.33253074     
  -6107665196.5271931       -34944837.074964762        540371270.11564791     
  -5959263038.7114601       -36694768.558102846        533848321.21792090     
  -5809862280.7482195       -35116032.882893562        529791381.68381113     
  -5659462922.6374788       -30208630.049338818        528200451.51331538     
  -5508064964.3792343       -21972560.057444811        529075530.70643938     
  -6553681591.2277279       -49870078.849557400        358463990.80144101     
  -6388942020.4499693       -21383176.040921926        353591027.71068889     
  -6227549376.4305840       -4052695.7601881027        351841565.00592566     
  -6069503659.1695642        2121361.9926490784        353215602.68715775     
  -5914804868.6669178       -2861002.7824110985        357713140.75437844     
  -6992009135.9698048       -62488665.636612892        188836067.72200483     
  -6809053606.4518137       -3201364.8027467728        180543309.04804072     
  -6633790530.5980616        30444423.816983700        176031541.78244373     
  -6466219908.4085550        38448700.222571850        175300765.92521167     
  -6306341739.8832903        20811464.414011002        178350981.47635078     
  -7422647830.7534275       -72800597.436131954        31487500.877338879     
  -7219597796.7169876        17850665.156432152        14705165.229982160     
  -7028585743.2506590        68375325.848620415        2361312.0133637334     
  -6849611670.3544483        78773384.640415668       -5544058.7725151218     
  -6682675578.0283518        49044841.531835556       -9010947.1276479997     
  -5086122027.0202446       -36523207.411086082        692438151.33253074     
  -4934528197.3462543       -10285211.163500309        674775602.44561064     
  -4785816199.9625435        6346677.4498093128        663350185.70007861     
  -4639986034.8691196        13372458.428839922        658161901.09593379     
  -4497037702.0659781        10792131.773589611        659210748.63317323     
  -5508064964.3792343       -21972560.057444811        529075530.70643938     
  -5346130014.7558813       -10528488.647055387        513935710.82187307     
  -5185162739.5598421       -2309998.6610481739        503927449.10401577     
  -5025163138.7911119        2682909.9005904198        499050745.55286270     
  -4866131212.4496984        4450237.0378534794        499305600.16841763     
  -5914804868.6669178       -2861002.7824110985        357713140.75437844     
  -5745687581.8790035       -7158491.0446658134        347329234.04563403     
  -5575623811.6554298       -8301034.5213956833        340971311.52891630     
  -5404613557.9961967       -6288633.2125813961        338639373.20422447     
  -5232656820.9013033       -1121287.1182415485        340333419.07155877     
  -6306341739.8832903        20811464.414011002        178350981.47635078     
  -6133200898.7156172       -175218.35632491112        174956172.11689231     
  -5957199416.2493124       -11626430.131230116        174481772.97478664     
  -5778337292.4843712       -13542170.910682201        176927784.05001822     
  -5596614527.4208050       -5922440.6947126389        182294205.34260583     
  -6682675578.0283518        49044841.531835556       -9010947.1276479997     
  -6508669965.2657166        10421329.417978525       -3183474.9643468908     
  -6329889553.3414822       -12286185.490547419        4458833.4416179899     
  -6146334342.2556391       -19077703.193716764        13915978.090249686     
  -5958004332.0081978       -9953223.6915469170        25187958.981550600     
  -4497037702.0659781        10792131.773589611        659210748.63317323     
  -4360858808.2540703        2988133.7671198845        653052714.67174625     
  -4223903251.1544199       -2226986.6135480404        650655020.62301421     
  -4086171030.7670269       -4853229.3684055805        652017666.48697889     
  -3947662147.0918908       -4890594.4974522591        657140652.26363719     
  -4866131212.4496984        4450237.0378534794        499305600.16841763     
  -4718776990.1671619        1500159.7238056660        494574698.85402495     
  -4571255594.4904919       -892672.94314312935        493559728.59840441     
  -4423567025.4196873       -2728260.9629693031        496260689.40155071     
  -4275711282.9547501       -4006604.3356902599        502677581.26346439     
  -5232656820.9013033       -1121287.1182415485        340333419.07155877     
  -5074254152.5879250        744491.52819561958        336318578.86165959     
  -4916293800.7740335        1135881.8430240154        335975260.85660404     
  -4758775765.4596081        52883.826287984848        339303465.05638701     
  -4601700046.6446648       -2504502.5220487118        346303191.46101558     
  -5596614527.4208050       -5922440.6947126389        182294205.34260583     
  -5427290295.5163841        721129.18025732040        178284354.69465449     
  -5259017870.0050430        3858677.7449572086        177901617.39761400     
  -5091797250.8867912        3490204.9993588924        181145993.45149425     
  -4925628438.1616230       -384289.05651807785        188017482.85628614     
  -5958004332.0081978       -9953223.6915469170        25187958.981550600     
  -5777885418.9525146        1430072.6800475121        20472026.352997787     
  -5599427802.1835289        7275714.7626342773        19338798.221437391     
  -5422631481.7012339        7583702.5562663078        21788274.586854525     
  -5247496457.5056381        2354036.0608882904        27820455.449277204     
  -3947662147.0918908       -4890594.4974522591        657140652.26363719     
  -3798272676.8196902       -957540.25880980492        648516980.89531541     
  -3649194214.8537722        1938819.6255688667        644418391.77865016     
  -3500426761.1941314        3798485.1556820869        644844884.91363931     
  -3351970315.8407640        4621456.3315463066        649796460.30028498     
  -4275711282.9547501       -4006604.3356902599        502677581.26346439     
  -4114902810.6309519       -1261567.0224077702        494552929.67784208     
  -3954170811.6606131        1228559.1126534939        490961201.32456696     
  -3793515286.0437436        3463774.0694975853        491902396.20364952     
  -3632936233.7803392        5444077.8481197357        497376514.31508303     
  -4601700046.6446648       -2504502.5220487118        346303191.46101558     
  -4429450169.4672604       -940761.29350900650        338951183.76969886     
  -4257042230.6905236        1149851.9328300953        336139940.29142976     
  -4084476230.3144383        3767337.1569883823        337869461.02621639     
  -3911752168.3390031        6911694.3789594173        344139745.97404391     
  -4925628438.1616230       -384289.05651807785        188017482.85628614     
  -4741914753.3286486        4876.9278359413147        181711743.17089149     
  -4557808471.9435024        1702698.0860831738        179954608.67924064     
  -4373309594.0062151        4709174.4181509018        182746079.38133529     
  -4188418119.5167708        9024305.9240615368        190086155.27717376     
  -5247496457.5056381        2354036.0608882904        27820455.449277204     
  -5052296562.2150831        1575347.6417100430        22834607.881416779     
  -4856469535.4195604        2887097.5724112988        22405206.487992857     
  -4660015377.1190805        6289285.8529846668        26532251.269020330     
  -4462934087.3136225        11781912.483465195        35215742.224476300     
  -3351970315.8407640        4621456.3315463066        649796460.30028498     
  -3226780526.9827447       -1689314.8138643503        642414031.74510026     
  -3101381100.3938351       -7301293.5229798555        637712656.23933673     
  -2975772036.0740318       -12214479.795780301        635692333.78299749     
  -2849953334.0233483       -16428873.632302880        636353064.37607169     
  -3632936233.7803392        5444077.8481197357        497376514.31508303     
  -3500209795.3539577       -919766.50123476982        491141735.62351471     
  -3367399211.4709558       -7003125.9951851368        488035574.28986698     
  -3234504482.1313167       -12806000.633669496        488058030.31413895     
  -3101525607.3350496       -18328390.416742802        491209103.69633114     
  -3911752168.3390031        6911694.3789594173        344139745.97404391     
  -3770210325.1771317        878403.37578940392        338906209.49279076     
  -3628709828.8328905       -5292710.3528187275        337248854.67795694     
  -3487250679.3062787       -11601646.806868553        339167681.52954131     
  -3345832876.5972977       -18048405.986340046        344662690.04753989     
  -4188418119.5167708        9024305.9240615368        190086155.27717376     
  -4036782116.4522591        3705194.8172261715        185707453.35293600     
  -3885312952.4796362       -2170046.5958869457        185352497.40360823     
  -3734010627.5989141       -8601418.3153498173        189021287.42919925     
  -3582875141.8100805       -15588920.341101408        196713823.42970505     
  -4462934087.3136225        11781912.483465195        35215742.224476300     
  -4299925169.1793375        7560607.8231039047        31545467.203944251     
  -4137208582.4112077        2364865.2755703926        32346502.466816209     
  -3974784327.0092363       -3805315.1591632366        37618848.013117790     
  -3812652402.9734025       -10949933.481024265        47362503.842818260     
  -2849953334.0233483       -16428873.632302880        636353064.37607169     
  -2690149124.2269454       -11045309.600059748        618400924.83999574     
  -2530948636.4174461       -7674152.1908107996        602174208.05053473     
  -2372351870.5948501       -6315401.4045927525        587672914.00770962     
  -2214358826.7591610       -6969057.2413656712        574897042.71150088     
  -3101525607.3350496       -18328390.416742802        491209103.69633114     
  -2934591937.7020569       -14011161.813191772        476404783.13021487     
  -2767971086.0956216       -10736659.964837193        465605317.09840453     
  -2601663052.5157385       -8504884.8716523647        458810705.60089231     
  -2435667836.9624157       -7315836.5336813927        456020948.63768095     
  -3345832876.5972977       -18048405.986340046        344662690.04753989     
  -3165257084.8772039       -12843714.136341095        333345576.40513033     
  -2984703207.2233181       -7712069.1736924648        328312749.08469099     
  -2804171243.6356478       -2653471.0984348059        329564208.08623177     
  -2623661194.1141829        2332080.0894622803        337099953.40975976     
  -3582875141.8100805       -15588920.341101408        196713823.42970505     
  -3382144565.7523746       -7542966.5694742203        189223304.66472301     
  -3181144999.8005443        1399620.1825762987        190296504.00940326     
  -2979876443.9545784        11238839.915098190        199933421.46373096     
  -2778338898.2144747        21974692.628032088        218134057.02772492     
  -3812652402.9734025       -10949933.481024265        47362503.842818260     
  -3585254380.3275928        1891080.8873314857        44037967.909012958     
  -3357296463.8272967        16598408.103997469        51556581.872538440     
  -3128778653.4725194        33172048.168902159        69918345.733391017     
  -2899700949.2632766        51612001.082068801        99123259.491585582     
 </DataArray>
 <DataArray  type="Float64" Name="VM" NumberOfComponents="1" format="ascii">
   12935558620.623068     
   11340702445.605299     
   10210220652.126781     
   9272795706.8007393     
   8304000471.5595417     
   10130280869.212729     
   9322004496.4263954     
   8826367947.1461449     
   8443552573.3684111     
   8035754728.2493048     
   7982350111.2786989     
   7734969578.7023687     
   7669155967.2861128     
   7669608591.9579239     
   7666396709.9280930     
   6491680351.1714067     
   6586883330.6279278     
   6757417539.7645330     
   6961201255.1733618     
   7171573891.8784513     
   5657825497.6510086     
   5890903937.3213758     
   6116343070.0293055     
   6331680559.1775694     
   6536690895.5101881     
   8304000471.5595417     
   8020818950.6593056     
   7779710212.4882889     
   7570000344.7225723     
   7386717941.1805305     
   8035754728.2493048     
   7746966034.8841448     
   7473830094.7671862     
   7214391284.8166113     
   6968654996.0548782     
   7666396709.9280930     
   7381198404.1879091     
   7101384222.9726992     
   6827032107.7676744     
   6558344768.7565794     
   7171573891.8784513     
   6910958015.6975546     
   6658237551.8659630     
   6409555134.7222347     
   6161766569.6364708     
   6536690895.5101881     
   6328599597.4650354     
   6142693440.1185637     
   5965069823.3523912     
   5786722265.7555780     
   7386717941.1805305     
   7228584532.5209208     
   7063022816.3343992     
   6889342826.7360840     
   6707350641.7343864     
   6968654996.0548782     
   6814632100.2016573     
   6656051901.0652905     
   6492633289.6276169     
   6324322151.9657793     
   6558344768.7565794     
   6407612765.6955566     
   6255279910.5577726     
   6101314495.3206015     
   5945744580.9182205     
   6161766569.6364708     
   6012526156.6082201     
   5864618510.0096369     
   5718081467.1692390     
   5572970384.8946133     
   5786722265.7555780     
   5635836476.0874472     
   5489112883.8957663     
   5346465267.9819021     
   5207938316.7450304     
   6707350641.7343864     
   6513889216.0784502     
   6323760128.2139454     
   6136865065.7432470     
   5953193819.1935349     
   6324322151.9657793     
   6140595055.3708200     
   5959062910.1877537     
   5779707981.6636963     
   5602559876.1560278     
   5945744580.9182205     
   5773539587.8448420     
   5602691376.4278440     
   5433224595.4599800     
   5265198179.0127249     
   5572970384.8946133     
   5414547078.1243210     
   5256973357.0172138     
   5100285165.6045647     
   4944575458.6555986     
   5207938316.7450304     
   5066052505.9992180     
   4924891005.7528801     
   4784477872.2261753     
   4644962176.1958513     
   5953193819.1935349     
   5778709378.3437433     
   5603169323.3826618     
   5426558533.8240614     
   5248895060.1576853     
   5602559876.1560278     
   5436428072.7407503     
   5269964294.4759111     
   5103197474.2451363     
   4936190284.0920076     
   5265198179.0127249     
   5107951062.9762058     
   4951178494.6513271     
   4794953490.7643452     
   4639385985.9912796     
   4944575458.6555986     
   4796639433.1491280     
   4650064675.8030968     
   4504964821.6056194     
   4361495867.1756821     
   4644962176.1958513     
   4506613234.6710749     
   4370584963.8222752     
   4237023393.2372484     
   4106124138.9469123     
   5248895060.1576853     
   5053239199.9662981     
   4858068726.1933775     
   4663389635.3875942     
   4469252933.7868299     
   4936190284.0920076     
   4752350589.3929787     
   4569303285.1944866     
   4387099501.0181646     
   4205843977.8801684     
   4639385985.9912796     
   4467720486.7853489     
   4297240395.7563639     
   4128052225.8590178     
   3960326516.6956720     
   4361495867.1756821     
   4202497270.5387931     
   4045176751.8413129     
   3889706159.1703091     
   3736332893.9176211     
   4106124138.9469123     
   3960424481.2793818     
   3817004388.2567396     
   3676108409.3831396     
   3538067786.5816870     
   4469252933.7868299     
   4304057271.0251808     
   4138770742.4704065     
   3973417313.2466688     
   3808072948.2442713     
   4205843977.8801684     
   4051424737.6920671     
   3897473126.0188766     
   3744059119.9735231     
   3591305210.8084230     
   3960326516.6956720     
   3816067436.4250417     
   3672814681.2324114     
   3530679563.8778367     
   3389824999.4631042     
   3736332893.9176211     
   3601653882.5590043     
   3468483865.8751354     
   3336969295.7627139     
   3207305751.3449512     
   3538067786.5816870     
   3412440730.1307864     
   3288769714.1620612     
   3167228301.4287400     
   3048035111.4014606     
   3808072948.2442713     
   3587011375.4961643     
   3366810823.4931712     
   3147826239.7647352     
   2930881285.2862821     
   3591305210.8084230     
   3394239788.4776902     
   3198871076.6658912     
   3005528313.5741105     
   2814862432.6909051     
   3389824999.4631042     
   3211186935.3730412     
   3034610727.2274780     
   2860381152.6985679     
   2688983312.4218888     
   3207305751.3449512     
   3041676125.9254208     
   2877920322.2441311     
   2716269119.6696582     
   2557064278.6990752     
   3048035111.4014606     
   2890427283.8839021     
   2733894354.5017366     
   2578602199.6251650     
   2424772451.7927060     
   5657825497.6510086     
   5890903937.3213758     
   6116343070.0293055     
   6331680559.1775694     
   6536690895.5101881     
   5151440403.5754814     
   5311303368.2044268     
   5467797416.5937548     
   5618024623.6473541     
   5760517267.3300743     
   4643455100.1861086     
   4755508865.6202450     
   4868685778.9649878     
   4980349880.4248552     
   5088574890.0366974     
   4134133220.6051583     
   4224358407.6137595     
   4320503944.4614563     
   4420913682.9444866     
   4524133521.4826803     
   3624995506.6744943     
   3719677057.9325752     
   3825610633.5637331     
   3942734794.0489020     
   4070958722.8980069     
   6536690895.5101881     
   6328599597.4650354     
   6142693440.1185637     
   5965069823.3523912     
   5786722265.7555780     
   5760517267.3300743     
   5651998751.6242552     
   5559479361.2177334     
   5473900774.3513422     
   5389723287.1120739     
   5088574890.0366974     
   5053922861.3022633     
   5029783393.3083391     
   5010951045.9727278     
   4994225122.5690794     
   4524133521.4826803     
   4538966322.0004635     
   4558473975.5071201     
   4580175585.0452366     
   4602347508.0811911     
   4070958722.8980069     
   4112454089.4872060     
   4151312801.2096376     
   4186633844.2942643     
   4217682716.4247398     
   5786722265.7555780     
   5635836476.0874472     
   5489112883.8957663     
   5346465267.9819021     
   5207938316.7450304     
   5389723287.1120739     
   5248238422.5878754     
   5109959646.0998173     
   4974928805.7562008     
   4843239233.7749119     
   4994225122.5690794     
   4866630509.5403299     
   4742233253.3651009     
   4621002870.2055607     
   4502982131.5451851     
   4602347508.0811911     
   4493678423.6313515     
   4389264136.4096804     
   4288791745.7249780     
   4192176637.9651270     
   4217682716.4247398     
   4133337086.9309812     
   4055550482.9307432     
   3983479959.5403843     
   3916838605.8629599     
   5207938316.7450304     
   5066052505.9992180     
   4924891005.7528801     
   4784477872.2261753     
   4644962176.1958513     
   4843239233.7749119     
   4717660783.2348280     
   4593768842.2180624     
   4471683869.1281996     
   4351632549.4028902     
   4502982131.5451851     
   4393027324.0737038     
   4285709842.0002851     
   4181220930.0170383     
   4079837468.1492448     
   4192176637.9651270     
   4097020641.0495133     
   4005388533.0747609     
   3917511957.7263398     
   3833687352.1134744     
   3916838605.8629599     
   3835442634.6775637     
   3758327667.5400739     
   3685732758.7755647     
   3617943571.0092692     
   4644962176.1958513     
   4506613234.6710749     
   4370584963.8222752     
   4237023393.2372484     
   4106124138.9469123     
   4351632549.4028902     
   4225233687.1879487     
   4101530963.8746920     
   3980723997.5401673     
   3863069646.4495721     
   4079837468.1492448     
   3966512231.3448973     
   3856410530.4805512     
   3749787952.1298928     
   3646966089.4205847     
   3833687352.1134744     
   3734640421.8076167     
   3639500820.9560237     
   3548575723.2484126     
   3462246509.7346444     
   3617943571.0092692     
   3534372542.4210200     
   3455536286.3422227     
   3381778325.5890293     
   3313522185.3679142     
   4106124138.9469123     
   3960424481.2793818     
   3817004388.2567396     
   3676108409.3831396     
   3538067786.5816870     
   3863069646.4495721     
   3731189576.9322147     
   3602430328.5969114     
   3477113889.7579727     
   3355655064.0902224     
   3646966089.4205847     
   3529530957.6592407     
   3416123766.4467854     
   3307131140.7928700     
   3203031566.6588125     
   3462246509.7346444     
   3359761998.6705103     
   3262234027.7286439     
   3170088735.2444515     
   3083834469.9949923     
   3313522185.3679142     
   3226241950.0581818     
   3144805151.0570111     
   3069641538.4824362     
   3001245547.0323672     
   3538067786.5816870     
   3412440730.1307864     
   3288769714.1620612     
   3167228301.4287400     
   3048035111.4014606     
   3355655064.0902224     
   3240884572.3831139     
   3129009144.9063163     
   3020312097.5568552     
   2915142046.9671631     
   3203031566.6588125     
   3101428568.9616728     
   3003899960.3017659     
   2910840089.8865600     
   2822722494.1447520     
   3083834469.9949923     
   2997444062.2329035     
   2916478536.4050231     
   2841416690.0153852     
   2772817741.4241090     
   3001245547.0323672     
   2931581718.8452969     
   2868762283.3203177     
   2813298557.8962126     
   2765770355.5836167     
   3048035111.4014606     
   2890427283.8839021     
   2733894354.5017366     
   2578602199.6251650     
   2424772451.7927060     
   2915142046.9671631     
   2769978276.4111509     
   2627886853.0219011     
   2489324943.2815609     
   2354875200.4650288     
   2822722494.1447520     
   2694875382.6832819     
   2572644408.7280393     
   2456799159.4091215     
   2348272561.9302282     
   2772817741.4241090     
   2666117799.9691825     
   2567771991.5666165     
   2478744193.4530296     
   2400134488.9940906     
   2765770355.5836167     
   2682487685.2260833     
   2610124230.8036313     
   2549649039.2793045     
   2502099170.8796511     
   3624995506.6744943     
   3719677057.9325752     
   3825610633.5637331     
   3942734794.0489020     
   4070958722.8980069     
   3137998184.2762408     
   3255515193.2505345     
   3382449253.1366663     
   3518332966.9846292     
   3662709994.2292252     
   2694786155.2151322     
   2830532104.4874697     
   2973589583.1637330     
   3122877451.4823451     
   3277485634.6383352     
   2298848464.1725583     
   2449520220.8197355     
   2604913758.5458055     
   2763107063.5323076     
   2922670644.6308699     
   1955394088.8312328     
   2119434078.3793931     
   2284831393.2107687     
   2448625704.6047668     
   2608858413.6090803     
   4070958722.8980069     
   4112454089.4872060     
   4151312801.2096376     
   4186633844.2942643     
   4217682716.4247398     
   3662709994.2292252     
   3702189218.2122002     
   3740293889.0105944     
   3776123496.0779815     
   3808927424.7539549     
   3277485634.6383352     
   3320789013.1788692     
   3364331806.4766097     
   3407290220.3593292     
   3448985603.5389714     
   2922670644.6308699     
   2975640380.2598085     
   3030818239.6016169     
   3087521785.5281200     
   3145217759.6240993     
   2608858413.6090803     
   2676800059.8490672     
   2749219604.7352638     
   2825608898.5585456     
   2905614772.2710843     
   4217682716.4247398     
   4133337086.9309812     
   4055550482.9307432     
   3983479959.5403843     
   3916838605.8629599     
   3808927424.7539549     
   3756075000.9889450     
   3709252136.4320011     
   3667988945.9105701     
   3632193770.8816233     
   3448985603.5389714     
   3422971175.5266399     
   3402070954.5162244     
   3386056765.4720745     
   3374914044.3901277     
   3145217759.6240993     
   3141667335.6977987     
   3141717722.9684238     
   3145267983.3327665     
   3152303773.3968358     
   2905614772.2710843     
   2920510682.8227348     
   2936713217.2847328     
   2954166505.8801723     
   2972830580.8929801     
   3916838605.8629599     
   3835442634.6775637     
   3758327667.5400739     
   3685732758.7755647     
   3617943571.0092692     
   3632193770.8816233     
   3562752927.3474932     
   3498030389.6553073     
   3438263414.5395422     
   3383735576.7902265     
   3374914044.3901277     
   3317823679.8441601     
   3266002304.8382053     
   3219670016.8169217     
   3179094203.8188038     
   3152303773.3968358     
   3107773384.8498139     
   3069163513.5251608     
   3036654876.9282985     
   3010478337.2230949     
   2972830580.8929801     
   2940689676.0128431     
   2915195012.5010643     
   2896460893.8784299     
   2884657968.7925811     
   3617943571.0092692     
   3534372542.4210200     
   3455536286.3422227     
   3381778325.5890293     
   3313522185.3679142     
   3383735576.7902265     
   3314000277.4350495     
   3249684181.0835133     
   3191118005.4092441     
   3138696026.3573213     
   3179094203.8188038     
   3122466471.4593015     
   3071882454.8268223     
   3027636252.0640850     
   2990067289.8729033     
   3010478337.2230949     
   2965812976.2753882     
   2927715122.3092971     
   2896420942.4595480     
   2872194495.4977055     
   2884657968.7925811     
   2850270572.4382129     
   2822835829.2907062     
   2802519044.7406936     
   2789499508.0618792     
   3313522185.3679142     
   3226241950.0581818     
   3144805151.0570111     
   3069641538.4824362     
   3001245547.0323672     
   3138696026.3573213     
   3064261359.6323905     
   2996342525.3720942     
   2935350160.5002871     
   2881748023.4134889     
   2990067289.8729033     
   2928288584.7650604     
   2873690398.4315271     
   2826639495.6215920     
   2787541984.2039075     
   2872194495.4977055     
   2822442637.9798670     
   2780497251.0591307     
   2746658059.4533496     
   2721250674.8680534     
   2789499508.0618792     
   2750584213.3947186     
   2720038954.7939978     
   2698081086.6049438     
   2684943302.2187061     
   3001245547.0323672     
   2931581718.8452969     
   2868762283.3203177     
   2813298557.8962126     
   2765770355.5836167     
   2881748023.4134889     
   2825584724.2728176     
   2776155345.0681062     
   2733857161.8171997     
   2699126815.0450931     
   2787541984.2039075     
   2743068120.4512920     
   2705040653.4342437     
   2673746648.0772758     
   2649492001.5288043     
   2721250674.8680534     
   2686517646.3035588     
   2657770697.0285940     
   2635199782.5675731     
   2619001129.1347189     
   2684943302.2187061     
   2657926705.0989738     
   2636280150.3110480     
   2620116172.9563541     
   2609547306.4711995     
   2765770355.5836167     
   2682487685.2260833     
   2610124230.8036313     
   2549649039.2793045     
   2502099170.8796511     
   2699126815.0450931     
   2629120159.6101155     
   2569566331.2284493     
   2521191935.0285335     
   2484756027.4697771     
   2649492001.5288043     
   2590699347.9856343     
   2541808133.5590520     
   2503337794.5091462     
   2475819237.7291737     
   2619001129.1347189     
   2569251995.8389244     
   2528786908.7877593     
   2497956921.4293842     
   2477114052.9180064     
   2609547306.4711995     
   2566623708.9397645     
   2532321223.8611069     
   2506861531.3618770     
   2490463471.1230130     
   1955394088.8312328     
   2119434078.3793931     
   2284831393.2107687     
   2448625704.6047668     
   2608858413.6090803     
   1653919988.2509177     
   1820363162.9692876     
   1988504683.6988573     
   2155648033.1275964     
   2320034969.6262975     
   1393765735.3982804     
   1571143402.7368727     
   1749526818.8226333     
   1926912220.9788954     
   2102049170.4659727     
   1207241598.4264708     
   1399191844.3207231     
   1590719059.0530624     
   1781046448.2642415     
   1969715440.3314803     
   1137018682.3724771     
   1335348172.0728703     
   1533983916.0941477     
   1732925914.4363091     
   1932174167.0993543     
   2608858413.6090803     
   2676800059.8490672     
   2749219604.7352638     
   2825608898.5585456     
   2905614772.2710843     
   2320034969.6262975     
   2407065677.4310522     
   2496521022.9139671     
   2588012166.4446015     
   2681263907.9042463     
   2102049170.4659727     
   2205784315.5241914     
   2309428008.6957159     
   2412744622.5618691     
   2515567613.2603221     
   1969715440.3314803     
   2086872828.3255785     
   2201194217.5384574     
   2312604751.7903705     
   2421052367.9187870     
   1932174167.0993543     
   2058863046.3915980     
   2180163246.3373814     
   2296074766.9367018     
   2406597608.1895614     
   2905614772.2710843     
   2920510682.8227348     
   2936713217.2847328     
   2954166505.8801723     
   2972830580.8929801     
   2681263907.9042463     
   2703071332.1287217     
   2727242328.6831627     
   2753759733.2352896     
   2782615988.2532740     
   2515567613.2603221     
   2544192746.2305436     
   2576264145.5229135     
   2611783952.9558811     
   2650758437.8422675     
   2421052367.9187870     
   2454909785.7098026     
   2493294531.5972347     
   2536210236.0318685     
   2583661388.0978971     
   2406597608.1895614     
   2442520036.7689705     
   2484039678.3130817     
   2531156532.8218937     
   2583870600.2954092     
   2972830580.8929801     
   2940689676.0128431     
   2915195012.5010643     
   2896460893.8784299     
   2884657968.7925811     
   2782615988.2532740     
   2764935612.4307599     
   2754094850.1253605     
   2750175858.2884965     
   2753291532.8491168     
   2650758437.8422675     
   2645156731.4211702     
   2646354222.9862065     
   2654392344.7698355     
   2669325123.2935176     
   2583661388.0978971     
   2587013670.0470695     
   2596887557.1508865     
   2613293554.3699169     
   2636244995.0592451     
   2583870600.2954092     
   2592564459.9801235     
   2607304957.1144290     
   2628092091.6983266     
   2654925863.7318144     
   2884657968.7925811     
   2850270572.4382129     
   2822835829.2907062     
   2802519044.7406936     
   2789499508.0618792     
   2753291532.8491168     
   2729443812.0597591     
   2712875778.8999391     
   2703694288.8149009     
   2702012450.7632413     
   2669325123.2935176     
   2654065084.1413131     
   2646299074.9083405     
   2646079076.5893807     
   2653458941.6074133     
   2636244995.0592451     
   2627021665.1174049     
   2625402169.7936659     
   2631400041.2600074     
   2645029069.5485620     
   2654925863.7318144     
   2648786568.0212011     
   2650280840.1007204     
   2659408679.9703693     
   2676170087.6301556     
   2789499508.0618792     
   2750584213.3947186     
   2720038954.7939978     
   2698081086.6049438     
   2684943302.2187061     
   2702012450.7632413     
   2674440647.6241498     
   2655392677.8376327     
   2644999639.1451731     
   2643398235.9621863     
   2653458941.6074133     
   2634802082.1505213     
   2624700477.7646604     
   2623214098.7573462     
   2630404134.2274489     
   2645029069.5485620     
   2632438977.4557014     
   2628346419.8740721     
   2632766258.1292906     
   2645713420.4577122     
   2676170087.6301556     
   2666594240.0839787     
   2665406737.9828343     
   2672607581.3267226     
   2688196770.1156430     
   2684943302.2187061     
   2657926705.0989738     
   2636280150.3110480     
   2620116172.9563541     
   2609547306.4711995     
   2643398235.9621863     
   2625037818.4201584     
   2613212033.2184744     
   2608004498.5273757     
   2609496572.7510962     
   2630404134.2274489     
   2619531722.2005429     
   2616322124.9438229     
   2620821382.4334507     
   2633073094.7963924     
   2645713420.4577122     
   2640416762.6284180     
   2643899116.4560061     
   2656174071.0828457     
   2677254187.8098269     
   2688196770.1156430     
   2685955540.6768689     
   2693639968.1446080     
   2711250052.5188527     
   2738785793.7996192     
   2609547306.4711995     
   2566623708.9397645     
   2532321223.8611069     
   2506861531.3618770     
   2490463471.1230130     
   2609496572.7510962     
   2581426832.9173994     
   2562937073.5858717     
   2554165062.5681014     
   2555239614.4342933     
   2633073094.7963924     
   2617929569.0324979     
   2613217590.8676314     
   2619001277.4327016     
   2635337410.5115490     
   2677254187.8098269     
   2672579584.9161763     
   2679179413.0774312     
   2697069880.8922615     
   2726264590.9652338     
   2738785793.7996192     
   2741814093.3384795     
   2757055051.2574277     
   2784508667.5564723     
   2824174942.2355905     
   1137018682.3724771     
   1335348172.0728703     
   1533983916.0941477     
   1732925914.4363091     
   1932174167.0993543     
   1207241598.4562135     
   1399191844.3472145     
   1590719059.0769188     
   1781046448.2858863     
   1969715440.3511820     
   1393765735.4473572     
   1571143402.7822556     
   1749526818.8647621     
   1926912221.0181594     
   2102049170.5026577     
   1653919988.3086965     
   1820363163.0245581     
   1988504683.7516577     
   2155648033.1780949     
   2320034969.6746731     
   1955394088.8902962     
   2119434078.4373724     
   2284831393.2674398     
   2448625704.6601396     
   2608858413.6632590     
   1932174167.0993543     
   2058863046.3915980     
   2180163246.3373814     
   2296074766.9367018     
   2406597608.1895614     
   1969715440.3511820     
   2086872828.3515666     
   2201194217.5707054     
   2312604751.8289142     
   2421052367.9636922     
   2102049170.5026577     
   2205784315.5726166     
   2309428008.7558422     
   2412744622.6337380     
   2515567613.3440189     
   2320034969.6746731     
   2407065677.4954143     
   2496521022.9943433     
   2588012166.5410814     
   2681263908.0169487     
   2608858413.6632590     
   2676800059.9221439     
   2749219604.8274117     
   2825608898.6699653     
   2905614772.4019804     
   2406597608.1895614     
   2442520036.7689705     
   2484039678.3130817     
   2531156532.8218937     
   2583870600.2954092     
   2421052367.9636922     
   2454909785.7328815     
   2493294531.5971956     
   2536210236.0073447     
   2583661388.0475087     
   2515567613.3440189     
   2544192746.2757635     
   2576264145.5271573     
   2611783952.9164934     
   2650758437.7565441     
   2681263908.0169487     
   2703071332.1927595     
   2727242328.6949677     
   2753759733.1910734     
   2782615988.1491394     
   2905614772.4019804     
   2920510682.9010568     
   2936713217.3061457     
   2954166505.8400726     
   2972830580.7865996     
   2583870600.2954092     
   2592564459.9801235     
   2607304957.1144290     
   2628092091.6983266     
   2654925863.7318144     
   2583661388.0475087     
   2587013670.0196128     
   2596887557.1428771     
   2613293554.3779349     
   2636244995.0798035     
   2650758437.7565441     
   2645156731.3823237     
   2646354222.9873815     
   2654392344.8042407     
   2669325123.3541574     
   2782615988.1491394     
   2764935612.3998380     
   2754094850.1577373     
   2750175858.3742399     
   2753291532.9778819     
   2972830580.7865996     
   2940689676.0096917     
   2915195012.5886040     
   2896460894.0439844     
   2884657969.0227833     
   2654925863.7318144     
   2648786568.0212011     
   2650280840.1007204     
   2659408679.9703693     
   2676170087.6301556     
   2636244995.0798035     
   2627021665.0707612     
   2625402169.6812105     
   2631400041.0833640     
   2645029069.3096480     
   2669325123.3541574     
   2654065084.0618196     
   2646299074.6902413     
   2646079076.2347417     
   2653458941.1189389     
   2753291532.9778819     
   2729443811.9726253     
   2712875778.5970192     
   2703694288.2970724     
   2702012450.0323792     
   2884657969.0227833     
   2850270572.3767757     
   2822835828.9347649     
   2802519044.0882106     
   2789499507.1120353     
   2676170087.6301556     
   2666594240.0839787     
   2665406737.9828343     
   2672607581.3267226     
   2688196770.1156430     
   2645029069.3096480     
   2632438977.1960301     
   2628346419.6038132     
   2632766257.8588953     
   2645713420.1978030     
   2653458941.1189389     
   2634802081.6189103     
   2624700477.2105155     
   2623214098.2020173     
   2630404133.6927810     
   2702012450.0323792     
   2674440646.8230658     
   2655392676.9971156     
   2644999638.2975211     
   2643398235.1408486     
   2789499507.1120353     
   2750584212.3405275     
   2720038953.6756330     
   2698081085.4651856     
   2684943301.1025462     
   2688196770.1156430     
   2685955540.6768689     
   2693639968.1446080     
   2711250052.5188527     
   2738785793.7996192     
   2645713420.1978030     
   2640416762.5426226     
   2643899116.5509005     
   2656174071.3639846     
   2677254188.2816901     
   2630404133.6927810     
   2619531722.0092006     
   2616322125.1103683     
   2620821382.9705086     
   2633073095.7144823     
   2643398235.1408486     
   2625037818.0987635     
   2613212033.4214735     
   2608004499.2765937     
   2609496574.0653958     
   2684943301.1025462     
   2657926704.6197081     
   2636280150.5045633     
   2620116173.8556190     
   2609547308.1057172     
   2738785793.7996192     
   2741814093.3384795     
   2757055051.2574277     
   2784508667.5564723     
   2824174942.2355905     
   2677254188.2816901     
   2672579584.9143100     
   2679179412.5706635     
   2697069879.8521352     
   2726264589.3669772     
   2633073095.7144823     
   2617929569.0788622     
   2613217589.9805803     
   2619001275.5549150     
   2635337407.5920544     
   2609496574.0653958     
   2581426833.0503497     
   2562937072.4454541     
   2554165060.0667419     
   2555239610.4919286     
   2609547308.1057172     
   2566623709.1819139     
   2532321222.5903759     
   2506861528.4601293     
   2490463466.4786220     
   1955394088.8902962     
   2119434078.4373724     
   2284831393.2674398     
   2448625704.6601396     
   2608858413.6632590     
   2298848464.2279387     
   2449520220.8751116     
   2604913758.6008582     
   2763107063.5868111     
   2922670644.6846352     
   2694786155.2632256     
   2830532104.5362582     
   2973589583.2129307     
   3122877451.5316381     
   3277485634.6873775     
   3137998184.3142772     
   3255515193.2897377     
   3382449253.1768441     
   3518332967.0254788     
   3662709994.2703447     
   3624995506.7001815     
   3719677057.9598060     
   3825610633.5924268     
   3942734794.0788164     
   4070958722.9287591     
   2608858413.6632590     
   2676800059.9221439     
   2749219604.8274117     
   2825608898.6699653     
   2905614772.4019804     
   2922670644.6846352     
   2975640380.3334346     
   3030818239.6957397     
   3087521785.6434221     
   3145217759.7612920     
   3277485634.6873775     
   3320789013.2473369     
   3364331806.5654564     
   3407290220.4695501     
   3448985603.6715980     
   3662709994.2703447     
   3702189218.2710366     
   3740293889.0882635     
   3776123496.1756024     
   3808927424.8726487     
   4070958722.9287591     
   4112454089.5328526     
   4151312801.2713232     
   4186633844.3730769     
   4217682716.5216918     
   2905614772.4019804     
   2920510682.9010568     
   2936713217.3061457     
   2954166505.8400726     
   2972830580.7865996     
   3145217759.7612920     
   3141667335.7848229     
   3141717723.0019326     
   3145267983.3090863     
   3152303773.3120999     
   3448985603.6715980     
   3422971175.6137428     
   3402070954.5558343     
   3386056765.4617853     
   3374914044.3271928     
   3808927424.8726487     
   3756075001.0674562     
   3709252136.4699855     
   3667988945.9071765     
   3632193770.8354759     
   4217682716.5216918     
   4133337086.9926939     
   4055550482.9585867     
   3983479959.5352449     
   3916838605.8250728     
   2972830580.7865996     
   2940689676.0096917     
   2915195012.5886040     
   2896460894.0439844     
   2884657969.0227833     
   3152303773.3120999     
   3107773384.9078732     
   3069163513.7203746     
   3036654877.2548552     
   3010478337.6745968     
   3374914044.3271928     
   3317823679.9540071     
   3266002305.1212926     
   3219670017.2737441     
   3179094204.4496045     
   3632193770.8354759     
   3562752927.4926739     
   3498030389.9973903     
   3438263415.0845003     
   3383735577.5442801     
   3916838605.8250728     
   3835442634.8374662     
   3758327667.9074388     
   3685732759.3608775     
   3617943571.8238430     
   2884657969.0227833     
   2850270572.3767757     
   2822835828.9347649     
   2802519044.0882106     
   2789499507.1120353     
   3010478337.6745968     
   2965812976.4068241     
   2927715122.1074872     
   2896420941.9117379     
   2872194494.5921750     
   3179094204.4496045     
   3122466471.7531295     
   3071882454.7609625     
   3027636251.6154327     
   2990067289.0187764     
   3383735577.5442801     
   3314000277.8481064     
   3249684181.1245427     
   3191118005.0457606     
   3138696025.5562301     
   3617943571.8238430     
   3534372542.9035439     
   3455536286.4548101     
   3381778325.2911563     
   3313522184.6171947     
   2789499507.1120353     
   2750584212.3405275     
   2720038953.6756330     
   2698081085.4651856     
   2684943301.1025462     
   2872194494.5921750     
   2822442636.9394116     
   2780497249.9143672     
   2746658058.2378926     
   2721250673.6181731     
   2990067289.0187764     
   2928288583.7564664     
   2873690397.2900310     
   2826639494.3717146     
   2787541982.8728299     
   3138696025.5562301     
   3064261358.6741753     
   2996342524.2701497     
   2935350159.2704759     
   2881748022.0738754     
   3313522184.6171947     
   3226241949.1682954     
   3144805150.0344706     
   3069641537.3354034     
   3001245545.7703109     
   2684943301.1025462     
   2657926704.6197081     
   2636280150.5045633     
   2620116173.8556190     
   2609547308.1057172     
   2721250673.6181731     
   2686517645.7387738     
   2657770697.1888785     
   2635199783.4901037     
   2619001130.8528981     
   2787541982.8728299     
   2743068119.8342066     
   2705040653.5757737     
   2673746649.0199542     
   2649492003.3116097     
   2881748022.0738754     
   2825584723.6600595     
   2776155345.2314835     
   2733857162.8051672     
   2699126816.9034352     
   3001245545.7703109     
   2931581718.3111939     
   2868762283.5675464     
   2813298558.9790959     
   2765770357.5552440     
   2609547308.1057172     
   2566623709.1819139     
   2532321222.5903759     
   2506861528.4601293     
   2490463466.4786220     
   2619001130.8528981     
   2569251995.9665360     
   2528786907.1975083     
   2497956917.9930577     
   2477114047.5112486     
   2649492003.3116097     
   2590699348.0571275     
   2541808131.7828679     
   2503337790.7432289     
   2475819231.8316364     
   2699126816.9034352     
   2629120159.6984239     
   2569566329.4007769     
   2521191931.1272111     
   2484756021.3324771     
   2765770357.5552440     
   2682487685.4137850     
   2610124229.0535278     
   2549649035.4188075     
   2502099164.7256160     
   3624995506.7001815     
   3719677057.9598060     
   3825610633.5924268     
   3942734794.0788164     
   4070958722.9287591     
   4134133220.6179495     
   4224358407.6276083     
   4320503944.4760818     
   4420913682.9598198     
   4524133521.4988279     
   4643455100.1871309     
   4755508865.6210451     
   4868685778.9651155     
   4980349880.4244347     
   5088574890.0363274     
   5151440403.5658340     
   5311303368.1925840     
   5467797416.5791254     
   5618024623.6302376     
   5760517267.3114367     
   5657825497.6315918     
   5890903937.2972422     
   6116343069.9997320     
   6331680559.1429415     
   6536690895.4716539     
   4070958722.9287591     
   4112454089.5328526     
   4151312801.2713232     
   4186633844.3730769     
   4217682716.5216918     
   4524133521.4988279     
   4538966322.0278492     
   4558473975.5460510     
   4580175585.0960016     
   4602347508.1441450     
   5088574890.0363274     
   5053922861.3103056     
   5029783393.3244038     
   5010951045.9964390     
   4994225122.6002760     
   5760517267.3114367     
   5651998751.6123075     
   5559479361.2115812     
   5473900774.3500481     
   5389723287.1150217     
   6536690895.4716539     
   6328599597.4327173     
   6142693440.0912733     
   5965069823.3287764     
   5786722265.7346067     
   4217682716.5216918     
   4133337086.9926939     
   4055550482.9585867     
   3983479959.5352449     
   3916838605.8250728     
   4602347508.1441450     
   4493678423.6601915     
   4389264136.4058838     
   4288791745.6896811     
   4192176637.8990736     
   4994225122.6002760     
   4866630509.5361061     
   4742233253.3268061     
   4621002870.1343012     
   4502982131.4418344     
   5389723287.1150217     
   5248238422.5518570     
   5109959646.0258417     
   4974928805.6451159     
   4843239233.6274042     
   5786722265.7346067     
   5635836476.0219193     
   5489112883.7861433     
   5346465267.8285742     
   5207938316.5482674     
   3916838605.8250728     
   3835442634.8374662     
   3758327667.9074388     
   3685732759.3608775     
   3617943571.8238430     
   4192176637.8990736     
   4097020641.1679282     
   4005388533.3905492     
   3917511958.2538037     
   3833687352.8683629     
   4502982131.4418344     
   4393027324.1318417     
   4285709842.2349019     
   4181220930.4450970     
   4079837468.7897668     
   4843239233.6274042     
   4717660783.2165203     
   4593768842.3449173     
   4471683869.4186039     
   4351632549.8778105     
   5207938316.5482674     
   5066052505.8905096     
   4924891005.7481270     
   4784477872.3439837     
   4644962176.4577465     
   3617943571.8238430     
   3534372542.9035439     
   3455536286.4548101     
   3381778325.2911563     
   3313522184.6171947     
   3833687352.8683629     
   3734640422.2597852     
   3639500821.0648646     
   3548575722.9697118     
   3462246509.0207500     
   4079837468.7897668     
   3966512231.7328253     
   3856410530.5749574     
   3749787951.8856707     
   3646966088.7880745     
   4351632549.8778105     
   4225233687.4779706     
   4101530963.9405217     
   3980723997.3381462     
   3863069645.9308901     
   4644962176.4577465     
   4506613234.8305111     
   4370584963.8430338     
   4237023393.0788603     
   4106124138.5636120     
   3313522184.6171947     
   3226241949.1682954     
   3144805150.0344706     
   3069641537.3354034     
   3001245545.7703109     
   3462246509.0207500     
   3359761997.8438449     
   3262234026.7955632     
   3170088734.2131748     
   3083834468.8752551     
   3646966088.7880745     
   3529530956.9464474     
   3416123765.6597142     
   3307131139.9395342     
   3203031565.7488651     
   3863069645.9308901     
   3731189576.3712630     
   3602430327.9992995     
   3477113889.1314340     
   3355655063.4442596     
   4106124138.5636120     
   3960424480.8965988     
   3817004387.8796883     
   3676108409.0192871     
   3538067786.2403789     
   3001245545.7703109     
   2931581718.3111939     
   2868762283.5675464     
   2813298558.9790959     
   2765770357.5552440     
   3083834468.8752551     
   2997444061.8465447     
   2916478536.8044128     
   2841416691.2553854     
   2772817743.5603242     
   3203031565.7488651     
   3101428568.7883706     
   3003899960.9153438     
   2910840091.3408871     
   2822722496.4960861     
   3355655063.4442596     
   3240884572.4807048     
   3129009145.7945986     
   3020312099.2870817     
   2915142049.5940046     
   3538067786.2403789     
   3412440730.5480404     
   3288769715.3814340     
   3167228303.4976840     
   3048035114.3711333     
   2765770357.5552440     
   2682487685.4137850     
   2610124229.0535278     
   2549649035.4188075     
   2502099164.7256160     
   2772817743.5603242     
   2666117800.3771982     
   2567771990.0488257     
   2478744189.7863293     
   2400134482.9369984     
   2822722496.4960861     
   2694875383.3284907     
   2572644407.4319649     
   2456799155.9040580     
   2348272555.9198551     
   2915142049.5940046     
   2769978277.3480883     
   2627886852.0104156     
   2489324940.0281262     
   2354875194.6413651     
   3048035114.3711333     
   2890427285.1993065     
   2733894353.9017839     
   2578602196.8207855     
   2424772446.4666209     
   5657825497.6315918     
   5890903937.2972422     
   6116343069.9997320     
   6331680559.1429415     
   6536690895.4716539     
   6491680351.1431665     
   6586883330.5901957     
   6757417539.7167854     
   6961201255.1166782     
   7171573891.8145914     
   7982350111.2426424     
   7734969578.6564112     
   7669155967.2292852     
   7669608591.8912888     
   7666396709.8534889     
   10130280869.169767     
   9322004496.3771172     
   8826367947.0889969     
   8443552573.3041096     
   8035754728.1795883     
   12935558620.574154     
   11340702445.557043     
   10210220652.077400     
   9272795706.7507629     
   8304000471.5111485     
   6536690895.4716539     
   6328599597.4327173     
   6142693440.0912733     
   5965069823.3287764     
   5786722265.7346067     
   7171573891.8145914     
   6910958015.6354656     
   6658237551.8061314     
   6409555134.6646729     
   6161766569.5809889     
   7666396709.8534889     
   7381198404.1015844     
   7101384222.8759518     
   6827032107.6612539     
   6558344768.6406460     
   8035754728.1795883     
   7746966034.7796431     
   7473830094.6290083     
   7214391284.6457548     
   6968654995.8518276     
   8304000471.5111485     
   8020818950.5435591     
   7779710212.3045206     
   7570000344.4715281     
   7386717940.8634024     
   5786722265.7346067     
   5635836476.0219193     
   5489112883.7861433     
   5346465267.8285742     
   5207938316.5482674     
   6161766569.5809889     
   6012526156.5178480     
   5864618509.8819361     
   5718081467.0015430     
   5572970384.6839399     
   6558344768.6406460     
   6407612765.5768108     
   6255279910.4330349     
   6101314495.1863613     
   5945744580.7704525     
   6968654995.8518276     
   6814632100.0506983     
   6656051900.9640846     
   6492633289.5737658     
   6324322151.9565372     
   7386717940.8634024     
   7228584532.3336945     
   7063022816.2766352     
   6889342826.8081474     
   6707350641.9371672     
   5207938316.5482674     
   5066052505.8905096     
   4924891005.7481270     
   4784477872.3439837     
   4644962176.4577465     
   5572970384.6839399     
   5414547077.9331884     
   5256973356.8574686     
   5100285165.4900846     
   4944575458.6029110     
   5945744580.7704525     
   5773539587.6291075     
   5602691376.1505308     
   5433224595.1289787     
   5265198178.6380167     
   6324322151.9565372     
   6140595055.1890678     
   5959062909.8331556     
   5779707981.1371737     
   5602559875.4601488     
   6707350641.9371672     
   6513889215.9890423     
   6323760127.8239107     
   6136865065.0456648     
   5953193818.1829414     
   4644962176.4577465     
   4506613234.8305111     
   4370584963.8430338     
   4237023393.0788603     
   4106124138.5636120     
   4944575458.6029110     
   4796639433.0652142     
   4650064675.6709318     
   4504964821.4044514     
   4361495866.8804302     
   5265198178.6380167     
   5107951062.6095982     
   4951178494.2923460     
   4794953490.4095907     
   4639385985.6341019     
   5602559875.4601488     
   5436428072.0544910     
   5269964293.8125963     
   5103197473.6159849     
   4936190283.5059109     
   5953193818.1829414     
   5778709377.3027754     
   5603169322.3356876     
   5426558532.7940273     
   5248895059.1657448     
   4106124138.5636120     
   3960424480.8965988     
   3817004387.8796883     
   3676108409.0192871     
   3538067786.2403789     
   4361495866.8804302     
   4202497270.3813105     
   4045176751.8055482     
   3889706159.2401896     
   3736332894.0751934     
   4639385985.6341019     
   4467720486.8356562     
   4297240396.1910830     
   4128052226.6541924     
   3960326517.8233862     
   4936190283.5059109     
   4752350589.6192408     
   4569303286.2152348     
   4387099502.8151579     
   4205843980.4308467     
   5248895059.1657448     
   5053239200.3264933     
   4858068727.9031143     
   4663389638.4455204     
   4469252938.1883402     
   3538067786.2403789     
   3412440730.5480404     
   3288769715.3814340     
   3167228303.4976840     
   3048035114.3711333     
   3736332894.0751934     
   3601653883.3095808     
   3468483867.2757616     
   3336969297.8800955     
   3207305754.2576160     
   3960326517.8233862     
   3816067437.7741451     
   3672814682.8444324     
   3530679565.8066711     
   3389825001.7797589     
   4205843980.4308467     
   4051424739.8965788     
   3897473127.8795285     
   3744059121.5044818     
   3591305212.0427213     
   4469252938.1883402     
   4304057274.3295155     
   4138770744.6226797     
   3973417314.2001152     
   3808072947.9690976     
   3048035114.3711333     
   2890427285.1993065     
   2733894353.9017839     
   2578602196.8207855     
   2424772446.4666209     
   3207305754.2576160     
   3041676127.2618222     
   2877920321.8497181     
   2716269117.3515329     
   2557064274.2256265     
   3389825001.7797589     
   3211186935.8725548     
   3034610725.8193259     
   2860381149.2433014     
   2688983306.7345510     
   3591305212.0427213     
   3394239787.2992272     
   3198871073.0119591     
   3005528307.3251834     
   2814862423.6823034     
   3808072947.9690976     
   3587011371.8432279     
   3366810816.3980212     
   3147826229.1013041     
   2930881270.8913684     
 </DataArray>
 <DataArray  type="Float64" Name="strain" NumberOfComponents="3" format="ascii">
  0.20348517880424621        0.0000000000000000       0.12540363647014219     
  0.18665567205489059       -2.7323607333196356E-002   7.4351074489684879E-002
  0.16982616530553496       -4.4674788255367942E-002   3.5132268118316157E-002
  0.15299665855617933       -5.2053542766514804E-002   7.7472173560360208E-003
  0.13616715180682371       -4.9459870866636918E-002  -7.8040777971555009E-003
  0.15985539686053141        0.0000000000000000        9.6448295615459090E-002
  0.15317804702547494       -2.1843917938201288E-002   6.2690069622073435E-002
  0.14650069719041847       -3.6173949411490172E-002   3.7402401848197493E-002
  0.13982334735536198       -4.2990094419866655E-002   2.0585292293831253E-002
  0.13314599752030548       -4.2292352963330754E-002   1.2238740958974745E-002
  0.12645839316070911        0.0000000000000000        7.4201914128827220E-002
  0.12657000285037293       -1.6364228543206225E-002   5.5279484176400870E-002
  0.12668161254003674       -2.7673110567612399E-002   4.1464415053905378E-002
  0.12679322222970052       -3.3926646073218526E-002   3.2756706761340681E-002
  0.12690483191936430       -3.5124835060024617E-002   2.9156359298706830E-002
  0.10329416770477937        0.0000000000000000        5.8664492010246587E-002
  0.10683153952958456       -1.0884539148211162E-002   5.2119318152667203E-002
  0.11036891135438975       -1.9172271723734625E-002   4.7318307735439775E-002
  0.11390628317919495       -2.4863197726570394E-002   4.4261460758564318E-002
  0.11744365500400013       -2.7957317156718457E-002   4.2948777222040768E-002
   9.0362720492742146E-002   0.0000000000000000        4.9836029259717196E-002
   9.3962657063109856E-002  -5.4048497532160978E-003   5.3209571550872421E-002
   9.7562593633477537E-002  -1.0671432879856852E-002   5.4964079892800728E-002
  0.10116253020384526       -1.5799749379922259E-002   5.5099554285502103E-002
  0.10476246677421296       -2.0789799253412310E-002   5.3615994728976539E-002
  0.13616715180682371       -4.9459870866636918E-002  -7.8040777971555009E-003
  0.13296206240449593       -4.2927458599929288E-002  -3.3908326876448680E-003
  0.12975697300216815       -3.8489992010586851E-002  -3.9166162348638900E-004
  0.12655188359984038       -3.6147471098609760E-002   1.1934353953196308E-003
  0.12334679419751260       -3.5899895863997888E-002   1.3644583687735246E-003
  0.13314599752030548       -4.2292352963330754E-002   1.2238740958974745E-002
  0.12891475870894414       -3.8427977881373997E-002   1.2182116944663084E-002
  0.12468351989758275       -3.5744222013487925E-002   1.1487268157636572E-002
  0.12045228108622139       -3.4241085359672532E-002   1.0154194597895232E-002
  0.11622104227486002       -3.3918567919927853E-002   8.1828962654387771E-003
  0.12690483191936430       -3.5124835060024617E-002   2.9156359298706830E-002
  0.12242329297160669       -3.3928497162818726E-002   2.5544192623867482E-002
  0.11794175402384907       -3.2998452016388936E-002   2.2069650448950630E-002
  0.11346021507609146       -3.2334699620735284E-002   1.8732732773956196E-002
  0.10897867612833384       -3.1937239975857706E-002   1.5533439598884077E-002
  0.11744365500400013       -2.7957317156718457E-002   4.2948777222040768E-002
  0.11348766519248363       -2.9429016444263465E-002   3.6695394349968324E-002
  0.10953167538096709       -3.0252682019289993E-002   3.1355485250455610E-002
  0.10557568556945057       -3.0428313881798032E-002   2.6929049923502778E-002
  0.10161969575793404       -2.9955912031787615E-002   2.3416088369109560E-002
  0.10476246677421296       -2.0789799253412310E-002   5.3615994728976539E-002
  0.10210787537157491       -2.4929535725708184E-002   4.5635722122965502E-002
   9.9453283968936851E-002  -2.7506912022191007E-002   3.9344772562151568E-002
   9.6798692566298777E-002  -2.8521928142860798E-002   3.4743146046534890E-002
   9.4144101163660732E-002  -2.7974584087717511E-002   3.1830842576115251E-002
  0.12334679419751260       -3.5899895863997888E-002   1.3644583687735246E-003
  0.12041588327422409       -3.6395500070322495E-002   6.3722382452487125E-004
  0.11748497235093561       -3.6282517481154644E-002   1.0232352050429383E-004
  0.11455406142764712       -3.5560948096494654E-002  -2.4024254328795791E-004
  0.11162315050435861       -3.4230791916341929E-002  -3.9047436685230030E-004
  0.11622104227486002       -3.3918567919927853E-002   8.1828962654387771E-003
  0.11346821995276793       -3.3991911952933607E-002   7.8235433903158513E-003
  0.11071539763067584       -3.3676359717369750E-002   7.6280334773575209E-003
  0.10796257530858375       -3.2971911213236151E-002   7.5963665265640495E-003
  0.10520975298649171       -3.1878566440532885E-002   7.7285425379353401E-003
  0.10897867612833384       -3.1937239975857706E-002   1.5533439598884077E-002
  0.10637545112937472       -3.1588323835544718E-002   1.5322277865964174E-002
  0.10377222613041562       -3.1070201953584710E-002   1.5246467817145608E-002
  0.10116900113145649       -3.0382874329977702E-002   1.5306009452428149E-002
   9.8565776132497396E-002  -2.9526340964723730E-002   1.5500902771812139E-002
  0.10161969575793404       -2.9955912031787615E-002   2.3416088369109560E-002
   9.9137576804044475E-002  -2.9184735718155802E-002   2.3133427251470124E-002
   9.6655457850154933E-002  -2.8464044189799729E-002   2.2957626539868367E-002
   9.4173338896265363E-002  -2.7793837446719281E-002   2.2888686234304470E-002
   9.1691219942375779E-002  -2.7174115488914519E-002   2.2926606334778287E-002
   9.4144101163660732E-002  -2.7974584087717511E-002   3.1830842576115251E-002
   9.1754596976777236E-002  -2.6781147600766921E-002   3.1256991546833424E-002
   8.9365092789893755E-002  -2.5857886426014710E-002   3.0761509645525896E-002
   8.6975588603010245E-002  -2.5204800563460857E-002   3.0344396872192824E-002
   8.4586084416126778E-002  -2.4821890013105391E-002   3.0005653226834017E-002
  0.11162315050435861       -3.4230791916341929E-002  -3.9047436685230030E-004
  0.10852993940289501       -3.2717038650901059E-002  -1.3795057685317413E-004
  0.10543672830143141       -3.1444678010375940E-002   1.9321611487002621E-004
  0.10234351719996784       -3.0413709994766325E-002   6.0302570831774482E-004
   9.9250306098504215E-002  -2.9624134604072594E-002   1.0914782034895376E-003
  0.10520975298649171       -3.1878566440532885E-002   7.7285425379353401E-003
  0.10221913888972595       -3.0663084188747011E-002   7.5814341271203262E-003
   9.9228524792960182E-002  -2.9592223247365462E-002   7.5608768239769641E-003
   9.6237910696194418E-002  -2.8665983616388717E-002   7.6668706285049279E-003
   9.3247296599428653E-002  -2.7884365295816227E-002   7.8994155407044186E-003
   9.8565776132497396E-002  -2.9526340964723730E-002   1.5500902771812139E-002
   9.5725667246376669E-002  -2.8609129726592811E-002   1.5050933474694522E-002
   9.2885558360255943E-002  -2.7739768484355311E-002   1.4775423491195698E-002
   9.0045449474135161E-002  -2.6918257238011049E-002   1.4674372821315295E-002
   8.7205340588014449E-002  -2.6144595987559999E-002   1.4747781465053469E-002
   9.1691219942375779E-002  -2.7174115488914519E-002   2.2926606334778287E-002
   8.9049524472847183E-002  -2.6555175264438687E-002   2.2270547465869296E-002
   8.6407829003318587E-002  -2.5887313721344913E-002   2.1836856116525964E-002
   8.3766133533790019E-002  -2.5170530859633330E-002   2.1625532286748524E-002
   8.1124438064261381E-002  -2.4404826679303812E-002   2.1636575976536631E-002
   8.4586084416126778E-002  -2.4821890013105391E-002   3.0005653226834017E-002
   8.2190710569137515E-002  -2.4501220802284562E-002   2.9240276100644724E-002
   7.9795336722148183E-002  -2.4034858958334605E-002   2.8745174699968359E-002
   7.7399962875158934E-002  -2.3422804481255700E-002   2.8520349024804603E-002
   7.5004589028169616E-002  -2.2665057371047515E-002   2.8565799075153969E-002
   9.9250306098504215E-002  -2.9624134604072594E-002   1.0914782034895376E-003
   9.6305240696183181E-002  -2.8913261646602656E-002   8.8712113708405704E-004
   9.3360175293862174E-002  -2.8118400930664436E-002   8.3801459749391349E-004
   9.0415109891541154E-002  -2.7239552456258257E-002   9.4415858471949554E-004
   8.7470044489220133E-002  -2.6276716223383789E-002   1.2055530987602481E-003
   9.3247296599428653E-002  -2.7884365295816227E-002   7.8994155407044186E-003
   9.0458443916050929E-002  -2.7148470301705474E-002   7.7256553620626278E-003
   8.7669591232673150E-002  -2.6359400650112955E-002   7.7090700944922458E-003
   8.4880738549295426E-002  -2.5517156341038839E-002   7.8496597379925162E-003
   8.2091885865917646E-002  -2.4621737374483033E-002   8.1474242925638762E-003
   8.7205340588014449E-002  -2.6144595987559999E-002   1.4747781465053469E-002
   8.4574625007835469E-002  -2.5383678956808250E-002   1.4573805073189158E-002
   8.1943909427656475E-002  -2.4600400369561300E-002   1.4558927976651447E-002
   7.9313193847477509E-002  -2.3794760225819361E-002   1.4703150175440081E-002
   7.6682478267298432E-002  -2.2966758525582220E-002   1.5006471669555571E-002
   8.1124438064261381E-002  -2.4404826679303812E-002   2.1636575976536631E-002
   7.8653783971536773E-002  -2.3618887611911048E-002   2.1431570270463118E-002
   7.6183129878812109E-002  -2.2841400089009787E-002   2.1387588243971703E-002
   7.3712475786087514E-002  -2.2072364110599860E-002   2.1504629897062557E-002
   7.1241821693362850E-002  -2.1311779676681547E-002   2.1782695229735201E-002
   7.5004589028169616E-002  -2.2665057371047515E-002   2.8565799075153969E-002
   7.2695920807154812E-002  -2.1854096267013956E-002   2.8298950953884794E-002
   7.0387252586140051E-002  -2.1082399808458149E-002   2.8195050896453244E-002
   6.8078584365125289E-002  -2.0349967995380493E-002   2.8254098902859431E-002
   6.5769916144110513E-002  -1.9656800827780763E-002   2.8476094973103161E-002
   8.7470044489220133E-002  -2.6276716223383789E-002   1.2055530987602481E-003
   8.4212819436045971E-002  -2.5287738602002841E-002   9.8949968384332010E-004
   8.0955594382871754E-002  -2.4330465962076414E-002   9.7089228094721092E-004
   7.7698369329697620E-002  -2.3404898303604975E-002   1.1497308900707270E-003
   7.4441144276523374E-002  -2.2511035626587961E-002   1.5260155112148954E-003
   8.2091885865917646E-002  -2.4621737374483033E-002   8.1474242925638762E-003
   7.9031936935600178E-002  -2.3709655047386119E-002   7.8741755542399983E-003
   7.5971988005282737E-002  -2.2817420656687931E-002   7.7980330496094374E-003
   7.2912039074965296E-002  -2.1945034202388976E-002   7.9189967786716942E-003
   6.9852090144647883E-002  -2.1092495684488788E-002   8.2370667414277121E-003
   7.6682478267298432E-002  -2.2966758525582220E-002   1.5006471669555571E-002
   7.3819465681510626E-002  -2.2131571492769286E-002   1.4687884652880484E-002
   7.0956453095722835E-002  -2.1304375351299462E-002   1.4566064091571518E-002
   6.8093440509935016E-002  -2.0485170101172758E-002   1.4641009985628319E-002
   6.5230427924147183E-002  -1.9673955742389559E-002   1.4912722335051587E-002
   7.1241821693362850E-002  -2.1311779676681547E-002   2.1782695229735201E-002
   6.8575405673777401E-002  -2.0553487938152620E-002   2.1430626979764882E-002
   6.5908989654192063E-002  -1.9791330045910986E-002   2.1274985406833199E-002
   6.3242573634606683E-002  -1.9025305999957096E-002   2.1315770510940399E-002
   6.0576157615021331E-002  -1.8255415800290303E-002   2.1552982292086520E-002
   6.5769916144110513E-002  -1.9656800827780763E-002   2.8476094973103161E-002
   6.3299756912400446E-002  -1.8975404383535815E-002   2.8102402534892879E-002
   6.0829597680690420E-002  -1.8278284740522663E-002   2.7924796995394324E-002
   5.8359438448980387E-002  -1.7565441898740885E-002   2.7943278354607470E-002
   5.5889279217270382E-002  -1.6836875858191158E-002   2.8157846612532567E-002
   7.4441144276523374E-002  -2.2511035626587961E-002   1.5260155112148954E-003
   7.1703222471379668E-002  -2.1625635955306310E-002   1.3669702495242575E-003
   6.8965300666236073E-002  -2.0725457314040407E-002   1.4016817523329617E-003
   6.6227378861092367E-002  -1.9810499702790058E-002   1.6301500196424512E-003
   6.3489457055948773E-002  -1.8880763121555399E-002   2.0523750514512829E-003
   6.9852090144647883E-002  -2.1092495684488788E-002   8.2370667414277121E-003
   6.7298227879332539E-002  -2.0245663814625947E-002   8.0473229715939398E-003
   6.4744365614017307E-002  -1.9390397304440227E-002   8.0319415169172181E-003
   6.2190503348702048E-002  -1.8526696153930315E-002   8.1909223773976164E-003
   5.9636641083386788E-002  -1.7654560363097094E-002   8.5242655530343159E-003
   6.5230427924147183E-002  -1.9673955742389559E-002   1.4912722335051587E-002
   6.2841230749317148E-002  -1.8865691673946305E-002   1.4685935727414751E-002
   6.0452033574487141E-002  -1.8055337294840046E-002   1.4614116985591147E-002
   5.8062836399657078E-002  -1.7242892605071239E-002   1.4697266109581580E-002
   5.5673639224827098E-002  -1.6428357604639066E-002   1.4935383099385829E-002
   6.0576157615021331E-002  -1.8255415800290303E-002   2.1552982292086520E-002
   5.8332231081333411E-002  -1.7485719533266136E-002   2.1282808516985448E-002
   5.6088304547645622E-002  -1.6720277285240087E-002   2.1148208158354803E-002
   5.3844378013957778E-002  -1.5959089056211608E-002   2.1149181216194891E-002
   5.1600451480269899E-002  -1.5202154846180899E-002   2.1285727690505664E-002
   5.5889279217270382E-002  -1.6836875858191158E-002   2.8157846612532567E-002
   5.3771228875381522E-002  -1.6105747392586300E-002   2.7837941340306760E-002
   5.1653178533492716E-002  -1.5385217275639920E-002   2.7634215035208243E-002
   4.9535128191603911E-002  -1.4675285507352174E-002   2.7546667697237084E-002
   4.7417077849715050E-002  -1.3975952087722787E-002   2.7575299326393521E-002
   6.3489457055948773E-002  -1.8880763121555399E-002   2.0523750514512829E-003
   5.9763695138327133E-002  -1.7957789930171830E-002   1.9083119558275241E-003
   5.6037933220705494E-002  -1.7063122488475496E-002   2.2341186633800802E-003
   5.2312171303083799E-002  -1.6196760796466557E-002   3.0297951741086460E-003
   4.8586409385462215E-002  -1.5358704854144367E-002   4.2953414880133600E-003
   5.9636641083386788E-002  -1.7654560363097094E-002   8.5242655530343159E-003
   5.6331361283008363E-002  -1.6785006722793927E-002   8.1996765399449112E-003
   5.3026081482629939E-002  -1.5929052023874513E-002   8.2461819581650664E-003
   4.9720801682251653E-002  -1.5086696266338490E-002   8.6637818076960860E-003
   4.6415521881873034E-002  -1.4257939450186718E-002   9.4524760885374981E-003
   5.5673639224827098E-002  -1.6428357604639066E-002   1.4935383099385829E-002
   5.2690066169826133E-002  -1.5612223515415635E-002   1.4444974977133429E-002
   4.9706493114825112E-002  -1.4794981559272877E-002   1.4226885914325679E-002
   4.6722920059824077E-002  -1.3976631736210426E-002   1.4281115910962240E-002
   4.3739347004823181E-002  -1.3157174046228404E-002   1.4607664967043354E-002
   5.1600451480269899E-002  -1.5202154846180899E-002   2.1285727690505664E-002
   4.8839809798780359E-002  -1.4439440308037760E-002   2.0644207267393966E-002
   4.6079168117290868E-002  -1.3660911094671567E-002   2.0176230531860798E-002
   4.3318526435801433E-002  -1.2866567206082582E-002   1.9881797483906428E-002
   4.0557884754311962E-002  -1.2056408642270644E-002   1.9760908123530402E-002
   4.7417077849715050E-002  -1.3975952087722787E-002   2.7575299326393521E-002
   4.4780592169871208E-002  -1.3266657100659662E-002   2.6797373410726077E-002
   4.2144106490027339E-002  -1.2526840630070188E-002   2.6094215810771121E-002
   3.9507620810183469E-002  -1.1756502675954583E-002   2.5465826526528831E-002
   3.6871135130339572E-002  -1.0955643238312662E-002   2.4912205557999556E-002
   9.0362720492742146E-002   0.0000000000000000        4.9836029259717196E-002
   9.3962657063109856E-002  -5.4048497532160978E-003   5.3209571550872421E-002
   9.7562593633477537E-002  -1.0671432879856852E-002   5.4964079892800728E-002
  0.10116253020384526       -1.5799749379922259E-002   5.5099554285502103E-002
  0.10476246677421296       -2.0789799253412310E-002   5.3615994728976539E-002
   8.2425766558477262E-002   0.0000000000000000        4.4783968744759067E-002
   8.4635773958699964E-002  -4.5744733760874172E-003   4.8267622027261106E-002
   8.6845781358922652E-002  -9.0376175775247012E-003   5.0590450918700056E-002
   8.9055788759145341E-002  -1.3389432604311850E-002   5.1752455419075936E-002
   9.1265796159368043E-002  -1.7629918456448863E-002   5.1753635528388693E-002
   7.4245020935864506E-002   0.0000000000000000        4.0575753332892227E-002
   7.5523308724106036E-002  -3.7440969989587371E-003   4.4142580154815862E-002
   7.6801596512347567E-002  -7.4038022751925520E-003   4.7006792143840258E-002
   7.8079884300589111E-002  -1.0979115828701447E-002   4.9168389299965400E-002
   7.9358172088830628E-002  -1.4470037659485419E-002   5.0627371623191274E-002
   6.5820483624903919E-002   0.0000000000000000        3.7211383024116675E-002
   6.6625261359328128E-002  -2.9137206218300560E-003   4.0834445933536689E-002
   6.7430039093752350E-002  -5.7699869728604037E-003   4.4213103568221307E-002
   6.8234816828176545E-002  -8.5687990530910405E-003   4.7347355928170520E-002
   6.9039594562600753E-002  -1.1310156862521967E-002   5.0237203013384323E-002
   5.7152154625595475E-002   0.0000000000000000        3.4690857818432404E-002
   5.7941631864366211E-002  -2.0833442447013763E-003   3.8343219363423588E-002
   5.8731109103136933E-002  -4.1361716705282520E-003   4.2209385191843224E-002
   5.9520586341907655E-002  -6.1584822774806355E-003   4.6289355303691285E-002
   6.0310063580678377E-002  -8.1502760655585236E-003   5.0583129698967784E-002
  0.10476246677421296       -2.0789799253412310E-002   5.3615994728976539E-002
  0.10210787537157491       -2.4929535725708184E-002   4.5635722122965502E-002
   9.9453283968936851E-002  -2.7506912022191007E-002   3.9344772562151568E-002
   9.6798692566298777E-002  -2.8521928142860798E-002   3.4743146046534890E-002
   9.4144101163660732E-002  -2.7974584087717511E-002   3.1830842576115251E-002
   9.1265796159368043E-002  -1.7629918456448863E-002   5.1753635528388693E-002
   9.0062857711053323E-002  -2.1204489063707282E-002   4.6516170121271419E-002
   8.8859919262738590E-002  -2.3558558355858638E-002   4.2492687577603647E-002
   8.7656980814423857E-002  -2.4692126332902922E-002   3.9683187897385473E-002
   8.6454042366109124E-002  -2.4605192994840167E-002   3.8087671080616690E-002
   7.9358172088830628E-002  -1.4470037659485419E-002   5.0627371623191274E-002
   7.9131546413091614E-002  -1.7479442401706392E-002   4.7790854554261790E-002
   7.8904920737352599E-002  -1.9610204689526269E-002   4.5692980167034186E-002
   7.8678295061613585E-002  -2.0862324522945060E-002   4.4333748461508511E-002
   7.8451669385874556E-002  -2.1235801901962788E-002   4.3713159437684695E-002
   6.9039594562600753E-002  -1.1310156862521967E-002   5.0237203013384323E-002
   6.9313941477689836E-002  -1.3754395739705496E-002   4.9459775421936615E-002
   6.9588288392778891E-002  -1.5661851023193903E-002   4.8945650330443208E-002
   6.9862635307867946E-002  -1.7032522712987219E-002   4.8694827738904066E-002
   7.0136982222957014E-002  -1.7866410809085412E-002   4.8707307647319238E-002
   6.0310063580678377E-002  -8.1502760655585236E-003   5.0583129698967784E-002
   6.0610042904847922E-002  -1.0029349077704603E-002   5.1522932724295922E-002
   6.0910022229017452E-002  -1.1713497356861542E-002   5.2250698067830725E-002
   6.1210001553186982E-002  -1.3202720903029326E-002   5.2766425729572117E-002
   6.1509980877356520E-002  -1.4497019716208051E-002   5.3070115709520249E-002
   9.4144101163660732E-002  -2.7974584087717511E-002   3.1830842576115251E-002
   9.1754596976777236E-002  -2.6781147600766921E-002   3.1256991546833424E-002
   8.9365092789893755E-002  -2.5857886426014710E-002   3.0761509645525896E-002
   8.6975588603010245E-002  -2.5204800563460857E-002   3.0344396872192824E-002
   8.4586084416126778E-002  -2.4821890013105391E-002   3.0005653226834017E-002
   8.6454042366109124E-002  -2.4605192994840167E-002   3.8087671080616690E-002
   8.4189903013133477E-002  -2.3961001833705049E-002   3.7060421084005021E-002
   8.1925763660157844E-002  -2.3422796341532180E-002   3.6205531627234694E-002
   7.9661624307182183E-002  -2.2990576518321683E-002   3.5523002710305618E-002
   7.7397484954206563E-002  -2.2664342364073525E-002   3.5012834333217890E-002
   7.8451669385874556E-002  -2.1235801901962788E-002   4.3713159437684695E-002
   7.6406886278673730E-002  -2.1140856066643097E-002   4.2396700116979207E-002
   7.4362103171472904E-002  -2.0987706257049675E-002   4.1346592747982060E-002
   7.2317320064272050E-002  -2.0776352473182519E-002   4.0562837330693206E-002
   7.0272536957071224E-002  -2.0506794715041674E-002   4.0045433865112535E-002
   7.0136982222957014E-002  -1.7866410809085412E-002   4.8707307647319238E-002
   6.8405546773397954E-002  -1.8320710299581155E-002   4.7265828645756000E-002
   6.6674111323838881E-002  -1.8552616172567187E-002   4.6184693007768091E-002
   6.4942675874279820E-002  -1.8562128428043390E-002   4.5463900733355267E-002
   6.3211240424720760E-002  -1.8349247066009787E-002   4.5103451822517932E-002
   6.1509980877356520E-002  -1.4497019716208051E-002   5.3070115709520249E-002
   6.0185884497306184E-002  -1.5500564532519266E-002   5.1667806670335367E-002
   5.8861788117255856E-002  -1.6117526088084644E-002   5.0719832406592683E-002
   5.7537691737205535E-002  -1.6347904382904170E-002   5.0226192918292209E-002
   5.6213595357155199E-002  -1.6191699416977970E-002   5.0186888205434002E-002
   8.4586084416126778E-002  -2.4821890013105391E-002   3.0005653226834017E-002
   8.2190710569137515E-002  -2.4501220802284562E-002   2.9240276100644724E-002
   7.9795336722148183E-002  -2.4034858958334605E-002   2.8745174699968359E-002
   7.7399962875158934E-002  -2.3422804481255700E-002   2.8520349024804603E-002
   7.5004589028169616E-002  -2.2665057371047515E-002   2.8565799075153969E-002
   7.7397484954206563E-002  -2.2664342364073525E-002   3.5012834333217890E-002
   7.5261265051552007E-002  -2.2337604189518294E-002   3.4426330061988093E-002
   7.3125045148897477E-002  -2.1903872305386790E-002   3.4087857953914918E-002
   7.0988825246242948E-002  -2.1363146711678799E-002   3.3997418008998422E-002
   6.8852605343588391E-002  -2.0715427408394549E-002   3.4155010227238436E-002
   7.0272536957071224E-002  -2.0506794715041674E-002   4.0045433865112535E-002
   6.8373227436395179E-002  -2.0173987576752095E-002   3.9599103525289489E-002
   6.6473917915719161E-002  -1.9772885652438888E-002   3.9378561786266864E-002
   6.4574608395043129E-002  -1.9303488942102046E-002   3.9383808648044534E-002
   6.2675298874367069E-002  -1.8765797445741583E-002   3.9614844110622716E-002
   6.3211240424720760E-002  -1.8349247066009787E-002   4.5103451822517932E-002
   6.1526597723666997E-002  -1.8010370963985889E-002   4.4758596490548926E-002
   5.9841955022613240E-002  -1.7641898999491014E-002   4.4617286197024000E-002
   5.8157312321559469E-002  -1.7243831172525304E-002   4.4679520941943364E-002
   5.6472669620505699E-002  -1.6816167483088576E-002   4.4945300725306808E-002
   5.6213595357155199E-002  -1.6191699416977970E-002   5.0186888205434002E-002
   5.4721375913367468E-002  -1.5846754351219614E-002   4.9904808957766389E-002
   5.3229156469579722E-002  -1.5510912346543154E-002   4.9804031186186530E-002
   5.1736937025791990E-002  -1.5184173402948444E-002   4.9884554890694710E-002
   5.0244717582004245E-002  -1.4866537520435624E-002   5.0146380071290741E-002
   7.5004589028169616E-002  -2.2665057371047515E-002   2.8565799075153969E-002
   7.2695920807154812E-002  -2.1854096267013956E-002   2.8298950953884794E-002
   7.0387252586140051E-002  -2.1082399808458149E-002   2.8195050896453244E-002
   6.8078584365125289E-002  -2.0349967995380493E-002   2.8254098902859431E-002
   6.5769916144110513E-002  -1.9656800827780763E-002   2.8476094973103161E-002
   6.8852605343588391E-002  -2.0715427408394549E-002   3.4155010227238436E-002
   6.6712657586174187E-002  -2.0022405314149394E-002   3.3840785334525850E-002
   6.4572709828759983E-002  -1.9345771347558841E-002   3.3701053305176754E-002
   6.2432762071345779E-002  -1.8685525508622920E-002   3.3735814139191161E-002
   6.0292814313931603E-002  -1.8041667797341621E-002   3.3945067836569087E-002
   6.2675298874367069E-002  -1.8765797445741583E-002   3.9614844110622716E-002
   6.0715616380079329E-002  -1.8190714361284915E-002   3.9276118964290022E-002
   5.8755933885791617E-002  -1.7609142886659483E-002   3.9123431480846620E-002
   5.6796251391503856E-002  -1.7021083021865349E-002   3.9156781660292822E-002
   5.4836568897216158E-002  -1.6426534766902479E-002   3.9376169502628233E-002
   5.6472669620505699E-002  -1.6816167483088576E-002   4.4945300725306808E-002
   5.4704797188870335E-002  -1.6359023408420381E-002   4.4604951843177323E-002
   5.2936924757234875E-002  -1.5872514425760039E-002   4.4462185423463231E-002
   5.1169052325599478E-002  -1.5356640535107831E-002   4.4517001466164212E-002
   4.9401179893964073E-002  -1.4811401736463281E-002   4.4769399971280585E-002
   5.0244717582004245E-002  -1.4866537520435624E-002   5.0146380071290741E-002
   4.8680200012547054E-002  -1.4527332455555889E-002   4.9827283971187825E-002
   4.7115682443089849E-002  -1.4135885964860810E-002   4.9717315133026255E-002
   4.5551164873632664E-002  -1.3692198048350228E-002   4.9816473556805692E-002
   4.3986647304175452E-002  -1.3196268706024195E-002   5.0124759242526407E-002
   6.5769916144110513E-002  -1.9656800827780763E-002   2.8476094973103161E-002
   6.3299756912400446E-002  -1.8975404383535815E-002   2.8102402534892879E-002
   6.0829597680690420E-002  -1.8278284740522663E-002   2.7924796995394324E-002
   5.8359438448980387E-002  -1.7565441898740885E-002   2.7943278354607470E-002
   5.5889279217270382E-002  -1.6836875858191158E-002   2.8157846612532567E-002
   6.0292814313931603E-002  -1.8041667797341621E-002   3.3945067836569087E-002
   5.8018263601735690E-002  -1.7401072418060257E-002   3.3604546763836021E-002
   5.5743712889539804E-002  -1.6750613575124335E-002   3.3459155831419549E-002
   5.3469162177343918E-002  -1.6090291268533820E-002   3.3508895039319621E-002
   5.1194611465148060E-002  -1.5420105498288594E-002   3.3753764387535995E-002
   5.4836568897216158E-002  -1.6426534766902479E-002   3.9376169502628233E-002
   5.2756669946139111E-002  -1.5826740452584739E-002   3.9062960060258750E-002
   5.0676770995062070E-002  -1.5222942409726069E-002   3.8943923999810483E-002
   4.8596872043984995E-002  -1.4615140638326645E-002   3.9019061321283521E-002
   4.6516973092907976E-002  -1.4003335138386142E-002   3.9288372024677873E-002
   4.9401179893964073E-002  -1.4811401736463281E-002   4.4769399971280585E-002
   4.7514975945610653E-002  -1.4252408487109118E-002   4.4477642424161003E-002
   4.5628771997257213E-002  -1.3695271244327883E-002   4.4379101500567335E-002
   4.3742568048903765E-002  -1.3139990008119443E-002   4.4473777200499762E-002
   4.1856364100550394E-002  -1.2586564778483744E-002   4.4761669523958020E-002
   4.3986647304175452E-002  -1.3196268706024195E-002   5.0124759242526407E-002
   4.2293181600150373E-002  -1.2678076521633719E-002   4.9848593855542855E-002
   4.0599715896125266E-002  -1.2167600078929475E-002   4.9764688333690132E-002
   3.8906250192100145E-002  -1.1664839377912350E-002   4.9873042676967932E-002
   3.7212784488075051E-002  -1.1169794418581180E-002   5.0173656885376561E-002
   5.5889279217270382E-002  -1.6836875858191158E-002   2.8157846612532567E-002
   5.3771228875381522E-002  -1.6105747392586300E-002   2.7837941340306760E-002
   5.1653178533492716E-002  -1.5385217275639920E-002   2.7634215035208243E-002
   4.9535128191603911E-002  -1.4675285507352174E-002   2.7546667697237084E-002
   4.7417077849715050E-002  -1.3975952087722787E-002   2.7575299326393521E-002
   5.1194611465148060E-002  -1.5420105498288594E-002   3.3753764387535995E-002
   4.9205311116901879E-002  -1.4745972704089949E-002   3.3457175639504372E-002
   4.7216010768655725E-002  -1.4073809325639106E-002   3.3301907911630985E-002
   4.5226710420409585E-002  -1.3403615362935700E-002   3.3287961203915098E-002
   4.3237410072163474E-002  -1.2735390815979852E-002   3.3415335516357447E-002
   4.6516973092907976E-002  -1.4003335138386142E-002   3.9288372024677873E-002
   4.4681564791334956E-002  -1.3386198015593653E-002   3.9023728733751692E-002
   4.2846156489761908E-002  -1.2762401375637951E-002   3.8925548516013937E-002
   4.1010748188188860E-002  -1.2131945218519001E-002   3.8993831371464421E-002
   3.9175339886615854E-002  -1.1494829544236890E-002   3.9228577300103221E-002
   4.1856364100550394E-002  -1.2586564778483744E-002   4.4761669523958020E-002
   4.0199989898680850E-002  -1.2026423327097413E-002   4.4537600623048249E-002
   3.8543615696811320E-002  -1.1450993425636855E-002   4.4505136848356795E-002
   3.6887241494941783E-002  -1.0860275074102470E-002   4.4664278199884430E-002
   3.5230867293072253E-002  -1.0254268272493941E-002   4.5015024677630647E-002
   3.7212784488075051E-002  -1.1169794418581180E-002   5.0173656885376561E-002
   3.5760586438939479E-002  -1.0666648638600978E-002   4.9998791307393819E-002
   3.4308388389803893E-002  -1.0139585475635954E-002   5.0040672908660044E-002
   3.2856190340668300E-002  -9.5886049296858497E-003   5.0299301689175541E-002
   3.1403992291532734E-002  -9.0137070007509368E-003   5.0774677648940114E-002
   4.7417077849715050E-002  -1.3975952087722787E-002   2.7575299326393521E-002
   4.4780592169871208E-002  -1.3266657100659662E-002   2.6797373410726077E-002
   4.2144106490027339E-002  -1.2526840630070188E-002   2.6094215810771121E-002
   3.9507620810183469E-002  -1.1756502675954583E-002   2.5465826526528831E-002
   3.6871135130339572E-002  -1.0955643238312662E-002   2.4912205557999556E-002
   4.3237410072163474E-002  -1.2735390815979852E-002   3.3415335516357447E-002
   4.0699503734913406E-002  -1.2057501563425027E-002   3.2804728374810854E-002
   3.8161597397663324E-002  -1.1358313483924160E-002   3.2316511602739684E-002
   3.5623691060413347E-002  -1.0637826577477645E-002   3.1950685200143075E-002
   3.3085784723163203E-002  -9.8960408440849079E-003   3.1707249167021612E-002
   3.9175339886615854E-002  -1.1494829544236890E-002   3.9228577300103221E-002
   3.6783634945721823E-002  -1.0848346026190336E-002   3.8776066276097670E-002
   3.4391930004827834E-002  -1.0189786337778083E-002   3.8493567675329347E-002
   3.2000225063933831E-002  -9.5191504790004596E-003   3.8381081497798147E-002
   2.9608520123039800E-002  -8.8364384498570425E-003   3.8438607743504105E-002
   3.5230867293072253E-002  -1.0254268272493941E-002   4.5015024677630647E-002
   3.3032985802296591E-002  -9.6391904889556734E-003   4.4711387114585770E-002
   3.0835104311520836E-002  -9.0212591916320854E-003   4.4625384028540327E-002
   2.8637222820745149E-002  -8.4004743805233435E-003   4.4757015419494284E-002
   2.6439341329969411E-002  -7.7768360556292881E-003   4.5106281287447744E-002
   3.1403992291532734E-002  -9.0137070007509368E-003   5.0774677648940114E-002
   2.9447556304637551E-002  -8.4300349517210660E-003   5.0610690890275478E-002
   2.7491120317742368E-002  -7.8527320454860189E-003   5.0711960662372407E-002
   2.5534684330847185E-002  -7.2817982820462916E-003   5.1078486965230999E-002
   2.3578248343952002E-002  -6.7172336614014228E-003   5.1710269798851405E-002
   5.7152154625595475E-002   0.0000000000000000        3.4690857818432404E-002
   5.7941631864366211E-002  -2.0833442447013763E-003   3.8343219363423588E-002
   5.8731109103136933E-002  -4.1361716705282520E-003   4.2209385191843224E-002
   5.9520586341907655E-002  -6.1584822774806355E-003   4.6289355303691285E-002
   6.0310063580678377E-002  -8.1502760655585236E-003   5.0583129698967784E-002
   4.8652035366619793E-002   0.0000000000000000        3.2790607454112969E-002
   4.9590078545257411E-002  -1.7089401459166025E-003   3.6966158162576881E-002
   5.0528121723895036E-002  -3.4319644346659118E-003   4.1225036467346148E-002
   5.1466164902532655E-002  -5.1690728662479174E-003   4.5567242368420760E-002
   5.2404208081170273E-002  -6.9202654406626367E-003   4.9992775865800719E-002
   4.0732127276657489E-002   0.0000000000000000        3.1287061669431904E-002
   4.1688259708038911E-002  -1.3345360471318304E-003   3.5941200579661346E-002
   4.2644392139420340E-002  -2.7277571988035647E-003   4.0548190399073043E-002
   4.3600524570801762E-002  -4.1796634550152097E-003   4.5108031127667009E-002
   4.4556657002183184E-002  -5.6902548157667593E-003   4.9620722765443215E-002
   3.3392430355708554E-002   0.0000000000000000        3.0180220464389215E-002
   3.4236175352710702E-002  -9.6013194834705662E-004   3.5268346614676975E-002
   3.5079920349712829E-002  -2.0235499629412228E-003   4.0178846987023911E-002
   3.5923665346714970E-002  -3.1902540437824976E-003   4.4911721581430017E-002
   3.6767410343717111E-002  -4.4602441908708750E-003   4.9466970397895285E-002
   2.6632944603773002E-002   0.0000000000000000        2.9470083838984897E-002
   2.7233825479272764E-002  -5.8572784956228453E-004   3.4947596267623782E-002
   2.7834706354772525E-002  -1.3193427270788757E-003   4.0117006231198758E-002
   2.8435587230272286E-002  -2.2008446325497855E-003   4.4978313729709798E-002
   2.9036468105772047E-002  -3.2302335659749968E-003   4.9531518763156909E-002
   6.0310063580678377E-002  -8.1502760655585236E-003   5.0583129698967784E-002
   6.0610042904847922E-002  -1.0029349077704603E-002   5.1522932724295922E-002
   6.0910022229017452E-002  -1.1713497356861542E-002   5.2250698067830725E-002
   6.1210001553186982E-002  -1.3202720903029326E-002   5.2766425729572117E-002
   6.1509980877356520E-002  -1.4497019716208051E-002   5.3070115709520249E-002
   5.2404208081170273E-002  -6.9202654406626367E-003   4.9992775865800719E-002
   5.2530958481066259E-002  -8.5840676692352964E-003   5.1221586852922663E-002
   5.2657708880962231E-002  -1.0059005063291084E-002   5.2315977673290791E-002
   5.2784459280858211E-002  -1.1345077622830031E-002   5.3275948326905166E-002
   5.2911209680754176E-002  -1.2442285347852119E-002   5.4101498813765754E-002
   4.4556657002183184E-002  -5.6902548157667593E-003   4.9620722765443215E-002
   4.4587795992845181E-002  -7.1387862607659811E-003   5.1132481815886643E-002
   4.4618934983507164E-002  -8.4045127697206234E-003   5.2587438214615853E-002
   4.4650073974169167E-002  -9.4874343426306941E-003   5.3985591961630885E-002
   4.4681212964831157E-002  -1.0387550979496195E-002   5.5326943056931713E-002
   3.6767410343717111E-002  -4.4602441908708750E-003   4.9466970397895285E-002
   3.6780555440184687E-002  -5.6935048522966649E-003   5.1255617613187927E-002
   3.6793700536652270E-002  -6.7500204761501738E-003   5.3065079691805989E-002
   3.6806845633119846E-002  -7.6297910624313642E-003   5.4895356633749344E-002
   3.6819990729587415E-002  -8.3328166111402806E-003   5.6746448439018139E-002
   2.9036468105772047E-002  -3.2302335659749968E-003   4.9531518763156909E-002
   2.9109236823084781E-002  -4.2482234438273644E-003   5.1590994244826521E-002
   2.9182005540397519E-002  -5.0955281825797050E-003   5.3748902104861093E-002
   2.9254774257710260E-002  -5.7721477822320353E-003   5.6005242343260556E-002
   2.9327542975022991E-002  -6.2780822427843455E-003   5.8360014960025013E-002
   6.1509980877356520E-002  -1.4497019716208051E-002   5.3070115709520249E-002
   6.0185884497306184E-002  -1.5500564532519266E-002   5.1667806670335367E-002
   5.8861788117255856E-002  -1.6117526088084644E-002   5.0719832406592683E-002
   5.7537691737205535E-002  -1.6347904382904170E-002   5.0226192918292209E-002
   5.6213595357155199E-002  -1.6191699416977970E-002   5.0186888205434002E-002
   5.2911209680754176E-002  -1.2442285347852119E-002   5.4101498813765754E-002
   5.1988886196519576E-002  -1.3292042833700751E-002   5.3361711827921640E-002
   5.1066562712284998E-002  -1.3835764675719377E-002   5.2971135858266724E-002
   5.0144239228050391E-002  -1.4073450873907935E-002   5.2929770904801152E-002
   4.9221915743815806E-002  -1.4005101428266414E-002   5.3237616967524770E-002
   4.4681212964831157E-002  -1.0387550979496195E-002   5.5326943056931713E-002
   4.4055538617159329E-002  -1.1083521134882281E-002   5.5169130507512563E-002
   4.3429864269487507E-002  -1.1554003263354096E-002   5.5255405215029717E-002
   4.2804189921815679E-002  -1.1798997364911631E-002   5.5585767179483166E-002
   4.2178515574143857E-002  -1.1818503439554907E-002   5.6160216400872889E-002
   3.6819990729587415E-002  -8.3328166111402806E-003   5.6746448439018139E-002
   3.6385841759225414E-002  -8.8749994360638098E-003   5.7090062709108241E-002
   3.5951692788863392E-002  -9.2722418509888424E-003   5.7572640476881598E-002
   3.5517543818501363E-002  -9.5245438559153437E-003   5.8194181742338265E-002
   3.5083394848139354E-002  -9.6319054508434039E-003   5.8954686505478325E-002
   2.9327542975022991E-002  -6.2780822427843455E-003   5.8360014960025013E-002
   2.8979795622717817E-002  -6.6664777372453000E-003   5.9124508432708514E-002
   2.8632048270412644E-002  -6.9904804386235423E-003   5.9922841643822375E-002
   2.8284300918107463E-002  -7.2500903469190480E-003   6.0755014593366567E-002
   2.7936553565802297E-002  -7.4453074621318727E-003   6.1621027281341140E-002
   5.6213595357155199E-002  -1.6191699416977970E-002   5.0186888205434002E-002
   5.4721375913367468E-002  -1.5846754351219614E-002   4.9904808957766389E-002
   5.3229156469579722E-002  -1.5510912346543154E-002   4.9804031186186530E-002
   5.1736937025791990E-002  -1.5184173402948444E-002   4.9884554890694710E-002
   5.0244717582004245E-002  -1.4866537520435624E-002   5.0146380071290741E-002
   4.9221915743815806E-002  -1.4005101428266414E-002   5.3237616967524770E-002
   4.7914180740117135E-002  -1.3775817793314944E-002   5.2910364964379668E-002
   4.6606445736418450E-002  -1.3530701423573696E-002   5.2770780365324836E-002
   4.5298710732719759E-002  -1.3269752319042569E-002   5.2818863170360275E-002
   4.3990975729021067E-002  -1.2992970479721616E-002   5.3054613379485846E-002
   4.2178515574143857E-002  -1.1818503439554907E-002   5.6160216400872889E-002
   4.1061630938536542E-002  -1.1704881235410268E-002   5.5812727438122087E-002
   3.9944746302929220E-002  -1.1550490500604240E-002   5.5659271807463807E-002
   3.8827861667321911E-002  -1.1355331235136669E-002   5.5699849508898079E-002
   3.7710977031714589E-002  -1.1119403439007622E-002   5.5934460542424867E-002
   3.5083394848139354E-002  -9.6319054508434039E-003   5.8954686505478325E-002
   3.4163726508625716E-002  -9.6339446775056091E-003   5.8611896378993431E-002
   3.3244058169112085E-002  -9.5702795776347431E-003   5.8469505512603326E-002
   3.2324389829598447E-002  -9.4409101512308077E-003   5.8527513906308101E-002
   3.1404721490084810E-002  -9.2458363982936345E-003   5.8785921560107701E-002
   2.7936553565802297E-002  -7.4453074621318727E-003   6.1621027281341140E-002
   2.7220467450384651E-002  -7.5630081196009086E-003   6.1307871786993762E-002
   2.6504381334966999E-002  -7.5900686546653273E-003   6.1201481480743530E-002
   2.5788295219549347E-002  -7.5264890673248791E-003   6.1301856362590432E-002
   2.5072209104131701E-002  -7.3722693575796472E-003   6.1608996432534563E-002
   5.0244717582004245E-002  -1.4866537520435624E-002   5.0146380071290741E-002
   4.8680200012547054E-002  -1.4527332455555889E-002   4.9827283971187825E-002
   4.7115682443089849E-002  -1.4135885964860810E-002   4.9717315133026255E-002
   4.5551164873632664E-002  -1.3692198048350228E-002   4.9816473556805692E-002
   4.3986647304175452E-002  -1.3196268706024195E-002   5.0124759242526407E-002
   4.3990975729021067E-002  -1.2992970479721616E-002   5.3054613379485846E-002
   4.2633328952404792E-002  -1.2688058585200432E-002   5.2753338366672550E-002
   4.1275682175788510E-002  -1.2342719315068494E-002   5.2656677677599885E-002
   3.9918035399172214E-002  -1.1956952669326051E-002   5.2764631312267968E-002
   3.8560388622555952E-002  -1.1530758647972816E-002   5.3077199270676667E-002
   3.7710977031714589E-002  -1.1119403439007622E-002   5.5934460542424867E-002
   3.6555688109738742E-002  -1.0848784714844913E-002   5.5639192566696256E-002
   3.5400399187762888E-002  -1.0549552665276348E-002   5.5544025976507816E-002
   3.4245110265787040E-002  -1.0221707290301876E-002   5.5648960771859657E-002
   3.3089821343811152E-002  -9.8652485899214937E-003   5.5953996952751578E-002
   3.1404721490084810E-002  -9.2458363982936345E-003   5.8785921560107701E-002
   3.0447277484548899E-002  -9.0095108444893969E-003   5.8484846571259068E-002
   2.9489833479012999E-002  -8.7563860154842282E-003   5.8379360029750180E-002
   2.8532389473477075E-002  -8.4864619112776721E-003   5.8469461935580919E-002
   2.7574945467941193E-002  -8.1997385318701432E-003   5.8755152288751430E-002
   2.5072209104131701E-002  -7.3722693575796472E-003   6.1608996432534563E-002
   2.4308097076835261E-002  -7.1702369741339506E-003   6.1290300380361040E-002
   2.3543985049538821E-002  -6.9632193656919208E-003   6.1162679837326803E-002
   2.2779873022242381E-002  -6.7512165322535182E-003   6.1226134803431774E-002
   2.2015760994945927E-002  -6.5342284738188483E-003   6.1480665278676017E-002
   4.3986647304175452E-002  -1.3196268706024195E-002   5.0124759242526407E-002
   4.2293181600150373E-002  -1.2678076521633719E-002   4.9848593855542855E-002
   4.0599715896125266E-002  -1.2167600078929475E-002   4.9764688333690132E-002
   3.8906250192100145E-002  -1.1664839377912350E-002   4.9873042676967932E-002
   3.7212784488075051E-002  -1.1169794418581180E-002   5.0173656885376561E-002
   3.8560388622555952E-002  -1.1530758647972816E-002   5.3077199270676667E-002
   3.7062938367388831E-002  -1.1085192506585864E-002   5.2755781431680263E-002
   3.5565488112221710E-002  -1.0641309500742380E-002   5.2634134625269224E-002
   3.4068037857054589E-002  -1.0199109630442141E-002   5.2712258851443414E-002
   3.2570587601887468E-002  -9.7585928956851475E-003   5.2990154110202942E-002
   3.3089821343811152E-002  -9.8652485899214937E-003   5.5953996952751578E-002
   3.1795897704956638E-002  -9.4923084915382316E-003   5.5593359267885500E-002
   3.0501974066102076E-002  -9.1150189225550071E-003   5.5440003783059438E-002
   2.9208050427247532E-002  -8.7333798829719311E-003   5.5493930498273170E-002
   2.7914126788392994E-002  -8.3473913727890314E-003   5.5755139413526750E-002
   2.7574945467941193E-002  -8.1997385318701432E-003   5.8755152288751430E-002
   2.6492059612853783E-002  -7.8994244764904881E-003   5.8361327364159027E-002
   2.5409173757766391E-002  -7.5887283443677178E-003   5.8182295807060955E-002
   2.4326287902678982E-002  -7.2676501355017770E-003   5.8218057617457353E-002
   2.3243402047591587E-002  -6.9361898498929569E-003   5.8468612795348159E-002
   2.2015760994945927E-002  -6.5342284738188483E-003   6.1480665278676017E-002
   2.1151424091080256E-002  -6.3065404614428000E-003   6.1059685720500301E-002
   2.0287087187214600E-002  -6.0624377661804840E-003   6.0861010697273565E-002
   1.9422750283348923E-002  -5.8019203880317755E-003   6.0884640208995866E-002
   1.8558413379483260E-002  -5.5249883269968270E-003   6.1130574255667258E-002
   3.7212784488075051E-002  -1.1169794418581180E-002   5.0173656885376561E-002
   3.5760586438939479E-002  -1.0666648638600978E-002   4.9998791307393819E-002
   3.4308388389803893E-002  -1.0139585475635954E-002   5.0040672908660044E-002
   3.2856190340668300E-002  -9.5886049296858497E-003   5.0299301689175541E-002
   3.1403992291532734E-002  -9.0137070007509368E-003   5.0774677648940114E-002
   3.2570587601887468E-002  -9.7585928956851475E-003   5.2990154110202942E-002
   3.1324357502199862E-002  -9.3097240000548920E-003   5.2811397795249376E-002
   3.0078127402512256E-002  -8.8424676471349772E-003   5.2827830199942596E-002
   2.8831897302824629E-002  -8.3568238369251119E-003   5.3039451324282734E-002
   2.7585667203137015E-002  -7.8527925694255041E-003   5.3446261168269504E-002
   2.7914126788392994E-002  -8.3473913727890314E-003   5.5755139413526750E-002
   2.6852306178550979E-002  -7.9527993615088194E-003   5.5566962435907308E-002
   2.5790485568709009E-002  -7.5453498186339035E-003   5.5552415718332429E-002
   2.4728664958866997E-002  -7.1250427441643775E-003   5.5711499260801871E-002
   2.3666844349025024E-002  -6.6918781381000991E-003   5.6044213063315931E-002
   2.3243402047591587E-002  -6.9361898498929569E-003   5.8468612795348159E-002
   2.2344432467992871E-002  -6.5958747229626843E-003   5.8265485229367794E-002
   2.1445462888394152E-002  -6.2482319901328506E-003   5.8214429463829667E-002
   2.0546493308795440E-002  -5.8932616514036414E-003   5.8315445498733458E-002
   1.9647523729196717E-002  -5.5309637067747358E-003   5.8568533334079340E-002
   1.8558413379483260E-002  -5.5249883269968270E-003   6.1130574255667258E-002
   1.7800736370525483E-002  -5.2389500844166881E-003   6.0906966175630739E-002
   1.7043059361567685E-002  -4.9511141616318116E-003   6.0813871436434019E-002
   1.6285382352609911E-002  -4.6614805586430060E-003   6.0851290038077030E-002
   1.5527705343652123E-002  -4.3700492754493725E-003   6.1019221980559868E-002
   3.1403992291532734E-002  -9.0137070007509368E-003   5.0774677648940114E-002
   2.9447556304637551E-002  -8.4300349517210660E-003   5.0610690890275478E-002
   2.7491120317742368E-002  -7.8527320454860189E-003   5.0711960662372407E-002
   2.5534684330847185E-002  -7.2817982820462916E-003   5.1078486965230999E-002
   2.3578248343952002E-002  -6.7172336614014228E-003   5.1710269798851405E-002
   2.7585667203137015E-002  -7.8527925694255041E-003   5.3446261168269504E-002
   2.5886794363304835E-002  -7.3401417893985688E-003   5.3170324472674668E-002
   2.4187921523472627E-002  -6.8286394416066931E-003   5.3144257540444273E-002
   2.2489048683640406E-002  -6.3182855260502310E-003   5.3368060371578291E-002
   2.0790175843808212E-002  -5.8090800427286204E-003   5.3841732966076306E-002
   2.3666844349025024E-002  -6.6918781381000991E-003   5.6044213063315931E-002
   2.2210147888858472E-002  -6.2502486270762658E-003   5.5661547141350937E-002
   2.0753451428691894E-002  -5.8045468377274853E-003   5.5513364215352794E-002
   1.9296754968525308E-002  -5.3547727700541167E-003   5.5599664285321884E-002
   1.7840058508358750E-002  -4.9009264240560402E-003   5.5920447351257563E-002
   1.9647523729196717E-002  -5.5309637067747358E-003   5.8568533334079340E-002
   1.8417616881298414E-002  -5.1603554647538658E-003   5.8084358896304041E-002
   1.7187710033400083E-002  -4.7804542338482185E-003   5.7819280687098316E-002
   1.5957803185501759E-002  -4.3912600140580292E-003   5.7773298706462112E-002
   1.4727896337603453E-002  -3.9927728053832934E-003   5.7946412954395676E-002
   1.5527705343652123E-002  -4.3700492754493725E-003   6.1019221980559868E-002
   1.4509201340624722E-002  -4.0704623024316322E-003   6.0438759737534264E-002
   1.3490697337597314E-002  -3.7563616299689240E-003   6.0062006955680647E-002
   1.2472193334569937E-002  -3.4277472580620458E-003   5.9888963634999626E-002
   1.1453689331542505E-002  -3.0846191867106576E-003   5.9919629775490479E-002
   2.6632944603773002E-002   0.0000000000000000        2.9470083838984897E-002
   2.7233825479272764E-002  -5.8572784956228453E-004   3.4947596267623782E-002
   2.7834706354772525E-002  -1.3193427270788757E-003   4.0117006231198758E-002
   2.8435587230272286E-002  -2.2008446325497855E-003   4.4978313729709798E-002
   2.9036468105772047E-002  -3.2302335659749968E-003   4.9531518763156909E-002
   2.0116350440435256E-002   0.0000000000000000        2.9022272545367409E-002
   2.0448599412416519E-002  -4.3929588713779218E-004   3.4315426394268864E-002
   2.0780848384397782E-002  -9.8950704525146722E-004   3.9379418901197248E-002
   2.1113097356379045E-002  -1.6506334743410251E-003   4.4214250066152545E-002
   2.1445346328360305E-002  -2.4226751744064606E-003   4.8819919889134776E-002
   1.3505328285279759E-002   0.0000000000000000        2.8702407335685194E-002
   1.3647886476833366E-002  -2.9286392471329983E-004   3.3848174361827653E-002
   1.3790444668386973E-002  -6.5967136342405443E-004   3.8843721169087880E-002
   1.3933002859940580E-002  -1.1004223161322673E-003   4.3689047757465869E-002
   1.4075561051494186E-002  -1.6151167828379340E-003   4.8384154126961641E-002
   6.7998781383065031E-003   0.0000000000000000        2.8510488209938262E-002
   6.8316866725233018E-003  -1.4643196228880835E-004   3.3545840170300142E-002
   6.8634952067401006E-003  -3.2983568159664469E-004   3.8509913034870648E-002
   6.8953037409568976E-003  -5.5021115792350988E-004   4.3402706803649736E-002
   6.9271122751736981E-003  -8.0755839126940088E-004   4.8224221476637477E-002
  -4.8450826684032222E-013   0.0000000000000000        2.8446515168126608E-002
  -5.1367243791844430E-013   1.3568399875873993E-013   3.3408423819686346E-002
  -5.4283747635830437E-013   2.3076852928571867E-013   3.8377994498545537E-002
  -5.7200208111729545E-013   2.8524925477224627E-013   4.3355227204704194E-002
  -6.0116668587628652E-013   2.9912617521832274E-013   4.8340121938162305E-002
   2.9036468105772047E-002  -3.2302335659749968E-003   4.9531518763156909E-002
   2.9109236823084781E-002  -4.2482234438273644E-003   5.1590994244826521E-002
   2.9182005540397519E-002  -5.0955281825797050E-003   5.3748902104861093E-002
   2.9254774257710260E-002  -5.7721477822320353E-003   5.6005242343260556E-002
   2.9327542975022991E-002  -6.2780822427843455E-003   5.8360014960025013E-002
   2.1445346328360305E-002  -2.4226751744064606E-003   4.8819919889134776E-002
   2.1587391284606391E-002  -3.1861675827936989E-003   5.1220925228634570E-002
   2.1729436240852485E-002  -3.8216461368486363E-003   5.3662050667636151E-002
   2.1871481197098582E-002  -4.3291108365712851E-003   5.6143296206139476E-002
   2.2013526153344672E-002  -4.7085616819616261E-003   5.8664661844144581E-002
   1.4075561051494186E-002  -1.6151167828379340E-003   4.8384154126961641E-002
   1.4228569967810453E-002  -2.1241117217600343E-003   5.1084018039523914E-002
   1.4381578884126724E-002  -2.5477640911175667E-003   5.3765689772724758E-002
   1.4534587800442993E-002  -2.8860738909105223E-003   5.6429169326564221E-002
   1.4687596716759260E-002  -3.1390411211388893E-003   5.9074456701042243E-002
   6.9271122751736981E-003  -8.0755839126940088E-004   4.8224221476637477E-002
   7.0327728726969647E-003  -1.0620558607263796E-003   5.1180272677494497E-002
   7.1384334702202304E-003  -1.2738820453864906E-003   5.4059819420126928E-002
   7.2440940677434935E-003  -1.4430369452497554E-003   5.6862861704534758E-002
   7.3497546652667636E-003  -1.5695205603161611E-003   5.9589399530718054E-002
  -6.0116668587628652E-013   2.9912617521832274E-013   4.8340121938162305E-002
  -7.3407989756302250E-013   3.0729412070495954E-013   5.1509689142546354E-002
  -8.6699397661149646E-013   3.4456920823544568E-013   5.4544439609842670E-002
  -9.9990892302170842E-013   4.1099355906418222E-013   5.7444373340051182E-002
  -1.1328212673467064E-012   5.0658088834865111E-013   6.0209490333171953E-002
   2.9327542975022991E-002  -6.2780822427843455E-003   5.8360014960025013E-002
   2.8979795622717817E-002  -6.6664777372453000E-003   5.9124508432708514E-002
   2.8632048270412644E-002  -6.9904804386235423E-003   5.9922841643822375E-002
   2.8284300918107463E-002  -7.2500903469190480E-003   6.0755014593366567E-002
   2.7936553565802297E-002  -7.4453074621318727E-003   6.1621027281341140E-002
   2.2013526153344672E-002  -4.7085616819616261E-003   5.8664661844144581E-002
   2.1712892814397096E-002  -4.9998583028100993E-003   5.9486860670765286E-002
   2.1412259475449516E-002  -5.2428603289071084E-003   6.0369447785670868E-002
   2.1111626136501940E-002  -5.4375677602526594E-003   6.1312423188861258E-002
   2.0810992797554356E-002  -5.5839805968467271E-003   6.2315786880336441E-002
   1.4687596716759260E-002  -3.1390411211388893E-003   5.9074456701042243E-002
   1.4460625941023746E-002  -3.3332388683748760E-003   5.9938262683268947E-002
   1.4233655165288236E-002  -3.4952402191906597E-003   6.0889005503634963E-002
   1.4006684389552729E-002  -3.6250451735862282E-003   6.1926685162140255E-002
   1.3779713613817218E-002  -3.7226537315615954E-003   6.3051301658784878E-002
   7.3497546652667636E-003  -1.5695205603161611E-003   5.9589399530718054E-002
   7.2229950025977869E-003  -1.6666194339396709E-003   6.0478714470219463E-002
   7.0962353399288084E-003  -1.7476201094741906E-003   6.1481514797714694E-002
   6.9694756772598308E-003  -1.8125225869197906E-003   6.2597800513203655E-002
   6.8427160145908533E-003  -1.8613268662764429E-003   6.3827571616686382E-002
  -1.1328212673467064E-012   5.0658088834865111E-013   6.0209490333171953E-002
  -8.8079630394810593E-013   4.9555498593534253E-013   6.1108216031616855E-002
  -6.2876873846429149E-013   2.4222290839759353E-013   6.2146975667909998E-002
  -3.7674247402308403E-013  -2.5337371090117244E-013   6.3325769242051341E-002
  -1.2471620958187657E-013  -9.9133201647561009E-013   6.4644596754040953E-002
   2.7936553565802297E-002  -7.4453074621318727E-003   6.1621027281341140E-002
   2.7220467450384651E-002  -7.5630081196009086E-003   6.1307871786993762E-002
   2.6504381334966999E-002  -7.5900686546653273E-003   6.1201481480743530E-002
   2.5788295219549347E-002  -7.5264890673248791E-003   6.1301856362590432E-002
   2.5072209104131701E-002  -7.3722693575796472E-003   6.1608996432534563E-002
   2.0810992797554356E-002  -5.5839805968467271E-003   6.2315786880336441E-002
   2.0294735955417458E-002  -5.6722560901198427E-003   6.2169287162831113E-002
   1.9778479113280546E-002  -5.6925514915024816E-003   6.2215680803790037E-002
   1.9262222271143641E-002  -5.6448668009947169E-003   6.2454967803213343E-002
   1.8745965429006736E-002  -5.5292020185964685E-003   6.2887148161100984E-002
   1.3779713613817218E-002  -3.7226537315615954E-003   6.3051301658784878E-002
   1.3449414215328246E-002  -3.7815040606387837E-003   6.3048797687607197E-002
   1.3119114816839281E-002  -3.7950343283397747E-003   6.3225315245261066E-002
   1.2788815418350316E-002  -3.7632445346646101E-003   6.3580854331746456E-002
   1.2458516019861345E-002  -3.6861346796132205E-003   6.4115414947063382E-002
   6.8427160145908533E-003  -1.8613268662764429E-003   6.3827571616686382E-002
   6.6845022301170263E-003  -1.8907520311576519E-003   6.3946403361322110E-002
   6.5262884456431932E-003  -1.8975171651769845E-003   6.4230384805156610E-002
   6.3680746611693637E-003  -1.8816222683344479E-003   6.4679515948189867E-002
   6.2098608766955332E-003  -1.8430673406300210E-003   6.5293796790421813E-002
  -1.2471620958187657E-013  -9.9133201647561009E-013   6.4644596754040953E-002
  -2.1620726042836935E-013  -1.6766171784254880E-012   6.4862104183975852E-002
  -3.0770351544529007E-013  -2.0142464085548539E-012   6.5230889483476662E-002
  -3.9919890310047279E-013  -2.0043610868270001E-012   6.5750952652543396E-002
  -4.9069082130870356E-013  -1.6467660568508791E-012   6.6422293691176054E-002
   2.5072209104131701E-002  -7.3722693575796472E-003   6.1608996432534563E-002
   2.4308097076835261E-002  -7.1702369741339506E-003   6.1290300380361040E-002
   2.3543985049538821E-002  -6.9632193656919208E-003   6.1162679837326803E-002
   2.2779873022242381E-002  -6.7512165322535182E-003   6.1226134803431774E-002
   2.2015760994945927E-002  -6.5342284738188483E-003   6.1480665278676017E-002
   1.8745965429006736E-002  -5.5292020185964685E-003   6.2887148161100984E-002
   1.8172917035307379E-002  -5.3776777309368223E-003   6.2611596571179332E-002
   1.7599868641608021E-002  -5.2224145246447667E-003   6.2527096739312643E-002
   1.7026820247908664E-002  -5.0634123997203816E-003   6.2633648665500807E-002
   1.6453771854209320E-002  -4.9006713561636772E-003   6.2931252349744005E-002
   1.2458516019861345E-002  -3.6861346796132205E-003   6.4115414947063382E-002
   1.2076507508674804E-002  -3.5851184877396039E-003   6.3881761513029531E-002
   1.1694498997488270E-002  -3.4816096835975814E-003   6.3839136085966350E-002
   1.1312490486301736E-002  -3.3756082671871886E-003   6.3987538665873839E-002
   1.0930481975115189E-002  -3.2671142385084784E-003   6.4326969252752053E-002
   6.2098608766955332E-003  -1.8430673406300210E-003   6.5293796790421813E-002
   6.0188684969375433E-003  -1.7925592445424167E-003   6.5100795205911791E-002
   5.8278761171795482E-003  -1.7408048425504117E-003   6.5098797877288089E-002
   5.6368837374215532E-003  -1.6878041346541071E-003   6.5287804804550861E-002
   5.4458913576635633E-003  -1.6335571208532934E-003   6.5667815987700065E-002
  -4.9069082130870356E-013  -1.6467660568508791E-012   6.6422293691176054E-002
   9.5586732973274025E-014  -1.3452294833626866E-012   6.6268697649825903E-002
   6.8186081780829966E-013  -1.5032627920241737E-012   6.6306082113277862E-002
   1.2681392394520152E-012  -2.1209058814752879E-012   6.6534447081531861E-002
   1.8544124569253029E-012  -3.1981639558864572E-012   6.6953792554588110E-002
   2.2015760994945927E-002  -6.5342284738188483E-003   6.1480665278676017E-002
   2.1151424091080256E-002  -6.3065404614428000E-003   6.1059685720500301E-002
   2.0287087187214600E-002  -6.0624377661804840E-003   6.0861010697273565E-002
   1.9422750283348923E-002  -5.8019203880317755E-003   6.0884640208995866E-002
   1.8558413379483260E-002  -5.5249883269968270E-003   6.1130574255667258E-002
   1.6453771854209320E-002  -4.9006713561636772E-003   6.2931252349744005E-002
   1.5810184408219748E-002  -4.7299053471714925E-003   6.2561779823700203E-002
   1.5166596962230175E-002  -4.5468283259409575E-003   6.2411501678459602E-002
   1.4523009516240609E-002  -4.3514402924718955E-003   6.2480417914022188E-002
   1.3879422070251030E-002  -4.1437412467645318E-003   6.2768528530387863E-002
   1.0930481975115189E-002  -3.2671142385084784E-003   6.4326969252752053E-002
   1.0504533832855871E-002  -3.1532702329002682E-003   6.4004900088192290E-002
   1.0078585690596553E-002  -3.0312188857014866E-003   6.3898915150289920E-002
   9.6526375483372371E-003  -2.9009601969121265E-003   6.4009014439044776E-002
   9.2266894060779210E-003  -2.7624941665322644E-003   6.4335197954457149E-002
   5.4458913576635633E-003  -1.6335571208532934E-003   6.5667815987700065E-002
   5.2344723649886543E-003  -1.5766351186290578E-003   6.5389046513976534E-002
   5.0230533723137401E-003  -1.5156094454619601E-003   6.5323251112764436E-002
   4.8116343796388295E-003  -1.4504801013524131E-003   6.5470429784063908E-002
   4.6002153869639179E-003  -1.3812470863000664E-003   6.5830582527874798E-002
   1.8544124569253029E-012  -3.1981639558864572E-012   6.6953792554588110E-002
   4.6180663459960414E-012  -4.3577363939562019E-012   6.6714219101052935E-002
   7.3817237045137318E-012  -5.2225168634123520E-012   6.6684509565883371E-002
   1.0145377593584470E-011  -5.7925400587244269E-012   6.6864663949079445E-002
   1.2909034952102161E-011  -6.0677018964838680E-012   6.7254682250641129E-002
   1.8558413379483260E-002  -5.5249883269968270E-003   6.1130574255667258E-002
   1.7800736370525483E-002  -5.2389500844166881E-003   6.0906966175630739E-002
   1.7043059361567685E-002  -4.9511141616318116E-003   6.0813871436434019E-002
   1.6285382352609911E-002  -4.6614805586430060E-003   6.0851290038077030E-002
   1.5527705343652123E-002  -4.3700492754493725E-003   6.1019221980559868E-002
   1.3879422070251030E-002  -4.1437412467645318E-003   6.2768528530387863E-002
   1.3266984879915185E-002  -3.9292125646484821E-003   6.2587478543584429E-002
   1.2654547689579340E-002  -3.7133356219535008E-003   6.2566394853184951E-002
   1.2042110499243495E-002  -3.4961104186797473E-003   6.2705277459189662E-002
   1.1429673308907651E-002  -3.2775369548268540E-003   6.3004126361598523E-002
   9.2266894060779210E-003  -2.7624941665322644E-003   6.4335197954457149E-002
   8.7889449899283753E-003  -2.6194750448804843E-003   6.4196256641260968E-002
   8.3512005737788348E-003  -2.4755570822750719E-003   6.4246734580033465E-002
   7.9134561576292908E-003  -2.3307402787165424E-003   6.4486631770774350E-002
   7.4757117414797521E-003  -2.1850246342043911E-003   6.4915948213483732E-002
   4.6002153869639179E-003  -1.3812470863000664E-003   6.5830582527874798E-002
   4.3666167005650472E-003  -1.3097375251122992E-003   6.5733300468660744E-002
   4.1330180141661722E-003  -1.2377785425966466E-003   6.5854890616979342E-002
   3.8994193277672928E-003  -1.1653701387531997E-003   6.6195352972831009E-002
   3.6658206413684212E-003  -1.0925123135819004E-003   6.6754687536215412E-002
   1.2909034952102161E-011  -6.0677018964838680E-012   6.7254682250641129E-002
   1.1825186663205756E-011  -5.3442805736381160E-012   6.7198610025783478E-002
   1.0741345313203254E-011  -2.9182073424394162E-012   6.7390862964023052E-002
   9.6575056979242291E-012   1.2098967661078319E-012   6.7831441065359696E-002
   8.5736556743043479E-012   7.0405348218116615E-012   6.8520344329793759E-002
   1.5527705343652123E-002  -4.3700492754493725E-003   6.1019221980559868E-002
   1.4509201340624722E-002  -4.0704623024316322E-003   6.0438759737534264E-002
   1.3490697337597314E-002  -3.7563616299689240E-003   6.0062006955680647E-002
   1.2472193334569937E-002  -3.4277472580620458E-003   5.9888963634999626E-002
   1.1453689331542505E-002  -3.0846191867106576E-003   5.9919629775490479E-002
   1.1429673308907651E-002  -3.2775369548268540E-003   6.3004126361598523E-002
   1.0627607901423627E-002  -3.0528467243476076E-003   6.2593163206319608E-002
   9.8255424939396180E-003  -2.8172712211945450E-003   6.2411367780955240E-002
   9.0234770864555669E-003  -2.5708104453680200E-003   6.2458740085505324E-002
   8.2214116789715852E-003  -2.3134643968671931E-003   6.2735280119970205E-002
   7.4757117414797521E-003  -2.1850246342043911E-003   6.4915948213483732E-002
   6.9155431982814188E-003  -2.0352311462639994E-003   6.4670855719181158E-002
   6.3553746550830837E-003  -1.8781808124204019E-003   6.4680389223535278E-002
   5.7952061118847391E-003  -1.7138736326737757E-003   6.4944548726546147E-002
   5.2350375686863876E-003  -1.5423096070238396E-003   6.5463334228214154E-002
   3.6658206413684212E-003  -1.0925123135819004E-003   6.6754687536215412E-002
   3.3730072311980649E-003  -1.0176155681803495E-003   6.6671837276118306E-002
   3.0801938210277134E-003  -9.3909040364614088E-004   6.6869071283420387E-002
   2.7873804108573463E-003  -8.5693681997936304E-004   6.7346389558121833E-002
   2.4945670006870126E-003  -7.7115481718043055E-004   6.8103792100222049E-002
   8.5736556743043479E-012   7.0405348218116615E-012   6.8520344329793759E-002
   1.7359030879404713E-013   9.9035224465637839E-012   6.8596107877131496E-002
  -8.2264785261632056E-012   5.1282450508338684E-012   6.8977413960610717E-002
  -1.6626524809715271E-011  -7.2855575738994816E-012   6.9664262580231603E-002
  -2.5026605787736855E-011  -2.7337021535345229E-011   7.0656653735993613E-002
  -4.8450826684032222E-013   0.0000000000000000        2.8446515168126608E-002
  -5.1367243791844430E-013   1.3568399875873993E-013   3.3408423819686346E-002
  -5.4283747635830437E-013   2.3076852928571867E-013   3.8377994498545537E-002
  -5.7200208111729545E-013   2.8524925477224627E-013   4.3355227204704194E-002
  -6.0116668587628652E-013   2.9912617521832274E-013   4.8340121938162305E-002
  -6.7998781392602358E-003   0.0000000000000000        2.8510488210237585E-002
  -6.8316866735344383E-003   1.4643196254019754E-004   3.3545840170555070E-002
  -6.8634952078086417E-003   3.2983568202884367E-004   3.8509913035083013E-002
  -6.8953037420828450E-003   5.5021115846594013E-004   4.3402706803821418E-002
  -6.9271122763570501E-003   8.0755839185148171E-004   4.8224221476770288E-002
  -1.3505328286187637E-002   0.0000000000000000        2.8702407336258555E-002
  -1.3647886477795879E-002   2.9286392494471064E-004   3.3848174362322840E-002
  -1.3790444669404118E-002   6.5967136382691968E-004   3.8843721169508585E-002
  -1.3933002861012357E-002   1.1004223166466284E-003   4.3689047757815798E-002
  -1.4075561052620604E-002   1.6151167834038333E-003   4.8384154127244464E-002
  -2.0116350441266716E-002   0.0000000000000000        2.9022272546189509E-002
  -2.0448599413297991E-002   4.3929588734922483E-004   3.4315426394989648E-002
  -2.0780848385329270E-002   9.8950704562499612E-004   3.9379418901822241E-002
  -2.1113097357360538E-002   1.6506334748273145E-003   4.4214250066687298E-002
  -2.1445346329391827E-002   2.4226751749561850E-003   4.8819919889584833E-002
  -2.6632944604497465E-002   0.0000000000000000        2.9470083840030456E-002
  -2.7233825480040774E-002   5.8572784975373816E-004   3.4947596268555481E-002
  -2.7834706355584084E-002   1.3193427274230726E-003   4.0117006232023987E-002
  -2.8435587231127397E-002   2.2008446330080075E-003   4.4978313730435954E-002
  -2.9036468106670710E-002   3.2302335665085396E-003   4.9531518763791381E-002
  -6.0116668587628652E-013   2.9912617521832274E-013   4.8340121938162305E-002
  -7.3407989756302250E-013   3.0729412070495954E-013   5.1509689142546354E-002
  -8.6699397661149646E-013   3.4456920823544568E-013   5.4544439609842670E-002
  -9.9990892302170842E-013   4.1099355906418222E-013   5.7444373340051182E-002
  -1.1328212673467064E-012   5.0658088834865111E-013   6.0209490333171953E-002
  -6.9271122763570501E-003   8.0755839185148171E-004   4.8224221476770288E-002
  -7.0327728741448291E-003   1.0620558613369719E-003   5.1180272677719893E-002
  -7.1384334719326089E-003   1.2738820460739490E-003   5.4059819420447540E-002
  -7.2440940697203870E-003   1.4430369460623504E-003   5.6862861704953215E-002
  -7.3497546675081642E-003   1.5695205613022317E-003   5.9589399531236938E-002
  -1.4075561052620604E-002   1.6151167834038333E-003   4.8384154127244464E-002
  -1.4228569969197438E-002   2.1241117223666775E-003   5.1084018039981929E-002
  -1.4381578885774278E-002   2.5477640918033007E-003   5.3765689773363233E-002
  -1.4534587802351112E-002   2.8860738917137071E-003   5.6429169327388375E-002
  -1.4687596718927951E-002   3.1390411220978895E-003   5.9074456702057368E-002
  -2.1445346329391827E-002   2.4226751749561850E-003   4.8819919889584833E-002
  -2.1587391285891912E-002   3.1861675833963830E-003   5.1220925229332470E-002
  -2.1729436242391993E-002   3.8216461375326599E-003   5.3662050668589763E-002
  -2.1871481198892071E-002   4.3291108373650642E-003   5.6143296207356704E-002
  -2.2013526155392163E-002   4.7085616828935369E-003   5.8664661845633306E-002
  -2.9036468106670710E-002   3.2302335665085396E-003   4.9531518763791381E-002
  -2.9109236824228234E-002   4.2482234444260738E-003   5.1590994245771522E-002
  -2.9182005541785763E-002   5.0955281832620308E-003   5.3748902106127115E-002
  -2.9254774259343280E-002   5.7721477830164096E-003   5.6005242344858173E-002
  -2.9327542976900815E-002   6.2780822436892050E-003   5.8360014961964683E-002
  -1.1328212673467064E-012   5.0658088834865111E-013   6.0209490333171953E-002
  -8.8079630394810593E-013   4.9555498593534253E-013   6.1108216031616855E-002
  -6.2876873846429149E-013   2.4222290839759353E-013   6.2146975667909998E-002
  -3.7674247402308403E-013  -2.5337371090117244E-013   6.3325769242051341E-002
  -1.2471620958187657E-013  -9.9133201647561009E-013   6.4644596754040953E-002
  -7.3497546675081642E-003   1.5695205613022317E-003   5.9589399531236938E-002
  -7.2229950043455320E-003   1.6666194349132663E-003   6.0478714470324060E-002
  -7.0962353411828973E-003   1.7476201100152175E-003   6.1481514797384160E-002
  -6.9694756780202599E-003   1.8125225866080490E-003   6.2597800512417243E-002
  -6.8427160148576277E-003   1.8613268646917730E-003   6.3827571615423295E-002
  -1.4687596718927951E-002   3.1390411220978895E-003   5.9074456702057368E-002
  -1.4460625942729958E-002   3.3332388693310018E-003   5.9938262683519934E-002
  -1.4233655166531970E-002   3.4952402197881982E-003   6.0889005503080212E-002
  -1.4006684390333984E-002   3.6250451734694857E-003   6.1926685160738203E-002
  -1.3779713614135991E-002   3.7226537303748572E-003   6.3051301656493947E-002
  -2.2013526155392163E-002   4.7085616828935369E-003   5.8664661845633306E-002
  -2.1712892816034085E-002   4.9998583037487113E-003   5.9486860671204483E-002
  -2.1412259476675993E-002   5.2428603295612275E-003   6.0369447784998087E-002
  -2.1111626137317908E-002   5.4375677603309292E-003   6.1312423187014208E-002
  -2.0810992797959817E-002   5.5839805960579518E-003   6.2315786877252775E-002
  -2.9327542976900815E-002   6.2780822436892050E-003   5.8360014961964683E-002
  -2.8979795624257884E-002   6.6664777381664556E-003   5.9124508433377673E-002
  -2.8632048271614963E-002   6.9904804393341648E-003   5.9922841643137867E-002
  -2.8284300918972029E-002   7.2500903471923433E-003   6.0755014591245278E-002
  -2.7936553566329111E-002   7.4453074617410325E-003   6.1621027277699872E-002
  -1.2471620958187657E-013  -9.9133201647561009E-013   6.4644596754040953E-002
  -2.1620726042836935E-013  -1.6766171784254880E-012   6.4862104183975852E-002
  -3.0770351544529007E-013  -2.0142464085548539E-012   6.5230889483476662E-002
  -3.9919890310047279E-013  -2.0043610868270001E-012   6.5750952652543396E-002
  -4.9069082130870356E-013  -1.6467660568508791E-012   6.6422293691176054E-002
  -6.8427160148576277E-003   1.8613268646917730E-003   6.3827571615423295E-002
  -6.6845022306259456E-003   1.8907520284229262E-003   6.3946403360645776E-002
  -6.5262884463942643E-003   1.8975171619581253E-003   6.4230384804948665E-002
  -6.3680746621625848E-003   1.8816222652973174E-003   6.4679515948331934E-002
  -6.2098608779309009E-003   1.8430673384405016E-003   6.5293796790795694E-002
  -1.3779713614135991E-002   3.7226537303748572E-003   6.3051301656493947E-002
  -1.3449414216066661E-002   3.7815040585224766E-003   6.3048797686460392E-002
  -1.3119114817997336E-002   3.7950343259304953E-003   6.3225315245021743E-002
  -1.2788815419928011E-002   3.7632445325989261E-003   6.3580854332177958E-002
  -1.2458516021858681E-002   3.6861346785277554E-003   6.4115414947929078E-002
  -2.0810992797959817E-002   5.5839805960579518E-003   6.2315786877252775E-002
  -2.0294735956538367E-002   5.6722560886220096E-003   6.2169287161419638E-002
  -1.9778479115116914E-002   5.6925514899028940E-003   6.2215680803695848E-002
  -1.9262222273695461E-002   5.6448667999005973E-003   6.2454967804081385E-002
  -1.8745965432274015E-002   5.5292020186150301E-003   6.2887148162576317E-002
  -2.7936553566329111E-002   7.4453074617410325E-003   6.1621027277699872E-002
  -2.7220467452041059E-002   7.5630081187215772E-003   6.1307871785523521E-002
  -2.6504381337753007E-002   7.5900686538752822E-003   6.1201481480970994E-002
  -2.5788295223464947E-002   7.5264890672021830E-003   6.1301856364042312E-002
  -2.5072209109176905E-002   7.3722693587023047E-003   6.1608996434737440E-002
  -4.9069082130870356E-013  -1.6467660568508791E-012   6.6422293691176054E-002
   9.5586732973274025E-014  -1.3452294833626866E-012   6.6268697649825903E-002
   6.8186081780829966E-013  -1.5032627920241737E-012   6.6306082113277862E-002
   1.2681392394520152E-012  -2.1209058814752879E-012   6.6534447081531861E-002
   1.8544124569253029E-012  -3.1981639558864572E-012   6.6953792554588110E-002
  -6.2098608779309009E-003   1.8430673384405016E-003   6.5293796790795694E-002
  -6.0188684969640065E-003   1.7925592429785253E-003   6.5100795204799444E-002
  -5.8278761159971078E-003   1.7408048405025134E-003   6.5098797874762457E-002
  -5.6368837350302126E-003   1.6878041310120842E-003   6.5287804800684468E-002
  -5.4458913540633147E-003   1.6335571145074945E-003   6.5667815982565658E-002
  -1.2458516021858681E-002   3.6861346785277554E-003   6.4115414947929078E-002
  -1.2076507509354188E-002   3.5851184873023773E-003   6.3881761510732299E-002
  -1.1694498996849698E-002   3.4816096825082028E-003   6.3839136080651601E-002
  -1.1312490484345201E-002   3.3756082641451567E-003   6.3987538657686999E-002
  -1.0930481971840706E-002   3.2671142322132363E-003   6.4326969241838450E-002
  -1.8745965432274015E-002   5.5292020186150301E-003   6.2887148162576317E-002
  -1.8172917037074944E-002   5.3776777316262639E-003   6.2611596567624328E-002
  -1.7599868641875877E-002   5.2224145245139356E-003   6.2527096730945433E-002
  -1.7026820246676809E-002   5.0634123972781598E-003   6.2633648652539509E-002
  -1.6453771851477745E-002   4.9006713499189641E-003   6.2931252332406734E-002
  -2.5072209109176905E-002   7.3722693587023047E-003   6.1608996434737440E-002
  -2.4308097080126292E-002   7.1702369759499979E-003   6.1290300375475587E-002
  -2.3543985051075675E-002   6.9632193665196615E-003   6.1162679825643815E-002
  -2.2779873022025068E-002   6.7512165304112453E-003   6.1226134785242033E-002
  -2.2015760992974448E-002   6.5342284676246365E-003   6.1480665254270372E-002
   1.8544124569253029E-012  -3.1981639558864572E-012   6.6953792554588110E-002
   4.6180663459960414E-012  -4.3577363939562019E-012   6.6714219101052935E-002
   7.3817237045137318E-012  -5.2225168634123520E-012   6.6684509565883371E-002
   1.0145377593584470E-011  -5.7925400587244269E-012   6.6864663949079445E-002
   1.2909034952102161E-011  -6.0677018964838680E-012   6.7254682250641129E-002
  -5.4458913540633147E-003   1.6335571145074945E-003   6.5667815982565658E-002
  -5.2344723557899075E-003   1.5766351093848829E-003   6.5389046509351317E-002
  -5.0230533575164969E-003   1.5156094340401452E-003   6.5323251108790836E-002
  -4.8116343592430923E-003   1.4504800884736855E-003   6.5470429780884257E-002
  -4.6002153609696790E-003   1.3812470726849435E-003   6.5830582525631454E-002
  -1.0930481971840706E-002   3.2671142322132363E-003   6.4326969241838450E-002
  -1.0504533823769311E-002   3.1532702231275578E-003   6.4004900078428184E-002
  -1.0078585675697922E-002   3.0312188733030293E-003   6.3898915141960028E-002
  -9.6526375276265366E-003   2.9009601827396890E-003   6.4009014432433897E-002
  -9.2266893795551509E-003   2.7624941514374779E-003   6.4335197949849890E-002
  -1.6453771851477745E-002   4.9006713499189641E-003   6.2931252332406734E-002
  -1.5810184399320158E-002   4.7299053368702326E-003   6.2561779808283688E-002
  -1.5166596947162561E-002   4.5468283125658579E-003   6.2411501665390889E-002
  -1.4523009495004974E-002   4.3514402770057203E-003   6.2480417903728450E-002
  -1.3879422042847374E-002   4.1437412301900678E-003   6.2768528523296271E-002
  -2.2015760992974448E-002   6.5342284676246365E-003   6.1480665254270372E-002
  -2.1151424082442440E-002   6.3065404506127964E-003   6.1059685698917676E-002
  -2.0287087171910412E-002   6.0624377518286171E-003   6.0861010679083477E-002
  -1.9422750261378383E-002   5.8019203712719007E-003   6.0884640194767900E-002
  -1.8558413350846376E-002   5.5249883089426577E-003   6.1130574245970959E-002
   1.2909034952102161E-011  -6.0677018964838680E-012   6.7254682250641129E-002
   1.1825186663205756E-011  -5.3442805736381160E-012   6.7198610025783478E-002
   1.0741345313203254E-011  -2.9182073424394162E-012   6.7390862964023052E-002
   9.6575056979242291E-012   1.2098967661078319E-012   6.7831441065359696E-002
   8.5736556743043479E-012   7.0405348218116615E-012   6.8520344329793759E-002
  -4.6002153609696790E-003   1.3812470726849435E-003   6.5830582525631454E-002
  -4.3666166766998041E-003   1.3097375128541255E-003   6.5733300470243589E-002
  -4.1330179924299344E-003   1.2377785351610909E-003   6.5854890622465884E-002
  -3.8994193081600577E-003   1.1653701396057529E-003   6.6195352982298603E-002
  -3.6658206238901828E-003   1.0925123261882885E-003   6.6754687549741287E-002
  -9.2266893795551509E-003   2.7624941514374779E-003   6.4335197949849890E-002
  -8.7889449654185436E-003   2.6194750310524761E-003   6.4196256644367164E-002
  -8.3512005512819502E-003   2.4755570732404933E-003   6.4246734591007715E-002
  -7.9134561371453551E-003   2.3307402780017184E-003   6.4486631789771431E-002
  -7.4757117230087548E-003   2.1850246453359590E-003   6.4915948240658453E-002
  -1.3879422042847374E-002   4.1437412301900678E-003   6.2768528523296271E-002
  -1.3266984854331046E-002   3.9292125492507157E-003   6.2587478548154177E-002
  -1.2654547665814725E-002   3.7133356113199824E-003   6.2566394869648184E-002
  -1.2042110477298393E-002   3.4961104163975737E-003   6.2705277487778557E-002
  -1.1429673288782074E-002   3.2775369644836155E-003   6.3004126402545130E-002
  -1.8558413350846376E-002   5.5249883089426577E-003   6.1130574245970959E-002
  -1.7800736343437311E-002   5.2389500674492329E-003   6.0906966181604627E-002
  -1.7043059336028232E-002   4.9511141493993188E-003   6.0813871458387458E-002
  -1.6285382328619175E-002   4.6614805547935158E-003   6.0851290076319717E-002
  -1.5527705321210096E-002   4.3700492836313276E-003   6.1019222035401055E-002
   8.5736556743043479E-012   7.0405348218116615E-012   6.8520344329793759E-002
   1.7359030879404713E-013   9.9035224465637839E-012   6.8596107877131496E-002
  -8.2264785261632056E-012   5.1282450508338684E-012   6.8977413960610717E-002
  -1.6626524809715271E-011  -7.2855575738994816E-012   6.9664262580231603E-002
  -2.5026605787736855E-011  -2.7337021535345229E-011   7.0656653735993613E-002
  -3.6658206238901828E-003   1.0925123261882885E-003   6.6754687549741287E-002
  -3.3730072305715210E-003   1.0176155873123649E-003   6.6671837275655316E-002
  -3.0801938372528488E-003   9.3909041538205174E-004   6.6869071268865571E-002
  -2.7873804439341879E-003   8.5693681039713046E-004   6.7346389529371914E-002
  -2.4945670506155149E-003   7.7115477235789598E-004   6.8103792057173984E-002
  -7.4757117230087548E-003   2.1850246453359590E-003   6.4915948240658453E-002
  -6.9155431968167718E-003   2.0352311647213184E-003   6.4670855719732454E-002
  -6.3553746706247931E-003   1.8781808256360180E-003   6.4680389197257132E-002
  -5.7952061444327962E-003   1.7138736280798168E-003   6.4944548673232308E-002
  -5.2350376182408176E-003   1.5423095720528135E-003   6.5463334147658203E-002
  -1.1429673288782074E-002   3.2775369644836155E-003   6.3004126402545130E-002
  -1.0627607898562166E-002   3.0528467421304939E-003   6.2593163209362521E-002
  -9.8255425083422655E-003   2.8172712358900155E-003   6.2411367745785512E-002
  -9.0234771181223680E-003   2.5708104457622264E-003   6.2458740011813715E-002
  -8.2214117279024723E-003   2.3134643717476755E-003   6.2735280007446728E-002
  -1.5527705321210096E-002   4.3700492836313276E-003   6.1019222035401055E-002
  -1.4509201335807718E-002   4.0704623195392253E-003   6.0438759744545989E-002
  -1.3490697350405305E-002   3.7563616461438326E-003   6.0062006914450655E-002
  -1.2472193365002899E-002   3.4277472634450072E-003   5.9888963545114901E-002
  -1.1453689379600521E-002   3.0846191714426485E-003   5.9919629636539407E-002
  -2.6632944604497465E-002   0.0000000000000000        2.9470083840030456E-002
  -2.7233825480040774E-002   5.8572784975373816E-004   3.4947596268555481E-002
  -2.7834706355584084E-002   1.3193427274230726E-003   4.0117006232023987E-002
  -2.8435587231127397E-002   2.2008446330080075E-003   4.4978313730435954E-002
  -2.9036468106670710E-002   3.2302335665085396E-003   4.9531518763791381E-002
  -3.3392430356296229E-002   0.0000000000000000        3.0180220465631832E-002
  -3.4236175353335702E-002   9.6013194851322405E-004   3.5268346615797086E-002
  -3.5079920350375174E-002   2.0235499632392517E-003   4.0178846988026540E-002
  -3.5923665347414646E-002   3.1902540441780848E-003   4.4911721582320208E-002
  -3.6767410344454118E-002   4.4602441913297189E-003   4.9466970398678083E-002
  -4.0732127277079345E-002   0.0000000000000000        3.1287061670844094E-002
  -4.1688259708494241E-002   1.3345360472727095E-003   3.5941200580946776E-002
  -4.2644392139909143E-002   2.7277571990554300E-003   4.0548190400234399E-002
  -4.3600524571324038E-002   4.1796634553481621E-003   4.5108031128706962E-002
  -4.4556657002738927E-002   5.6902548161509095E-003   4.9620722766364478E-002
  -4.8652035366846813E-002   0.0000000000000000        3.2790607455667239E-002
  -4.9590078545516392E-002   1.7089401460321960E-003   3.6966158164004559E-002
  -5.0528121724185963E-002   3.4319644348716092E-003   4.1225036468647544E-002
  -5.1466164902855563E-002   5.1690728665182411E-003   4.5567242369596229E-002
  -5.2404208081525128E-002   6.9202654409720940E-003   4.9992775866850594E-002
  -5.7152154625598639E-002   0.0000000000000000        3.4690857820101270E-002
  -5.7941631864402161E-002   2.0833442447916817E-003   3.8343219364970420E-002
  -5.8731109103205691E-002   4.1361716706877875E-003   4.2209385193265996E-002
  -5.9520586342009213E-002   6.1584822776883201E-003   4.6289355304987997E-002
  -6.0310063580812735E-002   8.1502760657932802E-003   5.0583129700136412E-002
  -2.9036468106670710E-002   3.2302335665085396E-003   4.9531518763791381E-002
  -2.9109236824228234E-002   4.2482234444260738E-003   5.1590994245771522E-002
  -2.9182005541785763E-002   5.0955281832620308E-003   5.3748902106127115E-002
  -2.9254774259343280E-002   5.7721477830164096E-003   5.6005242344858173E-002
  -2.9327542976900815E-002   6.2780822436892050E-003   5.8360014961964683E-002
  -3.6767410344454118E-002   4.4602441913297189E-003   4.9466970398678083E-002
  -3.6780555441149852E-002   5.6935048528087015E-003   5.1255617614323283E-002
  -3.6793700537845586E-002   6.7500204767295350E-003   5.3065079693316621E-002
  -3.6806845634541320E-002   7.6297910630921994E-003   5.4895356635658109E-002
  -3.6819990731237054E-002   8.3328166118967623E-003   5.6746448441347679E-002
  -4.4556657002738927E-002   5.6902548161509095E-003   4.9620722766364478E-002
  -4.4587795993600202E-002   7.1387862611913128E-003   5.1132481817198219E-002
  -4.4618934984461470E-002   8.4045127701970045E-003   5.2587438216352735E-002
  -4.4650073975322752E-002   9.4874343431680126E-003   5.3985591963828045E-002
  -4.4681212966184020E-002   1.0387550980104316E-002   5.5326943059624135E-002
  -5.2404208081525128E-002   6.9202654409720940E-003   4.9992775866850594E-002
  -5.2530958481579272E-002   8.5840676695739353E-003   5.1221586854396282E-002
  -5.2657708881633430E-002   1.0059005063664500E-002   5.2315977675235430E-002
  -5.2784459281687575E-002   1.1345077623243813E-002   5.3275948329368050E-002
  -5.2911209681741719E-002   1.2442285348311872E-002   5.4101498816794102E-002
  -6.0310063580812735E-002   8.1502760657932802E-003   5.0583129700136412E-002
  -6.0610042905087091E-002   1.0029349077956546E-002   5.1522932725917507E-002
  -6.0910022229361441E-002   1.1713497357131970E-002   5.2250698069964734E-002
  -6.1210001553635790E-002   1.3202720903319616E-002   5.2766425732278077E-002
  -6.1509980877910153E-002   1.4497019716519420E-002   5.3070115712857531E-002
  -2.9327542976900815E-002   6.2780822436892050E-003   5.8360014961964683E-002
  -2.8979795624257884E-002   6.6664777381664556E-003   5.9124508433377673E-002
  -2.8632048271614963E-002   6.9904804393341648E-003   5.9922841643137867E-002
  -2.8284300918972029E-002   7.2500903471923433E-003   6.0755014591245278E-002
  -2.7936553566329111E-002   7.4453074617410325E-003   6.1621027277699872E-002
  -3.6819990731237054E-002   8.3328166118967623E-003   5.6746448441347679E-002
  -3.6385841760608204E-002   8.8749994368451865E-003   5.7090062710056851E-002
  -3.5951692789979346E-002   9.2722418516394747E-003   5.7572640476390588E-002
  -3.5517543819350482E-002   9.5245438562796877E-003   5.8194181740349016E-002
  -3.5083394848721638E-002   9.6319054507657542E-003   5.8954686501932078E-002
  -4.4681212966184020E-002   1.0387550980104316E-002   5.5326943059624135E-002
  -4.4055538618291805E-002   1.1083521135523914E-002   5.5169130508784865E-002
  -4.3429864270399611E-002   1.1554003263944814E-002   5.5255405214847640E-002
  -4.2804189922507410E-002   1.1798997365367004E-002   5.5585767177812481E-002
  -4.2178515574615202E-002   1.1818503439790455E-002   5.6160216397679388E-002
  -5.2911209681741719E-002   1.2442285348311872E-002   5.4101498816794102E-002
  -5.1988886197308737E-002   1.3292042834202671E-002   5.3361711829561793E-002
  -5.1066562712875754E-002   1.3835764676250124E-002   5.2971135858508954E-002
  -5.0144239228442772E-002   1.4073450874454337E-002   5.2929770903635640E-002
  -4.9221915744009782E-002   1.4005101428815166E-002   5.3237616964941781E-002
  -6.1509980877910153E-002   1.4497019716519420E-002   5.3070115712857531E-002
  -6.0185884497658958E-002   1.5500564532881383E-002   5.1667806672387594E-002
  -5.8861788117407790E-002   1.6117526088555462E-002   5.0719832407374571E-002
  -5.7537691737156595E-002   1.6347904383541653E-002   5.0226192917818498E-002
  -5.6213595356905413E-002   1.6191699417839878E-002   5.0186888203719277E-002
  -2.7936553566329111E-002   7.4453074617410325E-003   6.1621027277699872E-002
  -2.7220467452041059E-002   7.5630081187215772E-003   6.1307871785523521E-002
  -2.6504381337753007E-002   7.5900686538752822E-003   6.1201481480970994E-002
  -2.5788295223464947E-002   7.5264890672021830E-003   6.1301856364042312E-002
  -2.5072209109176905E-002   7.3722693587023047E-003   6.1608996434737440E-002
  -3.5083394848721638E-002   9.6319054507657542E-003   5.8954686501932078E-002
  -3.4163726510735473E-002   9.6339446771756751E-003   5.8611896378416524E-002
  -3.3244058172749294E-002   9.5702795775875690E-003   5.8469505514673406E-002
  -3.2324389834763108E-002   9.4409101520013926E-003   5.8527513910702704E-002
  -3.1404721496776943E-002   9.2458364004170124E-003   5.8785921566504404E-002
  -4.2178515574615202E-002   1.1818503439790455E-002   5.6160216397679388E-002
  -4.1061630940782294E-002   1.1704881235629881E-002   5.5812727438653321E-002
  -3.9944746306949420E-002   1.1550490501299882E-002   5.5659271811548290E-002
  -3.8827861673116533E-002   1.1355331236800504E-002   5.5699849516364308E-002
  -3.7710977039283645E-002   1.1119403442131706E-002   5.5934460553101230E-002
  -4.9221915744009782E-002   1.4005101428815166E-002   5.3237616964941781E-002
  -4.7914180742181622E-002   1.3775817794084074E-002   5.2910364966233955E-002
  -4.6606445740353421E-002   1.3530701425012209E-002   5.2770780371595688E-002
  -4.5298710738525226E-002   1.3269752321599639E-002   5.2818863181027076E-002
  -4.3990975736697059E-002   1.2992970483846421E-002   5.3054613394527939E-002
  -5.6213595356905413E-002   1.6191699417839878E-002   5.0186888203719277E-002
  -5.4721375914933354E-002   1.5846754352538205E-002   4.9904808961158342E-002
  -5.3229156472961288E-002   1.5510912348724516E-002   4.9804031194815579E-002
  -5.1736937030989208E-002   1.5184173406398835E-002   4.9884554904690993E-002
  -5.0244717589017149E-002   1.4866537525561080E-002   5.0146380090784565E-002
  -2.5072209109176905E-002   7.3722693587023047E-003   6.1608996434737440E-002
  -2.4308097080126292E-002   7.1702369759499979E-003   6.1290300375475587E-002
  -2.3543985051075675E-002   6.9632193665196615E-003   6.1162679825643815E-002
  -2.2779873022025068E-002   6.7512165304112453E-003   6.1226134785242033E-002
  -2.2015760992974448E-002   6.5342284676246365E-003   6.1480665254270372E-002
  -3.1404721496776943E-002   9.2458364004170124E-003   5.8785921566504404E-002
  -3.0447277489270237E-002   9.0095108473439989E-003   5.8484846569533233E-002
  -2.9489833481763542E-002   8.7563860172916938E-003   5.8379360020044187E-002
  -2.8532389474256868E-002   8.4864619102601232E-003   5.8469461918037244E-002
  -2.7574945466750152E-002   8.1997385262492228E-003   5.8755152263512384E-002
  -3.7710977039283645E-002   1.1119403442131706E-002   5.5934460553101230E-002
  -3.6555688115268811E-002   1.0848784718737965E-002   5.5639192568119507E-002
  -3.5400399191253998E-002   1.0549552668063730E-002   5.5544025968671959E-002
  -3.4245110267239171E-002   1.0221707290108975E-002   5.5648960754758572E-002
  -3.3089821343224371E-002   9.8652485848737537E-003   5.5953996926379410E-002
  -4.3990975736697059E-002   1.2992970483846421E-002   5.3054613394527939E-002
  -4.2633328958122003E-002   1.2688058590131949E-002   5.2753338371234526E-002
  -4.1275682179546955E-002   1.2342719318835736E-002   5.2656677671527236E-002
  -3.9918035400971934E-002   1.1956952669957867E-002   5.2764631295406254E-002
  -3.8560388622396864E-002   1.1530758643498284E-002   5.3077199242871617E-002
  -5.0244717589017149E-002   1.4866537525561080E-002   5.0146380090784565E-002
  -4.8680200017829828E-002   1.4527332461525905E-002   4.9827283978878145E-002
  -4.7115682446642500E-002   1.4135885969607818E-002   4.9717315128609982E-002
  -4.5551164875455186E-002   1.3692198049806750E-002   4.9816473539980165E-002
  -4.3986647304267851E-002   1.3196268702122815E-002   5.0124759212988645E-002
  -2.2015760992974448E-002   6.5342284676246365E-003   6.1480665254270372E-002
  -2.1151424082442440E-002   6.3065404506127964E-003   6.1059685698917676E-002
  -2.0287087171910412E-002   6.0624377518286171E-003   6.0861010679083477E-002
  -1.9422750261378383E-002   5.8019203712719007E-003   6.0884640194767900E-002
  -1.8558413350846376E-002   5.5249883089426577E-003   6.1130574245970959E-002
  -2.7574945466750152E-002   8.1997385262492228E-003   5.8755152263512384E-002
  -2.6492059604619728E-002   7.8994244659714441E-003   5.8361327342877717E-002
  -2.5409173742489265E-002   7.5887283301390718E-003   5.8182295789921373E-002
  -2.4326287880358829E-002   7.2676501187524806E-003   5.8218057604643325E-002
  -2.3243402018228380E-002   6.9361898318111570E-003   5.8468612787043683E-002
  -3.3089821343224371E-002   9.8652485848737537E-003   5.5953996926379410E-002
  -3.1795897697335644E-002   9.4923084813299530E-003   5.5593359246680671E-002
  -3.0501974051446973E-002   9.1150189084496444E-003   5.5440003766820088E-002
  -2.9208050405558281E-002   8.7333798662328956E-003   5.5493930486797682E-002
  -2.7914126759669609E-002   8.3473913546795453E-003   5.5755139406613211E-002
  -3.8560388622396864E-002   1.1530758643498284E-002   5.3077199242871617E-002
  -3.7062938360590193E-002   1.1085192496688531E-002   5.2755781410326733E-002
  -3.5565488098783501E-002   1.0641309486760325E-002   5.2634134609779927E-002
  -3.4068037836976803E-002   1.0199109613713422E-002   5.2712258841230861E-002
  -3.2570587575170132E-002   9.7585928775479613E-003   5.2990154104679943E-002
  -4.3986647304267851E-002   1.3196268702122815E-002   5.0124759212988645E-002
  -4.2293181594383375E-002   1.2678076512047082E-002   4.9848593833815763E-002
  -4.0599715884498858E-002   1.2167600065070699E-002   4.9764688318800654E-002
  -3.8906250174614340E-002   1.1664839361193925E-002   4.9873042667943124E-002
  -3.7212784464729851E-002   1.1169794400416433E-002   5.0173656881243311E-002
  -1.8558413350846376E-002   5.5249883089426577E-003   6.1130574245970959E-002
  -1.7800736343437311E-002   5.2389500674492329E-003   6.0906966181604627E-002
  -1.7043059336028232E-002   4.9511141493993188E-003   6.0813871458387458E-002
  -1.6285382328619175E-002   4.6614805547935158E-003   6.0851290076319717E-002
  -1.5527705321210096E-002   4.3700492836313276E-003   6.1019222035401055E-002
  -2.3243402018228380E-002   6.9361898318111570E-003   5.8468612787043683E-002
  -2.2344432439937559E-002   6.5958747059115530E-003   5.8265485238891607E-002
  -2.1445462861646777E-002   6.2482319776503842E-003   5.8214429491353692E-002
  -2.0546493283355970E-002   5.8932616470273973E-003   5.8315445544429995E-002
  -1.9647523705065170E-002   5.5309637140425472E-003   5.8568533398120626E-002
  -2.7914126759669609E-002   8.3473913546795453E-003   5.5755139406613211E-002
  -2.6852306151032103E-002   7.9527993443742617E-003   5.5566962448869828E-002
  -2.5790485542394583E-002   7.5453498059014426E-003   5.5552415751205612E-002
  -2.4728664933757083E-002   7.1250427392613881E-003   5.5711499313620599E-002
  -2.3666844325119587E-002   6.6918781444536835E-003   5.6044213136114698E-002
  -3.2570587575170132E-002   9.7585928775479613E-003   5.2990154104679943E-002
  -3.1324357476720882E-002   9.3097239828368317E-003   5.2811397811539498E-002
  -3.0078127378271698E-002   8.8424676341524490E-003   5.2827830237943227E-002
  -2.8831897279822469E-002   8.3568238314951568E-003   5.3039451383891087E-002
  -2.7585667181373289E-002   7.8527925748649169E-003   5.3446261249383203E-002
  -3.7212784464729851E-002   1.1169794400416433E-002   5.0173656881243311E-002
  -3.5760586417003970E-002   1.0666648621299291E-002   4.9998791326900383E-002
  -3.4308388369278069E-002   1.0139585462403580E-002   5.0040672951566556E-002
  -3.2856190321552195E-002   9.5886049237292360E-003   5.0299301755241818E-002
  -3.1403992273826287E-002   9.0137070052760948E-003   5.0774677737926266E-002
  -1.5527705321210096E-002   4.3700492836313276E-003   6.1019222035401055E-002
  -1.4509201335807718E-002   4.0704623195392253E-003   6.0438759744545989E-002
  -1.3490697350405305E-002   3.7563616461438326E-003   6.0062006914450655E-002
  -1.2472193365002899E-002   3.4277472634450072E-003   5.9888963545114901E-002
  -1.1453689379600521E-002   3.0846191714426485E-003   5.9919629636539407E-002
  -1.9647523705065170E-002   5.5309637140425472E-003   5.8568533398120626E-002
  -1.8417616874889121E-002   5.1603554812074681E-003   5.8084358901759170E-002
  -1.7187710044713062E-002   4.7804542510339054E-003   5.7819280634185233E-002
  -1.5957803214537037E-002   4.3912600235219146E-003   5.7773298595398773E-002
  -1.4727896384361013E-002   3.9927727986713846E-003   5.7946412785399692E-002
  -2.3666844325119587E-002   6.6918781444536835E-003   5.6044213136114698E-002
  -2.2210147882142137E-002   6.2502486428756554E-003   5.5661547146211632E-002
  -2.0753451439164690E-002   5.8045468559239297E-003   5.5513364153123863E-002
  -1.9296754996187267E-002   5.3547727835987682E-003   5.5599664156851400E-002
  -1.7840058553209793E-002   4.9009264259000096E-003   5.5920447157393971E-002
  -2.7585667181373289E-002   7.8527925748649169E-003   5.3446261249383203E-002
  -2.5886794357566734E-002   7.3401418045439260E-003   5.3170324477903763E-002
  -2.4187921533760221E-002   6.8286394608140337E-003   5.3144257471267088E-002
  -2.2489048709953708E-002   6.3182855436755931E-003   5.3368060229473289E-002
  -2.0790175886147146E-002   5.8090800531287456E-003   5.3841732752522908E-002
  -3.1403992273826287E-002   9.0137070052760948E-003   5.0774677737926266E-002
  -2.9447556301162969E-002   8.4300349662120855E-003   5.0610690896835064E-002
  -2.7491120328499596E-002   7.8527320657039296E-003   5.0711960588614574E-002
  -2.5534684355836230E-002   7.2817983037525603E-003   5.1078486813264920E-002
  -2.3578248383172906E-002   6.7172336803573707E-003   5.1710269570785838E-002
  -5.7152154625598639E-002   0.0000000000000000        3.4690857820101270E-002
  -5.7941631864402161E-002   2.0833442447916817E-003   3.8343219364970420E-002
  -5.8731109103205691E-002   4.1361716706877875E-003   4.2209385193265996E-002
  -5.9520586342009213E-002   6.1584822776883201E-003   4.6289355304987997E-002
  -6.0310063580812735E-002   8.1502760657932802E-003   5.0583129700136412E-002
  -6.5820483624685774E-002   0.0000000000000000        3.7211383025835626E-002
  -6.6625261359136212E-002   2.9137206218369889E-003   4.0834445935105108E-002
  -6.7430039093586649E-002   5.7699869728894708E-003   4.4213103569654348E-002
  -6.8234816828037087E-002   8.5687990531574509E-003   4.7347355929483345E-002
  -6.9039594562487538E-002   1.1310156862640924E-002   5.0237203014592093E-002
  -7.4245020935459205E-002   0.0000000000000000        4.0575753334559747E-002
  -7.5523308723703206E-002   3.7440969988822947E-003   4.4142580156340643E-002
  -7.6801596511947248E-002   7.4038022750911548E-003   4.7006792145254633E-002
  -7.8079884300191277E-002   1.0979115828626585E-002   4.9168389301301678E-002
  -7.9358172088435319E-002   1.4470037659488583E-002   5.0627371624481797E-002
  -8.2425766557918889E-002   0.0000000000000000        4.4783968746273640E-002
  -8.4635773958103191E-002   4.5744733759275997E-003   4.8267622028677029E-002
  -8.6845781358287466E-002   9.0376175772928381E-003   5.0590450920066816E-002
  -8.9055788758471768E-002   1.3389432604095719E-002   5.1752455420443010E-002
  -9.1265796158656071E-002   1.7629918456336231E-002   5.1753635529805574E-002
  -9.0362720492064869E-002   0.0000000000000000        4.9836029260977299E-002
  -9.3962657062336100E-002   5.4048497529729077E-003   5.3209571552114247E-002
  -9.7562593632607345E-002   1.0671432879494519E-002   5.4964079894090911E-002
 -0.10116253020287858        1.5799749379564847E-002   5.5099554286907299E-002
 -0.10476246677314982        2.0789799253183888E-002   5.3615994730563395E-002
  -6.0310063580812735E-002   8.1502760657932802E-003   5.0583129700136412E-002
  -6.0610042905087091E-002   1.0029349077956546E-002   5.1522932725917507E-002
  -6.0910022229361441E-002   1.1713497357131970E-002   5.2250698069964734E-002
  -6.1210001553635790E-002   1.3202720903319616E-002   5.2766425732278077E-002
  -6.1509980877910153E-002   1.4497019716519420E-002   5.3070115712857531E-002
  -6.9039594562487538E-002   1.1310156862640924E-002   5.0237203014592093E-002
  -6.9313941477635060E-002   1.3754395739872711E-002   4.9459775423607501E-002
  -6.9588288392782624E-002   1.5661851023385600E-002   4.8945650332610398E-002
  -6.9862635307930188E-002   1.7032522713179562E-002   4.8694827741600798E-002
  -7.0136982223077710E-002   1.7866410809254683E-002   4.8707307650578638E-002
  -7.9358172088435319E-002   1.4470037659488583E-002   5.0627371624481797E-002
  -7.9131546412734718E-002   1.7479442401788874E-002   4.7790854556000482E-002
  -7.8904920737034090E-002   1.9610204689639196E-002   4.5692980169228001E-002
  -7.8678295061333489E-002   2.0862324523039544E-002   4.4333748464164338E-002
  -7.8451669385632861E-002   2.1235801901989922E-002   4.3713159440809515E-002
  -9.1265796158656071E-002   1.7629918456336231E-002   5.1753635529805574E-002
  -9.0062857710385968E-002   2.1204489063705017E-002   4.6516170123096445E-002
  -8.8859919262115852E-002   2.3558558355892805E-002   4.2492687579817487E-002
  -8.7656980813845709E-002   2.4692126332899494E-002   3.9683187899968705E-002
  -8.6454042365575606E-002   2.4605192994725168E-002   3.8087671083550108E-002
 -0.10476246677314982        2.0789799253183888E-002   5.3615994730563395E-002
 -0.10210787537058884        2.4929535725621208E-002   4.5635722124895355E-002
  -9.9453283968027870E-002   2.7506912022146418E-002   3.9344772564378863E-002
  -9.6798692565466887E-002   2.8521928142759466E-002   3.4743146049013920E-002
  -9.4144101162905947E-002   2.7974584087460418E-002   3.1830842578800457E-002
  -6.1509980877910153E-002   1.4497019716519420E-002   5.3070115712857531E-002
  -6.0185884497658958E-002   1.5500564532881383E-002   5.1667806672387594E-002
  -5.8861788117407790E-002   1.6117526088555462E-002   5.0719832407374571E-002
  -5.7537691737156595E-002   1.6347904383541653E-002   5.0226192917818498E-002
  -5.6213595356905413E-002   1.6191699417839878E-002   5.0186888203719277E-002
  -7.0136982223077710E-002   1.7866410809254683E-002   4.8707307650578638E-002
  -6.8405546773286682E-002   1.8320710299730189E-002   4.7265828647720026E-002
  -6.6674111323495641E-002   1.8552616172725578E-002   4.6184693008484247E-002
  -6.4942675873704614E-002   1.8562128428240721E-002   4.5463900732871244E-002
  -6.3211240423913559E-002   1.8349247066275692E-002   4.5103451820881067E-002
  -7.8451669385632861E-002   2.1235801901989922E-002   4.3713159440809515E-002
  -7.6406886278136091E-002   2.1140856066579082E-002   4.2396700118769920E-002
  -7.4362103170639279E-002   2.0987706256895708E-002   4.1346592748519040E-002
  -7.2317320063142496E-002   2.0776352472939845E-002   4.0562837330056882E-002
  -7.0272536955645698E-002   2.0506794714711507E-002   4.0045433863383391E-002
  -8.6454042365575606E-002   2.4605192994725168E-002   3.8087671083550108E-002
  -8.4189903012207176E-002   2.3961001833427923E-002   3.7060421085537261E-002
  -8.1925763658838718E-002   2.3422796341065824E-002   3.6205531627478971E-002
  -7.9661624305470302E-002   2.2990576517638969E-002   3.5523002709375293E-002
  -7.7397484952101844E-002   2.2664342363147322E-002   3.5012834331226268E-002
  -9.4144101162905947E-002   2.7974584087460418E-002   3.1830842578800457E-002
  -9.1754596975499925E-002   2.6781147600276771E-002   3.1256991548022049E-002
  -8.9365092788093958E-002   2.5857886425235940E-002   3.0761509645364078E-002
  -8.6975588600687950E-002   2.5204800562338082E-002   3.0344396870826601E-002
  -8.4586084413281984E-002   2.4821890011583123E-002   3.0005653224409665E-002
  -5.6213595356905413E-002   1.6191699417839878E-002   5.0186888203719277E-002
  -5.4721375914933354E-002   1.5846754352538205E-002   4.9904808961158342E-002
  -5.3229156472961288E-002   1.5510912348724516E-002   4.9804031194815579E-002
  -5.1736937030989208E-002   1.5184173406398835E-002   4.9884554904690993E-002
  -5.0244717589017149E-002   1.4866537525561080E-002   5.0146380090784565E-002
  -6.3211240423913559E-002   1.8349247066275692E-002   4.5103451820881067E-002
  -6.1526597724484731E-002   1.8010370964571913E-002   4.4758596494580020E-002
  -5.9841955025055925E-002   1.7641899000870820E-002   4.4617286206974333E-002
  -5.8157312325627139E-002   1.7243831175172336E-002   4.4679520958063955E-002
  -5.6472669626198312E-002   1.6816167487476580E-002   4.4945300747848832E-002
  -7.0272536955645698E-002   2.0506794714711507E-002   4.0045433863383391E-002
  -6.8373227436282991E-002   2.0173987576605584E-002   3.9599103529856954E-002
  -6.6473917916920297E-002   1.9772885653017009E-002   3.9378561797503001E-002
  -6.4574608397557590E-002   1.9303488943945877E-002   3.9383808666321532E-002
  -6.2675298878194882E-002   1.8765797449392066E-002   3.9614844136312409E-002
  -7.7397484952101844E-002   2.2664342363147322E-002   3.5012834331226268E-002
  -7.5261265050328097E-002   2.2337604188639289E-002   3.4426330066989086E-002
  -7.3125045148554349E-002   2.1903872305163337E-002   3.4087857966401514E-002
  -7.0988825246780601E-002   2.1363146712719400E-002   3.3997418029463669E-002
  -6.8852605345006840E-002   2.0715427411307545E-002   3.4155010256175282E-002
  -8.4586084413281984E-002   2.4821890011583123E-002   3.0005653224409665E-002
  -8.2190710566620070E-002   2.4501220800672935E-002   2.9240276105976459E-002
  -7.9795336719958115E-002   2.4034858957309540E-002   2.8745174713670073E-002
  -7.7399962873296202E-002   2.3422804481492931E-002   2.8520349047490467E-002
  -7.5004589026634261E-002   2.2665057373223052E-002   2.8565799107437506E-002
  -5.0244717589017149E-002   1.4866537525561080E-002   5.0146380090784565E-002
  -4.8680200017829828E-002   1.4527332461525905E-002   4.9827283978878145E-002
  -4.7115682446642500E-002   1.4135885969607818E-002   4.9717315128609982E-002
  -4.5551164875455186E-002   1.3692198049806750E-002   4.9816473539980165E-002
  -4.3986647304267851E-002   1.3196268702122815E-002   5.0124759212988645E-002
  -5.6472669626198312E-002   1.6816167487476580E-002   4.4945300747848832E-002
  -5.4704797193217039E-002   1.6359023413824961E-002   4.4604951852384042E-002
  -5.2936924760235746E-002   1.5872514430259083E-002   4.4462185418868774E-002
  -5.1169052327254487E-002   1.5356640536778772E-002   4.4517001447303119E-002
  -4.9401179894273187E-002   1.4811401733384272E-002   4.4769399937687110E-002
  -6.2675298878194882E-002   1.8765797449392066E-002   3.9614844136312409E-002
  -6.0715616383108358E-002   1.8190714366124114E-002   3.9276118975257790E-002
  -5.8755933888021840E-002   1.7609142890910378E-002   3.9123431476463993E-002
  -5.6796251392935301E-002   1.7021083023750907E-002   3.9156781639931158E-002
  -5.4836568897848818E-002   1.6426534764645701E-002   3.9376169465659056E-002
  -6.8852605345006840E-002   2.0715427411307545E-002   3.4155010256175282E-002
  -6.6712657587503832E-002   2.0022405318423218E-002   3.3840785347499402E-002
  -6.4572709830000810E-002   1.9345771351561632E-002   3.3701053301395771E-002
  -6.2432762072497754E-002   1.8685525510722983E-002   3.3735814117864242E-002
  -6.0292814314994739E-002   1.8041667795907199E-002   3.3945067796904885E-002
  -7.5004589026634261E-002   2.2665057373223052E-002   2.8565799107437506E-002
  -7.2695920806403441E-002   2.1854096270722351E-002   2.8298950969109005E-002
  -7.0387252586172594E-002   2.1082399812212965E-002   2.8195050893663948E-002
  -6.8078584365941747E-002   2.0349967997695041E-002   2.8254098881102419E-002
  -6.5769916145710927E-002   1.9656800827168586E-002   2.8476094931424278E-002
  -4.3986647304267851E-002   1.3196268702122815E-002   5.0124759212988645E-002
  -4.2293181594383375E-002   1.2678076512047082E-002   4.9848593833815763E-002
  -4.0599715884498858E-002   1.2167600065070699E-002   4.9764688318800654E-002
  -3.8906250174614340E-002   1.1664839361193925E-002   4.9873042667943124E-002
  -3.7212784464729851E-002   1.1169794400416433E-002   5.0173656881243311E-002
  -4.9401179894273187E-002   1.4811401733384272E-002   4.4769399937687110E-002
  -4.7514975941054235E-002   1.4252408478981585E-002   4.4477642399619363E-002
  -4.5628771987835264E-002   1.3695271232476873E-002   4.4379101484062891E-002
  -4.3742568034616292E-002   1.3139989993870086E-002   4.4473777191017520E-002
  -4.1856364081397285E-002   1.2586564763161445E-002   4.4761669520483549E-002
  -5.4836568897848818E-002   1.6426534764645701E-002   3.9376169465659056E-002
  -5.2756669942941849E-002   1.5826740445916018E-002   3.9062960033495152E-002
  -5.0676770988034914E-002   1.5222942399882880E-002   3.8943923982195969E-002
  -4.8596872033127979E-002   1.4615140626546303E-002   3.9019061311761527E-002
  -4.6516973078221016E-002   1.4003335125906347E-002   3.9288372022191834E-002
  -6.0292814314994739E-002   1.8041667795907199E-002   3.3945067796904885E-002
  -5.8018263600046277E-002   1.7401072412850375E-002   3.3604546735443289E-002
  -5.5743712885097850E-002   1.6750613567288804E-002   3.3459155813199998E-002
  -5.3469162170149395E-002   1.6090291259222435E-002   3.3508895030174783E-002
  -5.1194611455200961E-002   1.5420105488651276E-002   3.3753764386368054E-002
  -6.5769916145710927E-002   1.9656800827168586E-002   2.8476094931424278E-002
  -6.3299756912367458E-002   1.8975404379784955E-002   2.8102402505463669E-002
  -6.0829597679024044E-002   1.8278284734695005E-002   2.7924796977074839E-002
  -5.8359438445680603E-002   1.7565441891898695E-002   2.7943278346257705E-002
  -5.5889279212337134E-002   1.6836875851396260E-002   2.8157846613012349E-002
  -3.7212784464729851E-002   1.1169794400416433E-002   5.0173656881243311E-002
  -3.5760586417003970E-002   1.0666648621299291E-002   4.9998791326900383E-002
  -3.4308388369278069E-002   1.0139585462403580E-002   5.0040672951566556E-002
  -3.2856190321552195E-002   9.5886049237292360E-003   5.0299301755241818E-002
  -3.1403992273826287E-002   9.0137070052760948E-003   5.0774677737926266E-002
  -4.1856364081397285E-002   1.2586564763161445E-002   4.4761669520483549E-002
  -4.0199989881354044E-002   1.2026423312978457E-002   4.4537600645979974E-002
  -3.8543615681310775E-002   1.1450993415949171E-002   4.4505136897102088E-002
  -3.6887241481267478E-002   1.0860275072073721E-002   4.4664278273849667E-002
  -3.5230867281224279E-002   1.0254268281351675E-002   4.5015024776222989E-002
  -4.6516973078221016E-002   1.4003335125906347E-002   3.9288372022191834E-002
  -4.4681564779243954E-002   1.3386198004657623E-002   3.9023728760460008E-002
  -4.2846156480266830E-002   1.2762401369494920E-002   3.8925548570970310E-002
  -4.1010748181289768E-002   1.2131945220418149E-002   3.8993831453722566E-002
  -3.9175339882312650E-002   1.1494829557427227E-002   3.9228577408716950E-002
  -5.1194611455200961E-002   1.5420105488651276E-002   3.3753764386368054E-002
  -4.9205311110673611E-002   1.4745972696336790E-002   3.3457175670340428E-002
  -4.7216010766146267E-002   1.4073809323040479E-002   3.3301907973171084E-002
  -4.5226710421618917E-002   1.3403615368762382E-002   3.3287961294860426E-002
  -4.3237410077091559E-002   1.2735390833502738E-002   3.3415335635408119E-002
  -5.5889279212337134E-002   1.6836875851396260E-002   2.8157846613012349E-002
  -5.3771228875643090E-002   1.6105747388015984E-002   2.7837941375621011E-002
  -5.1653178538949018E-002   1.5385217276586177E-002   2.7634215103704590E-002
  -4.9535128202254960E-002   1.4675285517107152E-002   2.7546667797263225E-002
  -4.7417077865560958E-002   1.3975952109578360E-002   2.7575299456296443E-002
  -3.1403992273826287E-002   9.0137070052760948E-003   5.0774677737926266E-002
  -2.9447556301162969E-002   8.4300349662120855E-003   5.0610690896835064E-002
  -2.7491120328499596E-002   7.8527320657039296E-003   5.0711960588614574E-002
  -2.5534684355836230E-002   7.2817983037525603E-003   5.1078486813264920E-002
  -2.3578248383172906E-002   6.7172336803573707E-003   5.1710269570785838E-002
  -3.5230867281224279E-002   1.0254268281351675E-002   4.5015024776222989E-002
  -3.3032985802421512E-002   9.6391905066089412E-003   4.4711387123390761E-002
  -3.0835104323618717E-002   9.0212592106715811E-003   4.4625383949966568E-002
  -2.8637222844815985E-002   8.4004743935387864E-003   4.4757015255950730E-002
  -2.6439341366013169E-002   7.7768360552112892E-003   4.5106281041342511E-002
  -3.9175339882312650E-002   1.1494829557427227E-002   3.9228577408716950E-002
  -3.6783634950833109E-002   1.0848346047006241E-002   3.8776066284392244E-002
  -3.4391930019353534E-002   1.0189786355638782E-002   3.8493567586013237E-002
  -3.2000225087874000E-002   9.5191504833250940E-003   3.8381081313579576E-002
  -2.9608520156394397E-002   8.8364384300652077E-003   3.8438607467091490E-002
  -4.3237410077091559E-002   1.2735390833502738E-002   3.3415335635408119E-002
  -4.0699503746397747E-002   1.2057501587403263E-002   3.2804728379839693E-002
  -3.8161597415703900E-002   1.1358313500606319E-002   3.2316511496754213E-002
  -3.5623691085010220E-002   1.0637826573111638E-002   3.1950684986152042E-002
  -3.3085784754316352E-002   9.8960408049190707E-003   3.1707248848032221E-002
  -4.7417077865560958E-002   1.3975952109578360E-002   2.7575299456296443E-002
  -4.4780592189115453E-002   1.3266657127800396E-002   2.6797373409733150E-002
  -4.2144106512670046E-002   1.2526840645573717E-002   2.6094215682189836E-002
  -3.9507620836224534E-002   1.1756502662897704E-002   2.5465826273667419E-002
  -3.6871135159779189E-002   1.0955643179773045E-002   2.4912205184165037E-002
  -9.0362720492064869E-002   0.0000000000000000        4.9836029260977299E-002
  -9.3962657062336100E-002   5.4048497529729077E-003   5.3209571552114247E-002
  -9.7562593632607345E-002   1.0671432879494519E-002   5.4964079894090911E-002
 -0.10116253020287858        1.5799749379564847E-002   5.5099554286907299E-002
 -0.10476246677314982        2.0789799253183888E-002   5.3615994730563395E-002
 -0.10329416770400512        0.0000000000000000        5.8664492011221127E-002
 -0.10683153952867455        1.0884539147991656E-002   5.2119318153694812E-002
 -0.11036891135334401        1.9172271723388451E-002   4.7318307736532381E-002
 -0.11390628317801343        2.4863197726190375E-002   4.4261460759733820E-002
 -0.11744365500268288        2.7957317156397432E-002   4.2948777223299123E-002
 -0.12645839315984761        0.0000000000000000        7.4201914129555485E-002
 -0.12657000284939110        1.6364228543010412E-002   5.5279484177222331E-002
 -0.12668161253893462        2.7673110567282378E-002   4.1464415054777222E-002
 -0.12679322222847808        3.3926646072815904E-002   3.2756706762220131E-002
 -0.12690483191802160        3.5124835059610962E-002   2.9156359299551085E-002
 -0.15985539685959238        0.0000000000000000        9.6448295615980395E-002
 -0.15317804702448576        2.1843917938029169E-002   6.2690069622696840E-002
 -0.14650069718937914        3.6173949411176312E-002   3.7402401848825470E-002
 -0.13982334735427251        4.2990094419441433E-002   2.0585292294366279E-002
 -0.13314599751916595        4.2292352962824499E-002   1.2238740959319226E-002
 -0.20348517880323938        0.0000000000000000       0.12540363647049585     
 -0.18665567205395850        2.7323607333047922E-002   7.4351074490118282E-002
 -0.16982616530467765        4.4674788255070236E-002   3.5132268118677076E-002
 -0.15299665855539679        5.2053542766066961E-002   7.7472173561721758E-003
 -0.13616715180611594        4.9459870866038050E-002  -7.8040777973963915E-003
 -0.10476246677314982        2.0789799253183888E-002   5.3615994730563395E-002
 -0.10210787537058884        2.4929535725621208E-002   4.5635722124895355E-002
  -9.9453283968027870E-002   2.7506912022146418E-002   3.9344772564378863E-002
  -9.6798692565466887E-002   2.8521928142759466E-002   3.4743146049013920E-002
  -9.4144101162905947E-002   2.7974584087460418E-002   3.1830842578800457E-002
 -0.11744365500268288        2.7957317156397432E-002   4.2948777223299123E-002
 -0.11348766519119843        2.9429016444016451E-002   3.6695394351350732E-002
 -0.10953167537971396        3.0252682019054310E-002   3.1355485252097727E-002
 -0.10557568556822952        3.0428313881511015E-002   2.6929049925540214E-002
 -0.10161969575674507        2.9955912031386554E-002   2.3416088371678079E-002
 -0.12690483191802160        3.5124835059610962E-002   2.9156359299551085E-002
 -0.12242329297006978        3.3928497162411704E-002   2.5544192624653243E-002
 -0.11794175402211796        3.2998452015962250E-002   2.2069650449994788E-002
 -0.11346021507416615        3.2334699620262593E-002   1.8732732775575626E-002
 -0.10897867612621435        3.1937239975312684E-002   1.5533439601395778E-002
 -0.13314599751916595        4.2292352962824499E-002   1.2238740959319226E-002
 -0.12891475870720287        3.8427977880806929E-002   1.2182116944803000E-002
 -0.12468351989523981        3.5744222012870162E-002   1.1487268158070016E-002
 -0.12045228108327673        3.4241085359014101E-002   1.0154194599120142E-002
 -0.11622104227131368        3.3918567919238807E-002   8.1828962679535433E-003
 -0.13616715180611594        4.9459870866038050E-002  -7.8040777973963915E-003
 -0.13296206240259772        4.2927458599202231E-002  -3.3908326882000836E-003
 -0.12975697299907954        3.8489992009778040E-002  -3.9166162367667429E-004
 -0.12655188359556133        3.6147471097765733E-002   1.1934353961738590E-003
 -0.12334679419204314        3.5899895863164943E-002   1.3644583713513514E-003
  -9.4144101162905947E-002   2.7974584087460418E-002   3.1830842578800457E-002
  -9.1754596975499925E-002   2.6781147600276771E-002   3.1256991548022049E-002
  -8.9365092788093958E-002   2.5857886425235940E-002   3.0761509645364078E-002
  -8.6975588600687950E-002   2.5204800562338082E-002   3.0344396870826601E-002
  -8.4586084413281984E-002   2.4821890011583123E-002   3.0005653224409665E-002
 -0.10161969575674507        2.9955912031386554E-002   2.3416088371678079E-002
  -9.9137576802400484E-002   2.9184735717588919E-002   2.3133427252776572E-002
  -9.6655457848055862E-002   2.8464044189026205E-002   2.2957626539631817E-002
  -9.4173338893711281E-002   2.7793837445698411E-002   2.2888686232243667E-002
  -9.1691219939366686E-002   2.7174115487605427E-002   2.2926606330612373E-002
 -0.10897867612621435        3.1937239975312684E-002   1.5533439601395778E-002
 -0.10637545112729488        3.1588323834901150E-002   1.5322277867463185E-002
 -0.10377222612837546        3.1070201952816449E-002   1.5246467816923445E-002
 -0.10116900112945600        3.0382874329058642E-002   1.5306009449776836E-002
  -9.8565776130536575E-002   2.9526340963627738E-002   1.5500902766023065E-002
 -0.11622104227131368        3.3918567919238807E-002   8.1828962679535433E-003
 -0.11346821995018316        3.3991911952213294E-002   7.8235433920817651E-003
 -0.11071539762905261        3.3676359716606701E-002   7.6280334772392284E-003
 -0.10796257530792211        3.2971911212418971E-002   7.5963665234258385E-003
 -0.10520975298679155        3.1878566439649966E-002   7.7285425306418678E-003
 -0.12334679419204314        3.5899895863164943E-002   1.3644583713513514E-003
 -0.12041588327106528        3.6395500069525466E-002   6.3722382663256028E-004
 -0.11748497235008742        3.6282517480396972E-002   1.0232352057909511E-004
 -0.11455406142910955        3.5560948095779171E-002  -2.4024254680898860E-004
 -0.11162315050813171        3.4230791915672354E-002  -3.9047437553141329E-004
  -8.4586084413281984E-002   2.4821890011583123E-002   3.0005653224409665E-002
  -8.2190710566620070E-002   2.4501220800672935E-002   2.9240276105976459E-002
  -7.9795336719958115E-002   2.4034858957309540E-002   2.8745174713670073E-002
  -7.7399962873296202E-002   2.3422804481492931E-002   2.8520349047490467E-002
  -7.5004589026634261E-002   2.2665057373223052E-002   2.8565799107437506E-002
  -9.1691219939366686E-002   2.7174115487605427E-002   2.2926606330612373E-002
  -8.9049524469362734E-002   2.6555175262995147E-002   2.2270547468947834E-002
  -8.6407828999358796E-002   2.5887313720115074E-002   2.1836856127840684E-002
  -8.3766133529354830E-002   2.5170530858965402E-002   2.1625532307290717E-002
  -8.1124438059350906E-002   2.4404826679546049E-002   2.1636576007298097E-002
  -9.8565776130536575E-002   2.9526340963627738E-002   1.5500902766023065E-002
  -9.5725667242760049E-002   2.8609129725317248E-002   1.5050933475310807E-002
  -9.2885558354983522E-002   2.7739768482920556E-002   1.4775423499586373E-002
  -9.0045449467207037E-002   2.6918257236437957E-002   1.4674372838849727E-002
  -8.7205340579430510E-002   2.6144595985869157E-002   1.4747781493100881E-002
 -0.10520975298679155        3.1878566439649966E-002   7.7285425306418678E-003
 -0.10221913888681199        3.0663084187639335E-002   7.5814341250653328E-003
  -9.9228524786832403E-002   2.9592223245726062E-002   7.5608768289074212E-003
  -9.6237910686852779E-002   2.8665983613910487E-002   7.6668706421674565E-003
  -9.3247296586873196E-002   2.7884365292192154E-002   7.8994155648462530E-003
 -0.11162315050813171        3.4230791915672354E-002  -3.9047437553141329E-004
 -0.10852993940151850        3.2717038649961561E-002  -1.3795058178836528E-004
 -0.10543672829490530        3.1444678008531624E-002   1.9321611580344622E-004
 -0.10234351718829207        3.0413709991382917E-002   6.0302571724415305E-004
  -9.9250306081678896E-002   2.9624134598515206E-002   1.0914782225338593E-003
  -7.5004589026634261E-002   2.2665057373223052E-002   2.8565799107437506E-002
  -7.2695920806403441E-002   2.1854096270722351E-002   2.8298950969109005E-002
  -7.0387252586172594E-002   2.1082399812212965E-002   2.8195050893663948E-002
  -6.8078584365941747E-002   2.0349967997695041E-002   2.8254098881102419E-002
  -6.5769916145710927E-002   1.9656800827168586E-002   2.8476094931424278E-002
  -8.1124438059350906E-002   2.4404826679546049E-002   2.1636576007298097E-002
  -7.8653783968071725E-002   2.3618887612899236E-002   2.1431570283674414E-002
  -7.6183129876792474E-002   2.2841400090066737E-002   2.1387588239264191E-002
  -7.3712475785513265E-002   2.2072364111048945E-002   2.1504629874067198E-002
  -7.1241821694234042E-002   2.1311779675845577E-002   2.1782695188083456E-002
  -8.7205340579430510E-002   2.6144595985869157E-002   1.4747781493100881E-002
  -8.4574625000773063E-002   2.5383678955076219E-002   1.4573805084005249E-002
  -8.1943909422115671E-002   2.4600400367920564E-002   1.4558927970452842E-002
  -7.9313193843458252E-002   2.3794760224402845E-002   1.4703150152443438E-002
  -7.6682478264800832E-002   2.2966758524522513E-002   1.5006471629977342E-002
  -9.3247296586873196E-002   2.7884365292192154E-002   7.8994155648462530E-003
  -9.0458443904507690E-002   2.7148470297252876E-002   7.7256553701016955E-003
  -8.7669591222142171E-002   2.6359400645774501E-002   7.7090700872299404E-003
  -8.4880738539776651E-002   2.5517156337756607E-002   7.8496597162314181E-003
  -8.2091885857411118E-002   2.4621737373199476E-002   8.1474242571057329E-003
  -9.9250306081678896E-002   2.9624134598515206E-002   1.0914782225338593E-003
  -9.6305240679275483E-002   2.8913261639430032E-002   8.8712114196323744E-004
  -9.3360175276871987E-002   2.8118400923628217E-002   8.3801458959562036E-004
  -9.0415109874468561E-002   2.7239552451110607E-002   9.4415856543036275E-004
  -8.7470044472065078E-002   2.6276716221876328E-002   1.2055530694686789E-003
  -6.5769916145710927E-002   1.9656800827168586E-002   2.8476094931424278E-002
  -6.3299756912367458E-002   1.8975404379784955E-002   2.8102402505463669E-002
  -6.0829597679024044E-002   1.8278284734695005E-002   2.7924796977074839E-002
  -5.8359438445680603E-002   1.7565441891898695E-002   2.7943278346257705E-002
  -5.5889279212337134E-002   1.6836875851396260E-002   2.8157846613012349E-002
  -7.1241821694234042E-002   2.1311779675845577E-002   2.1782695188083456E-002
  -6.8575405675403822E-002   2.0553487936114626E-002   2.1430626952706491E-002
  -6.5908989656573477E-002   1.9791330043513952E-002   2.1274985390731235E-002
  -6.3242573637743216E-002   1.9025305998043678E-002   2.1315770502158146E-002
  -6.0576157618912913E-002   1.8255415799703689E-002   2.1552982286986933E-002
  -7.6682478264800832E-002   2.2966758524522513E-002   1.5006471629977342E-002
  -7.3819465684653474E-002   2.2131571492444491E-002   1.4687884630020284E-002
  -7.0956453104506212E-002   2.1304375352333121E-002   1.4566064079295289E-002
  -6.8093440524358909E-002   2.0485170104188662E-002   1.4641009977802710E-002
  -6.5230427944211522E-002   1.9673955748011007E-002   1.4912722325541902E-002
  -8.2091885857411118E-002   2.4621737373199476E-002   8.1474242571057329E-003
  -7.9031936940116662E-002   2.3709655048773842E-002   7.8741755374052980E-003
  -7.5971988022822137E-002   2.2817420661152235E-002   7.7980330427670948E-003
  -7.2912039105527668E-002   2.1945034210333590E-002   7.9189967731911962E-003
  -6.9852090188233157E-002   2.1092495696318214E-002   8.2370667286775293E-003
  -8.7470044472065078E-002   2.6276716221876328E-002   1.2055530694686789E-003
  -8.4212819441793263E-002   2.5287738605103915E-002   9.8949967486139379E-004
  -8.0955594411521392E-002   2.4330465969971321E-002   9.7089228114635717E-004
  -7.7698369381249605E-002   2.3404898316478483E-002   1.1497308883242144E-003
  -7.4441144350977706E-002   2.2511035644625865E-002   1.5260154963939732E-003
  -5.5889279212337134E-002   1.6836875851396260E-002   2.8157846613012349E-002
  -5.3771228875643090E-002   1.6105747388015984E-002   2.7837941375621011E-002
  -5.1653178538949018E-002   1.5385217276586177E-002   2.7634215103704590E-002
  -4.9535128202254960E-002   1.4675285517107152E-002   2.7546667797263225E-002
  -4.7417077865560958E-002   1.3975952109578360E-002   2.7575299456296443E-002
  -6.0576157618912913E-002   1.8255415799703689E-002   2.1552982286986933E-002
  -5.8332231090059791E-002   1.7485719535082545E-002   2.1282808543685638E-002
  -5.6088304561206670E-002   1.6720277290768359E-002   2.1148208219227568E-002
  -5.3844378032353597E-002   1.5959089066762092E-002   2.1149181313612687E-002
  -5.1600451503500441E-002   1.5202154863062867E-002   2.1285727826841017E-002
  -6.5230427944211522E-002   1.9673955748011007E-002   1.4912722325541902E-002
  -6.2841230769831141E-002   1.8865691682148814E-002   1.4685935744687600E-002
  -6.0452033595450747E-002   1.8055337304950805E-002   1.4614117036044802E-002
  -5.8062836421070303E-002   1.7242892616416917E-002   1.4697266199613458E-002
  -5.5673639246689922E-002   1.6428357616547484E-002   1.4935383235393396E-002
  -6.9852090188233157E-002   2.1092495696318214E-002   8.2370667286775293E-003
  -6.7298227914957112E-002   2.0245663829215062E-002   8.0473229786272270E-003
  -6.4744365641681165E-002   1.9390397319133397E-002   8.0319415541563570E-003
  -6.2190503368405155E-002   1.8526696166072075E-002   8.1909224552653009E-003
  -5.9636641095129166E-002   1.7654560370032046E-002   8.5242656819538853E-003
  -7.4441144350977706E-002   2.2511035644625865E-002   1.5260154963939732E-003
  -7.1703222525437815E-002   2.1625635976281754E-002   1.3669702455042509E-003
  -6.8965300699897980E-002   2.0725457333315545E-002   1.4016817735620357E-003
  -6.6227378874358117E-002   1.9810499715726793E-002   1.6301500805684377E-003
  -6.3489457048818254E-002   1.8880763123516608E-002   2.0523751665221246E-003
  -4.7417077865560958E-002   1.3975952109578360E-002   2.7575299456296443E-002
  -4.4780592189115453E-002   1.3266657127800396E-002   2.6797373409733150E-002
  -4.2144106512670046E-002   1.2526840645573717E-002   2.6094215682189836E-002
  -3.9507620836224534E-002   1.1756502662897704E-002   2.5465826273667419E-002
  -3.6871135159779189E-002   1.0955643179773045E-002   2.4912205184165037E-002
  -5.1600451503500441E-002   1.5202154863062867E-002   2.1285727826841017E-002
  -4.8839809819301652E-002   1.4439440324957087E-002   2.0644207268975978E-002
  -4.6079168135102842E-002   1.3660911097730821E-002   2.0176230407597529E-002
  -4.3318526450904046E-002   1.2866567181384486E-002   1.9881797242705335E-002
  -4.0557884766705188E-002   1.2056408575917388E-002   1.9760907774299508E-002
  -5.5673639246689922E-002   1.6428357616547484E-002   1.4935383235393396E-002
  -5.2690066177271691E-002   1.5612223522113666E-002   1.4444974977555647E-002
  -4.9706493107853508E-002   1.4794981549888384E-002   1.4226885793669944E-002
  -4.6722920038435291E-002   1.3976631699870994E-002   1.4281115683736710E-002
  -4.3739346969017032E-002   1.3157173972061953E-002   1.4607664647756258E-002
  -5.9636641095129166E-002   1.7654560370032046E-002   8.5242656819538853E-003
  -5.6331361263025542E-002   1.6785006719270634E-002   8.1996765354713300E-003
  -5.3026081430921954E-002   1.5929052002045661E-002   8.2461818404074745E-003
  -4.9720801598818462E-002   1.5086696218357861E-002   8.6637815967616754E-003
  -4.6415521766714735E-002   1.4257939368206241E-002   9.4524758045347462E-003
  -6.3489457048818254E-002   1.8880763123516608E-002   2.0523751665221246E-003
  -5.9763695076563206E-002   1.7957789916426825E-002   1.9083119427238948E-003
  -5.6037933104308268E-002   1.7063122454203106E-002   2.2341185478099990E-003
  -5.2312171132053165E-002   1.6196760736844298E-002   3.0297949817802775E-003
  -4.8586409159798283E-002   1.5358704764350861E-002   4.2953412446353756E-003
 </DataArray>
 </PointData>
 </Piece>
 <Piece  NumberOfPoints="          1600 "  NumberOfCells="         1024 ">
 <Points>
 <DataArray  type="Float64" NumberOfComponents="3"  format="ascii" >
  0.50000000000000000        0.0000000000000000        0.0000000000000000     
  0.53125000000000000        0.0000000000000000        0.0000000000000000     
  0.56250000000000000        0.0000000000000000        0.0000000000000000     
  0.59375000000000000        0.0000000000000000        0.0000000000000000     
  0.62500000000000000        0.0000000000000000        0.0000000000000000     
  0.50000000000000000        3.1250000000000000E-002   0.0000000000000000     
  0.53125000000000000        3.1250000000000000E-002   0.0000000000000000     
  0.56250000000000000        3.1250000000000000E-002   0.0000000000000000     
  0.59375000000000000        3.1250000000000000E-002   0.0000000000000000     
  0.62500000000000000        3.1250000000000000E-002   0.0000000000000000     
  0.50000000000000000        6.2500000000000000E-002   0.0000000000000000     
  0.53125000000000000        6.2500000000000000E-002   0.0000000000000000     
  0.56250000000000000        6.2500000000000000E-002   0.0000000000000000     
  0.59375000000000000        6.2500000000000000E-002   0.0000000000000000     
  0.62500000000000000        6.2500000000000000E-002   0.0000000000000000     
  0.50000000000000000        9.3750000000000000E-002   0.0000000000000000     
  0.53125000000000000        9.3750000000000000E-002   0.0000000000000000     
  0.56250000000000000        9.3750000000000000E-002   0.0000000000000000     
  0.59375000000000000        9.3750000000000000E-002   0.0000000000000000     
  0.62500000000000000        9.3750000000000000E-002   0.0000000000000000     
  0.50000000000000000       0.12500000000000000        0.0000000000000000     
  0.53125000000000000       0.12500000000000000        0.0000000000000000     
  0.56250000000000000       0.12500000000000000        0.0000000000000000     
  0.59375000000000000       0.12500000000000000        0.0000000000000000     
  0.62500000000000000       0.12500000000000000        0.0000000000000000     
  0.62500000000000000        0.0000000000000000        0.0000000000000000     
  0.65625000000000000        0.0000000000000000        0.0000000000000000     
  0.68750000000000000        0.0000000000000000        0.0000000000000000     
  0.71875000000000000        0.0000000000000000        0.0000000000000000     
  0.75000000000000000        0.0000000000000000        0.0000000000000000     
  0.62500000000000000        3.1250000000000000E-002   0.0000000000000000     
  0.65625000000000000        3.1250000000000000E-002   0.0000000000000000     
  0.68750000000000000        3.1250000000000000E-002   0.0000000000000000     
  0.71875000000000000        3.1250000000000000E-002   0.0000000000000000     
  0.75000000000000000        3.1250000000000000E-002   0.0000000000000000     
  0.62500000000000000        6.2500000000000000E-002   0.0000000000000000     
  0.65625000000000000        6.2500000000000000E-002   0.0000000000000000     
  0.68750000000000000        6.2500000000000000E-002   0.0000000000000000     
  0.71875000000000000        6.2500000000000000E-002   0.0000000000000000     
  0.75000000000000000        6.2500000000000000E-002   0.0000000000000000     
  0.62500000000000000        9.3750000000000000E-002   0.0000000000000000     
  0.65625000000000000        9.3750000000000000E-002   0.0000000000000000     
  0.68750000000000000        9.3750000000000000E-002   0.0000000000000000     
  0.71875000000000000        9.3750000000000000E-002   0.0000000000000000     
  0.75000000000000000        9.3750000000000000E-002   0.0000000000000000     
  0.62500000000000000       0.12500000000000000        0.0000000000000000     
  0.65625000000000000       0.12500000000000000        0.0000000000000000     
  0.68750000000000000       0.12500000000000000        0.0000000000000000     
  0.71875000000000000       0.12500000000000000        0.0000000000000000     
  0.75000000000000000       0.12500000000000000        0.0000000000000000     
  0.75000000000000000        0.0000000000000000        0.0000000000000000     
  0.78125000000000000        0.0000000000000000        0.0000000000000000     
  0.81250000000000000        0.0000000000000000        0.0000000000000000     
  0.84375000000000000        0.0000000000000000        0.0000000000000000     
  0.87500000000000000        0.0000000000000000        0.0000000000000000     
  0.75000000000000000        3.1250000000000000E-002   0.0000000000000000     
  0.78125000000000000        3.1250000000000000E-002   0.0000000000000000     
  0.81250000000000000        3.1250000000000000E-002   0.0000000000000000     
  0.84375000000000000        3.1250000000000000E-002   0.0000000000000000     
  0.87500000000000000        3.1250000000000000E-002   0.0000000000000000     
  0.75000000000000000        6.2500000000000000E-002   0.0000000000000000     
  0.78125000000000000        6.2500000000000000E-002   0.0000000000000000     
  0.81250000000000000        6.2500000000000000E-002   0.0000000000000000     
  0.84375000000000000        6.2500000000000000E-002   0.0000000000000000     
  0.87500000000000000        6.2500000000000000E-002   0.0000000000000000     
  0.75000000000000000        9.3750000000000000E-002   0.0000000000000000     
  0.78125000000000000        9.3750000000000000E-002   0.0000000000000000     
  0.81250000000000000        9.3750000000000000E-002   0.0000000000000000     
  0.84375000000000000        9.3750000000000000E-002   0.0000000000000000     
  0.87500000000000000        9.3750000000000000E-002   0.0000000000000000     
  0.75000000000000000       0.12500000000000000        0.0000000000000000     
  0.78125000000000000       0.12500000000000000        0.0000000000000000     
  0.81250000000000000       0.12500000000000000        0.0000000000000000     
  0.84375000000000000       0.12500000000000000        0.0000000000000000     
  0.87500000000000000       0.12500000000000000        0.0000000000000000     
  0.87500000000000000        0.0000000000000000        0.0000000000000000     
  0.90625000000000000        0.0000000000000000        0.0000000000000000     
  0.93750000000000000        0.0000000000000000        0.0000000000000000     
  0.96875000000000000        0.0000000000000000        0.0000000000000000     
   1.0000000000000000        0.0000000000000000        0.0000000000000000     
  0.87500000000000000        3.1250000000000000E-002   0.0000000000000000     
  0.90625000000000000        3.1250000000000000E-002   0.0000000000000000     
  0.93750000000000000        3.1250000000000000E-002   0.0000000000000000     
  0.96875000000000000        3.1250000000000000E-002   0.0000000000000000     
   1.0000000000000000        3.1250000000000000E-002   0.0000000000000000     
  0.87500000000000000        6.2500000000000000E-002   0.0000000000000000     
  0.90625000000000000        6.2500000000000000E-002   0.0000000000000000     
  0.93750000000000000        6.2500000000000000E-002   0.0000000000000000     
  0.96875000000000000        6.2500000000000000E-002   0.0000000000000000     
   1.0000000000000000        6.2500000000000000E-002   0.0000000000000000     
  0.87500000000000000        9.3750000000000000E-002   0.0000000000000000     
  0.90625000000000000        9.3750000000000000E-002   0.0000000000000000     
  0.93750000000000000        9.3750000000000000E-002   0.0000000000000000     
  0.96875000000000000        9.3750000000000000E-002   0.0000000000000000     
   1.0000000000000000        9.3750000000000000E-002   0.0000000000000000     
  0.87500000000000000       0.12500000000000000        0.0000000000000000     
  0.90625000000000000       0.12500000000000000        0.0000000000000000     
  0.93750000000000000       0.12500000000000000        0.0000000000000000     
  0.96875000000000000       0.12500000000000000        0.0000000000000000     
   1.0000000000000000       0.12500000000000000        0.0000000000000000     
   1.0000000000000000        0.0000000000000000        0.0000000000000000     
   1.0312500000000000        0.0000000000000000        0.0000000000000000     
   1.0625000000000000        0.0000000000000000        0.0000000000000000     
   1.0937500000000000        0.0000000000000000        0.0000000000000000     
   1.1250000000000000        0.0000000000000000        0.0000000000000000     
   1.0000000000000000        3.1250000000000000E-002   0.0000000000000000     
   1.0312500000000000        3.1250000000000000E-002   0.0000000000000000     
   1.0625000000000000        3.1250000000000000E-002   0.0000000000000000     
   1.0937500000000000        3.1250000000000000E-002   0.0000000000000000     
   1.1250000000000000        3.1250000000000000E-002   0.0000000000000000     
   1.0000000000000000        6.2500000000000000E-002   0.0000000000000000     
   1.0312500000000000        6.2500000000000000E-002   0.0000000000000000     
   1.0625000000000000        6.2500000000000000E-002   0.0000000000000000     
   1.0937500000000000        6.2500000000000000E-002   0.0000000000000000     
   1.1250000000000000        6.2500000000000000E-002   0.0000000000000000     
   1.0000000000000000        9.3750000000000000E-002   0.0000000000000000     
   1.0312500000000000        9.3750000000000000E-002   0.0000000000000000     
   1.0625000000000000        9.3750000000000000E-002   0.0000000000000000     
   1.0937500000000000        9.3750000000000000E-002   0.0000000000000000     
   1.1250000000000000        9.3750000000000000E-002   0.0000000000000000     
   1.0000000000000000       0.12500000000000000        0.0000000000000000     
   1.0312500000000000       0.12500000000000000        0.0000000000000000     
   1.0625000000000000       0.12500000000000000        0.0000000000000000     
   1.0937500000000000       0.12500000000000000        0.0000000000000000     
   1.1250000000000000       0.12500000000000000        0.0000000000000000     
   1.1250000000000000        0.0000000000000000        0.0000000000000000     
   1.1562500000000000        0.0000000000000000        0.0000000000000000     
   1.1875000000000000        0.0000000000000000        0.0000000000000000     
   1.2187500000000000        0.0000000000000000        0.0000000000000000     
   1.2500000000000000        0.0000000000000000        0.0000000000000000     
   1.1250000000000000        3.1250000000000000E-002   0.0000000000000000     
   1.1562500000000000        3.1250000000000000E-002   0.0000000000000000     
   1.1875000000000000        3.1250000000000000E-002   0.0000000000000000     
   1.2187500000000000        3.1250000000000000E-002   0.0000000000000000     
   1.2500000000000000        3.1250000000000000E-002   0.0000000000000000     
   1.1250000000000000        6.2500000000000000E-002   0.0000000000000000     
   1.1562500000000000        6.2500000000000000E-002   0.0000000000000000     
   1.1875000000000000        6.2500000000000000E-002   0.0000000000000000     
   1.2187500000000000        6.2500000000000000E-002   0.0000000000000000     
   1.2500000000000000        6.2500000000000000E-002   0.0000000000000000     
   1.1250000000000000        9.3750000000000000E-002   0.0000000000000000     
   1.1562500000000000        9.3750000000000000E-002   0.0000000000000000     
   1.1875000000000000        9.3750000000000000E-002   0.0000000000000000     
   1.2187500000000000        9.3750000000000000E-002   0.0000000000000000     
   1.2500000000000000        9.3750000000000000E-002   0.0000000000000000     
   1.1250000000000000       0.12500000000000000        0.0000000000000000     
   1.1562500000000000       0.12500000000000000        0.0000000000000000     
   1.1875000000000000       0.12500000000000000        0.0000000000000000     
   1.2187500000000000       0.12500000000000000        0.0000000000000000     
   1.2500000000000000       0.12500000000000000        0.0000000000000000     
   1.2500000000000000        0.0000000000000000        0.0000000000000000     
   1.2812500000000000        0.0000000000000000        0.0000000000000000     
   1.3125000000000000        0.0000000000000000        0.0000000000000000     
   1.3437500000000000        0.0000000000000000        0.0000000000000000     
   1.3750000000000000        0.0000000000000000        0.0000000000000000     
   1.2500000000000000        3.1250000000000000E-002   0.0000000000000000     
   1.2812500000000000        3.1250000000000000E-002   0.0000000000000000     
   1.3125000000000000        3.1250000000000000E-002   0.0000000000000000     
   1.3437500000000000        3.1250000000000000E-002   0.0000000000000000     
   1.3750000000000000        3.1250000000000000E-002   0.0000000000000000     
   1.2500000000000000        6.2500000000000000E-002   0.0000000000000000     
   1.2812500000000000        6.2500000000000000E-002   0.0000000000000000     
   1.3125000000000000        6.2500000000000000E-002   0.0000000000000000     
   1.3437500000000000        6.2500000000000000E-002   0.0000000000000000     
   1.3750000000000000        6.2500000000000000E-002   0.0000000000000000     
   1.2500000000000000        9.3750000000000000E-002   0.0000000000000000     
   1.2812500000000000        9.3750000000000000E-002   0.0000000000000000     
   1.3125000000000000        9.3750000000000000E-002   0.0000000000000000     
   1.3437500000000000        9.3750000000000000E-002   0.0000000000000000     
   1.3750000000000000        9.3750000000000000E-002   0.0000000000000000     
   1.2500000000000000       0.12500000000000000        0.0000000000000000     
   1.2812500000000000       0.12500000000000000        0.0000000000000000     
   1.3125000000000000       0.12500000000000000        0.0000000000000000     
   1.3437500000000000       0.12500000000000000        0.0000000000000000     
   1.3750000000000000       0.12500000000000000        0.0000000000000000     
   1.3750000000000000        0.0000000000000000        0.0000000000000000     
   1.4062500000000000        0.0000000000000000        0.0000000000000000     
   1.4375000000000000        0.0000000000000000        0.0000000000000000     
   1.4687500000000000        0.0000000000000000        0.0000000000000000     
   1.5000000000000000        0.0000000000000000        0.0000000000000000     
   1.3750000000000000        3.1250000000000000E-002   0.0000000000000000     
   1.4062500000000000        3.1250000000000000E-002   0.0000000000000000     
   1.4375000000000000        3.1250000000000000E-002   0.0000000000000000     
   1.4687500000000000        3.1250000000000000E-002   0.0000000000000000     
   1.5000000000000000        3.1250000000000000E-002   0.0000000000000000     
   1.3750000000000000        6.2500000000000000E-002   0.0000000000000000     
   1.4062500000000000        6.2500000000000000E-002   0.0000000000000000     
   1.4375000000000000        6.2500000000000000E-002   0.0000000000000000     
   1.4687500000000000        6.2500000000000000E-002   0.0000000000000000     
   1.5000000000000000        6.2500000000000000E-002   0.0000000000000000     
   1.3750000000000000        9.3750000000000000E-002   0.0000000000000000     
   1.4062500000000000        9.3750000000000000E-002   0.0000000000000000     
   1.4375000000000000        9.3750000000000000E-002   0.0000000000000000     
   1.4687500000000000        9.3750000000000000E-002   0.0000000000000000     
   1.5000000000000000        9.3750000000000000E-002   0.0000000000000000     
   1.3750000000000000       0.12500000000000000        0.0000000000000000     
   1.4062500000000000       0.12500000000000000        0.0000000000000000     
   1.4375000000000000       0.12500000000000000        0.0000000000000000     
   1.4687500000000000       0.12500000000000000        0.0000000000000000     
   1.5000000000000000       0.12500000000000000        0.0000000000000000     
  0.50000000000000000       0.12500000000000000        0.0000000000000000     
  0.53125000000000000       0.12500000000000000        0.0000000000000000     
  0.56250000000000000       0.12500000000000000        0.0000000000000000     
  0.59375000000000000       0.12500000000000000        0.0000000000000000     
  0.62500000000000000       0.12500000000000000        0.0000000000000000     
  0.50000000000000000       0.15625000000000000        0.0000000000000000     
  0.53125000000000000       0.15625000000000000        0.0000000000000000     
  0.56250000000000000       0.15625000000000000        0.0000000000000000     
  0.59375000000000000       0.15625000000000000        0.0000000000000000     
  0.62500000000000000       0.15625000000000000        0.0000000000000000     
  0.50000000000000000       0.18750000000000000        0.0000000000000000     
  0.53125000000000000       0.18750000000000000        0.0000000000000000     
  0.56250000000000000       0.18750000000000000        0.0000000000000000     
  0.59375000000000000       0.18750000000000000        0.0000000000000000     
  0.62500000000000000       0.18750000000000000        0.0000000000000000     
  0.50000000000000000       0.21875000000000000        0.0000000000000000     
  0.53125000000000000       0.21875000000000000        0.0000000000000000     
  0.56250000000000000       0.21875000000000000        0.0000000000000000     
  0.59375000000000000       0.21875000000000000        0.0000000000000000     
  0.62500000000000000       0.21875000000000000        0.0000000000000000     
  0.50000000000000000       0.25000000000000000        0.0000000000000000     
  0.53125000000000000       0.25000000000000000        0.0000000000000000     
  0.56250000000000000       0.25000000000000000        0.0000000000000000     
  0.59375000000000000       0.25000000000000000        0.0000000000000000     
  0.62500000000000000       0.25000000000000000        0.0000000000000000     
  0.62500000000000000       0.12500000000000000        0.0000000000000000     
  0.65625000000000000       0.12500000000000000        0.0000000000000000     
  0.68750000000000000       0.12500000000000000        0.0000000000000000     
  0.71875000000000000       0.12500000000000000        0.0000000000000000     
  0.75000000000000000       0.12500000000000000        0.0000000000000000     
  0.62500000000000000       0.15625000000000000        0.0000000000000000     
  0.65625000000000000       0.15625000000000000        0.0000000000000000     
  0.68750000000000000       0.15625000000000000        0.0000000000000000     
  0.71875000000000000       0.15625000000000000        0.0000000000000000     
  0.75000000000000000       0.15625000000000000        0.0000000000000000     
  0.62500000000000000       0.18750000000000000        0.0000000000000000     
  0.65625000000000000       0.18750000000000000        0.0000000000000000     
  0.68750000000000000       0.18750000000000000        0.0000000000000000     
  0.71875000000000000       0.18750000000000000        0.0000000000000000     
  0.75000000000000000       0.18750000000000000        0.0000000000000000     
  0.62500000000000000       0.21875000000000000        0.0000000000000000     
  0.65625000000000000       0.21875000000000000        0.0000000000000000     
  0.68750000000000000       0.21875000000000000        0.0000000000000000     
  0.71875000000000000       0.21875000000000000        0.0000000000000000     
  0.75000000000000000       0.21875000000000000        0.0000000000000000     
  0.62500000000000000       0.25000000000000000        0.0000000000000000     
  0.65625000000000000       0.25000000000000000        0.0000000000000000     
  0.68750000000000000       0.25000000000000000        0.0000000000000000     
  0.71875000000000000       0.25000000000000000        0.0000000000000000     
  0.75000000000000000       0.25000000000000000        0.0000000000000000     
  0.75000000000000000       0.12500000000000000        0.0000000000000000     
  0.78125000000000000       0.12500000000000000        0.0000000000000000     
  0.81250000000000000       0.12500000000000000        0.0000000000000000     
  0.84375000000000000       0.12500000000000000        0.0000000000000000     
  0.87500000000000000       0.12500000000000000        0.0000000000000000     
  0.75000000000000000       0.15625000000000000        0.0000000000000000     
  0.78125000000000000       0.15625000000000000        0.0000000000000000     
  0.81250000000000000       0.15625000000000000        0.0000000000000000     
  0.84375000000000000       0.15625000000000000        0.0000000000000000     
  0.87500000000000000       0.15625000000000000        0.0000000000000000     
  0.75000000000000000       0.18750000000000000        0.0000000000000000     
  0.78125000000000000       0.18750000000000000        0.0000000000000000     
  0.81250000000000000       0.18750000000000000        0.0000000000000000     
  0.84375000000000000       0.18750000000000000        0.0000000000000000     
  0.87500000000000000       0.18750000000000000        0.0000000000000000     
  0.75000000000000000       0.21875000000000000        0.0000000000000000     
  0.78125000000000000       0.21875000000000000        0.0000000000000000     
  0.81250000000000000       0.21875000000000000        0.0000000000000000     
  0.84375000000000000       0.21875000000000000        0.0000000000000000     
  0.87500000000000000       0.21875000000000000        0.0000000000000000     
  0.75000000000000000       0.25000000000000000        0.0000000000000000     
  0.78125000000000000       0.25000000000000000        0.0000000000000000     
  0.81250000000000000       0.25000000000000000        0.0000000000000000     
  0.84375000000000000       0.25000000000000000        0.0000000000000000     
  0.87500000000000000       0.25000000000000000        0.0000000000000000     
  0.87500000000000000       0.12500000000000000        0.0000000000000000     
  0.90625000000000000       0.12500000000000000        0.0000000000000000     
  0.93750000000000000       0.12500000000000000        0.0000000000000000     
  0.96875000000000000       0.12500000000000000        0.0000000000000000     
   1.0000000000000000       0.12500000000000000        0.0000000000000000     
  0.87500000000000000       0.15625000000000000        0.0000000000000000     
  0.90625000000000000       0.15625000000000000        0.0000000000000000     
  0.93750000000000000       0.15625000000000000        0.0000000000000000     
  0.96875000000000000       0.15625000000000000        0.0000000000000000     
   1.0000000000000000       0.15625000000000000        0.0000000000000000     
  0.87500000000000000       0.18750000000000000        0.0000000000000000     
  0.90625000000000000       0.18750000000000000        0.0000000000000000     
  0.93750000000000000       0.18750000000000000        0.0000000000000000     
  0.96875000000000000       0.18750000000000000        0.0000000000000000     
   1.0000000000000000       0.18750000000000000        0.0000000000000000     
  0.87500000000000000       0.21875000000000000        0.0000000000000000     
  0.90625000000000000       0.21875000000000000        0.0000000000000000     
  0.93750000000000000       0.21875000000000000        0.0000000000000000     
  0.96875000000000000       0.21875000000000000        0.0000000000000000     
   1.0000000000000000       0.21875000000000000        0.0000000000000000     
  0.87500000000000000       0.25000000000000000        0.0000000000000000     
  0.90625000000000000       0.25000000000000000        0.0000000000000000     
  0.93750000000000000       0.25000000000000000        0.0000000000000000     
  0.96875000000000000       0.25000000000000000        0.0000000000000000     
   1.0000000000000000       0.25000000000000000        0.0000000000000000     
   1.0000000000000000       0.12500000000000000        0.0000000000000000     
   1.0312500000000000       0.12500000000000000        0.0000000000000000     
   1.0625000000000000       0.12500000000000000        0.0000000000000000     
   1.0937500000000000       0.12500000000000000        0.0000000000000000     
   1.1250000000000000       0.12500000000000000        0.0000000000000000     
   1.0000000000000000       0.15625000000000000        0.0000000000000000     
   1.0312500000000000       0.15625000000000000        0.0000000000000000     
   1.0625000000000000       0.15625000000000000        0.0000000000000000     
   1.0937500000000000       0.15625000000000000        0.0000000000000000     
   1.1250000000000000       0.15625000000000000        0.0000000000000000     
   1.0000000000000000       0.18750000000000000        0.0000000000000000     
   1.0312500000000000       0.18750000000000000        0.0000000000000000     
   1.0625000000000000       0.18750000000000000        0.0000000000000000     
   1.0937500000000000       0.18750000000000000        0.0000000000000000     
   1.1250000000000000       0.18750000000000000        0.0000000000000000     
   1.0000000000000000       0.21875000000000000        0.0000000000000000     
   1.0312500000000000       0.21875000000000000        0.0000000000000000     
   1.0625000000000000       0.21875000000000000        0.0000000000000000     
   1.0937500000000000       0.21875000000000000        0.0000000000000000     
   1.1250000000000000       0.21875000000000000        0.0000000000000000     
   1.0000000000000000       0.25000000000000000        0.0000000000000000     
   1.0312500000000000       0.25000000000000000        0.0000000000000000     
   1.0625000000000000       0.25000000000000000        0.0000000000000000     
   1.0937500000000000       0.25000000000000000        0.0000000000000000     
   1.1250000000000000       0.25000000000000000        0.0000000000000000     
   1.1250000000000000       0.12500000000000000        0.0000000000000000     
   1.1562500000000000       0.12500000000000000        0.0000000000000000     
   1.1875000000000000       0.12500000000000000        0.0000000000000000     
   1.2187500000000000       0.12500000000000000        0.0000000000000000     
   1.2500000000000000       0.12500000000000000        0.0000000000000000     
   1.1250000000000000       0.15625000000000000        0.0000000000000000     
   1.1562500000000000       0.15625000000000000        0.0000000000000000     
   1.1875000000000000       0.15625000000000000        0.0000000000000000     
   1.2187500000000000       0.15625000000000000        0.0000000000000000     
   1.2500000000000000       0.15625000000000000        0.0000000000000000     
   1.1250000000000000       0.18750000000000000        0.0000000000000000     
   1.1562500000000000       0.18750000000000000        0.0000000000000000     
   1.1875000000000000       0.18750000000000000        0.0000000000000000     
   1.2187500000000000       0.18750000000000000        0.0000000000000000     
   1.2500000000000000       0.18750000000000000        0.0000000000000000     
   1.1250000000000000       0.21875000000000000        0.0000000000000000     
   1.1562500000000000       0.21875000000000000        0.0000000000000000     
   1.1875000000000000       0.21875000000000000        0.0000000000000000     
   1.2187500000000000       0.21875000000000000        0.0000000000000000     
   1.2500000000000000       0.21875000000000000        0.0000000000000000     
   1.1250000000000000       0.25000000000000000        0.0000000000000000     
   1.1562500000000000       0.25000000000000000        0.0000000000000000     
   1.1875000000000000       0.25000000000000000        0.0000000000000000     
   1.2187500000000000       0.25000000000000000        0.0000000000000000     
   1.2500000000000000       0.25000000000000000        0.0000000000000000     
   1.2500000000000000       0.12500000000000000        0.0000000000000000     
   1.2812500000000000       0.12500000000000000        0.0000000000000000     
   1.3125000000000000       0.12500000000000000        0.0000000000000000     
   1.3437500000000000       0.12500000000000000        0.0000000000000000     
   1.3750000000000000       0.12500000000000000        0.0000000000000000     
   1.2500000000000000       0.15625000000000000        0.0000000000000000     
   1.2812500000000000       0.15625000000000000        0.0000000000000000     
   1.3125000000000000       0.15625000000000000        0.0000000000000000     
   1.3437500000000000       0.15625000000000000        0.0000000000000000     
   1.3750000000000000       0.15625000000000000        0.0000000000000000     
   1.2500000000000000       0.18750000000000000        0.0000000000000000     
   1.2812500000000000       0.18750000000000000        0.0000000000000000     
   1.3125000000000000       0.18750000000000000        0.0000000000000000     
   1.3437500000000000       0.18750000000000000        0.0000000000000000     
   1.3750000000000000       0.18750000000000000        0.0000000000000000     
   1.2500000000000000       0.21875000000000000        0.0000000000000000     
   1.2812500000000000       0.21875000000000000        0.0000000000000000     
   1.3125000000000000       0.21875000000000000        0.0000000000000000     
   1.3437500000000000       0.21875000000000000        0.0000000000000000     
   1.3750000000000000       0.21875000000000000        0.0000000000000000     
   1.2500000000000000       0.25000000000000000        0.0000000000000000     
   1.2812500000000000       0.25000000000000000        0.0000000000000000     
   1.3125000000000000       0.25000000000000000        0.0000000000000000     
   1.3437500000000000       0.25000000000000000        0.0000000000000000     
   1.3750000000000000       0.25000000000000000        0.0000000000000000     
   1.3750000000000000       0.12500000000000000        0.0000000000000000     
   1.4062500000000000       0.12500000000000000        0.0000000000000000     
   1.4375000000000000       0.12500000000000000        0.0000000000000000     
   1.4687500000000000       0.12500000000000000        0.0000000000000000     
   1.5000000000000000       0.12500000000000000        0.0000000000000000     
   1.3750000000000000       0.15625000000000000        0.0000000000000000     
   1.4062500000000000       0.15625000000000000        0.0000000000000000     
   1.4375000000000000       0.15625000000000000        0.0000000000000000     
   1.4687500000000000       0.15625000000000000        0.0000000000000000     
   1.5000000000000000       0.15625000000000000        0.0000000000000000     
   1.3750000000000000       0.18750000000000000        0.0000000000000000     
   1.4062500000000000       0.18750000000000000        0.0000000000000000     
   1.4375000000000000       0.18750000000000000        0.0000000000000000     
   1.4687500000000000       0.18750000000000000        0.0000000000000000     
   1.5000000000000000       0.18750000000000000        0.0000000000000000     
   1.3750000000000000       0.21875000000000000        0.0000000000000000     
   1.4062500000000000       0.21875000000000000        0.0000000000000000     
   1.4375000000000000       0.21875000000000000        0.0000000000000000     
   1.4687500000000000       0.21875000000000000        0.0000000000000000     
   1.5000000000000000       0.21875000000000000        0.0000000000000000     
   1.3750000000000000       0.25000000000000000        0.0000000000000000     
   1.4062500000000000       0.25000000000000000        0.0000000000000000     
   1.4375000000000000       0.25000000000000000        0.0000000000000000     
   1.4687500000000000       0.25000000000000000        0.0000000000000000     
   1.5000000000000000       0.25000000000000000        0.0000000000000000     
  0.50000000000000000       0.25000000000000000        0.0000000000000000     
  0.53125000000000000       0.25000000000000000        0.0000000000000000     
  0.56250000000000000       0.25000000000000000        0.0000000000000000     
  0.59375000000000000       0.25000000000000000        0.0000000000000000     
  0.62500000000000000       0.25000000000000000        0.0000000000000000     
  0.50000000000000000       0.28125000000000000        0.0000000000000000     
  0.53125000000000000       0.28125000000000000        0.0000000000000000     
  0.56250000000000000       0.28125000000000000        0.0000000000000000     
  0.59375000000000000       0.28125000000000000        0.0000000000000000     
  0.62500000000000000       0.28125000000000000        0.0000000000000000     
  0.50000000000000000       0.31250000000000000        0.0000000000000000     
  0.53125000000000000       0.31250000000000000        0.0000000000000000     
  0.56250000000000000       0.31250000000000000        0.0000000000000000     
  0.59375000000000000       0.31250000000000000        0.0000000000000000     
  0.62500000000000000       0.31250000000000000        0.0000000000000000     
  0.50000000000000000       0.34375000000000000        0.0000000000000000     
  0.53125000000000000       0.34375000000000000        0.0000000000000000     
  0.56250000000000000       0.34375000000000000        0.0000000000000000     
  0.59375000000000000       0.34375000000000000        0.0000000000000000     
  0.62500000000000000       0.34375000000000000        0.0000000000000000     
  0.50000000000000000       0.37500000000000000        0.0000000000000000     
  0.53125000000000000       0.37500000000000000        0.0000000000000000     
  0.56250000000000000       0.37500000000000000        0.0000000000000000     
  0.59375000000000000       0.37500000000000000        0.0000000000000000     
  0.62500000000000000       0.37500000000000000        0.0000000000000000     
  0.62500000000000000       0.25000000000000000        0.0000000000000000     
  0.65625000000000000       0.25000000000000000        0.0000000000000000     
  0.68750000000000000       0.25000000000000000        0.0000000000000000     
  0.71875000000000000       0.25000000000000000        0.0000000000000000     
  0.75000000000000000       0.25000000000000000        0.0000000000000000     
  0.62500000000000000       0.28125000000000000        0.0000000000000000     
  0.65625000000000000       0.28125000000000000        0.0000000000000000     
  0.68750000000000000       0.28125000000000000        0.0000000000000000     
  0.71875000000000000       0.28125000000000000        0.0000000000000000     
  0.75000000000000000       0.28125000000000000        0.0000000000000000     
  0.62500000000000000       0.31250000000000000        0.0000000000000000     
  0.65625000000000000       0.31250000000000000        0.0000000000000000     
  0.68750000000000000       0.31250000000000000        0.0000000000000000     
  0.71875000000000000       0.31250000000000000        0.0000000000000000     
  0.75000000000000000       0.31250000000000000        0.0000000000000000     
  0.62500000000000000       0.34375000000000000        0.0000000000000000     
  0.65625000000000000       0.34375000000000000        0.0000000000000000     
  0.68750000000000000       0.34375000000000000        0.0000000000000000     
  0.71875000000000000       0.34375000000000000        0.0000000000000000     
  0.75000000000000000       0.34375000000000000        0.0000000000000000     
  0.62500000000000000       0.37500000000000000        0.0000000000000000     
  0.65625000000000000       0.37500000000000000        0.0000000000000000     
  0.68750000000000000       0.37500000000000000        0.0000000000000000     
  0.71875000000000000       0.37500000000000000        0.0000000000000000     
  0.75000000000000000       0.37500000000000000        0.0000000000000000     
  0.75000000000000000       0.25000000000000000        0.0000000000000000     
  0.78125000000000000       0.25000000000000000        0.0000000000000000     
  0.81250000000000000       0.25000000000000000        0.0000000000000000     
  0.84375000000000000       0.25000000000000000        0.0000000000000000     
  0.87500000000000000       0.25000000000000000        0.0000000000000000     
  0.75000000000000000       0.28125000000000000        0.0000000000000000     
  0.78125000000000000       0.28125000000000000        0.0000000000000000     
  0.81250000000000000       0.28125000000000000        0.0000000000000000     
  0.84375000000000000       0.28125000000000000        0.0000000000000000     
  0.87500000000000000       0.28125000000000000        0.0000000000000000     
  0.75000000000000000       0.31250000000000000        0.0000000000000000     
  0.78125000000000000       0.31250000000000000        0.0000000000000000     
  0.81250000000000000       0.31250000000000000        0.0000000000000000     
  0.84375000000000000       0.31250000000000000        0.0000000000000000     
  0.87500000000000000       0.31250000000000000        0.0000000000000000     
  0.75000000000000000       0.34375000000000000        0.0000000000000000     
  0.78125000000000000       0.34375000000000000        0.0000000000000000     
  0.81250000000000000       0.34375000000000000        0.0000000000000000     
  0.84375000000000000       0.34375000000000000        0.0000000000000000     
  0.87500000000000000       0.34375000000000000        0.0000000000000000     
  0.75000000000000000       0.37500000000000000        0.0000000000000000     
  0.78125000000000000       0.37500000000000000        0.0000000000000000     
  0.81250000000000000       0.37500000000000000        0.0000000000000000     
  0.84375000000000000       0.37500000000000000        0.0000000000000000     
  0.87500000000000000       0.37500000000000000        0.0000000000000000     
  0.87500000000000000       0.25000000000000000        0.0000000000000000     
  0.90625000000000000       0.25000000000000000        0.0000000000000000     
  0.93750000000000000       0.25000000000000000        0.0000000000000000     
  0.96875000000000000       0.25000000000000000        0.0000000000000000     
   1.0000000000000000       0.25000000000000000        0.0000000000000000     
  0.87500000000000000       0.28125000000000000        0.0000000000000000     
  0.90625000000000000       0.28125000000000000        0.0000000000000000     
  0.93750000000000000       0.28125000000000000        0.0000000000000000     
  0.96875000000000000       0.28125000000000000        0.0000000000000000     
   1.0000000000000000       0.28125000000000000        0.0000000000000000     
  0.87500000000000000       0.31250000000000000        0.0000000000000000     
  0.90625000000000000       0.31250000000000000        0.0000000000000000     
  0.93750000000000000       0.31250000000000000        0.0000000000000000     
  0.96875000000000000       0.31250000000000000        0.0000000000000000     
   1.0000000000000000       0.31250000000000000        0.0000000000000000     
  0.87500000000000000       0.34375000000000000        0.0000000000000000     
  0.90625000000000000       0.34375000000000000        0.0000000000000000     
  0.93750000000000000       0.34375000000000000        0.0000000000000000     
  0.96875000000000000       0.34375000000000000        0.0000000000000000     
   1.0000000000000000       0.34375000000000000        0.0000000000000000     
  0.87500000000000000       0.37500000000000000        0.0000000000000000     
  0.90625000000000000       0.37500000000000000        0.0000000000000000     
  0.93750000000000000       0.37500000000000000        0.0000000000000000     
  0.96875000000000000       0.37500000000000000        0.0000000000000000     
   1.0000000000000000       0.37500000000000000        0.0000000000000000     
   1.0000000000000000       0.25000000000000000        0.0000000000000000     
   1.0312500000000000       0.25000000000000000        0.0000000000000000     
   1.0625000000000000       0.25000000000000000        0.0000000000000000     
   1.0937500000000000       0.25000000000000000        0.0000000000000000     
   1.1250000000000000       0.25000000000000000        0.0000000000000000     
   1.0000000000000000       0.28125000000000000        0.0000000000000000     
   1.0312500000000000       0.28125000000000000        0.0000000000000000     
   1.0625000000000000       0.28125000000000000        0.0000000000000000     
   1.0937500000000000       0.28125000000000000        0.0000000000000000     
   1.1250000000000000       0.28125000000000000        0.0000000000000000     
   1.0000000000000000       0.31250000000000000        0.0000000000000000     
   1.0312500000000000       0.31250000000000000        0.0000000000000000     
   1.0625000000000000       0.31250000000000000        0.0000000000000000     
   1.0937500000000000       0.31250000000000000        0.0000000000000000     
   1.1250000000000000       0.31250000000000000        0.0000000000000000     
   1.0000000000000000       0.34375000000000000        0.0000000000000000     
   1.0312500000000000       0.34375000000000000        0.0000000000000000     
   1.0625000000000000       0.34375000000000000        0.0000000000000000     
   1.0937500000000000       0.34375000000000000        0.0000000000000000     
   1.1250000000000000       0.34375000000000000        0.0000000000000000     
   1.0000000000000000       0.37500000000000000        0.0000000000000000     
   1.0312500000000000       0.37500000000000000        0.0000000000000000     
   1.0625000000000000       0.37500000000000000        0.0000000000000000     
   1.0937500000000000       0.37500000000000000        0.0000000000000000     
   1.1250000000000000       0.37500000000000000        0.0000000000000000     
   1.1250000000000000       0.25000000000000000        0.0000000000000000     
   1.1562500000000000       0.25000000000000000        0.0000000000000000     
   1.1875000000000000       0.25000000000000000        0.0000000000000000     
   1.2187500000000000       0.25000000000000000        0.0000000000000000     
   1.2500000000000000       0.25000000000000000        0.0000000000000000     
   1.1250000000000000       0.28125000000000000        0.0000000000000000     
   1.1562500000000000       0.28125000000000000        0.0000000000000000     
   1.1875000000000000       0.28125000000000000        0.0000000000000000     
   1.2187500000000000       0.28125000000000000        0.0000000000000000     
   1.2500000000000000       0.28125000000000000        0.0000000000000000     
   1.1250000000000000       0.31250000000000000        0.0000000000000000     
   1.1562500000000000       0.31250000000000000        0.0000000000000000     
   1.1875000000000000       0.31250000000000000        0.0000000000000000     
   1.2187500000000000       0.31250000000000000        0.0000000000000000     
   1.2500000000000000       0.31250000000000000        0.0000000000000000     
   1.1250000000000000       0.34375000000000000        0.0000000000000000     
   1.1562500000000000       0.34375000000000000        0.0000000000000000     
   1.1875000000000000       0.34375000000000000        0.0000000000000000     
   1.2187500000000000       0.34375000000000000        0.0000000000000000     
   1.2500000000000000       0.34375000000000000        0.0000000000000000     
   1.1250000000000000       0.37500000000000000        0.0000000000000000     
   1.1562500000000000       0.37500000000000000        0.0000000000000000     
   1.1875000000000000       0.37500000000000000        0.0000000000000000     
   1.2187500000000000       0.37500000000000000        0.0000000000000000     
   1.2500000000000000       0.37500000000000000        0.0000000000000000     
   1.2500000000000000       0.25000000000000000        0.0000000000000000     
   1.2812500000000000       0.25000000000000000        0.0000000000000000     
   1.3125000000000000       0.25000000000000000        0.0000000000000000     
   1.3437500000000000       0.25000000000000000        0.0000000000000000     
   1.3750000000000000       0.25000000000000000        0.0000000000000000     
   1.2500000000000000       0.28125000000000000        0.0000000000000000     
   1.2812500000000000       0.28125000000000000        0.0000000000000000     
   1.3125000000000000       0.28125000000000000        0.0000000000000000     
   1.3437500000000000       0.28125000000000000        0.0000000000000000     
   1.3750000000000000       0.28125000000000000        0.0000000000000000     
   1.2500000000000000       0.31250000000000000        0.0000000000000000     
   1.2812500000000000       0.31250000000000000        0.0000000000000000     
   1.3125000000000000       0.31250000000000000        0.0000000000000000     
   1.3437500000000000       0.31250000000000000        0.0000000000000000     
   1.3750000000000000       0.31250000000000000        0.0000000000000000     
   1.2500000000000000       0.34375000000000000        0.0000000000000000     
   1.2812500000000000       0.34375000000000000        0.0000000000000000     
   1.3125000000000000       0.34375000000000000        0.0000000000000000     
   1.3437500000000000       0.34375000000000000        0.0000000000000000     
   1.3750000000000000       0.34375000000000000        0.0000000000000000     
   1.2500000000000000       0.37500000000000000        0.0000000000000000     
   1.2812500000000000       0.37500000000000000        0.0000000000000000     
   1.3125000000000000       0.37500000000000000        0.0000000000000000     
   1.3437500000000000       0.37500000000000000        0.0000000000000000     
   1.3750000000000000       0.37500000000000000        0.0000000000000000     
   1.3750000000000000       0.25000000000000000        0.0000000000000000     
   1.4062500000000000       0.25000000000000000        0.0000000000000000     
   1.4375000000000000       0.25000000000000000        0.0000000000000000     
   1.4687500000000000       0.25000000000000000        0.0000000000000000     
   1.5000000000000000       0.25000000000000000        0.0000000000000000     
   1.3750000000000000       0.28125000000000000        0.0000000000000000     
   1.4062500000000000       0.28125000000000000        0.0000000000000000     
   1.4375000000000000       0.28125000000000000        0.0000000000000000     
   1.4687500000000000       0.28125000000000000        0.0000000000000000     
   1.5000000000000000       0.28125000000000000        0.0000000000000000     
   1.3750000000000000       0.31250000000000000        0.0000000000000000     
   1.4062500000000000       0.31250000000000000        0.0000000000000000     
   1.4375000000000000       0.31250000000000000        0.0000000000000000     
   1.4687500000000000       0.31250000000000000        0.0000000000000000     
   1.5000000000000000       0.31250000000000000        0.0000000000000000     
   1.3750000000000000       0.34375000000000000        0.0000000000000000     
   1.4062500000000000       0.34375000000000000        0.0000000000000000     
   1.4375000000000000       0.34375000000000000        0.0000000000000000     
   1.4687500000000000       0.34375000000000000        0.0000000000000000     
   1.5000000000000000       0.34375000000000000        0.0000000000000000     
   1.3750000000000000       0.37500000000000000        0.0000000000000000     
   1.4062500000000000       0.37500000000000000        0.0000000000000000     
   1.4375000000000000       0.37500000000000000        0.0000000000000000     
   1.4687500000000000       0.37500000000000000        0.0000000000000000     
   1.5000000000000000       0.37500000000000000        0.0000000000000000     
  0.50000000000000000       0.37500000000000000        0.0000000000000000     
  0.53125000000000000       0.37500000000000000        0.0000000000000000     
  0.56250000000000000       0.37500000000000000        0.0000000000000000     
  0.59375000000000000       0.37500000000000000        0.0000000000000000     
  0.62500000000000000       0.37500000000000000        0.0000000000000000     
  0.50000000000000000       0.40625000000000000        0.0000000000000000     
  0.53125000000000000       0.40625000000000000        0.0000000000000000     
  0.56250000000000000       0.40625000000000000        0.0000000000000000     
  0.59375000000000000       0.40625000000000000        0.0000000000000000     
  0.62500000000000000       0.40625000000000000        0.0000000000000000     
  0.50000000000000000       0.43750000000000000        0.0000000000000000     
  0.53125000000000000       0.43750000000000000        0.0000000000000000     
  0.56250000000000000       0.43750000000000000        0.0000000000000000     
  0.59375000000000000       0.43750000000000000        0.0000000000000000     
  0.62500000000000000       0.43750000000000000        0.0000000000000000     
  0.50000000000000000       0.46875000000000000        0.0000000000000000     
  0.53125000000000000       0.46875000000000000        0.0000000000000000     
  0.56250000000000000       0.46875000000000000        0.0000000000000000     
  0.59375000000000000       0.46875000000000000        0.0000000000000000     
  0.62500000000000000       0.46875000000000000        0.0000000000000000     
  0.50000000000000000       0.50000000000000000        0.0000000000000000     
  0.53125000000000000       0.50000000000000000        0.0000000000000000     
  0.56250000000000000       0.50000000000000000        0.0000000000000000     
  0.59375000000000000       0.50000000000000000        0.0000000000000000     
  0.62500000000000000       0.50000000000000000        0.0000000000000000     
  0.62500000000000000       0.37500000000000000        0.0000000000000000     
  0.65625000000000000       0.37500000000000000        0.0000000000000000     
  0.68750000000000000       0.37500000000000000        0.0000000000000000     
  0.71875000000000000       0.37500000000000000        0.0000000000000000     
  0.75000000000000000       0.37500000000000000        0.0000000000000000     
  0.62500000000000000       0.40625000000000000        0.0000000000000000     
  0.65625000000000000       0.40625000000000000        0.0000000000000000     
  0.68750000000000000       0.40625000000000000        0.0000000000000000     
  0.71875000000000000       0.40625000000000000        0.0000000000000000     
  0.75000000000000000       0.40625000000000000        0.0000000000000000     
  0.62500000000000000       0.43750000000000000        0.0000000000000000     
  0.65625000000000000       0.43750000000000000        0.0000000000000000     
  0.68750000000000000       0.43750000000000000        0.0000000000000000     
  0.71875000000000000       0.43750000000000000        0.0000000000000000     
  0.75000000000000000       0.43750000000000000        0.0000000000000000     
  0.62500000000000000       0.46875000000000000        0.0000000000000000     
  0.65625000000000000       0.46875000000000000        0.0000000000000000     
  0.68750000000000000       0.46875000000000000        0.0000000000000000     
  0.71875000000000000       0.46875000000000000        0.0000000000000000     
  0.75000000000000000       0.46875000000000000        0.0000000000000000     
  0.62500000000000000       0.50000000000000000        0.0000000000000000     
  0.65625000000000000       0.50000000000000000        0.0000000000000000     
  0.68750000000000000       0.50000000000000000        0.0000000000000000     
  0.71875000000000000       0.50000000000000000        0.0000000000000000     
  0.75000000000000000       0.50000000000000000        0.0000000000000000     
  0.75000000000000000       0.37500000000000000        0.0000000000000000     
  0.78125000000000000       0.37500000000000000        0.0000000000000000     
  0.81250000000000000       0.37500000000000000        0.0000000000000000     
  0.84375000000000000       0.37500000000000000        0.0000000000000000     
  0.87500000000000000       0.37500000000000000        0.0000000000000000     
  0.75000000000000000       0.40625000000000000        0.0000000000000000     
  0.78125000000000000       0.40625000000000000        0.0000000000000000     
  0.81250000000000000       0.40625000000000000        0.0000000000000000     
  0.84375000000000000       0.40625000000000000        0.0000000000000000     
  0.87500000000000000       0.40625000000000000        0.0000000000000000     
  0.75000000000000000       0.43750000000000000        0.0000000000000000     
  0.78125000000000000       0.43750000000000000        0.0000000000000000     
  0.81250000000000000       0.43750000000000000        0.0000000000000000     
  0.84375000000000000       0.43750000000000000        0.0000000000000000     
  0.87500000000000000       0.43750000000000000        0.0000000000000000     
  0.75000000000000000       0.46875000000000000        0.0000000000000000     
  0.78125000000000000       0.46875000000000000        0.0000000000000000     
  0.81250000000000000       0.46875000000000000        0.0000000000000000     
  0.84375000000000000       0.46875000000000000        0.0000000000000000     
  0.87500000000000000       0.46875000000000000        0.0000000000000000     
  0.75000000000000000       0.50000000000000000        0.0000000000000000     
  0.78125000000000000       0.50000000000000000        0.0000000000000000     
  0.81250000000000000       0.50000000000000000        0.0000000000000000     
  0.84375000000000000       0.50000000000000000        0.0000000000000000     
  0.87500000000000000       0.50000000000000000        0.0000000000000000     
  0.87500000000000000       0.37500000000000000        0.0000000000000000     
  0.90625000000000000       0.37500000000000000        0.0000000000000000     
  0.93750000000000000       0.37500000000000000        0.0000000000000000     
  0.96875000000000000       0.37500000000000000        0.0000000000000000     
   1.0000000000000000       0.37500000000000000        0.0000000000000000     
  0.87500000000000000       0.40625000000000000        0.0000000000000000     
  0.90625000000000000       0.40625000000000000        0.0000000000000000     
  0.93750000000000000       0.40625000000000000        0.0000000000000000     
  0.96875000000000000       0.40625000000000000        0.0000000000000000     
   1.0000000000000000       0.40625000000000000        0.0000000000000000     
  0.87500000000000000       0.43750000000000000        0.0000000000000000     
  0.90625000000000000       0.43750000000000000        0.0000000000000000     
  0.93750000000000000       0.43750000000000000        0.0000000000000000     
  0.96875000000000000       0.43750000000000000        0.0000000000000000     
   1.0000000000000000       0.43750000000000000        0.0000000000000000     
  0.87500000000000000       0.46875000000000000        0.0000000000000000     
  0.90625000000000000       0.46875000000000000        0.0000000000000000     
  0.93750000000000000       0.46875000000000000        0.0000000000000000     
  0.96875000000000000       0.46875000000000000        0.0000000000000000     
   1.0000000000000000       0.46875000000000000        0.0000000000000000     
  0.87500000000000000       0.50000000000000000        0.0000000000000000     
  0.90625000000000000       0.50000000000000000        0.0000000000000000     
  0.93750000000000000       0.50000000000000000        0.0000000000000000     
  0.96875000000000000       0.50000000000000000        0.0000000000000000     
   1.0000000000000000       0.50000000000000000        0.0000000000000000     
   1.0000000000000000       0.37500000000000000        0.0000000000000000     
   1.0312500000000000       0.37500000000000000        0.0000000000000000     
   1.0625000000000000       0.37500000000000000        0.0000000000000000     
   1.0937500000000000       0.37500000000000000        0.0000000000000000     
   1.1250000000000000       0.37500000000000000        0.0000000000000000     
   1.0000000000000000       0.40625000000000000        0.0000000000000000     
   1.0312500000000000       0.40625000000000000        0.0000000000000000     
   1.0625000000000000       0.40625000000000000        0.0000000000000000     
   1.0937500000000000       0.40625000000000000        0.0000000000000000     
   1.1250000000000000       0.40625000000000000        0.0000000000000000     
   1.0000000000000000       0.43750000000000000        0.0000000000000000     
   1.0312500000000000       0.43750000000000000        0.0000000000000000     
   1.0625000000000000       0.43750000000000000        0.0000000000000000     
   1.0937500000000000       0.43750000000000000        0.0000000000000000     
   1.1250000000000000       0.43750000000000000        0.0000000000000000     
   1.0000000000000000       0.46875000000000000        0.0000000000000000     
   1.0312500000000000       0.46875000000000000        0.0000000000000000     
   1.0625000000000000       0.46875000000000000        0.0000000000000000     
   1.0937500000000000       0.46875000000000000        0.0000000000000000     
   1.1250000000000000       0.46875000000000000        0.0000000000000000     
   1.0000000000000000       0.50000000000000000        0.0000000000000000     
   1.0312500000000000       0.50000000000000000        0.0000000000000000     
   1.0625000000000000       0.50000000000000000        0.0000000000000000     
   1.0937500000000000       0.50000000000000000        0.0000000000000000     
   1.1250000000000000       0.50000000000000000        0.0000000000000000     
   1.1250000000000000       0.37500000000000000        0.0000000000000000     
   1.1562500000000000       0.37500000000000000        0.0000000000000000     
   1.1875000000000000       0.37500000000000000        0.0000000000000000     
   1.2187500000000000       0.37500000000000000        0.0000000000000000     
   1.2500000000000000       0.37500000000000000        0.0000000000000000     
   1.1250000000000000       0.40625000000000000        0.0000000000000000     
   1.1562500000000000       0.40625000000000000        0.0000000000000000     
   1.1875000000000000       0.40625000000000000        0.0000000000000000     
   1.2187500000000000       0.40625000000000000        0.0000000000000000     
   1.2500000000000000       0.40625000000000000        0.0000000000000000     
   1.1250000000000000       0.43750000000000000        0.0000000000000000     
   1.1562500000000000       0.43750000000000000        0.0000000000000000     
   1.1875000000000000       0.43750000000000000        0.0000000000000000     
   1.2187500000000000       0.43750000000000000        0.0000000000000000     
   1.2500000000000000       0.43750000000000000        0.0000000000000000     
   1.1250000000000000       0.46875000000000000        0.0000000000000000     
   1.1562500000000000       0.46875000000000000        0.0000000000000000     
   1.1875000000000000       0.46875000000000000        0.0000000000000000     
   1.2187500000000000       0.46875000000000000        0.0000000000000000     
   1.2500000000000000       0.46875000000000000        0.0000000000000000     
   1.1250000000000000       0.50000000000000000        0.0000000000000000     
   1.1562500000000000       0.50000000000000000        0.0000000000000000     
   1.1875000000000000       0.50000000000000000        0.0000000000000000     
   1.2187500000000000       0.50000000000000000        0.0000000000000000     
   1.2500000000000000       0.50000000000000000        0.0000000000000000     
   1.2500000000000000       0.37500000000000000        0.0000000000000000     
   1.2812500000000000       0.37500000000000000        0.0000000000000000     
   1.3125000000000000       0.37500000000000000        0.0000000000000000     
   1.3437500000000000       0.37500000000000000        0.0000000000000000     
   1.3750000000000000       0.37500000000000000        0.0000000000000000     
   1.2500000000000000       0.40625000000000000        0.0000000000000000     
   1.2812500000000000       0.40625000000000000        0.0000000000000000     
   1.3125000000000000       0.40625000000000000        0.0000000000000000     
   1.3437500000000000       0.40625000000000000        0.0000000000000000     
   1.3750000000000000       0.40625000000000000        0.0000000000000000     
   1.2500000000000000       0.43750000000000000        0.0000000000000000     
   1.2812500000000000       0.43750000000000000        0.0000000000000000     
   1.3125000000000000       0.43750000000000000        0.0000000000000000     
   1.3437500000000000       0.43750000000000000        0.0000000000000000     
   1.3750000000000000       0.43750000000000000        0.0000000000000000     
   1.2500000000000000       0.46875000000000000        0.0000000000000000     
   1.2812500000000000       0.46875000000000000        0.0000000000000000     
   1.3125000000000000       0.46875000000000000        0.0000000000000000     
   1.3437500000000000       0.46875000000000000        0.0000000000000000     
   1.3750000000000000       0.46875000000000000        0.0000000000000000     
   1.2500000000000000       0.50000000000000000        0.0000000000000000     
   1.2812500000000000       0.50000000000000000        0.0000000000000000     
   1.3125000000000000       0.50000000000000000        0.0000000000000000     
   1.3437500000000000       0.50000000000000000        0.0000000000000000     
   1.3750000000000000       0.50000000000000000        0.0000000000000000     
   1.3750000000000000       0.37500000000000000        0.0000000000000000     
   1.4062500000000000       0.37500000000000000        0.0000000000000000     
   1.4375000000000000       0.37500000000000000        0.0000000000000000     
   1.4687500000000000       0.37500000000000000        0.0000000000000000     
   1.5000000000000000       0.37500000000000000        0.0000000000000000     
   1.3750000000000000       0.40625000000000000        0.0000000000000000     
   1.4062500000000000       0.40625000000000000        0.0000000000000000     
   1.4375000000000000       0.40625000000000000        0.0000000000000000     
   1.4687500000000000       0.40625000000000000        0.0000000000000000     
   1.5000000000000000       0.40625000000000000        0.0000000000000000     
   1.3750000000000000       0.43750000000000000        0.0000000000000000     
   1.4062500000000000       0.43750000000000000        0.0000000000000000     
   1.4375000000000000       0.43750000000000000        0.0000000000000000     
   1.4687500000000000       0.43750000000000000        0.0000000000000000     
   1.5000000000000000       0.43750000000000000        0.0000000000000000     
   1.3750000000000000       0.46875000000000000        0.0000000000000000     
   1.4062500000000000       0.46875000000000000        0.0000000000000000     
   1.4375000000000000       0.46875000000000000        0.0000000000000000     
   1.4687500000000000       0.46875000000000000        0.0000000000000000     
   1.5000000000000000       0.46875000000000000        0.0000000000000000     
   1.3750000000000000       0.50000000000000000        0.0000000000000000     
   1.4062500000000000       0.50000000000000000        0.0000000000000000     
   1.4375000000000000       0.50000000000000000        0.0000000000000000     
   1.4687500000000000       0.50000000000000000        0.0000000000000000     
   1.5000000000000000       0.50000000000000000        0.0000000000000000     
  0.50000000000000000       0.50000000000000000        0.0000000000000000     
  0.53125000000000000       0.50000000000000000        0.0000000000000000     
  0.56250000000000000       0.50000000000000000        0.0000000000000000     
  0.59375000000000000       0.50000000000000000        0.0000000000000000     
  0.62500000000000000       0.50000000000000000        0.0000000000000000     
  0.50000000000000000       0.53125000000000000        0.0000000000000000     
  0.53125000000000000       0.53125000000000000        0.0000000000000000     
  0.56250000000000000       0.53125000000000000        0.0000000000000000     
  0.59375000000000000       0.53125000000000000        0.0000000000000000     
  0.62500000000000000       0.53125000000000000        0.0000000000000000     
  0.50000000000000000       0.56250000000000000        0.0000000000000000     
  0.53125000000000000       0.56250000000000000        0.0000000000000000     
  0.56250000000000000       0.56250000000000000        0.0000000000000000     
  0.59375000000000000       0.56250000000000000        0.0000000000000000     
  0.62500000000000000       0.56250000000000000        0.0000000000000000     
  0.50000000000000000       0.59375000000000000        0.0000000000000000     
  0.53125000000000000       0.59375000000000000        0.0000000000000000     
  0.56250000000000000       0.59375000000000000        0.0000000000000000     
  0.59375000000000000       0.59375000000000000        0.0000000000000000     
  0.62500000000000000       0.59375000000000000        0.0000000000000000     
  0.50000000000000000       0.62500000000000000        0.0000000000000000     
  0.53125000000000000       0.62500000000000000        0.0000000000000000     
  0.56250000000000000       0.62500000000000000        0.0000000000000000     
  0.59375000000000000       0.62500000000000000        0.0000000000000000     
  0.62500000000000000       0.62500000000000000        0.0000000000000000     
  0.62500000000000000       0.50000000000000000        0.0000000000000000     
  0.65625000000000000       0.50000000000000000        0.0000000000000000     
  0.68750000000000000       0.50000000000000000        0.0000000000000000     
  0.71875000000000000       0.50000000000000000        0.0000000000000000     
  0.75000000000000000       0.50000000000000000        0.0000000000000000     
  0.62500000000000000       0.53125000000000000        0.0000000000000000     
  0.65625000000000000       0.53125000000000000        0.0000000000000000     
  0.68750000000000000       0.53125000000000000        0.0000000000000000     
  0.71875000000000000       0.53125000000000000        0.0000000000000000     
  0.75000000000000000       0.53125000000000000        0.0000000000000000     
  0.62500000000000000       0.56250000000000000        0.0000000000000000     
  0.65625000000000000       0.56250000000000000        0.0000000000000000     
  0.68750000000000000       0.56250000000000000        0.0000000000000000     
  0.71875000000000000       0.56250000000000000        0.0000000000000000     
  0.75000000000000000       0.56250000000000000        0.0000000000000000     
  0.62500000000000000       0.59375000000000000        0.0000000000000000     
  0.65625000000000000       0.59375000000000000        0.0000000000000000     
  0.68750000000000000       0.59375000000000000        0.0000000000000000     
  0.71875000000000000       0.59375000000000000        0.0000000000000000     
  0.75000000000000000       0.59375000000000000        0.0000000000000000     
  0.62500000000000000       0.62500000000000000        0.0000000000000000     
  0.65625000000000000       0.62500000000000000        0.0000000000000000     
  0.68750000000000000       0.62500000000000000        0.0000000000000000     
  0.71875000000000000       0.62500000000000000        0.0000000000000000     
  0.75000000000000000       0.62500000000000000        0.0000000000000000     
  0.75000000000000000       0.50000000000000000        0.0000000000000000     
  0.78125000000000000       0.50000000000000000        0.0000000000000000     
  0.81250000000000000       0.50000000000000000        0.0000000000000000     
  0.84375000000000000       0.50000000000000000        0.0000000000000000     
  0.87500000000000000       0.50000000000000000        0.0000000000000000     
  0.75000000000000000       0.53125000000000000        0.0000000000000000     
  0.78125000000000000       0.53125000000000000        0.0000000000000000     
  0.81250000000000000       0.53125000000000000        0.0000000000000000     
  0.84375000000000000       0.53125000000000000        0.0000000000000000     
  0.87500000000000000       0.53125000000000000        0.0000000000000000     
  0.75000000000000000       0.56250000000000000        0.0000000000000000     
  0.78125000000000000       0.56250000000000000        0.0000000000000000     
  0.81250000000000000       0.56250000000000000        0.0000000000000000     
  0.84375000000000000       0.56250000000000000        0.0000000000000000     
  0.87500000000000000       0.56250000000000000        0.0000000000000000     
  0.75000000000000000       0.59375000000000000        0.0000000000000000     
  0.78125000000000000       0.59375000000000000        0.0000000000000000     
  0.81250000000000000       0.59375000000000000        0.0000000000000000     
  0.84375000000000000       0.59375000000000000        0.0000000000000000     
  0.87500000000000000       0.59375000000000000        0.0000000000000000     
  0.75000000000000000       0.62500000000000000        0.0000000000000000     
  0.78125000000000000       0.62500000000000000        0.0000000000000000     
  0.81250000000000000       0.62500000000000000        0.0000000000000000     
  0.84375000000000000       0.62500000000000000        0.0000000000000000     
  0.87500000000000000       0.62500000000000000        0.0000000000000000     
  0.87500000000000000       0.50000000000000000        0.0000000000000000     
  0.90625000000000000       0.50000000000000000        0.0000000000000000     
  0.93750000000000000       0.50000000000000000        0.0000000000000000     
  0.96875000000000000       0.50000000000000000        0.0000000000000000     
   1.0000000000000000       0.50000000000000000        0.0000000000000000     
  0.87500000000000000       0.53125000000000000        0.0000000000000000     
  0.90625000000000000       0.53125000000000000        0.0000000000000000     
  0.93750000000000000       0.53125000000000000        0.0000000000000000     
  0.96875000000000000       0.53125000000000000        0.0000000000000000     
   1.0000000000000000       0.53125000000000000        0.0000000000000000     
  0.87500000000000000       0.56250000000000000        0.0000000000000000     
  0.90625000000000000       0.56250000000000000        0.0000000000000000     
  0.93750000000000000       0.56250000000000000        0.0000000000000000     
  0.96875000000000000       0.56250000000000000        0.0000000000000000     
   1.0000000000000000       0.56250000000000000        0.0000000000000000     
  0.87500000000000000       0.59375000000000000        0.0000000000000000     
  0.90625000000000000       0.59375000000000000        0.0000000000000000     
  0.93750000000000000       0.59375000000000000        0.0000000000000000     
  0.96875000000000000       0.59375000000000000        0.0000000000000000     
   1.0000000000000000       0.59375000000000000        0.0000000000000000     
  0.87500000000000000       0.62500000000000000        0.0000000000000000     
  0.90625000000000000       0.62500000000000000        0.0000000000000000     
  0.93750000000000000       0.62500000000000000        0.0000000000000000     
  0.96875000000000000       0.62500000000000000        0.0000000000000000     
   1.0000000000000000       0.62500000000000000        0.0000000000000000     
   1.0000000000000000       0.50000000000000000        0.0000000000000000     
   1.0312500000000000       0.50000000000000000        0.0000000000000000     
   1.0625000000000000       0.50000000000000000        0.0000000000000000     
   1.0937500000000000       0.50000000000000000        0.0000000000000000     
   1.1250000000000000       0.50000000000000000        0.0000000000000000     
   1.0000000000000000       0.53125000000000000        0.0000000000000000     
   1.0312500000000000       0.53125000000000000        0.0000000000000000     
   1.0625000000000000       0.53125000000000000        0.0000000000000000     
   1.0937500000000000       0.53125000000000000        0.0000000000000000     
   1.1250000000000000       0.53125000000000000        0.0000000000000000     
   1.0000000000000000       0.56250000000000000        0.0000000000000000     
   1.0312500000000000       0.56250000000000000        0.0000000000000000     
   1.0625000000000000       0.56250000000000000        0.0000000000000000     
   1.0937500000000000       0.56250000000000000        0.0000000000000000     
   1.1250000000000000       0.56250000000000000        0.0000000000000000     
   1.0000000000000000       0.59375000000000000        0.0000000000000000     
   1.0312500000000000       0.59375000000000000        0.0000000000000000     
   1.0625000000000000       0.59375000000000000        0.0000000000000000     
   1.0937500000000000       0.59375000000000000        0.0000000000000000     
   1.1250000000000000       0.59375000000000000        0.0000000000000000     
   1.0000000000000000       0.62500000000000000        0.0000000000000000     
   1.0312500000000000       0.62500000000000000        0.0000000000000000     
   1.0625000000000000       0.62500000000000000        0.0000000000000000     
   1.0937500000000000       0.62500000000000000        0.0000000000000000     
   1.1250000000000000       0.62500000000000000        0.0000000000000000     
   1.1250000000000000       0.50000000000000000        0.0000000000000000     
   1.1562500000000000       0.50000000000000000        0.0000000000000000     
   1.1875000000000000       0.50000000000000000        0.0000000000000000     
   1.2187500000000000       0.50000000000000000        0.0000000000000000     
   1.2500000000000000       0.50000000000000000        0.0000000000000000     
   1.1250000000000000       0.53125000000000000        0.0000000000000000     
   1.1562500000000000       0.53125000000000000        0.0000000000000000     
   1.1875000000000000       0.53125000000000000        0.0000000000000000     
   1.2187500000000000       0.53125000000000000        0.0000000000000000     
   1.2500000000000000       0.53125000000000000        0.0000000000000000     
   1.1250000000000000       0.56250000000000000        0.0000000000000000     
   1.1562500000000000       0.56250000000000000        0.0000000000000000     
   1.1875000000000000       0.56250000000000000        0.0000000000000000     
   1.2187500000000000       0.56250000000000000        0.0000000000000000     
   1.2500000000000000       0.56250000000000000        0.0000000000000000     
   1.1250000000000000       0.59375000000000000        0.0000000000000000     
   1.1562500000000000       0.59375000000000000        0.0000000000000000     
   1.1875000000000000       0.59375000000000000        0.0000000000000000     
   1.2187500000000000       0.59375000000000000        0.0000000000000000     
   1.2500000000000000       0.59375000000000000        0.0000000000000000     
   1.1250000000000000       0.62500000000000000        0.0000000000000000     
   1.1562500000000000       0.62500000000000000        0.0000000000000000     
   1.1875000000000000       0.62500000000000000        0.0000000000000000     
   1.2187500000000000       0.62500000000000000        0.0000000000000000     
   1.2500000000000000       0.62500000000000000        0.0000000000000000     
   1.2500000000000000       0.50000000000000000        0.0000000000000000     
   1.2812500000000000       0.50000000000000000        0.0000000000000000     
   1.3125000000000000       0.50000000000000000        0.0000000000000000     
   1.3437500000000000       0.50000000000000000        0.0000000000000000     
   1.3750000000000000       0.50000000000000000        0.0000000000000000     
   1.2500000000000000       0.53125000000000000        0.0000000000000000     
   1.2812500000000000       0.53125000000000000        0.0000000000000000     
   1.3125000000000000       0.53125000000000000        0.0000000000000000     
   1.3437500000000000       0.53125000000000000        0.0000000000000000     
   1.3750000000000000       0.53125000000000000        0.0000000000000000     
   1.2500000000000000       0.56250000000000000        0.0000000000000000     
   1.2812500000000000       0.56250000000000000        0.0000000000000000     
   1.3125000000000000       0.56250000000000000        0.0000000000000000     
   1.3437500000000000       0.56250000000000000        0.0000000000000000     
   1.3750000000000000       0.56250000000000000        0.0000000000000000     
   1.2500000000000000       0.59375000000000000        0.0000000000000000     
   1.2812500000000000       0.59375000000000000        0.0000000000000000     
   1.3125000000000000       0.59375000000000000        0.0000000000000000     
   1.3437500000000000       0.59375000000000000        0.0000000000000000     
   1.3750000000000000       0.59375000000000000        0.0000000000000000     
   1.2500000000000000       0.62500000000000000        0.0000000000000000     
   1.2812500000000000       0.62500000000000000        0.0000000000000000     
   1.3125000000000000       0.62500000000000000        0.0000000000000000     
   1.3437500000000000       0.62500000000000000        0.0000000000000000     
   1.3750000000000000       0.62500000000000000        0.0000000000000000     
   1.3750000000000000       0.50000000000000000        0.0000000000000000     
   1.4062500000000000       0.50000000000000000        0.0000000000000000     
   1.4375000000000000       0.50000000000000000        0.0000000000000000     
   1.4687500000000000       0.50000000000000000        0.0000000000000000     
   1.5000000000000000       0.50000000000000000        0.0000000000000000     
   1.3750000000000000       0.53125000000000000        0.0000000000000000     
   1.4062500000000000       0.53125000000000000        0.0000000000000000     
   1.4375000000000000       0.53125000000000000        0.0000000000000000     
   1.4687500000000000       0.53125000000000000        0.0000000000000000     
   1.5000000000000000       0.53125000000000000        0.0000000000000000     
   1.3750000000000000       0.56250000000000000        0.0000000000000000     
   1.4062500000000000       0.56250000000000000        0.0000000000000000     
   1.4375000000000000       0.56250000000000000        0.0000000000000000     
   1.4687500000000000       0.56250000000000000        0.0000000000000000     
   1.5000000000000000       0.56250000000000000        0.0000000000000000     
   1.3750000000000000       0.59375000000000000        0.0000000000000000     
   1.4062500000000000       0.59375000000000000        0.0000000000000000     
   1.4375000000000000       0.59375000000000000        0.0000000000000000     
   1.4687500000000000       0.59375000000000000        0.0000000000000000     
   1.5000000000000000       0.59375000000000000        0.0000000000000000     
   1.3750000000000000       0.62500000000000000        0.0000000000000000     
   1.4062500000000000       0.62500000000000000        0.0000000000000000     
   1.4375000000000000       0.62500000000000000        0.0000000000000000     
   1.4687500000000000       0.62500000000000000        0.0000000000000000     
   1.5000000000000000       0.62500000000000000        0.0000000000000000     
  0.50000000000000000       0.62500000000000000        0.0000000000000000     
  0.53125000000000000       0.62500000000000000        0.0000000000000000     
  0.56250000000000000       0.62500000000000000        0.0000000000000000     
  0.59375000000000000       0.62500000000000000        0.0000000000000000     
  0.62500000000000000       0.62500000000000000        0.0000000000000000     
  0.50000000000000000       0.65625000000000000        0.0000000000000000     
  0.53125000000000000       0.65625000000000000        0.0000000000000000     
  0.56250000000000000       0.65625000000000000        0.0000000000000000     
  0.59375000000000000       0.65625000000000000        0.0000000000000000     
  0.62500000000000000       0.65625000000000000        0.0000000000000000     
  0.50000000000000000       0.68750000000000000        0.0000000000000000     
  0.53125000000000000       0.68750000000000000        0.0000000000000000     
  0.56250000000000000       0.68750000000000000        0.0000000000000000     
  0.59375000000000000       0.68750000000000000        0.0000000000000000     
  0.62500000000000000       0.68750000000000000        0.0000000000000000     
  0.50000000000000000       0.71875000000000000        0.0000000000000000     
  0.53125000000000000       0.71875000000000000        0.0000000000000000     
  0.56250000000000000       0.71875000000000000        0.0000000000000000     
  0.59375000000000000       0.71875000000000000        0.0000000000000000     
  0.62500000000000000       0.71875000000000000        0.0000000000000000     
  0.50000000000000000       0.75000000000000000        0.0000000000000000     
  0.53125000000000000       0.75000000000000000        0.0000000000000000     
  0.56250000000000000       0.75000000000000000        0.0000000000000000     
  0.59375000000000000       0.75000000000000000        0.0000000000000000     
  0.62500000000000000       0.75000000000000000        0.0000000000000000     
  0.62500000000000000       0.62500000000000000        0.0000000000000000     
  0.65625000000000000       0.62500000000000000        0.0000000000000000     
  0.68750000000000000       0.62500000000000000        0.0000000000000000     
  0.71875000000000000       0.62500000000000000        0.0000000000000000     
  0.75000000000000000       0.62500000000000000        0.0000000000000000     
  0.62500000000000000       0.65625000000000000        0.0000000000000000     
  0.65625000000000000       0.65625000000000000        0.0000000000000000     
  0.68750000000000000       0.65625000000000000        0.0000000000000000     
  0.71875000000000000       0.65625000000000000        0.0000000000000000     
  0.75000000000000000       0.65625000000000000        0.0000000000000000     
  0.62500000000000000       0.68750000000000000        0.0000000000000000     
  0.65625000000000000       0.68750000000000000        0.0000000000000000     
  0.68750000000000000       0.68750000000000000        0.0000000000000000     
  0.71875000000000000       0.68750000000000000        0.0000000000000000     
  0.75000000000000000       0.68750000000000000        0.0000000000000000     
  0.62500000000000000       0.71875000000000000        0.0000000000000000     
  0.65625000000000000       0.71875000000000000        0.0000000000000000     
  0.68750000000000000       0.71875000000000000        0.0000000000000000     
  0.71875000000000000       0.71875000000000000        0.0000000000000000     
  0.75000000000000000       0.71875000000000000        0.0000000000000000     
  0.62500000000000000       0.75000000000000000        0.0000000000000000     
  0.65625000000000000       0.75000000000000000        0.0000000000000000     
  0.68750000000000000       0.75000000000000000        0.0000000000000000     
  0.71875000000000000       0.75000000000000000        0.0000000000000000     
  0.75000000000000000       0.75000000000000000        0.0000000000000000     
  0.75000000000000000       0.62500000000000000        0.0000000000000000     
  0.78125000000000000       0.62500000000000000        0.0000000000000000     
  0.81250000000000000       0.62500000000000000        0.0000000000000000     
  0.84375000000000000       0.62500000000000000        0.0000000000000000     
  0.87500000000000000       0.62500000000000000        0.0000000000000000     
  0.75000000000000000       0.65625000000000000        0.0000000000000000     
  0.78125000000000000       0.65625000000000000        0.0000000000000000     
  0.81250000000000000       0.65625000000000000        0.0000000000000000     
  0.84375000000000000       0.65625000000000000        0.0000000000000000     
  0.87500000000000000       0.65625000000000000        0.0000000000000000     
  0.75000000000000000       0.68750000000000000        0.0000000000000000     
  0.78125000000000000       0.68750000000000000        0.0000000000000000     
  0.81250000000000000       0.68750000000000000        0.0000000000000000     
  0.84375000000000000       0.68750000000000000        0.0000000000000000     
  0.87500000000000000       0.68750000000000000        0.0000000000000000     
  0.75000000000000000       0.71875000000000000        0.0000000000000000     
  0.78125000000000000       0.71875000000000000        0.0000000000000000     
  0.81250000000000000       0.71875000000000000        0.0000000000000000     
  0.84375000000000000       0.71875000000000000        0.0000000000000000     
  0.87500000000000000       0.71875000000000000        0.0000000000000000     
  0.75000000000000000       0.75000000000000000        0.0000000000000000     
  0.78125000000000000       0.75000000000000000        0.0000000000000000     
  0.81250000000000000       0.75000000000000000        0.0000000000000000     
  0.84375000000000000       0.75000000000000000        0.0000000000000000     
  0.87500000000000000       0.75000000000000000        0.0000000000000000     
  0.87500000000000000       0.62500000000000000        0.0000000000000000     
  0.90625000000000000       0.62500000000000000        0.0000000000000000     
  0.93750000000000000       0.62500000000000000        0.0000000000000000     
  0.96875000000000000       0.62500000000000000        0.0000000000000000     
   1.0000000000000000       0.62500000000000000        0.0000000000000000     
  0.87500000000000000       0.65625000000000000        0.0000000000000000     
  0.90625000000000000       0.65625000000000000        0.0000000000000000     
  0.93750000000000000       0.65625000000000000        0.0000000000000000     
  0.96875000000000000       0.65625000000000000        0.0000000000000000     
   1.0000000000000000       0.65625000000000000        0.0000000000000000     
  0.87500000000000000       0.68750000000000000        0.0000000000000000     
  0.90625000000000000       0.68750000000000000        0.0000000000000000     
  0.93750000000000000       0.68750000000000000        0.0000000000000000     
  0.96875000000000000       0.68750000000000000        0.0000000000000000     
   1.0000000000000000       0.68750000000000000        0.0000000000000000     
  0.87500000000000000       0.71875000000000000        0.0000000000000000     
  0.90625000000000000       0.71875000000000000        0.0000000000000000     
  0.93750000000000000       0.71875000000000000        0.0000000000000000     
  0.96875000000000000       0.71875000000000000        0.0000000000000000     
   1.0000000000000000       0.71875000000000000        0.0000000000000000     
  0.87500000000000000       0.75000000000000000        0.0000000000000000     
  0.90625000000000000       0.75000000000000000        0.0000000000000000     
  0.93750000000000000       0.75000000000000000        0.0000000000000000     
  0.96875000000000000       0.75000000000000000        0.0000000000000000     
   1.0000000000000000       0.75000000000000000        0.0000000000000000     
   1.0000000000000000       0.62500000000000000        0.0000000000000000     
   1.0312500000000000       0.62500000000000000        0.0000000000000000     
   1.0625000000000000       0.62500000000000000        0.0000000000000000     
   1.0937500000000000       0.62500000000000000        0.0000000000000000     
   1.1250000000000000       0.62500000000000000        0.0000000000000000     
   1.0000000000000000       0.65625000000000000        0.0000000000000000     
   1.0312500000000000       0.65625000000000000        0.0000000000000000     
   1.0625000000000000       0.65625000000000000        0.0000000000000000     
   1.0937500000000000       0.65625000000000000        0.0000000000000000     
   1.1250000000000000       0.65625000000000000        0.0000000000000000     
   1.0000000000000000       0.68750000000000000        0.0000000000000000     
   1.0312500000000000       0.68750000000000000        0.0000000000000000     
   1.0625000000000000       0.68750000000000000        0.0000000000000000     
   1.0937500000000000       0.68750000000000000        0.0000000000000000     
   1.1250000000000000       0.68750000000000000        0.0000000000000000     
   1.0000000000000000       0.71875000000000000        0.0000000000000000     
   1.0312500000000000       0.71875000000000000        0.0000000000000000     
   1.0625000000000000       0.71875000000000000        0.0000000000000000     
   1.0937500000000000       0.71875000000000000        0.0000000000000000     
   1.1250000000000000       0.71875000000000000        0.0000000000000000     
   1.0000000000000000       0.75000000000000000        0.0000000000000000     
   1.0312500000000000       0.75000000000000000        0.0000000000000000     
   1.0625000000000000       0.75000000000000000        0.0000000000000000     
   1.0937500000000000       0.75000000000000000        0.0000000000000000     
   1.1250000000000000       0.75000000000000000        0.0000000000000000     
   1.1250000000000000       0.62500000000000000        0.0000000000000000     
   1.1562500000000000       0.62500000000000000        0.0000000000000000     
   1.1875000000000000       0.62500000000000000        0.0000000000000000     
   1.2187500000000000       0.62500000000000000        0.0000000000000000     
   1.2500000000000000       0.62500000000000000        0.0000000000000000     
   1.1250000000000000       0.65625000000000000        0.0000000000000000     
   1.1562500000000000       0.65625000000000000        0.0000000000000000     
   1.1875000000000000       0.65625000000000000        0.0000000000000000     
   1.2187500000000000       0.65625000000000000        0.0000000000000000     
   1.2500000000000000       0.65625000000000000        0.0000000000000000     
   1.1250000000000000       0.68750000000000000        0.0000000000000000     
   1.1562500000000000       0.68750000000000000        0.0000000000000000     
   1.1875000000000000       0.68750000000000000        0.0000000000000000     
   1.2187500000000000       0.68750000000000000        0.0000000000000000     
   1.2500000000000000       0.68750000000000000        0.0000000000000000     
   1.1250000000000000       0.71875000000000000        0.0000000000000000     
   1.1562500000000000       0.71875000000000000        0.0000000000000000     
   1.1875000000000000       0.71875000000000000        0.0000000000000000     
   1.2187500000000000       0.71875000000000000        0.0000000000000000     
   1.2500000000000000       0.71875000000000000        0.0000000000000000     
   1.1250000000000000       0.75000000000000000        0.0000000000000000     
   1.1562500000000000       0.75000000000000000        0.0000000000000000     
   1.1875000000000000       0.75000000000000000        0.0000000000000000     
   1.2187500000000000       0.75000000000000000        0.0000000000000000     
   1.2500000000000000       0.75000000000000000        0.0000000000000000     
   1.2500000000000000       0.62500000000000000        0.0000000000000000     
   1.2812500000000000       0.62500000000000000        0.0000000000000000     
   1.3125000000000000       0.62500000000000000        0.0000000000000000     
   1.3437500000000000       0.62500000000000000        0.0000000000000000     
   1.3750000000000000       0.62500000000000000        0.0000000000000000     
   1.2500000000000000       0.65625000000000000        0.0000000000000000     
   1.2812500000000000       0.65625000000000000        0.0000000000000000     
   1.3125000000000000       0.65625000000000000        0.0000000000000000     
   1.3437500000000000       0.65625000000000000        0.0000000000000000     
   1.3750000000000000       0.65625000000000000        0.0000000000000000     
   1.2500000000000000       0.68750000000000000        0.0000000000000000     
   1.2812500000000000       0.68750000000000000        0.0000000000000000     
   1.3125000000000000       0.68750000000000000        0.0000000000000000     
   1.3437500000000000       0.68750000000000000        0.0000000000000000     
   1.3750000000000000       0.68750000000000000        0.0000000000000000     
   1.2500000000000000       0.71875000000000000        0.0000000000000000     
   1.2812500000000000       0.71875000000000000        0.0000000000000000     
   1.3125000000000000       0.71875000000000000        0.0000000000000000     
   1.3437500000000000       0.71875000000000000        0.0000000000000000     
   1.3750000000000000       0.71875000000000000        0.0000000000000000     
   1.2500000000000000       0.75000000000000000        0.0000000000000000     
   1.2812500000000000       0.75000000000000000        0.0000000000000000     
   1.3125000000000000       0.75000000000000000        0.0000000000000000     
   1.3437500000000000       0.75000000000000000        0.0000000000000000     
   1.3750000000000000       0.75000000000000000        0.0000000000000000     
   1.3750000000000000       0.62500000000000000        0.0000000000000000     
   1.4062500000000000       0.62500000000000000        0.0000000000000000     
   1.4375000000000000       0.62500000000000000        0.0000000000000000     
   1.4687500000000000       0.62500000000000000        0.0000000000000000     
   1.5000000000000000       0.62500000000000000        0.0000000000000000     
   1.3750000000000000       0.65625000000000000        0.0000000000000000     
   1.4062500000000000       0.65625000000000000        0.0000000000000000     
   1.4375000000000000       0.65625000000000000        0.0000000000000000     
   1.4687500000000000       0.65625000000000000        0.0000000000000000     
   1.5000000000000000       0.65625000000000000        0.0000000000000000     
   1.3750000000000000       0.68750000000000000        0.0000000000000000     
   1.4062500000000000       0.68750000000000000        0.0000000000000000     
   1.4375000000000000       0.68750000000000000        0.0000000000000000     
   1.4687500000000000       0.68750000000000000        0.0000000000000000     
   1.5000000000000000       0.68750000000000000        0.0000000000000000     
   1.3750000000000000       0.71875000000000000        0.0000000000000000     
   1.4062500000000000       0.71875000000000000        0.0000000000000000     
   1.4375000000000000       0.71875000000000000        0.0000000000000000     
   1.4687500000000000       0.71875000000000000        0.0000000000000000     
   1.5000000000000000       0.71875000000000000        0.0000000000000000     
   1.3750000000000000       0.75000000000000000        0.0000000000000000     
   1.4062500000000000       0.75000000000000000        0.0000000000000000     
   1.4375000000000000       0.75000000000000000        0.0000000000000000     
   1.4687500000000000       0.75000000000000000        0.0000000000000000     
   1.5000000000000000       0.75000000000000000        0.0000000000000000     
  0.50000000000000000       0.75000000000000000        0.0000000000000000     
  0.53125000000000000       0.75000000000000000        0.0000000000000000     
  0.56250000000000000       0.75000000000000000        0.0000000000000000     
  0.59375000000000000       0.75000000000000000        0.0000000000000000     
  0.62500000000000000       0.75000000000000000        0.0000000000000000     
  0.50000000000000000       0.78125000000000000        0.0000000000000000     
  0.53125000000000000       0.78125000000000000        0.0000000000000000     
  0.56250000000000000       0.78125000000000000        0.0000000000000000     
  0.59375000000000000       0.78125000000000000        0.0000000000000000     
  0.62500000000000000       0.78125000000000000        0.0000000000000000     
  0.50000000000000000       0.81250000000000000        0.0000000000000000     
  0.53125000000000000       0.81250000000000000        0.0000000000000000     
  0.56250000000000000       0.81250000000000000        0.0000000000000000     
  0.59375000000000000       0.81250000000000000        0.0000000000000000     
  0.62500000000000000       0.81250000000000000        0.0000000000000000     
  0.50000000000000000       0.84375000000000000        0.0000000000000000     
  0.53125000000000000       0.84375000000000000        0.0000000000000000     
  0.56250000000000000       0.84375000000000000        0.0000000000000000     
  0.59375000000000000       0.84375000000000000        0.0000000000000000     
  0.62500000000000000       0.84375000000000000        0.0000000000000000     
  0.50000000000000000       0.87500000000000000        0.0000000000000000     
  0.53125000000000000       0.87500000000000000        0.0000000000000000     
  0.56250000000000000       0.87500000000000000        0.0000000000000000     
  0.59375000000000000       0.87500000000000000        0.0000000000000000     
  0.62500000000000000       0.87500000000000000        0.0000000000000000     
  0.62500000000000000       0.75000000000000000        0.0000000000000000     
  0.65625000000000000       0.75000000000000000        0.0000000000000000     
  0.68750000000000000       0.75000000000000000        0.0000000000000000     
  0.71875000000000000       0.75000000000000000        0.0000000000000000     
  0.75000000000000000       0.75000000000000000        0.0000000000000000     
  0.62500000000000000       0.78125000000000000        0.0000000000000000     
  0.65625000000000000       0.78125000000000000        0.0000000000000000     
  0.68750000000000000       0.78125000000000000        0.0000000000000000     
  0.71875000000000000       0.78125000000000000        0.0000000000000000     
  0.75000000000000000       0.78125000000000000        0.0000000000000000     
  0.62500000000000000       0.81250000000000000        0.0000000000000000     
  0.65625000000000000       0.81250000000000000        0.0000000000000000     
  0.68750000000000000       0.81250000000000000        0.0000000000000000     
  0.71875000000000000       0.81250000000000000        0.0000000000000000     
  0.75000000000000000       0.81250000000000000        0.0000000000000000     
  0.62500000000000000       0.84375000000000000        0.0000000000000000     
  0.65625000000000000       0.84375000000000000        0.0000000000000000     
  0.68750000000000000       0.84375000000000000        0.0000000000000000     
  0.71875000000000000       0.84375000000000000        0.0000000000000000     
  0.75000000000000000       0.84375000000000000        0.0000000000000000     
  0.62500000000000000       0.87500000000000000        0.0000000000000000     
  0.65625000000000000       0.87500000000000000        0.0000000000000000     
  0.68750000000000000       0.87500000000000000        0.0000000000000000     
  0.71875000000000000       0.87500000000000000        0.0000000000000000     
  0.75000000000000000       0.87500000000000000        0.0000000000000000     
  0.75000000000000000       0.75000000000000000        0.0000000000000000     
  0.78125000000000000       0.75000000000000000        0.0000000000000000     
  0.81250000000000000       0.75000000000000000        0.0000000000000000     
  0.84375000000000000       0.75000000000000000        0.0000000000000000     
  0.87500000000000000       0.75000000000000000        0.0000000000000000     
  0.75000000000000000       0.78125000000000000        0.0000000000000000     
  0.78125000000000000       0.78125000000000000        0.0000000000000000     
  0.81250000000000000       0.78125000000000000        0.0000000000000000     
  0.84375000000000000       0.78125000000000000        0.0000000000000000     
  0.87500000000000000       0.78125000000000000        0.0000000000000000     
  0.75000000000000000       0.81250000000000000        0.0000000000000000     
  0.78125000000000000       0.81250000000000000        0.0000000000000000     
  0.81250000000000000       0.81250000000000000        0.0000000000000000     
  0.84375000000000000       0.81250000000000000        0.0000000000000000     
  0.87500000000000000       0.81250000000000000        0.0000000000000000     
  0.75000000000000000       0.84375000000000000        0.0000000000000000     
  0.78125000000000000       0.84375000000000000        0.0000000000000000     
  0.81250000000000000       0.84375000000000000        0.0000000000000000     
  0.84375000000000000       0.84375000000000000        0.0000000000000000     
  0.87500000000000000       0.84375000000000000        0.0000000000000000     
  0.75000000000000000       0.87500000000000000        0.0000000000000000     
  0.78125000000000000       0.87500000000000000        0.0000000000000000     
  0.81250000000000000       0.87500000000000000        0.0000000000000000     
  0.84375000000000000       0.87500000000000000        0.0000000000000000     
  0.87500000000000000       0.87500000000000000        0.0000000000000000     
  0.87500000000000000       0.75000000000000000        0.0000000000000000     
  0.90625000000000000       0.75000000000000000        0.0000000000000000     
  0.93750000000000000       0.75000000000000000        0.0000000000000000     
  0.96875000000000000       0.75000000000000000        0.0000000000000000     
   1.0000000000000000       0.75000000000000000        0.0000000000000000     
  0.87500000000000000       0.78125000000000000        0.0000000000000000     
  0.90625000000000000       0.78125000000000000        0.0000000000000000     
  0.93750000000000000       0.78125000000000000        0.0000000000000000     
  0.96875000000000000       0.78125000000000000        0.0000000000000000     
   1.0000000000000000       0.78125000000000000        0.0000000000000000     
  0.87500000000000000       0.81250000000000000        0.0000000000000000     
  0.90625000000000000       0.81250000000000000        0.0000000000000000     
  0.93750000000000000       0.81250000000000000        0.0000000000000000     
  0.96875000000000000       0.81250000000000000        0.0000000000000000     
   1.0000000000000000       0.81250000000000000        0.0000000000000000     
  0.87500000000000000       0.84375000000000000        0.0000000000000000     
  0.90625000000000000       0.84375000000000000        0.0000000000000000     
  0.93750000000000000       0.84375000000000000        0.0000000000000000     
  0.96875000000000000       0.84375000000000000        0.0000000000000000     
   1.0000000000000000       0.84375000000000000        0.0000000000000000     
  0.87500000000000000       0.87500000000000000        0.0000000000000000     
  0.90625000000000000       0.87500000000000000        0.0000000000000000     
  0.93750000000000000       0.87500000000000000        0.0000000000000000     
  0.96875000000000000       0.87500000000000000        0.0000000000000000     
   1.0000000000000000       0.87500000000000000        0.0000000000000000     
   1.0000000000000000       0.75000000000000000        0.0000000000000000     
   1.0312500000000000       0.75000000000000000        0.0000000000000000     
   1.0625000000000000       0.75000000000000000        0.0000000000000000     
   1.0937500000000000       0.75000000000000000        0.0000000000000000     
   1.1250000000000000       0.75000000000000000        0.0000000000000000     
   1.0000000000000000       0.78125000000000000        0.0000000000000000     
   1.0312500000000000       0.78125000000000000        0.0000000000000000     
   1.0625000000000000       0.78125000000000000        0.0000000000000000     
   1.0937500000000000       0.78125000000000000        0.0000000000000000     
   1.1250000000000000       0.78125000000000000        0.0000000000000000     
   1.0000000000000000       0.81250000000000000        0.0000000000000000     
   1.0312500000000000       0.81250000000000000        0.0000000000000000     
   1.0625000000000000       0.81250000000000000        0.0000000000000000     
   1.0937500000000000       0.81250000000000000        0.0000000000000000     
   1.1250000000000000       0.81250000000000000        0.0000000000000000     
   1.0000000000000000       0.84375000000000000        0.0000000000000000     
   1.0312500000000000       0.84375000000000000        0.0000000000000000     
   1.0625000000000000       0.84375000000000000        0.0000000000000000     
   1.0937500000000000       0.84375000000000000        0.0000000000000000     
   1.1250000000000000       0.84375000000000000        0.0000000000000000     
   1.0000000000000000       0.87500000000000000        0.0000000000000000     
   1.0312500000000000       0.87500000000000000        0.0000000000000000     
   1.0625000000000000       0.87500000000000000        0.0000000000000000     
   1.0937500000000000       0.87500000000000000        0.0000000000000000     
   1.1250000000000000       0.87500000000000000        0.0000000000000000     
   1.1250000000000000       0.75000000000000000        0.0000000000000000     
   1.1562500000000000       0.75000000000000000        0.0000000000000000     
   1.1875000000000000       0.75000000000000000        0.0000000000000000     
   1.2187500000000000       0.75000000000000000        0.0000000000000000     
   1.2500000000000000       0.75000000000000000        0.0000000000000000     
   1.1250000000000000       0.78125000000000000        0.0000000000000000     
   1.1562500000000000       0.78125000000000000        0.0000000000000000     
   1.1875000000000000       0.78125000000000000        0.0000000000000000     
   1.2187500000000000       0.78125000000000000        0.0000000000000000     
   1.2500000000000000       0.78125000000000000        0.0000000000000000     
   1.1250000000000000       0.81250000000000000        0.0000000000000000     
   1.1562500000000000       0.81250000000000000        0.0000000000000000     
   1.1875000000000000       0.81250000000000000        0.0000000000000000     
   1.2187500000000000       0.81250000000000000        0.0000000000000000     
   1.2500000000000000       0.81250000000000000        0.0000000000000000     
   1.1250000000000000       0.84375000000000000        0.0000000000000000     
   1.1562500000000000       0.84375000000000000        0.0000000000000000     
   1.1875000000000000       0.84375000000000000        0.0000000000000000     
   1.2187500000000000       0.84375000000000000        0.0000000000000000     
   1.2500000000000000       0.84375000000000000        0.0000000000000000     
   1.1250000000000000       0.87500000000000000        0.0000000000000000     
   1.1562500000000000       0.87500000000000000        0.0000000000000000     
   1.1875000000000000       0.87500000000000000        0.0000000000000000     
   1.2187500000000000       0.87500000000000000        0.0000000000000000     
   1.2500000000000000       0.87500000000000000        0.0000000000000000     
   1.2500000000000000       0.75000000000000000        0.0000000000000000     
   1.2812500000000000       0.75000000000000000        0.0000000000000000     
   1.3125000000000000       0.75000000000000000        0.0000000000000000     
   1.3437500000000000       0.75000000000000000        0.0000000000000000     
   1.3750000000000000       0.75000000000000000        0.0000000000000000     
   1.2500000000000000       0.78125000000000000        0.0000000000000000     
   1.2812500000000000       0.78125000000000000        0.0000000000000000     
   1.3125000000000000       0.78125000000000000        0.0000000000000000     
   1.3437500000000000       0.78125000000000000        0.0000000000000000     
   1.3750000000000000       0.78125000000000000        0.0000000000000000     
   1.2500000000000000       0.81250000000000000        0.0000000000000000     
   1.2812500000000000       0.81250000000000000        0.0000000000000000     
   1.3125000000000000       0.81250000000000000        0.0000000000000000     
   1.3437500000000000       0.81250000000000000        0.0000000000000000     
   1.3750000000000000       0.81250000000000000        0.0000000000000000     
   1.2500000000000000       0.84375000000000000        0.0000000000000000     
   1.2812500000000000       0.84375000000000000        0.0000000000000000     
   1.3125000000000000       0.84375000000000000        0.0000000000000000     
   1.3437500000000000       0.84375000000000000        0.0000000000000000     
   1.3750000000000000       0.84375000000000000        0.0000000000000000     
   1.2500000000000000       0.87500000000000000        0.0000000000000000     
   1.2812500000000000       0.87500000000000000        0.0000000000000000     
   1.3125000000000000       0.87500000000000000        0.0000000000000000     
   1.3437500000000000       0.87500000000000000        0.0000000000000000     
   1.3750000000000000       0.87500000000000000        0.0000000000000000     
   1.3750000000000000       0.75000000000000000        0.0000000000000000     
   1.4062500000000000       0.75000000000000000        0.0000000000000000     
   1.4375000000000000       0.75000000000000000        0.0000000000000000     
   1.4687500000000000       0.75000000000000000        0.0000000000000000     
   1.5000000000000000       0.75000000000000000        0.0000000000000000     
   1.3750000000000000       0.78125000000000000        0.0000000000000000     
   1.4062500000000000       0.78125000000000000        0.0000000000000000     
   1.4375000000000000       0.78125000000000000        0.0000000000000000     
   1.4687500000000000       0.78125000000000000        0.0000000000000000     
   1.5000000000000000       0.78125000000000000        0.0000000000000000     
   1.3750000000000000       0.81250000000000000        0.0000000000000000     
   1.4062500000000000       0.81250000000000000        0.0000000000000000     
   1.4375000000000000       0.81250000000000000        0.0000000000000000     
   1.4687500000000000       0.81250000000000000        0.0000000000000000     
   1.5000000000000000       0.81250000000000000        0.0000000000000000     
   1.3750000000000000       0.84375000000000000        0.0000000000000000     
   1.4062500000000000       0.84375000000000000        0.0000000000000000     
   1.4375000000000000       0.84375000000000000        0.0000000000000000     
   1.4687500000000000       0.84375000000000000        0.0000000000000000     
   1.5000000000000000       0.84375000000000000        0.0000000000000000     
   1.3750000000000000       0.87500000000000000        0.0000000000000000     
   1.4062500000000000       0.87500000000000000        0.0000000000000000     
   1.4375000000000000       0.87500000000000000        0.0000000000000000     
   1.4687500000000000       0.87500000000000000        0.0000000000000000     
   1.5000000000000000       0.87500000000000000        0.0000000000000000     
  0.50000000000000000       0.87500000000000000        0.0000000000000000     
  0.53125000000000000       0.87500000000000000        0.0000000000000000     
  0.56250000000000000       0.87500000000000000        0.0000000000000000     
  0.59375000000000000       0.87500000000000000        0.0000000000000000     
  0.62500000000000000       0.87500000000000000        0.0000000000000000     
  0.50000000000000000       0.90625000000000000        0.0000000000000000     
  0.53125000000000000       0.90625000000000000        0.0000000000000000     
  0.56250000000000000       0.90625000000000000        0.0000000000000000     
  0.59375000000000000       0.90625000000000000        0.0000000000000000     
  0.62500000000000000       0.90625000000000000        0.0000000000000000     
  0.50000000000000000       0.93750000000000000        0.0000000000000000     
  0.53125000000000000       0.93750000000000000        0.0000000000000000     
  0.56250000000000000       0.93750000000000000        0.0000000000000000     
  0.59375000000000000       0.93750000000000000        0.0000000000000000     
  0.62500000000000000       0.93750000000000000        0.0000000000000000     
  0.50000000000000000       0.96875000000000000        0.0000000000000000     
  0.53125000000000000       0.96875000000000000        0.0000000000000000     
  0.56250000000000000       0.96875000000000000        0.0000000000000000     
  0.59375000000000000       0.96875000000000000        0.0000000000000000     
  0.62500000000000000       0.96875000000000000        0.0000000000000000     
  0.50000000000000000        1.0000000000000000        0.0000000000000000     
  0.53125000000000000        1.0000000000000000        0.0000000000000000     
  0.56250000000000000        1.0000000000000000        0.0000000000000000     
  0.59375000000000000        1.0000000000000000        0.0000000000000000     
  0.62500000000000000        1.0000000000000000        0.0000000000000000     
  0.62500000000000000       0.87500000000000000        0.0000000000000000     
  0.65625000000000000       0.87500000000000000        0.0000000000000000     
  0.68750000000000000       0.87500000000000000        0.0000000000000000     
  0.71875000000000000       0.87500000000000000        0.0000000000000000     
  0.75000000000000000       0.87500000000000000        0.0000000000000000     
  0.62500000000000000       0.90625000000000000        0.0000000000000000     
  0.65625000000000000       0.90625000000000000        0.0000000000000000     
  0.68750000000000000       0.90625000000000000        0.0000000000000000     
  0.71875000000000000       0.90625000000000000        0.0000000000000000     
  0.75000000000000000       0.90625000000000000        0.0000000000000000     
  0.62500000000000000       0.93750000000000000        0.0000000000000000     
  0.65625000000000000       0.93750000000000000        0.0000000000000000     
  0.68750000000000000       0.93750000000000000        0.0000000000000000     
  0.71875000000000000       0.93750000000000000        0.0000000000000000     
  0.75000000000000000       0.93750000000000000        0.0000000000000000     
  0.62500000000000000       0.96875000000000000        0.0000000000000000     
  0.65625000000000000       0.96875000000000000        0.0000000000000000     
  0.68750000000000000       0.96875000000000000        0.0000000000000000     
  0.71875000000000000       0.96875000000000000        0.0000000000000000     
  0.75000000000000000       0.96875000000000000        0.0000000000000000     
  0.62500000000000000        1.0000000000000000        0.0000000000000000     
  0.65625000000000000        1.0000000000000000        0.0000000000000000     
  0.68750000000000000        1.0000000000000000        0.0000000000000000     
  0.71875000000000000        1.0000000000000000        0.0000000000000000     
  0.75000000000000000        1.0000000000000000        0.0000000000000000     
  0.75000000000000000       0.87500000000000000        0.0000000000000000     
  0.78125000000000000       0.87500000000000000        0.0000000000000000     
  0.81250000000000000       0.87500000000000000        0.0000000000000000     
  0.84375000000000000       0.87500000000000000        0.0000000000000000     
  0.87500000000000000       0.87500000000000000        0.0000000000000000     
  0.75000000000000000       0.90625000000000000        0.0000000000000000     
  0.78125000000000000       0.90625000000000000        0.0000000000000000     
  0.81250000000000000       0.90625000000000000        0.0000000000000000     
  0.84375000000000000       0.90625000000000000        0.0000000000000000     
  0.87500000000000000       0.90625000000000000        0.0000000000000000     
  0.75000000000000000       0.93750000000000000        0.0000000000000000     
  0.78125000000000000       0.93750000000000000        0.0000000000000000     
  0.81250000000000000       0.93750000000000000        0.0000000000000000     
  0.84375000000000000       0.93750000000000000        0.0000000000000000     
  0.87500000000000000       0.93750000000000000        0.0000000000000000     
  0.75000000000000000       0.96875000000000000        0.0000000000000000     
  0.78125000000000000       0.96875000000000000        0.0000000000000000     
  0.81250000000000000       0.96875000000000000        0.0000000000000000     
  0.84375000000000000       0.96875000000000000        0.0000000000000000     
  0.87500000000000000       0.96875000000000000        0.0000000000000000     
  0.75000000000000000        1.0000000000000000        0.0000000000000000     
  0.78125000000000000        1.0000000000000000        0.0000000000000000     
  0.81250000000000000        1.0000000000000000        0.0000000000000000     
  0.84375000000000000        1.0000000000000000        0.0000000000000000     
  0.87500000000000000        1.0000000000000000        0.0000000000000000     
  0.87500000000000000       0.87500000000000000        0.0000000000000000     
  0.90625000000000000       0.87500000000000000        0.0000000000000000     
  0.93750000000000000       0.87500000000000000        0.0000000000000000     
  0.96875000000000000       0.87500000000000000        0.0000000000000000     
   1.0000000000000000       0.87500000000000000        0.0000000000000000     
  0.87500000000000000       0.90625000000000000        0.0000000000000000     
  0.90625000000000000       0.90625000000000000        0.0000000000000000     
  0.93750000000000000       0.90625000000000000        0.0000000000000000     
  0.96875000000000000       0.90625000000000000        0.0000000000000000     
   1.0000000000000000       0.90625000000000000        0.0000000000000000     
  0.87500000000000000       0.93750000000000000        0.0000000000000000     
  0.90625000000000000       0.93750000000000000        0.0000000000000000     
  0.93750000000000000       0.93750000000000000        0.0000000000000000     
  0.96875000000000000       0.93750000000000000        0.0000000000000000     
   1.0000000000000000       0.93750000000000000        0.0000000000000000     
  0.87500000000000000       0.96875000000000000        0.0000000000000000     
  0.90625000000000000       0.96875000000000000        0.0000000000000000     
  0.93750000000000000       0.96875000000000000        0.0000000000000000     
  0.96875000000000000       0.96875000000000000        0.0000000000000000     
   1.0000000000000000       0.96875000000000000        0.0000000000000000     
  0.87500000000000000        1.0000000000000000        0.0000000000000000     
  0.90625000000000000        1.0000000000000000        0.0000000000000000     
  0.93750000000000000        1.0000000000000000        0.0000000000000000     
  0.96875000000000000        1.0000000000000000        0.0000000000000000     
   1.0000000000000000        1.0000000000000000        0.0000000000000000     
   1.0000000000000000       0.87500000000000000        0.0000000000000000     
   1.0312500000000000       0.87500000000000000        0.0000000000000000     
   1.0625000000000000       0.87500000000000000        0.0000000000000000     
   1.0937500000000000       0.87500000000000000        0.0000000000000000     
   1.1250000000000000       0.87500000000000000        0.0000000000000000     
   1.0000000000000000       0.90625000000000000        0.0000000000000000     
   1.0312500000000000       0.90625000000000000        0.0000000000000000     
   1.0625000000000000       0.90625000000000000        0.0000000000000000     
   1.0937500000000000       0.90625000000000000        0.0000000000000000     
   1.1250000000000000       0.90625000000000000        0.0000000000000000     
   1.0000000000000000       0.93750000000000000        0.0000000000000000     
   1.0312500000000000       0.93750000000000000        0.0000000000000000     
   1.0625000000000000       0.93750000000000000        0.0000000000000000     
   1.0937500000000000       0.93750000000000000        0.0000000000000000     
   1.1250000000000000       0.93750000000000000        0.0000000000000000     
   1.0000000000000000       0.96875000000000000        0.0000000000000000     
   1.0312500000000000       0.96875000000000000        0.0000000000000000     
   1.0625000000000000       0.96875000000000000        0.0000000000000000     
   1.0937500000000000       0.96875000000000000        0.0000000000000000     
   1.1250000000000000       0.96875000000000000        0.0000000000000000     
   1.0000000000000000        1.0000000000000000        0.0000000000000000     
   1.0312500000000000        1.0000000000000000        0.0000000000000000     
   1.0625000000000000        1.0000000000000000        0.0000000000000000     
   1.0937500000000000        1.0000000000000000        0.0000000000000000     
   1.1250000000000000        1.0000000000000000        0.0000000000000000     
   1.1250000000000000       0.87500000000000000        0.0000000000000000     
   1.1562500000000000       0.87500000000000000        0.0000000000000000     
   1.1875000000000000       0.87500000000000000        0.0000000000000000     
   1.2187500000000000       0.87500000000000000        0.0000000000000000     
   1.2500000000000000       0.87500000000000000        0.0000000000000000     
   1.1250000000000000       0.90625000000000000        0.0000000000000000     
   1.1562500000000000       0.90625000000000000        0.0000000000000000     
   1.1875000000000000       0.90625000000000000        0.0000000000000000     
   1.2187500000000000       0.90625000000000000        0.0000000000000000     
   1.2500000000000000       0.90625000000000000        0.0000000000000000     
   1.1250000000000000       0.93750000000000000        0.0000000000000000     
   1.1562500000000000       0.93750000000000000        0.0000000000000000     
   1.1875000000000000       0.93750000000000000        0.0000000000000000     
   1.2187500000000000       0.93750000000000000        0.0000000000000000     
   1.2500000000000000       0.93750000000000000        0.0000000000000000     
   1.1250000000000000       0.96875000000000000        0.0000000000000000     
   1.1562500000000000       0.96875000000000000        0.0000000000000000     
   1.1875000000000000       0.96875000000000000        0.0000000000000000     
   1.2187500000000000       0.96875000000000000        0.0000000000000000     
   1.2500000000000000       0.96875000000000000        0.0000000000000000     
   1.1250000000000000        1.0000000000000000        0.0000000000000000     
   1.1562500000000000        1.0000000000000000        0.0000000000000000     
   1.1875000000000000        1.0000000000000000        0.0000000000000000     
   1.2187500000000000        1.0000000000000000        0.0000000000000000     
   1.2500000000000000        1.0000000000000000        0.0000000000000000     
   1.2500000000000000       0.87500000000000000        0.0000000000000000     
   1.2812500000000000       0.87500000000000000        0.0000000000000000     
   1.3125000000000000       0.87500000000000000        0.0000000000000000     
   1.3437500000000000       0.87500000000000000        0.0000000000000000     
   1.3750000000000000       0.87500000000000000        0.0000000000000000     
   1.2500000000000000       0.90625000000000000        0.0000000000000000     
   1.2812500000000000       0.90625000000000000        0.0000000000000000     
   1.3125000000000000       0.90625000000000000        0.0000000000000000     
   1.3437500000000000       0.90625000000000000        0.0000000000000000     
   1.3750000000000000       0.90625000000000000        0.0000000000000000     
   1.2500000000000000       0.93750000000000000        0.0000000000000000     
   1.2812500000000000       0.93750000000000000        0.0000000000000000     
   1.3125000000000000       0.93750000000000000        0.0000000000000000     
   1.3437500000000000       0.93750000000000000        0.0000000000000000     
   1.3750000000000000       0.93750000000000000        0.0000000000000000     
   1.2500000000000000       0.96875000000000000        0.0000000000000000     
   1.2812500000000000       0.96875000000000000        0.0000000000000000     
   1.3125000000000000       0.96875000000000000        0.0000000000000000     
   1.3437500000000000       0.96875000000000000        0.0000000000000000     
   1.3750000000000000       0.96875000000000000        0.0000000000000000     
   1.2500000000000000        1.0000000000000000        0.0000000000000000     
   1.2812500000000000        1.0000000000000000        0.0000000000000000     
   1.3125000000000000        1.0000000000000000        0.0000000000000000     
   1.3437500000000000        1.0000000000000000        0.0000000000000000     
   1.3750000000000000        1.0000000000000000        0.0000000000000000     
   1.3750000000000000       0.87500000000000000        0.0000000000000000     
   1.4062500000000000       0.87500000000000000        0.0000000000000000     
   1.4375000000000000       0.87500000000000000        0.0000000000000000     
   1.4687500000000000       0.87500000000000000        0.0000000000000000     
   1.5000000000000000       0.87500000000000000        0.0000000000000000     
   1.3750000000000000       0.90625000000000000        0.0000000000000000     
   1.4062500000000000       0.90625000000000000        0.0000000000000000     
   1.4375000000000000       0.90625000000000000        0.0000000000000000     
   1.4687500000000000       0.90625000000000000        0.0000000000000000     
   1.5000000000000000       0.90625000000000000        0.0000000000000000     
   1.3750000000000000       0.93750000000000000        0.0000000000000000     
   1.4062500000000000       0.93750000000000000        0.0000000000000000     
   1.4375000000000000       0.93750000000000000        0.0000000000000000     
   1.4687500000000000       0.93750000000000000        0.0000000000000000     
   1.5000000000000000       0.93750000000000000        0.0000000000000000     
   1.3750000000000000       0.96875000000000000        0.0000000000000000     
   1.4062500000000000       0.96875000000000000        0.0000000000000000     
   1.4375000000000000       0.96875000000000000        0.0000000000000000     
   1.4687500000000000       0.96875000000000000        0.0000000000000000     
   1.5000000000000000       0.96875000000000000        0.0000000000000000     
   1.3750000000000000        1.0000000000000000        0.0000000000000000     
   1.4062500000000000        1.0000000000000000        0.0000000000000000     
   1.4375000000000000        1.0000000000000000        0.0000000000000000     
   1.4687500000000000        1.0000000000000000        0.0000000000000000     
   1.5000000000000000        1.0000000000000000        0.0000000000000000     
 </DataArray>
 </Points>
 <Cells>
 <DataArray  type="Int32"  Name="connectivity"  format="ascii">
           0           1           6           5
           1           2           7           6
           2           3           8           7
           3           4           9           8
           5           6          11          10
           6           7          12          11
           7           8          13          12
           8           9          14          13
          10          11          16          15
          11          12          17          16
          12          13          18          17
          13          14          19          18
          15          16          21          20
          16          17          22          21
          17          18          23          22
          18          19          24          23
          25          26          31          30
          26          27          32          31
          27          28          33          32
          28          29          34          33
          30          31          36          35
          31          32          37          36
          32          33          38          37
          33          34          39          38
          35          36          41          40
          36          37          42          41
          37          38          43          42
          38          39          44          43
          40          41          46          45
          41          42          47          46
          42          43          48          47
          43          44          49          48
          50          51          56          55
          51          52          57          56
          52          53          58          57
          53          54          59          58
          55          56          61          60
          56          57          62          61
          57          58          63          62
          58          59          64          63
          60          61          66          65
          61          62          67          66
          62          63          68          67
          63          64          69          68
          65          66          71          70
          66          67          72          71
          67          68          73          72
          68          69          74          73
          75          76          81          80
          76          77          82          81
          77          78          83          82
          78          79          84          83
          80          81          86          85
          81          82          87          86
          82          83          88          87
          83          84          89          88
          85          86          91          90
          86          87          92          91
          87          88          93          92
          88          89          94          93
          90          91          96          95
          91          92          97          96
          92          93          98          97
          93          94          99          98
         100         101         106         105
         101         102         107         106
         102         103         108         107
         103         104         109         108
         105         106         111         110
         106         107         112         111
         107         108         113         112
         108         109         114         113
         110         111         116         115
         111         112         117         116
         112         113         118         117
         113         114         119         118
         115         116         121         120
         116         117         122         121
         117         118         123         122
         118         119         124         123
         125         126         131         130
         126         127         132         131
         127         128         133         132
         128         129         134         133
         130         131         136         135
         131         132         137         136
         132         133         138         137
         133         134         139         138
         135         136         141         140
         136         137         142         141
         137         138         143         142
         138         139         144         143
         140         141         146         145
         141         142         147         146
         142         143         148         147
         143         144         149         148
         150         151         156         155
         151         152         157         156
         152         153         158         157
         153         154         159         158
         155         156         161         160
         156         157         162         161
         157         158         163         162
         158         159         164         163
         160         161         166         165
         161         162         167         166
         162         163         168         167
         163         164         169         168
         165         166         171         170
         166         167         172         171
         167         168         173         172
         168         169         174         173
         175         176         181         180
         176         177         182         181
         177         178         183         182
         178         179         184         183
         180         181         186         185
         181         182         187         186
         182         183         188         187
         183         184         189         188
         185         186         191         190
         186         187         192         191
         187         188         193         192
         188         189         194         193
         190         191         196         195
         191         192         197         196
         192         193         198         197
         193         194         199         198
         200         201         206         205
         201         202         207         206
         202         203         208         207
         203         204         209         208
         205         206         211         210
         206         207         212         211
         207         208         213         212
         208         209         214         213
         210         211         216         215
         211         212         217         216
         212         213         218         217
         213         214         219         218
         215         216         221         220
         216         217         222         221
         217         218         223         222
         218         219         224         223
         225         226         231         230
         226         227         232         231
         227         228         233         232
         228         229         234         233
         230         231         236         235
         231         232         237         236
         232         233         238         237
         233         234         239         238
         235         236         241         240
         236         237         242         241
         237         238         243         242
         238         239         244         243
         240         241         246         245
         241         242         247         246
         242         243         248         247
         243         244         249         248
         250         251         256         255
         251         252         257         256
         252         253         258         257
         253         254         259         258
         255         256         261         260
         256         257         262         261
         257         258         263         262
         258         259         264         263
         260         261         266         265
         261         262         267         266
         262         263         268         267
         263         264         269         268
         265         266         271         270
         266         267         272         271
         267         268         273         272
         268         269         274         273
         275         276         281         280
         276         277         282         281
         277         278         283         282
         278         279         284         283
         280         281         286         285
         281         282         287         286
         282         283         288         287
         283         284         289         288
         285         286         291         290
         286         287         292         291
         287         288         293         292
         288         289         294         293
         290         291         296         295
         291         292         297         296
         292         293         298         297
         293         294         299         298
         300         301         306         305
         301         302         307         306
         302         303         308         307
         303         304         309         308
         305         306         311         310
         306         307         312         311
         307         308         313         312
         308         309         314         313
         310         311         316         315
         311         312         317         316
         312         313         318         317
         313         314         319         318
         315         316         321         320
         316         317         322         321
         317         318         323         322
         318         319         324         323
         325         326         331         330
         326         327         332         331
         327         328         333         332
         328         329         334         333
         330         331         336         335
         331         332         337         336
         332         333         338         337
         333         334         339         338
         335         336         341         340
         336         337         342         341
         337         338         343         342
         338         339         344         343
         340         341         346         345
         341         342         347         346
         342         343         348         347
         343         344         349         348
         350         351         356         355
         351         352         357         356
         352         353         358         357
         353         354         359         358
         355         356         361         360
         356         357         362         361
         357         358         363         362
         358         359         364         363
         360         361         366         365
         361         362         367         366
         362         363         368         367
         363         364         369         368
         365         366         371         370
         366         367         372         371
         367         368         373         372
         368         369         374         373
         375         376         381         380
         376         377         382         381
         377         378         383         382
         378         379         384         383
         380         381         386         385
         381         382         387         386
         382         383         388         387
         383         384         389         388
         385         386         391         390
         386         387         392         391
         387         388         393         392
         388         389         394         393
         390         391         396         395
         391         392         397         396
         392         393         398         397
         393         394         399         398
         400         401         406         405
         401         402         407         406
         402         403         408         407
         403         404         409         408
         405         406         411         410
         406         407         412         411
         407         408         413         412
         408         409         414         413
         410         411         416         415
         411         412         417         416
         412         413         418         417
         413         414         419         418
         415         416         421         420
         416         417         422         421
         417         418         423         422
         418         419         424         423
         425         426         431         430
         426         427         432         431
         427         428         433         432
         428         429         434         433
         430         431         436         435
         431         432         437         436
         432         433         438         437
         433         434         439         438
         435         436         441         440
         436         437         442         441
         437         438         443         442
         438         439         444         443
         440         441         446         445
         441         442         447         446
         442         443         448         447
         443         444         449         448
         450         451         456         455
         451         452         457         456
         452         453         458         457
         453         454         459         458
         455         456         461         460
         456         457         462         461
         457         458         463         462
         458         459         464         463
         460         461         466         465
         461         462         467         466
         462         463         468         467
         463         464         469         468
         465         466         471         470
         466         467         472         471
         467         468         473         472
         468         469         474         473
         475         476         481         480
         476         477         482         481
         477         478         483         482
         478         479         484         483
         480         481         486         485
         481         482         487         486
         482         483         488         487
         483         484         489         488
         485         486         491         490
         486         487         492         491
         487         488         493         492
         488         489         494         493
         490         491         496         495
         491         492         497         496
         492         493         498         497
         493         494         499         498
         500         501         506         505
         501         502         507         506
         502         503         508         507
         503         504         509         508
         505         506         511         510
         506         507         512         511
         507         508         513         512
         508         509         514         513
         510         511         516         515
         511         512         517         516
         512         513         518         517
         513         514         519         518
         515         516         521         520
         516         517         522         521
         517         518         523         522
         518         519         524         523
         525         526         531         530
         526         527         532         531
         527         528         533         532
         528         529         534         533
         530         531         536         535
         531         532         537         536
         532         533         538         537
         533         534         539         538
         535         536         541         540
         536         537         542         541
         537         538         543         542
         538         539         544         543
         540         541         546         545
         541         542         547         546
         542         543         548         547
         543         544         549         548
         550         551         556         555
         551         552         557         556
         552         553         558         557
         553         554         559         558
         555         556         561         560
         556         557         562         561
         557         558         563         562
         558         559         564         563
         560         561         566         565
         561         562         567         566
         562         563         568         567
         563         564         569         568
         565         566         571         570
         566         567         572         571
         567         568         573         572
         568         569         574         573
         575         576         581         580
         576         577         582         581
         577         578         583         582
         578         579         584         583
         580         581         586         585
         581         582         587         586
         582         583         588         587
         583         584         589         588
         585         586         591         590
         586         587         592         591
         587         588         593         592
         588         589         594         593
         590         591         596         595
         591         592         597         596
         592         593         598         597
         593         594         599         598
         600         601         606         605
         601         602         607         606
         602         603         608         607
         603         604         609         608
         605         606         611         610
         606         607         612         611
         607         608         613         612
         608         609         614         613
         610         611         616         615
         611         612         617         616
         612         613         618         617
         613         614         619         618
         615         616         621         620
         616         617         622         621
         617         618         623         622
         618         619         624         623
         625         626         631         630
         626         627         632         631
         627         628         633         632
         628         629         634         633
         630         631         636         635
         631         632         637         636
         632         633         638         637
         633         634         639         638
         635         636         641         640
         636         637         642         641
         637         638         643         642
         638         639         644         643
         640         641         646         645
         641         642         647         646
         642         643         648         647
         643         644         649         648
         650         651         656         655
         651         652         657         656
         652         653         658         657
         653         654         659         658
         655         656         661         660
         656         657         662         661
         657         658         663         662
         658         659         664         663
         660         661         666         665
         661         662         667         666
         662         663         668         667
         663         664         669         668
         665         666         671         670
         666         667         672         671
         667         668         673         672
         668         669         674         673
         675         676         681         680
         676         677         682         681
         677         678         683         682
         678         679         684         683
         680         681         686         685
         681         682         687         686
         682         683         688         687
         683         684         689         688
         685         686         691         690
         686         687         692         691
         687         688         693         692
         688         689         694         693
         690         691         696         695
         691         692         697         696
         692         693         698         697
         693         694         699         698
         700         701         706         705
         701         702         707         706
         702         703         708         707
         703         704         709         708
         705         706         711         710
         706         707         712         711
         707         708         713         712
         708         709         714         713
         710         711         716         715
         711         712         717         716
         712         713         718         717
         713         714         719         718
         715         716         721         720
         716         717         722         721
         717         718         723         722
         718         719         724         723
         725         726         731         730
         726         727         732         731
         727         728         733         732
         728         729         734         733
         730         731         736         735
         731         732         737         736
         732         733         738         737
         733         734         739         738
         735         736         741         740
         736         737         742         741
         737         738         743         742
         738         739         744         743
         740         741         746         745
         741         742         747         746
         742         743         748         747
         743         744         749         748
         750         751         756         755
         751         752         757         756
         752         753         758         757
         753         754         759         758
         755         756         761         760
         756         757         762         761
         757         758         763         762
         758         759         764         763
         760         761         766         765
         761         762         767         766
         762         763         768         767
         763         764         769         768
         765         766         771         770
         766         767         772         771
         767         768         773         772
         768         769         774         773
         775         776         781         780
         776         777         782         781
         777         778         783         782
         778         779         784         783
         780         781         786         785
         781         782         787         786
         782         783         788         787
         783         784         789         788
         785         786         791         790
         786         787         792         791
         787         788         793         792
         788         789         794         793
         790         791         796         795
         791         792         797         796
         792         793         798         797
         793         794         799         798
         800         801         806         805
         801         802         807         806
         802         803         808         807
         803         804         809         808
         805         806         811         810
         806         807         812         811
         807         808         813         812
         808         809         814         813
         810         811         816         815
         811         812         817         816
         812         813         818         817
         813         814         819         818
         815         816         821         820
         816         817         822         821
         817         818         823         822
         818         819         824         823
         825         826         831         830
         826         827         832         831
         827         828         833         832
         828         829         834         833
         830         831         836         835
         831         832         837         836
         832         833         838         837
         833         834         839         838
         835         836         841         840
         836         837         842         841
         837         838         843         842
         838         839         844         843
         840         841         846         845
         841         842         847         846
         842         843         848         847
         843         844         849         848
         850         851         856         855
         851         852         857         856
         852         853         858         857
         853         854         859         858
         855         856         861         860
         856         857         862         861
         857         858         863         862
         858         859         864         863
         860         861         866         865
         861         862         867         866
         862         863         868         867
         863         864         869         868
         865         866         871         870
         866         867         872         871
         867         868         873         872
         868         869         874         873
         875         876         881         880
         876         877         882         881
         877         878         883         882
         878         879         884         883
         880         881         886         885
         881         882         887         886
         882         883         888         887
         883         884         889         888
         885         886         891         890
         886         887         892         891
         887         888         893         892
         888         889         894         893
         890         891         896         895
         891         892         897         896
         892         893         898         897
         893         894         899         898
         900         901         906         905
         901         902         907         906
         902         903         908         907
         903         904         909         908
         905         906         911         910
         906         907         912         911
         907         908         913         912
         908         909         914         913
         910         911         916         915
         911         912         917         916
         912         913         918         917
         913         914         919         918
         915         916         921         920
         916         917         922         921
         917         918         923         922
         918         919         924         923
         925         926         931         930
         926         927         932         931
         927         928         933         932
         928         929         934         933
         930         931         936         935
         931         932         937         936
         932         933         938         937
         933         934         939         938
         935         936         941         940
         936         937         942         941
         937         938         943         942
         938         939         944         943
         940         941         946         945
         941         942         947         946
         942         943         948         947
         943         944         949         948
         950         951         956         955
         951         952         957         956
         952         953         958         957
         953         954         959         958
         955         956         961         960
         956         957         962         961
         957         958         963         962
         958         959         964         963
         960         961         966         965
         961         962         967         966
         962         963         968         967
         963         964         969         968
         965         966         971         970
         966         967         972         971
         967         968         973         972
         968         969         974         973
         975         976         981         980
         976         977         982         981
         977         978         983         982
         978         979         984         983
         980         981         986         985
         981         982         987         986
         982         983         988         987
         983         984         989         988
         985         986         991         990
         986         987         992         991
         987         988         993         992
         988         989         994         993
         990         991         996         995
         991         992         997         996
         992         993         998         997
         993         994         999         998
        1000        1001        1006        1005
        1001        1002        1007        1006
        1002        1003        1008        1007
        1003        1004        1009        1008
        1005        1006        1011        1010
        1006        1007        1012        1011
        1007        1008        1013        1012
        1008        1009        1014        1013
        1010        1011        1016        1015
        1011        1012        1017        1016
        1012        1013        1018        1017
        1013        1014        1019        1018
        1015        1016        1021        1020
        1016        1017        1022        1021
        1017        1018        1023        1022
        1018        1019        1024        1023
        1025        1026        1031        1030
        1026        1027        1032        1031
        1027        1028        1033        1032
        1028        1029        1034        1033
        1030        1031        1036        1035
        1031        1032        1037        1036
        1032        1033        1038        1037
        1033        1034        1039        1038
        1035        1036        1041        1040
        1036        1037        1042        1041
        1037        1038        1043        1042
        1038        1039        1044        1043
        1040        1041        1046        1045
        1041        1042        1047        1046
        1042        1043        1048        1047
        1043        1044        1049        1048
        1050        1051        1056        1055
        1051        1052        1057        1056
        1052        1053        1058        1057
        1053        1054        1059        1058
        1055        1056        1061        1060
        1056        1057        1062        1061
        1057        1058        1063        1062
        1058        1059        1064        1063
        1060        1061        1066        1065
        1061        1062        1067        1066
        1062        1063        1068        1067
        1063        1064        1069        1068
        1065        1066        1071        1070
        1066        1067        1072        1071
        1067        1068        1073        1072
        1068        1069        1074        1073
        1075        1076        1081        1080
        1076        1077        1082        1081
        1077        1078        1083        1082
        1078        1079        1084        1083
        1080        1081        1086        1085
        1081        1082        1087        1086
        1082        1083        1088        1087
        1083        1084        1089        1088
        1085        1086        1091        1090
        1086        1087        1092        1091
        1087        1088        1093        1092
        1088        1089        1094        1093
        1090        1091        1096        1095
        1091        1092        1097        1096
        1092        1093        1098        1097
        1093        1094        1099        1098
        1100        1101        1106        1105
        1101        1102        1107        1106
        1102        1103        1108        1107
        1103        1104        1109        1108
        1105        1106        1111        1110
        1106        1107        1112        1111
        1107        1108        1113        1112
        1108        1109        1114        1113
        1110        1111        1116        1115
        1111        1112        1117        1116
        1112        1113        1118        1117
        1113        1114        1119        1118
        1115        1116        1121        1120
        1116        1117        1122        1121
        1117        1118        1123        1122
        1118        1119        1124        1123
        1125        1126        1131        1130
        1126        1127        1132        1131
        1127        1128        1133        1132
        1128        1129        1134        1133
        1130        1131        1136        1135
        1131        1132        1137        1136
        1132        1133        1138        1137
        1133        1134        1139        1138
        1135        1136        1141        1140
        1136        1137        1142        1141
        1137        1138        1143        1142
        1138        1139        1144        1143
        1140        1141        1146        1145
        1141        1142        1147        1146
        1142        1143        1148        1147
        1143        1144        1149        1148
        1150        1151        1156        1155
        1151        1152        1157        1156
        1152        1153        1158        1157
        1153        1154        1159        1158
        1155        1156        1161        1160
        1156        1157        1162        1161
        1157        1158        1163        1162
        1158        1159        1164        1163
        1160        1161        1166        1165
        1161        1162        1167        1166
        1162        1163        1168        1167
        1163        1164        1169        1168
        1165        1166        1171        1170
        1166        1167        1172        1171
        1167        1168        1173        1172
        1168        1169        1174        1173
        1175        1176        1181        1180
        1176        1177        1182        1181
        1177        1178        1183        1182
        1178        1179        1184        1183
        1180        1181        1186        1185
        1181        1182        1187        1186
        1182        1183        1188        1187
        1183        1184        1189        1188
        1185        1186        1191        1190
        1186        1187        1192        1191
        1187        1188        1193        1192
        1188        1189        1194        1193
        1190        1191        1196        1195
        1191        1192        1197        1196
        1192        1193        1198        1197
        1193        1194        1199        1198
        1200        1201        1206        1205
        1201        1202        1207        1206
        1202        1203        1208        1207
        1203        1204        1209        1208
        1205        1206        1211        1210
        1206        1207        1212        1211
        1207        1208        1213        1212
        1208        1209        1214        1213
        1210        1211        1216        1215
        1211        1212        1217        1216
        1212        1213        1218        1217
        1213        1214        1219        1218
        1215        1216        1221        1220
        1216        1217        1222        1221
        1217        1218        1223        1222
        1218        1219        1224        1223
        1225        1226        1231        1230
        1226        1227        1232        1231
        1227        1228        1233        1232
        1228        1229        1234        1233
        1230        1231        1236        1235
        1231        1232        1237        1236
        1232        1233        1238        1237
        1233        1234        1239        1238
        1235        1236        1241        1240
        1236        1237        1242        1241
        1237        1238        1243        1242
        1238        1239        1244        1243
        1240        1241        1246        1245
        1241        1242        1247        1246
        1242        1243        1248        1247
        1243        1244        1249        1248
        1250        1251        1256        1255
        1251        1252        1257        1256
        1252        1253        1258        1257
        1253        1254        1259        1258
        1255        1256        1261        1260
        1256        1257        1262        1261
        1257        1258        1263        1262
        1258        1259        1264        1263
        1260        1261        1266        1265
        1261        1262        1267        1266
        1262        1263        1268        1267
        1263        1264        1269        1268
        1265        1266        1271        1270
        1266        1267        1272        1271
        1267        1268        1273        1272
        1268        1269        1274        1273
        1275        1276        1281        1280
        1276        1277        1282        1281
        1277        1278        1283        1282
        1278        1279        1284        1283
        1280        1281        1286        1285
        1281        1282        1287        1286
        1282        1283        1288        1287
        1283        1284        1289        1288
        1285        1286        1291        1290
        1286        1287        1292        1291
        1287        1288        1293        1292
        1288        1289        1294        1293
        1290        1291        1296        1295
        1291        1292        1297        1296
        1292        1293        1298        1297
        1293        1294        1299        1298
        1300        1301        1306        1305
        1301        1302        1307        1306
        1302        1303        1308        1307
        1303        1304        1309        1308
        1305        1306        1311        1310
        1306        1307        1312        1311
        1307        1308        1313        1312
        1308        1309        1314        1313
        1310        1311        1316        1315
        1311        1312        1317        1316
        1312        1313        1318        1317
        1313        1314        1319        1318
        1315        1316        1321        1320
        1316        1317        1322        1321
        1317        1318        1323        1322
        1318        1319        1324        1323
        1325        1326        1331        1330
        1326        1327        1332        1331
        1327        1328        1333        1332
        1328        1329        1334        1333
        1330        1331        1336        1335
        1331        1332        1337        1336
        1332        1333        1338        1337
        1333        1334        1339        1338
        1335        1336        1341        1340
        1336        1337        1342        1341
        1337        1338        1343        1342
        1338        1339        1344        1343
        1340        1341        1346        1345
        1341        1342        1347        1346
        1342        1343        1348        1347
        1343        1344        1349        1348
        1350        1351        1356        1355
        1351        1352        1357        1356
        1352        1353        1358        1357
        1353        1354        1359        1358
        1355        1356        1361        1360
        1356        1357        1362        1361
        1357        1358        1363        1362
        1358        1359        1364        1363
        1360        1361        1366        1365
        1361        1362        1367        1366
        1362        1363        1368        1367
        1363        1364        1369        1368
        1365        1366        1371        1370
        1366        1367        1372        1371
        1367        1368        1373        1372
        1368        1369        1374        1373
        1375        1376        1381        1380
        1376        1377        1382        1381
        1377        1378        1383        1382
        1378        1379        1384        1383
        1380        1381        1386        1385
        1381        1382        1387        1386
        1382        1383        1388        1387
        1383        1384        1389        1388
        1385        1386        1391        1390
        1386        1387        1392        1391
        1387        1388        1393        1392
        1388        1389        1394        1393
        1390        1391        1396        1395
        1391        1392        1397        1396
        1392        1393        1398        1397
        1393        1394        1399        1398
        1400        1401        1406        1405
        1401        1402        1407        1406
        1402        1403        1408        1407
        1403        1404        1409        1408
        1405        1406        1411        1410
        1406        1407        1412        1411
        1407        1408        1413        1412
        1408        1409        1414        1413
        1410        1411        1416        1415
        1411        1412        1417        1416
        1412        1413        1418        1417
        1413        1414        1419        1418
        1415        1416        1421        1420
        1416        1417        1422        1421
        1417        1418        1423        1422
        1418        1419        1424        1423
        1425        1426        1431        1430
        1426        1427        1432        1431
        1427        1428        1433        1432
        1428        1429        1434        1433
        1430        1431        1436        1435
        1431        1432        1437        1436
        1432        1433        1438        1437
        1433        1434        1439        1438
        1435        1436        1441        1440
        1436        1437        1442        1441
        1437        1438        1443        1442
        1438        1439        1444        1443
        1440        1441        1446        1445
        1441        1442        1447        1446
        1442        1443        1448        1447
        1443        1444        1449        1448
        1450        1451        1456        1455
        1451        1452        1457        1456
        1452        1453        1458        1457
        1453        1454        1459        1458
        1455        1456        1461        1460
        1456        1457        1462        1461
        1457        1458        1463        1462
        1458        1459        1464        1463
        1460        1461        1466        1465
        1461        1462        1467        1466
        1462        1463        1468        1467
        1463        1464        1469        1468
        1465        1466        1471        1470
        1466        1467        1472        1471
        1467        1468        1473        1472
        1468        1469        1474        1473
        1475        1476        1481        1480
        1476        1477        1482        1481
        1477        1478        1483        1482
        1478        1479        1484        1483
        1480        1481        1486        1485
        1481        1482        1487        1486
        1482        1483        1488        1487
        1483        1484        1489        1488
        1485        1486        1491        1490
        1486        1487        1492        1491
        1487        1488        1493        1492
        1488        1489        1494        1493
        1490        1491        1496        1495
        1491        1492        1497        1496
        1492        1493        1498        1497
        1493        1494        1499        1498
        1500        1501        1506        1505
        1501        1502        1507        1506
        1502        1503        1508        1507
        1503        1504        1509        1508
        1505        1506        1511        1510
        1506        1507        1512        1511
        1507        1508        1513        1512
        1508        1509        1514        1513
        1510        1511        1516        1515
        1511        1512        1517        1516
        1512        1513        1518        1517
        1513        1514        1519        1518
        1515        1516        1521        1520
        1516        1517        1522        1521
        1517        1518        1523        1522
        1518        1519        1524        1523
        1525        1526        1531        1530
        1526        1527        1532        1531
        1527        1528        1533        1532
        1528        1529        1534        1533
        1530        1531        1536        1535
        1531        1532        1537        1536
        1532        1533        1538        1537
        1533        1534        1539        1538
        1535        1536        1541        1540
        1536        1537        1542        1541
        1537        1538        1543        1542
        1538        1539        1544        1543
        1540        1541        1546        1545
        1541        1542        1547        1546
        1542        1543        1548        1547
        1543        1544        1549        1548
        1550        1551        1556        1555
        1551        1552        1557        1556
        1552        1553        1558        1557
        1553        1554        1559        1558
        1555        1556        1561        1560
        1556        1557        1562        1561
        1557        1558        1563        1562
        1558        1559        1564        1563
        1560        1561        1566        1565
        1561        1562        1567        1566
        1562        1563        1568        1567
        1563        1564        1569        1568
        1565        1566        1571        1570
        1566        1567        1572        1571
        1567        1568        1573        1572
        1568        1569        1574        1573
        1575        1576        1581        1580
        1576        1577        1582        1581
        1577        1578        1583        1582
        1578        1579        1584        1583
        1580        1581        1586        1585
        1581        1582        1587        1586
        1582        1583        1588        1587
        1583        1584        1589        1588
        1585        1586        1591        1590
        1586        1587        1592        1591
        1587        1588        1593        1592
        1588        1589        1594        1593
        1590        1591        1596        1595
        1591        1592        1597        1596
        1592        1593        1598        1597
        1593        1594        1599        1598
 </DataArray>
 <DataArray  type="Int32"  Name="offsets"  format="ascii"> 
           4
           8
          12
          16
          20
          24
          28
          32
          36
          40
          44
          48
          52
          56
          60
          64
          68
          72
          76
          80
          84
          88
          92
          96
         100
         104
         108
         112
         116
         120
         124
         128
         132
         136
         140
         144
         148
         152
         156
         160
         164
         168
         172
         176
         180
         184
         188
         192
         196
         200
         204
         208
         212
         216
         220
         224
         228
         232
         236
         240
         244
         248
         252
         256
         260
         264
         268
         272
         276
         280
         284
         288
         292
         296
         300
         304
         308
         312
         316
         320
         324
         328
         332
         336
         340
         344
         348
         352
         356
         360
         364
         368
         372
         376
         380
         384
         388
         392
         396
         400
         404
         408
         412
         416
         420
         424
         428
         432
         436
         440
         444
         448
         452
         456
         460
         464
         468
         472
         476
         480
         484
         488
         492
         496
         500
         504
         508
         512
         516
         520
         524
         528
         532
         536
         540
         544
         548
         552
         556
         560
         564
         568
         572
         576
         580
         584
         588
         592
         596
         600
         604
         608
         612
         616
         620
         624
         628
         632
         636
         640
         644
         648
         652
         656
         660
         664
         668
         672
         676
         680
         684
         688
         692
         696
         700
         704
         708
         712
         716
         720
         724
         728
         732
         736
         740
         744
         748
         752
         756
         760
         764
         768
         772
         776
         780
         784
         788
         792
         796
         800
         804
         808
         812
         816
         820
         824
         828
         832
         836
         840
         844
         848
         852
         856
         860
         864
         868
         872
         876
         880
         884
         888
         892
         896
         900
         904
         908
         912
         916
         920
         924
         928
         932
         936
         940
         944
         948
         952
         956
         960
         964
         968
         972
         976
         980
         984
         988
         992
         996
        1000
        1004
        1008
        1012
        1016
        1020
        1024
        1028
        1032
        1036
        1040
        1044
        1048
        1052
        1056
        1060
        1064
        1068
        1072
        1076
        1080
        1084
        1088
        1092
        1096
        1100
        1104
        1108
        1112
        1116
        1120
        1124
        1128
        1132
        1136
        1140
        1144
        1148
        1152
        1156
        1160
        1164
        1168
        1172
        1176
        1180
        1184
        1188
        1192
        1196
        1200
        1204
        1208
        1212
        1216
        1220
        1224
        1228
        1232
        1236
        1240
        1244
        1248
        1252
        1256
        1260
        1264
        1268
        1272
        1276
        1280
        1284
        1288
        1292
        1296
        1300
        1304
        1308
        1312
        1316
        1320
        1324
        1328
        1332
        1336
        1340
        1344
        1348
        1352
        1356
        1360
        1364
        1368
        1372
        1376
        1380
        1384
        1388
        1392
        1396
        1400
        1404
        1408
        1412
        1416
        1420
        1424
        1428
        1432
        1436
        1440
        1444
        1448
        1452
        1456
        1460
        1464
        1468
        1472
        1476
        1480
        1484
        1488
        1492
        1496
        1500
        1504
        1508
        1512
        1516
        1520
        1524
        1528
        1532
        1536
        1540
        1544
        1548
        1552
        1556
        1560
        1564
        1568
        1572
        1576
        1580
        1584
        1588
        1592
        1596
        1600
        1604
        1608
        1612
        1616
        1620
        1624
        1628
        1632
        1636
        1640
        1644
        1648
        1652
        1656
        1660
        1664
        1668
        1672
        1676
        1680
        1684
        1688
        1692
        1696
        1700
        1704
        1708
        1712
        1716
        1720
        1724
        1728
        1732
        1736
        1740
        1744
        1748
        1752
        1756
        1760
        1764
        1768
        1772
        1776
        1780
        1784
        1788
        1792
        1796
        1800
        1804
        1808
        1812
        1816
        1820
        1824
        1828
        1832
        1836
        1840
        1844
        1848
        1852
        1856
        1860
        1864
        1868
        1872
        1876
        1880
        1884
        1888
        1892
        1896
        1900
        1904
        1908
        1912
        1916
        1920
        1924
        1928
        1932
        1936
        1940
        1944
        1948
        1952
        1956
        1960
        1964
        1968
        1972
        1976
        1980
        1984
        1988
        1992
        1996
        2000
        2004
        2008
        2012
        2016
        2020
        2024
        2028
        2032
        2036
        2040
        2044
        2048
        2052
        2056
        2060
        2064
        2068
        2072
        2076
        2080
        2084
        2088
        2092
        2096
        2100
        2104
        2108
        2112
        2116
        2120
        2124
        2128
        2132
        2136
        2140
        2144
        2148
        2152
        2156
        2160
        2164
        2168
        2172
        2176
        2180
        2184
        2188
        2192
        2196
        2200
        2204
        2208
        2212
        2216
        2220
        2224
        2228
        2232
        2236
        2240
        2244
        2248
        2252
        2256
        2260
        2264
        2268
        2272
        2276
        2280
        2284
        2288
        2292
        2296
        2300
        2304
        2308
        2312
        2316
        2320
        2324
        2328
        2332
        2336
        2340
        2344
        2348
        2352
        2356
        2360
        2364
        2368
        2372
        2376
        2380
        2384
        2388
        2392
        2396
        2400
        2404
        2408
        2412
        2416
        2420
        2424
        2428
        2432
        2436
        2440
        2444
        2448
        2452
        2456
        2460
        2464
        2468
        2472
        2476
        2480
        2484
        2488
        2492
        2496
        2500
        2504
        2508
        2512
        2516
        2520
        2524
        2528
        2532
        2536
        2540
        2544
        2548
        2552
        2556
        2560
        2564
        2568
        2572
        2576
        2580
        2584
        2588
        2592
        2596
        2600
        2604
        2608
        2612
        2616
        2620
        2624
        2628
        2632
        2636
        2640
        2644
        2648
        2652
        2656
        2660
        2664
        2668
        2672
        2676
        2680
        2684
        2688
        2692
        2696
        2700
        2704
        2708
        2712
        2716
        2720
        2724
        2728
        2732
        2736
        2740
        2744
        2748
        2752
        2756
        2760
        2764
        2768
        2772
        2776
        2780
        2784
        2788
        2792
        2796
        2800
        2804
        2808
        2812
        2816
        2820
        2824
        2828
        2832
        2836
        2840
        2844
        2848
        2852
        2856
        2860
        2864
        2868
        2872
        2876
        2880
        2884
        2888
        2892
        2896
        2900
        2904
        2908
        2912
        2916
        2920
        2924
        2928
        2932
        2936
        2940
        2944
        2948
        2952
        2956
        2960
        2964
        2968
        2972
        2976
        2980
        2984
        2988
        2992
        2996
        3000
        3004
        3008
        3012
        3016
        3020
        3024
        3028
        3032
        3036
        3040
        3044
        3048
        3052
        3056
        3060
        3064
        3068
        3072
        3076
        3080
        3084
        3088
        3092
        3096
        3100
        3104
        3108
        3112
        3116
        3120
        3124
        3128
        3132
        3136
        3140
        3144
        3148
        3152
        3156
        3160
        3164
        3168
        3172
        3176
        3180
        3184
        3188
        3192
        3196
        3200
        3204
        3208
        3212
        3216
        3220
        3224
        3228
        3232
        3236
        3240
        3244
        3248
        3252
        3256
        3260
        3264
        3268
        3272
        3276
        3280
        3284
        3288
        3292
        3296
        3300
        3304
        3308
        3312
        3316
        3320
        3324
        3328
        3332
        3336
        3340
        3344
        3348
        3352
        3356
        3360
        3364
        3368
        3372
        3376
        3380
        3384
        3388
        3392
        3396
        3400
        3404
        3408
        3412
        3416
        3420
        3424
        3428
        3432
        3436
        3440
        3444
        3448
        3452
        3456
        3460
        3464
        3468
        3472
        3476
        3480
        3484
        3488
        3492
        3496
        3500
        3504
        3508
        3512
        3516
        3520
        3524
        3528
        3532
        3536
        3540
        3544
        3548
        3552
        3556
        3560
        3564
        3568
        3572
        3576
        3580
        3584
        3588
        3592
        3596
        3600
        3604
        3608
        3612
        3616
        3620
        3624
        3628
        3632
        3636
        3640
        3644
        3648
        3652
        3656
        3660
        3664
        3668
        3672
        3676
        3680
        3684
        3688
        3692
        3696
        3700
        3704
        3708
        3712
        3716
        3720
        3724
        3728
        3732
        3736
        3740
        3744
        3748
        3752
        3756
        3760
        3764
        3768
        3772
        3776
        3780
        3784
        3788
        3792
        3796
        3800
        3804
        3808
        3812
        3816
        3820
        3824
        3828
        3832
        3836
        3840
        3844
        3848
        3852
        3856
        3860
        3864
        3868
        3872
        3876
        3880
        3884
        3888
        3892
        3896
        3900
        3904
        3908
        3912
        3916
        3920
        3924
        3928
        3932
        3936
        3940
        3944
        3948
        3952
        3956
        3960
        3964
        3968
        3972
        3976
        3980
        3984
        3988
        3992
        3996
        4000
        4004
        4008
        4012
        4016
        4020
        4024
        4028
        4032
        4036
        4040
        4044
        4048
        4052
        4056
        4060
        4064
        4068
        4072
        4076
        4080
        4084
        4088
        4092
        4096
 </DataArray>
 <DataArray  type="UInt8"  Name="types"  format="ascii">
 9
 9
 9
 9
 9
 9
 9
 9
 9
 9
 9
 9
 9
 9
 9
 9
 9
 9
 9
 9
 9
 9
 9
 9
 9
 9
 9
 9
 9
 9
 9
 9
 9
 9
 9
 9
 9
 9
 9
 9
 9
 9
 9
 9
 9
 9
 9
 9
 9
 9
 9
 9
 9
 9
 9
 9
 9
 9
 9
 9
 9
 9
 9
 9
 9
 9
 9
 9
 9
 9
 9
 9
 9
 9
 9
 9
 9
 9
 9
 9
 9
 9
 9
 9
 9
 9
 9
 9
 9
 9
 9
 9
 9
 9
 9
 9
 9
 9
 9
 9
 9
 9
 9
 9
 9
 9
 9
 9
 9
 9
 9
 9
 9
 9
 9
 9
 9
 9
 9
 9
 9
 9
 9
 9
 9
 9
 9
 9
 9
 9
 9
 9
 9
 9
 9
 9
 9
 9
 9
 9
 9
 9
 9
 9
 9
 9
 9
 9
 9
 9
 9
 9
 9
 9
 9
 9
 9
 9
 9
 9
 9
 9
 9
 9
 9
 9
 9
 9
 9
 9
 9
 9
 9
 9
 9
 9
 9
 9
 9
 9
 9
 9
 9
 9
 9
 9
 9
 9
 9
 9
 9
 9
 9
 9
 9
 9
 9
 9
 9
 9
 9
 9
 9
 9
 9
 9
 9
 9
 9
 9
 9
 9
 9
 9
 9
 9
 9
 9
 9
 9
 9
 9
 9
 9
 9
 9
 9
 9
 9
 9
 9
 9
 9
 9
 9
 9
 9
 9
 9
 9
 9
 9
 9
 9
 9
 9
 9
 9
 9
 9
 9
 9
 9
 9
 9
 9
 9
 9
 9
 9
 9
 9
 9
 9
 9
 9
 9
 9
 9
 9
 9
 9
 9
 9
 9
 9
 9
 9
 9
 9
 9
 9
 9
 9
 9
 9
 9
 9
 9
 9
 9
 9
 9
 9
 9
 9
 9
 9
 9
 9
 9
 9
 9
 9
 9
 9
 9
 9
 9
 9
 9
 9
 9
 9
 9
 9
 9
 9
 9
 9
 9
 9
 9
 9
 9
 9
 9
 9
 9
 9
 9
 9
 9
 9
 9
 9
 9
 9
 9
 9
 9
 9
 9
 9
 9
 9
 9
 9
 9
 9
 9
 9
 9
 9
 9
 9
 9
 9
 9
 9
 9
 9
 9
 9
 9
 9
 9
 9
 9
 9
 9
 9
 9
 9
 9
 9
 9
 9
 9
 9
 9
 9
 9
 9
 9
 9
 9
 9
 9
 9
 9
 9
 9
 9
 9
 9
 9
 9
 9
 9
 9
 9
 9
 9
 9
 9
 9
 9
 9
 9
 9
 9
 9
 9
 9
 9
 9
 9
 9
 9
 9
 9
 9
 9
 9
 9
 9
 9
 9
 9
 9
 9
 9
 9
 9
 9
 9
 9
 9
 9
 9
 9
 9
 9
 9
 9
 9
 9
 9
 9
 9
 9
 9
 9
 9
 9
 9
 9
 9
 9
 9
 9
 9
 9
 9
 9
 9
 9
 9
 9
 9
 9
 9
 9
 9
 9
 9
 9
 9
 9
 9
 9
 9
 9
 9
 9
 9
 9
 9
 9
 9
 9
 9
 9
 9
 9
 9
 9
 9
 9
 9
 9
 9
 9
 9
 9
 9
 9
 9
 9
 9
 9
 9
 9
 9
 9
 9
 9
 9
 9
 9
 9
 9
 9
 9
 9
 9
 9
 9
 9
 9
 9
 9
 9
 9
 9
 9
 9
 9
 9
 9
 9
 9
 9
 9
 9
 9
 9
 9
 9
 9
 9
 9
 9
 9
 9
 9
 9
 9
 9
 9
 9
 9
 9
 9
 9
 9
 9
 9
 9
 9
 9
 9
 9
 9
 9
 9
 9
 9
 9
 9
 9
 9
 9
 9
 9
 9
 9
 9
 9
 9
 9
 9
 9
 9
 9
 9
 9
 9
 9
 9
 9
 9
 9
 9
 9
 9
 9
 9
 9
 9
 9
 9
 9
 9
 9
 9
 9
 9
 9
 9
 9
 9
 9
 9
 9
 9
 9
 9
 9
 9
 9
 9
 9
 9
 9
 9
 9
 9
 9
 9
 9
 9
 9
 9
 9
 9
 9
 9
 9
 9
 9
 9
 9
 9
 9
 9
 9
 9
 9
 9
 9
 9
 9
 9
 9
 9
 9
 9
 9
 9
 9
 9
 9
 9
 9
 9
 9
 9
 9
 9
 9
 9
 9
 9
 9
 9
 9
 9
 9
 9
 9
 9
 9
 9
 9
 9
 9
 9
 9
 9
 9
 9
 9
 9
 9
 9
 9
 9
 9
 9
 9
 9
 9
 9
 9
 9
 9
 9
 9
 9
 9
 9
 9
 9
 9
 9
 9
 9
 9
 9
 9
 9
 9
 9
 9
 9
 9
 9
 9
 9
 9
 9
 9
 9
 9
 9
 9
 9
 9
 9
 9
 9
 9
 9
 9
 9
 9
 9
 9
 9
 9
 9
 9
 9
 9
 9
 9
 9
 9
 9
 9
 9
 9
 9
 9
 9
 9
 9
 9
 9
 9
 9
 9
 9
 9
 9
 9
 9
 9
 9
 9
 9
 9
 9
 9
 9
 9
 9
 9
 9
 9
 9
 9
 9
 9
 9
 9
 9
 9
 9
 9
 9
 9
 9
 9
 9
 9
 9
 9
 9
 9
 9
 9
 9
 9
 9
 9
 9
 9
 9
 9
 9
 9
 9
 9
 9
 9
 9
 9
 9
 9
 9
 9
 9
 9
 9
 9
 9
 9
 9
 9
 9
 9
 9
 9
 9
 9
 9
 9
 9
 9
 9
 9
 9
 9
 9
 9
 9
 9
 9
 9
 9
 9
 9
 9
 9
 9
 9
 9
 9
 9
 9
 9
 9
 9
 9
 9
 9
 9
 9
 9
 9
 9
 9
 9
 9
 9
 9
 9
 9
 9
 9
 9
 9
 9
 9
 9
 9
 9
 9
 9
 9
 9
 9
 9
 9
 9
 9
 9
 9
 9
 9
 9
 9
 9
 9
 9
 9
 9
 9
 9
 9
 9
 9
 9
 9
 9
 9
 9
 9
 9
 9
 9
 9
 9
 9
 9
 9
 9
 9
 9
 9
 9
 9
 9
 9
 9
 9
 9
 9
 9
 9
 9
 9
 9
 9
 9
 9
 9
 9
 9
 9
 9
 9
 9
 9
 9
 9
 9
 9
 9
 9
 9
 9
 9
 9
 9
 9
 9
 9
 9
 9
 9
 9
 9
 9
 9
 9
 9
 9
 9
 9
 9
 9
 9
 9
 9
 9
 9
 9
 9
 9
 9
 9
 9
 9
 9
 9
 9
 9
 9
 9
 9
 </DataArray>
 </Cells> 
 <PointData>
 <DataArray  type="Float64" Name="disp" NumberOfComponents="3" format="ascii">
   6.5515719135062170E-002   6.2783466860493686E-002   0.0000000000000000     
   6.8493988628636399E-002   6.8178534205999619E-002   0.0000000000000000     
   7.1398102597368507E-002   7.3749175640944825E-002   0.0000000000000000     
   7.4228061041258495E-002   7.9495391165329332E-002   0.0000000000000000     
   7.6983863960306362E-002   8.5417180779153126E-002   0.0000000000000000     
   6.0115641565543387E-002   6.1885595401463961E-002   0.0000000000000000     
   6.2988762573098780E-002   6.7302475888188981E-002   0.0000000000000000     
   6.5770417594583228E-002   7.2897494925726836E-002   0.0000000000000000     
   6.8460606629996729E-002   7.8670652514077552E-002   0.0000000000000000     
   7.1059329679339284E-002   8.4621948653241130E-002   0.0000000000000000     
   5.5026017427637283E-002   6.1041953168543633E-002   0.0000000000000000     
   5.7756073095550732E-002   6.6481571359665634E-002   0.0000000000000000     
   6.0387135343197715E-002   7.2100858370632362E-002   0.0000000000000000     
   6.2919204170578225E-002   7.7899814201443832E-002   0.0000000000000000     
   6.5352279577692282E-002   8.3878438852100043E-002   0.0000000000000000     
   5.0246846721343830E-002   6.0252540161732690E-002   0.0000000000000000     
   5.2795920195992246E-002   6.5715820620429563E-002   0.0000000000000000     
   5.5248255843211976E-002   7.1359265975661404E-002   0.0000000000000000     
   5.7603853663003010E-002   7.7182876227428143E-002   0.0000000000000000     
   5.9862713655365350E-002   8.3186651375729850E-002   0.0000000000000000     
   4.5778129446663041E-002   5.9517356381031145E-002   0.0000000000000000     
   4.8108303874423324E-002   6.5005223670480811E-002   0.0000000000000000     
   5.0353779094625996E-002   7.0672717740813934E-002   0.0000000000000000     
   5.2514555107271044E-002   7.6519838592030501E-002   0.0000000000000000     
   5.4590631912358488E-002   8.2546586224130525E-002   0.0000000000000000     
   7.6983863960306362E-002   8.5417180779153126E-002   0.0000000000000000     
   7.9657079020291316E-002   9.1507076396240034E-002   0.0000000000000000     
   8.2239273886992537E-002   9.7757609930413922E-002   0.0000000000000000     
   8.4730448560410052E-002  0.10416878138167476        0.0000000000000000     
   8.7130603040543847E-002  0.11074059075002257        0.0000000000000000     
   7.1059329679339284E-002   8.4621948653241130E-002   0.0000000000000000     
   7.3569650212108595E-002   9.0742050119406475E-002   0.0000000000000000     
   7.5994631697802351E-002   9.7021623688762534E-002   0.0000000000000000     
   7.8334274136420551E-002  0.10346066936130932        0.0000000000000000     
   8.0588577527963196E-002  0.11005918713704681        0.0000000000000000     
   6.5352279577692282E-002   8.3878438852100043E-002   0.0000000000000000     
   6.7696187369121807E-002   9.0026263291021896E-002   0.0000000000000000     
   6.9960753349448790E-002   9.6332818486630334E-002   0.0000000000000000     
   7.2145977518673202E-002  0.10279810443892531        0.0000000000000000     
   7.4251859876795057E-002  0.10942212114790685        0.0000000000000000     
   5.9862713655365350E-002   8.3186651375729850E-002   0.0000000000000000     
   6.2036690491330981E-002   8.9359715911086240E-002   0.0000000000000000     
   6.4137638841931841E-002   9.5691194324017209E-002   0.0000000000000000     
   6.6165558707168004E-002  0.10218108661452271        0.0000000000000000     
   6.8120450087039389E-002  0.10882939278260273        0.0000000000000000     
   5.4590631912358488E-002   8.2546586224130525E-002   0.0000000000000000     
   5.6591159578736068E-002   8.8742407979599577E-002   0.0000000000000000     
   5.8525288175251551E-002   9.5096751200923257E-002   0.0000000000000000     
   6.0393017701904930E-002  0.10160961588810154        0.0000000000000000     
   6.2194348158696212E-002  0.10828100204113442        0.0000000000000000     
   8.7130603040543847E-002  0.11074059075002257        0.0000000000000000     
   8.9434792796202089E-002  0.11745842528747664        0.0000000000000000     
   9.1638073296192918E-002  0.12430767224605625        0.0000000000000000     
   9.3740444540516402E-002  0.13128833162576145        0.0000000000000000     
   9.5741906529172471E-002  0.13840040342659221        0.0000000000000000     
   8.0588577527963196E-002  0.11005918713704681        0.0000000000000000     
   8.2752588980688907E-002  0.11680352664364857        0.0000000000000000     
   8.4821355602856280E-002  0.12368003750878816        0.0000000000000000     
   8.6794877394465342E-002  0.13068871973246562        0.0000000000000000     
   8.8673154355516051E-002  0.13782957331468093        0.0000000000000000     
   7.4251859876795057E-002  0.10942212114790685        0.0000000000000000     
   7.6273369771626520E-002  0.11619184071052227        0.0000000000000000     
   7.8205476550979799E-002  0.12309423522371889        0.0000000000000000     
   8.0048180214854853E-002  0.13012930468749664        0.0000000000000000     
   8.1801480763251722E-002  0.13729704910185556        0.0000000000000000     
   6.8120450087039389E-002  0.10882939278260273        0.0000000000000000     
   6.9997135169014915E-002  0.11562336748809779        0.0000000000000000     
   7.1790436140563421E-002  0.12255026539084839        0.0000000000000000     
   7.3500353001684948E-002  0.12961008649085451        0.0000000000000000     
   7.5126885752379483E-002  0.13680283078811614        0.0000000000000000     
   6.2194348158696212E-002  0.10828100204113442        0.0000000000000000     
   6.3923885172854092E-002  0.11509810697637507        0.0000000000000000     
   6.5576234371607228E-002  0.12204812801017668        0.0000000000000000     
   6.7151395754955656E-002  0.12913106514253919        0.0000000000000000     
   6.8649369322899362E-002  0.13634691837346269        0.0000000000000000     
   9.5741906529172471E-002  0.13840040342659221        0.0000000000000000     
   9.7647723801600167E-002  0.14563362527187490        0.0000000000000000     
   9.9463160897238431E-002  0.15297773478493590        0.0000000000000000     
  0.10118821781608728       0.16043273196577520        0.0000000000000000     
  0.10282289455814672       0.16799861681439282        0.0000000000000000     
   8.8673154355516051E-002  0.13782957331468093        0.0000000000000000     
   9.0461332417984458E-002  0.14509136584572060        0.0000000000000000     
   9.2164557513846584E-002  0.15246286491587124        0.0000000000000000     
   9.3782829643102458E-002  0.15994407052513288        0.0000000000000000     
   9.5316148805752024E-002  0.16753498267350542        0.0000000000000000     
   8.1801480763251722E-002  0.13729704910185556        0.0000000000000000     
   8.3470118009126737E-002  0.14458566402005349        0.0000000000000000     
   8.5058831765436271E-002  0.15198334499534835        0.0000000000000000     
   8.6567622032180325E-002  0.15949009202774009        0.0000000000000000     
   8.7996488809358869E-002  0.16710590511722867        0.0000000000000000     
   7.5126885752379483E-002  0.13680283078811614        0.0000000000000000     
   7.6674080575026990E-002  0.14411651979487361        0.0000000000000000     
   7.8145983652007450E-002  0.15153917502336717        0.0000000000000000     
   7.9542594983320905E-002  0.15907079647359681        0.0000000000000000     
   8.0863914568967285E-002  0.16671138414556255        0.0000000000000000     
   6.8649369322899362E-002  0.13634691837346269        0.0000000000000000     
   7.0073220115685231E-002  0.14368393317018088        0.0000000000000000     
   7.1426013173560163E-002  0.15113035499992769        0.0000000000000000     
   7.2707748496524158E-002  0.15868618386270308        0.0000000000000000     
   7.3918426084577216E-002  0.16635141975850706        0.0000000000000000     
  0.10282289455814672       0.16799861681439282        0.0000000000000000     
  0.10436946881769033       0.17566460154927627        0.0000000000000000     
  0.10583021828899163       0.18341989838891312        0.0000000000000000     
  0.10720514297205067       0.19126450733330336        0.0000000000000000     
  0.10849424286686742       0.19919842838244695        0.0000000000000000     
   9.5316148805752024E-002  0.16753498267350542        0.0000000000000000     
   9.6764883314744102E-002  0.17522584087204748        0.0000000000000000     
   9.8129401483027470E-002  0.18300688463181758        0.0000000000000000     
   9.9409703310602129E-002  0.19087811395281565        0.0000000000000000     
  0.10060578879746804       0.19883952883504180        0.0000000000000000     
   8.7996488809358869E-002  0.16710590511722867        0.0000000000000000     
   8.9344482139557396E-002  0.17482152139948703        0.0000000000000000     
   9.0610652065361313E-002  0.18262767801018803        0.0000000000000000     
   9.1794998586770621E-002  0.19052437494933164        0.0000000000000000     
   9.2897521703785332E-002  0.19851161221691785        0.0000000000000000     
   8.0863914568967285E-002  0.16671138414556255        0.0000000000000000     
   8.2108265292130167E-002  0.17445164313159492        0.0000000000000000     
   8.3273970035993142E-002  0.18228227852402451        0.0000000000000000     
   8.4361028800556195E-002  0.19020329032285122        0.0000000000000000     
   8.5369441585819314E-002  0.19821467852807509        0.0000000000000000     
   7.3918426084577216E-002  0.16635141975850706        0.0000000000000000     
   7.5056232772462456E-002  0.17411620606837119        0.0000000000000000     
   7.6119355394922997E-002  0.18197068617332696        0.0000000000000000     
   7.7107793951958825E-002  0.18991486007337441        0.0000000000000000     
   7.8021548443569927E-002  0.19794872776851355        0.0000000000000000     
  0.10849424286686742       0.19919842838244695        0.0000000000000000     
  0.10970268913669388       0.20721789230374421        0.0000000000000000     
  0.11083565294478206       0.21531912986459534        0.0000000000000000     
  0.11189313429113201       0.22350214106500035        0.0000000000000000     
  0.11287513317574366       0.23176692590495929        0.0000000000000000     
  0.10060578879746804       0.19883952883504180        0.0000000000000000     
  0.10172314760012802       0.20688478608124017        0.0000000000000000     
  0.10276726937508478       0.21500754249415513        0.0000000000000000     
  0.10373815412233835       0.22320779807378660        0.0000000000000000     
  0.10463580184188871       0.23148555282013461        0.0000000000000000     
   9.2897521703785332E-002  0.19851161221691785        0.0000000000000000     
   9.3923079595115214E-002  0.20658161769969233        0.0000000000000000     
   9.4876530439470003E-002  0.21472661928440082        0.0000000000000000     
   9.5757874236849685E-002  0.22294661697104326        0.0000000000000000     
   9.6567110987254290E-002  0.23124161075961969        0.0000000000000000     
   8.5369441585819314E-002  0.19821467852807509        0.0000000000000000     
   8.6302485121655476E-002  0.20630838715910063        0.0000000000000000     
   8.7163436137937700E-002  0.21447636023533240        0.0000000000000000     
   8.7952294634666001E-002  0.22271859775677036        0.0000000000000000     
   8.8669060611840378E-002  0.23103509972341446        0.0000000000000000     
   7.8021548443569927E-002  0.19794872776851355        0.0000000000000000     
   7.8861364179748830E-002  0.20606509445946508        0.0000000000000000     
   7.9627986470487952E-002  0.21425676534694985        0.0000000000000000     
   8.0321415315787334E-002  0.22252374043096784        0.0000000000000000     
   8.0941650715646962E-002  0.23086601971151904        0.0000000000000000     
  0.11287513317574366       0.23176692590495929        0.0000000000000000     
  0.11380987909643601       0.24013002708610190        0.0000000000000000     
  0.11472560155102809       0.24860798731005809        0.0000000000000000     
  0.11562230053951990       0.25720080657682781        0.0000000000000000     
  0.11649997606191140       0.26590848488641117        0.0000000000000000     
  0.10463580184188871       0.23148555282013461        0.0000000000000000     
  0.10546525803553800       0.23986431298287111        0.0000000000000000     
  0.10623156820508836       0.24836758481166815        0.0000000000000000     
  0.10693473235053978       0.25699536830652564        0.0000000000000000     
  0.10757475047189227       0.26574766346744361        0.0000000000000000     
   9.6567110987254290E-002  0.23124161075961969        0.0000000000000000     
   9.7295080181093105E-002  0.23963810707682798        0.0000000000000000     
   9.7932621308775475E-002  0.24816261234936590        0.0000000000000000     
   9.8479734370301386E-002  0.25681512657723360        0.0000000000000000     
   9.8936419365670852E-002  0.26559564976043093        0.0000000000000000     
   8.8669060611840378E-002  0.23103509972341446        0.0000000000000000     
   8.9299345533101329E-002  0.23945140936797232        0.0000000000000000     
   8.9828760862089435E-002  0.24799306992315145        0.0000000000000000     
   9.0257306598804724E-002  0.25666008138895169        0.0000000000000000     
   9.0584982743247167E-002  0.26545244376537336        0.0000000000000000     
   8.0941650715646962E-002  0.23086601971151904        0.0000000000000000     
   8.1478054091562668E-002  0.23930421985630437        0.0000000000000000     
   8.1919986865030256E-002  0.24785895753302473        0.0000000000000000     
   8.2267449036049781E-002  0.25653023274168013        0.0000000000000000     
   8.2520440604621187E-002  0.26531804548227061        0.0000000000000000     
  0.11649997606191140       0.26590848488641117        0.0000000000000000     
  0.11729896892275885       0.27489561835752196        0.0000000000000000     
  0.11795961992661844       0.28432680310887382        0.0000000000000000     
  0.11848192907349021       0.29420203914046694        0.0000000000000000     
  0.11886589636337415       0.30452132645230123        0.0000000000000000     
  0.10757475047189227       0.26574766346744361        0.0000000000000000     
  0.10813264937197756       0.27475659649970130        0.0000000000000000     
  0.10858945585362732       0.28415429360857802        0.0000000000000000     
  0.10894516991684161       0.29394075479407367        0.0000000000000000     
  0.10919979156162038       0.30411598005618834        0.0000000000000000     
   9.8936419365670852E-002  0.26559564976043093        0.0000000000000000     
   9.9313705789238343E-002  0.27460245115729714        0.0000000000000000     
   9.9622623135358301E-002  0.28393380002617119        0.0000000000000000     
   9.9863171404030726E-002  0.29358969636705318        0.0000000000000000     
  0.10003535059525569       0.30357014017994299        0.0000000000000000     
   9.0584982743247167E-002  0.26545244376537336        0.0000000000000000     
   9.0842138174541232E-002  0.27443318233030939        0.0000000000000000     
   9.1059121771811399E-002  0.28366532236165354        0.0000000000000000     
   9.1235933535057670E-002  0.29314886385940531        0.0000000000000000     
   9.1372573464280071E-002  0.30288380682356514        0.0000000000000000     
   8.2520440604621187E-002  0.26531804548227061        0.0000000000000000     
   8.2717946527886221E-002  0.27424879001873814        0.0000000000000000     
   8.2898951762986631E-002  0.28334886061502462        0.0000000000000000     
   8.3063456309922401E-002  0.29261825727113022        0.0000000000000000     
   8.3211460168693546E-002  0.30205697998705483        0.0000000000000000     
   4.5778129446663041E-002   5.9517356381031145E-002   0.0000000000000000     
   4.8108303874423324E-002   6.5005223670480811E-002   0.0000000000000000     
   5.0353779094625996E-002   7.0672717740813934E-002   0.0000000000000000     
   5.2514555107271044E-002   7.6519838592030501E-002   0.0000000000000000     
   5.4590631912358488E-002   8.2546586224130525E-002   0.0000000000000000     
   4.1491716143190978E-002   5.8839673905341713E-002   0.0000000000000000     
   4.3594754393182965E-002   6.4350844953087766E-002   0.0000000000000000     
   4.5627787189409942E-002   7.0040889908650594E-002   0.0000000000000000     
   4.7590814531871896E-002   7.5909808772030171E-002   0.0000000000000000     
   4.9483836420568833E-002   8.1957601543226510E-002   0.0000000000000000     
   3.7259457350523710E-002   5.8222764813567092E-002   0.0000000000000000     
   3.9156802014610186E-002   6.3753748911518887E-002   0.0000000000000000     
   4.0994362219533974E-002   6.9463458721732013E-002   0.0000000000000000     
   4.2772137965295103E-002   7.5351894244206449E-002   0.0000000000000000     
   4.4490129251893551E-002   8.1419055478942209E-002   0.0000000000000000     
   3.3081353068661230E-002   5.7666629105707280E-002   0.0000000000000000     
   3.4794446738704965E-002   6.3213935545774175E-002   0.0000000000000000     
   3.6453504184998091E-002   6.8940424180058191E-002   0.0000000000000000     
   3.8058525407540657E-002   7.4846095008559363E-002   0.0000000000000000     
   3.9609510406332621E-002   8.0930948031277636E-002   0.0000000000000000     
   2.8957403297603553E-002   5.7171266781762292E-002   0.0000000000000000     
   3.0507688565467296E-002   6.2731404855853601E-002   0.0000000000000000     
   3.2005213085802300E-002   6.8471786283629113E-002   0.0000000000000000     
   3.3449976858608552E-002   7.4392411065088843E-002   0.0000000000000000     
   3.4841979883886050E-002   8.0493279200232748E-002   0.0000000000000000     
   5.4590631912358488E-002   8.2546586224130525E-002   0.0000000000000000     
   5.6591159578736068E-002   8.8742407979599577E-002   0.0000000000000000     
   5.8525288175251551E-002   9.5096751200923257E-002   0.0000000000000000     
   6.0393017701904930E-002  0.10160961588810154        0.0000000000000000     
   6.2194348158696212E-002  0.10828100204113442        0.0000000000000000     
   4.9483836420568833E-002   8.1957601543226510E-002   0.0000000000000000     
   5.1311817157290308E-002   8.8174232202528485E-002   0.0000000000000000     
   5.3079721043825828E-002   9.4549664730224983E-002   0.0000000000000000     
   5.4787548080175427E-002  0.10108389912631598        0.0000000000000000     
   5.6435298266339098E-002  0.10777693539080146        0.0000000000000000     
   4.4490129251893551E-002   8.1419055478942209E-002   0.0000000000000000     
   4.6150885752946888E-002   8.7655081285839626E-002   0.0000000000000000     
   4.7756957142072676E-002   9.4050110524798947E-002   0.0000000000000000     
   4.9308343419270886E-002  0.10060414319582023        0.0000000000000000     
   5.0805044584541562E-002  0.10731717929890346        0.0000000000000000     
   3.9609510406332621E-002   8.0930948031277636E-002   0.0000000000000000     
   4.1108365365705814E-002   8.7184955229532943E-002   0.0000000000000000     
   4.2556996469992045E-002   9.3598088584645175E-002   0.0000000000000000     
   4.3955403719191329E-002  0.10017034809661433        0.0000000000000000     
   4.5303587113303637E-002  0.10690173376544035        0.0000000000000000     
   3.4841979883886050E-002   8.0493279200232748E-002   0.0000000000000000     
   3.6184255995567099E-002   8.6763854033608478E-002   0.0000000000000000     
   3.7479839027583992E-002   9.3193598909763642E-002   0.0000000000000000     
   3.8728728979936733E-002   9.9782513828698197E-002   0.0000000000000000     
   3.9930925852625317E-002  0.10653059879041216        0.0000000000000000     
   6.2194348158696212E-002  0.10828100204113442        0.0000000000000000     
   6.3923885172854092E-002  0.11509810697637507        0.0000000000000000     
   6.5576234371607228E-002  0.12204812801017668        0.0000000000000000     
   6.7151395754955656E-002  0.12913106514253919        0.0000000000000000     
   6.8649369322899362E-002  0.13634691837346269        0.0000000000000000     
   5.6435298266339098E-002  0.10777693539080146        0.0000000000000000     
   5.8017503361250951E-002  0.11461580127328726        0.0000000000000000     
   5.9528695123845184E-002  0.12158752452337902        0.0000000000000000     
   6.0968873554121762E-002  0.12869210514107682        0.0000000000000000     
   6.2338038652080721E-002  0.13592954312638064        0.0000000000000000     
   5.0805044584541562E-002  0.10731717929890346        0.0000000000000000     
   5.2241873312312434E-002  0.11417619247676734        0.0000000000000000     
   5.3613642277011292E-002  0.12116815637213069        0.0000000000000000     
   5.4920351478638128E-002  0.12829307098499340        0.0000000000000000     
   5.6162000917192936E-002  0.13555093631535559        0.0000000000000000     
   4.5303587113303637E-002  0.10690173376544035        0.0000000000000000     
   4.6596995026038535E-002  0.11377928058681543        0.0000000000000000     
   4.7831075831105560E-002  0.12079002355643163        0.0000000000000000     
   4.9005829528504727E-002  0.12793396267428900        0.0000000000000000     
   5.0121256118236035E-002  0.13521109794038749        0.0000000000000000     
   3.9930925852625317E-002  0.10653059879041216        0.0000000000000000     
   4.1082868502429239E-002  0.11342506560343142        0.0000000000000000     
   4.2180995786127995E-002  0.12045312607628189        0.0000000000000000     
   4.3225307703721579E-002  0.12761478020896350        0.0000000000000000     
   4.4215804255210003E-002  0.13491002800147633        0.0000000000000000     
   6.8649369322899362E-002  0.13634691837346269        0.0000000000000000     
   7.0073220115685231E-002  0.14368393317018088        0.0000000000000000     
   7.1426013173560163E-002  0.15113035499992769        0.0000000000000000     
   7.2707748496524158E-002  0.15868618386270308        0.0000000000000000     
   7.3918426084577216E-002  0.16635141975850706        0.0000000000000000     
   6.2338038652080721E-002  0.13592954312638064        0.0000000000000000     
   6.3638291808431252E-002  0.14328843408191724        0.0000000000000000     
   6.4871734413882651E-002  0.15075737361031341        0.0000000000000000     
   6.6038366468434917E-002  0.15833636171156915        0.0000000000000000     
   6.7138187972088037E-002  0.16602539838568436        0.0000000000000000     
   5.6162000917192936E-002  0.13555093631535559        0.0000000000000000     
   5.7340050830594902E-002  0.14293055246602454        0.0000000000000000     
   5.8455961456763253E-002  0.15042071953980773        0.0000000000000000     
   5.9509732795697969E-002  0.15802143753670503        0.0000000000000000     
   6.0501364847399042E-002  0.16573270645671659        0.0000000000000000     
   5.0121256118236035E-002  0.13521109794038749        0.0000000000000000     
   5.1178497182176208E-002  0.14261028832250278        0.0000000000000000     
   5.2178694302201949E-002  0.15012039278841063        0.0000000000000000     
   5.3121847478313299E-002  0.15774141133811093        0.0000000000000000     
   5.4007956710510230E-002  0.16547334397160382        0.0000000000000000     
   4.4215804255210003E-002  0.13491002800147633        0.0000000000000000     
   4.5153630863175108E-002  0.14232764165135200        0.0000000000000000     
   4.6039932950198752E-002  0.14985639335612214        0.0000000000000000     
   4.6874710516280921E-002  0.15749628311578676        0.0000000000000000     
   4.7657963561421615E-002  0.16524731093034592        0.0000000000000000     
   7.3918426084577216E-002  0.16635141975850706        0.0000000000000000     
   7.5056232772462456E-002  0.17411620606837119        0.0000000000000000     
   7.6119355394922997E-002  0.18197068617332696        0.0000000000000000     
   7.7107793951958825E-002  0.18991486007337441        0.0000000000000000     
   7.8021548443569927E-002  0.19794872776851355        0.0000000000000000     
   6.7138187972088037E-002  0.16602539838568436        0.0000000000000000     
   6.8169473361496175E-002  0.17381391345085381        0.0000000000000000     
   6.9130497073313549E-002  0.18169133672527199        0.0000000000000000     
   7.0021259107540104E-002  0.18965766820893892        0.0000000000000000     
   7.0841759464175882E-002  0.19771290790185461        0.0000000000000000     
   6.0501364847399042E-002  0.16573270645671659        0.0000000000000000     
   6.1429075840173278E-002  0.17354346852008079        0.0000000000000000     
   6.2291084002327496E-002  0.18144266594703604        0.0000000000000000     
   6.3087389333861682E-002  0.18943029873758238        0.0000000000000000     
   6.3817991834775836E-002  0.19750636689171971        0.0000000000000000     
   5.4007956710510230E-002  0.16547334397160382        0.0000000000000000     
   5.4835040208493752E-002  0.17330487127605218        0.0000000000000000     
   5.5601116181964845E-002  0.18122467383861918        0.0000000000000000     
   5.6306184630923524E-002  0.18923275165930473        0.0000000000000000     
   5.6950245555369768E-002  0.19732910473810888        0.0000000000000000     
   4.7657963561421615E-002  0.16524731093034592        0.0000000000000000     
   4.8387366466457589E-002  0.17309812171876796        0.0000000000000000     
   4.9060593612225603E-002  0.18103736040002133        0.0000000000000000     
   4.9677644998725644E-002  0.18906502697410602        0.0000000000000000     
   5.0238520625957704E-002  0.19718112144102204        0.0000000000000000     
   7.8021548443569927E-002  0.19794872776851355        0.0000000000000000     
   7.8861364179748830E-002  0.20606509445946508        0.0000000000000000     
   7.9627986470487952E-002  0.21425676534694985        0.0000000000000000     
   8.0321415315787334E-002  0.22252374043096784        0.0000000000000000     
   8.0941650715646962E-002  0.23086601971151904        0.0000000000000000     
   7.0841759464175882E-002  0.19771290790185461        0.0000000000000000     
   7.1590303314419887E-002  0.20585086396228303        0.0000000000000000     
   7.2265195829471149E-002  0.21406534454848816        0.0000000000000000     
   7.2866437009329640E-002  0.22235634966047002        0.0000000000000000     
   7.3394026853995403E-002  0.23072387929822860        0.0000000000000000     
   6.3817991834775836E-002  0.19750636689171971        0.0000000000000000     
   6.4479889070693394E-002  0.20566482002905184        0.0000000000000000     
   6.5070078607237763E-002  0.21389960776918232        0.0000000000000000     
   6.5588560444408986E-002  0.22221073011211120        0.0000000000000000     
   6.6035334582207020E-002  0.23059818705783844        0.0000000000000000     
   5.6950245555369768E-002  0.19732910473810888        0.0000000000000000     
   5.7530121448569296E-002  0.20550696265977145        0.0000000000000000     
   5.8042634803787817E-002  0.21375955500903226        0.0000000000000000     
   5.8487785621025322E-002  0.22208688178589131        0.0000000000000000     
   5.8865573900281812E-002  0.23048894299034867        0.0000000000000000     
   5.0238520625957704E-002  0.19718112144102204        0.0000000000000000     
   5.0741000448047649E-002  0.20537729185444187        0.0000000000000000     
   5.1182864419121302E-002  0.21364518626803800        0.0000000000000000     
   5.1564112539178683E-002  0.22198480468181042        0.0000000000000000     
   5.1884744808219779E-002  0.23039614709575915        0.0000000000000000     
   8.0941650715646962E-002  0.23086601971151904        0.0000000000000000     
   8.1478054091562668E-002  0.23930421985630437        0.0000000000000000     
   8.1919986865030256E-002  0.24785895753302473        0.0000000000000000     
   8.2267449036049781E-002  0.25653023274168013        0.0000000000000000     
   8.2520440604621187E-002  0.26531804548227061        0.0000000000000000     
   7.3394026853995403E-002  0.23072387929822860        0.0000000000000000     
   7.3844676718655147E-002  0.23918155408517358        0.0000000000000000     
   7.4215097958495638E-002  0.24774299464471478        0.0000000000000000     
   7.4505290573516861E-002  0.25640820097685219        0.0000000000000000     
   7.4715254563718830E-002  0.26517717308158573        0.0000000000000000     
   6.6035334582207020E-002  0.23059818705783844        0.0000000000000000     
   6.6412684276556791E-002  0.23906842759792976        0.0000000000000000     
   6.6722892783383225E-002  0.24762790072395066        0.0000000000000000     
   6.6965960102686309E-002  0.25627660643590128        0.0000000000000000     
   6.7141886234466042E-002  0.26501454473378139        0.0000000000000000     
   5.8865573900281812E-002  0.23048894299034867        0.0000000000000000     
   5.9182076765267599E-002  0.23896484039457283        0.0000000000000000     
   5.9443371339693039E-002  0.24751367577073238        0.0000000000000000     
   5.9649457623558104E-002  0.25613544911882735        0.0000000000000000     
   5.9800335616862814E-002  0.26483016043885782        0.0000000000000000     
   5.1884744808219779E-002  0.23039614709575915        0.0000000000000000     
   5.2152854184787580E-002  0.23887079247510279        0.0000000000000000     
   5.2376533627425080E-002  0.24740031978505991        0.0000000000000000     
   5.2555783136132260E-002  0.25598472902563058        0.0000000000000000     
   5.2690602710909140E-002  0.26462402019681469        0.0000000000000000     
   8.2520440604621187E-002  0.26531804548227061        0.0000000000000000     
   8.2717946527886221E-002  0.27424879001873814        0.0000000000000000     
   8.2898951762986631E-002  0.28334886061502462        0.0000000000000000     
   8.3063456309922401E-002  0.29261825727113022        0.0000000000000000     
   8.3211460168693546E-002  0.30205697998705483        0.0000000000000000     
   7.4715254563718830E-002  0.26517717308158573        0.0000000000000000     
   7.4885936049231258E-002  0.27404358654957395        0.0000000000000000     
   7.5058281150183856E-002  0.28300111697147534        0.0000000000000000     
   7.5232289866576624E-002  0.29204976434728991        0.0000000000000000     
   7.5407962198409548E-002  0.30118952867701776        0.0000000000000000     
   6.7141886234466042E-002  0.26501454473378139        0.0000000000000000     
   6.7290911938534315E-002  0.27381188424980757        0.0000000000000000     
   6.7453277974702977E-002  0.28263879361619604        0.0000000000000000     
   6.7628984342972084E-002  0.29149527283294679        0.0000000000000000     
   6.7818031043341553E-002  0.30038132190005978        0.0000000000000000     
   5.9800335616862814E-002  0.26483016043885782        0.0000000000000000     
   5.9932874195795377E-002  0.27355368311943901        0.0000000000000000     
   6.0083942236544022E-002  0.28226189054918666        0.0000000000000000     
   6.0253539739108734E-002  0.29095478272810060        0.0000000000000000     
   6.0441666703489522E-002  0.29963235965618090        0.0000000000000000     
   5.2690602710909140E-002  0.26462402019681469        0.0000000000000000     
   5.2811822821014459E-002  0.27326898315846826        0.0000000000000000     
   5.2950273935706955E-002  0.28187040777044720        0.0000000000000000     
   5.3105956054986636E-002  0.29042829403275150        0.0000000000000000     
   5.3278869178853494E-002  0.29894264194538112        0.0000000000000000     
   2.8957403297603553E-002   5.7171266781762292E-002   0.0000000000000000     
   3.0507688565467296E-002   6.2731404855853601E-002   0.0000000000000000     
   3.2005213085802300E-002   6.8471786283629113E-002   0.0000000000000000     
   3.3449976858608552E-002   7.4392411065088843E-002   0.0000000000000000     
   3.4841979883886050E-002   8.0493279200232748E-002   0.0000000000000000     
   2.4951233141307892E-002   5.6735642478776480E-002   0.0000000000000000     
   2.6339134742101904E-002   6.2306237831003287E-002   0.0000000000000000     
   2.7675139042841686E-002   6.8058306675114283E-002   0.0000000000000000     
   2.8959246043527214E-002   7.3991849011109431E-002   0.0000000000000000     
   3.0191455744158505E-002   8.0106864838988767E-002   0.0000000000000000     
   2.1126467703731493E-002   5.6358720833794188E-002   0.0000000000000000     
   2.2331392515813484E-002   6.1938515460469364E-002   0.0000000000000000     
   2.3488932177011337E-002   6.7700746997183217E-002   0.0000000000000000     
   2.4599086687325057E-002   7.3645415443935699E-002   0.0000000000000000     
   2.5661856046754632E-002   7.9772520800726859E-002   0.0000000000000000     
   1.7483106984874347E-002   5.6040501846815423E-002   0.0000000000000000     
   1.8484461886602018E-002   6.1628237744251808E-002   0.0000000000000000     
   1.9446592488311265E-002   6.7399107249835860E-002   0.0000000000000000     
   2.0369498790002074E-002   7.3353110363567620E-002   0.0000000000000000     
   2.1253180791674445E-002   7.9490247085447011E-002   0.0000000000000000     
   1.4021150984736460E-002   5.5780985517840179E-002   0.0000000000000000     
   1.4798342854467525E-002   6.1375404682350629E-002   0.0000000000000000     
   1.5548119976741463E-002   6.7153387433072281E-002   0.0000000000000000     
   1.6270482351558271E-002   7.3114933770005164E-002   0.0000000000000000     
   1.6965429978917947E-002   7.9260043693149249E-002   0.0000000000000000     
   3.4841979883886050E-002   8.0493279200232748E-002   0.0000000000000000     
   3.6184255995567099E-002   8.6763854033608478E-002   0.0000000000000000     
   3.7479839027583992E-002   9.3193598909763642E-002   0.0000000000000000     
   3.8728728979936733E-002   9.9782513828698197E-002   0.0000000000000000     
   3.9930925852625317E-002  0.10653059879041216        0.0000000000000000     
   3.0191455744158505E-002   8.0106864838988767E-002   0.0000000000000000     
   3.1376251602904158E-002   8.6392228675183272E-002   0.0000000000000000     
   3.2518117077932798E-002   9.2836815036123968E-002   0.0000000000000000     
   3.3617052169244419E-002   9.9440623921810870E-002   0.0000000000000000     
   3.4673056876839026E-002  0.10620365533224395        0.0000000000000000     
   2.5661856046754632E-002   7.9772520800726859E-002   0.0000000000000000     
   2.6682046148090426E-002   8.6070530131374334E-002   0.0000000000000000     
   2.7664462884122779E-002   9.2527910499695831E-002   0.0000000000000000     
   2.8609106254851701E-002   9.9144661905691309E-002   0.0000000000000000     
   2.9515976260277185E-002  0.10592078434936081        0.0000000000000000     
   2.1253180791674445E-002   7.9490247085447011E-002   0.0000000000000000     
   2.2101639631125904E-002   8.5798758402181666E-002   0.0000000000000000     
   2.2918876446153952E-002   9.2266885300479176E-002   0.0000000000000000     
   2.3704891236758587E-002   9.8894627780339528E-002   0.0000000000000000     
   2.4459684002939810E-002  0.10568198584176271        0.0000000000000000     
   1.6965429978917947E-002   7.9260043693149249E-002   0.0000000000000000     
   1.7635032052010592E-002   8.5576913487605308E-002   0.0000000000000000     
   1.8281357764026295E-002   9.2053739438474044E-002   0.0000000000000000     
   1.8904407114965063E-002   9.8690521545755513E-002   0.0000000000000000     
   1.9504180104826893E-002  0.10548725980944966        0.0000000000000000     
   3.9930925852625317E-002  0.10653059879041216        0.0000000000000000     
   4.1082868502429239E-002  0.11342506560343142        0.0000000000000000     
   4.2180995786127995E-002  0.12045312607628189        0.0000000000000000     
   4.3225307703721579E-002  0.12761478020896350        0.0000000000000000     
   4.4215804255210003E-002  0.13491002800147633        0.0000000000000000     
   3.4673056876839026E-002  0.10620365533224395        0.0000000000000000     
   3.5683522166708607E-002  0.11311331410006704        0.0000000000000000     
   3.6645839004845158E-002  0.12015700505792383        0.0000000000000000     
   3.7560007391248700E-002  0.12733472820581437        0.0000000000000000     
   3.8426027325919203E-002  0.13464648354373868        0.0000000000000000     
   2.9515976260277185E-002  0.10592078434936081        0.0000000000000000     
   3.0382984444100692E-002  0.11284379265017383        0.0000000000000000     
   3.1208042350023654E-002  0.11990120162759987        0.0000000000000000     
   3.1991149978046099E-002  0.12709301128163897        0.0000000000000000     
   3.2732307328167995E-002  0.13441922161229106        0.0000000000000000     
   2.4459684002939810E-002  0.10568198584176271        0.0000000000000000     
   2.5181255334605492E-002  0.11261650125375185        0.0000000000000000     
   2.5867605821663482E-002  0.11968571578531002        0.0000000000000000     
   2.6518735464113780E-002  0.12688962943643722        0.0000000000000000     
   2.7134644261956387E-002  0.13422824220713350        0.0000000000000000     
   1.9504180104826893E-002  0.10548725980944966        0.0000000000000000     
   2.0078334838223005E-002  0.11243143991080107        0.0000000000000000     
   2.0624529419764621E-002  0.11951054753105425        0.0000000000000000     
   2.1142763849451744E-002  0.12672458267020925        0.0000000000000000     
   2.1633038127284374E-002  0.13407354532826599        0.0000000000000000     
   4.4215804255210003E-002  0.13491002800147633        0.0000000000000000     
   4.5153630863175108E-002  0.14232764165135200        0.0000000000000000     
   4.6039932950198752E-002  0.14985639335612214        0.0000000000000000     
   4.6874710516280921E-002  0.15749628311578676        0.0000000000000000     
   4.7657963561421615E-002  0.16524731093034592        0.0000000000000000     
   3.8426027325919203E-002  0.13464648354373868        0.0000000000000000     
   3.9245123231147504E-002  0.14208090862818978        0.0000000000000000     
   4.0018519529224410E-002  0.14962664101566081        0.0000000000000000     
   4.0746216220149914E-002  0.15728368070615176        0.0000000000000000     
   4.1428213303924037E-002  0.16505202769966260        0.0000000000000000     
   3.2732307328167995E-002  0.13441922161229106        0.0000000000000000     
   3.3432645643649256E-002  0.14186838542863395        0.0000000000000000     
   3.4093296167749726E-002  0.14942905553974531        0.0000000000000000     
   3.4714258900469419E-002  0.15710123194562514        0.0000000000000000     
   3.5295533841808342E-002  0.16488491464627347        0.0000000000000000     
   2.7134644261956387E-002  0.13422824220713350        0.0000000000000000     
   2.7716198100680350E-002  0.14169007205268438        0.0000000000000000     
   2.8264262865774693E-002  0.14926363692837558        0.0000000000000000     
   2.8778838557239422E-002  0.15694893683420694        0.0000000000000000     
   2.9259925175074537E-002  0.16474597177017855        0.0000000000000000     
   2.1633038127284374E-002  0.13407354532826599        0.0000000000000000     
   2.2095780602240801E-002  0.14154596850034123        0.0000000000000000     
   2.2531419623299319E-002  0.14913038518155164        0.0000000000000000     
   2.2939955190459927E-002  0.15682679537189717        0.0000000000000000     
   2.3321387303722622E-002  0.16463519907137786        0.0000000000000000     
   4.7657963561421615E-002  0.16524731093034592        0.0000000000000000     
   4.8387366466457589E-002  0.17309812171876796        0.0000000000000000     
   4.9060593612225603E-002  0.18103736040002133        0.0000000000000000     
   4.9677644998725644E-002  0.18906502697410602        0.0000000000000000     
   5.0238520625957704E-002  0.19718112144102204        0.0000000000000000     
   4.1428213303924037E-002  0.16505202769966260        0.0000000000000000     
   4.2061916974298799E-002  0.17292034262064876        0.0000000000000000     
   4.2644733425026268E-002  0.18087728609356574        0.0000000000000000     
   4.3176662656106417E-002  0.18892285811841339        0.0000000000000000     
   4.3657704667539272E-002  0.19705705869519188        0.0000000000000000     
   3.5295533841808342E-002  0.16488491464627347        0.0000000000000000     
   3.5834554092251350E-002  0.17276865675411524        0.0000000000000000     
   3.6328752752283318E-002  0.18074101138157542        0.0000000000000000     
   3.6778129821904232E-002  0.18880197852865396        0.0000000000000000     
   3.7182685301114113E-002  0.19695155819535093        0.0000000000000000     
   2.9259925175074537E-002  0.16474597177017855        0.0000000000000000     
   2.9705277820315241E-002  0.17264306411916738        0.0000000000000000     
   3.0112651593996766E-002  0.18062853626405045        0.0000000000000000     
   3.0482046496119089E-002  0.18870238820482774        0.0000000000000000     
   3.0813462526682218E-002  0.19686461994149923        0.0000000000000000     
   2.3321387303722622E-002  0.16463519907137786        0.0000000000000000     
   2.3674088158490487E-002  0.17254356471580526        0.0000000000000000     
   2.3996429950166608E-002  0.18053986074099088        0.0000000000000000     
   2.4288412678750978E-002  0.18862408714693471        0.0000000000000000     
   2.4550036344243596E-002  0.19679624393363679        0.0000000000000000     
   5.0238520625957704E-002  0.19718112144102204        0.0000000000000000     
   5.0741000448047649E-002  0.20537729185444187        0.0000000000000000     
   5.1182864419121302E-002  0.21364518626803800        0.0000000000000000     
   5.1564112539178683E-002  0.22198480468181042        0.0000000000000000     
   5.1884744808219779E-002  0.23039614709575915        0.0000000000000000     
   4.3657704667539272E-002  0.19705705869519188        0.0000000000000000     
   4.4086959410284371E-002  0.20526959529592495        0.0000000000000000     
   4.4463526835301248E-002  0.21355017539263640        0.0000000000000000     
   4.4787406942589911E-002  0.22189879898532636        0.0000000000000000     
   4.5058599732150366E-002  0.23031546607399478        0.0000000000000000     
   3.7182685301114113E-002  0.19695155819535093        0.0000000000000000     
   3.7542431676435437E-002  0.20517766066708235        0.0000000000000000     
   3.7857381434390693E-002  0.21346819622926441        0.0000000000000000     
   3.8127534574979881E-002  0.22182316488189699        0.0000000000000000     
   3.8352891098203015E-002  0.23024256662498016        0.0000000000000000     
   3.0813462526682218E-002  0.19686461994149923        0.0000000000000000     
   3.1107417246500839E-002  0.20510148796791419        0.0000000000000000     
   3.1364428216389635E-002  0.21339924877792191        0.0000000000000000     
   3.1584495436348593E-002  0.22175790237152232        0.0000000000000000     
   3.1767618906377720E-002  0.23017744874871554        0.0000000000000000     
   2.4550036344243596E-002  0.19679624393363679        0.0000000000000000     
   2.4781916120480592E-002  0.20504107719842044        0.0000000000000000     
   2.4984667181298069E-002  0.21334333303860897        0.0000000000000000     
   2.5158289526696038E-002  0.22170301145420238        0.0000000000000000     
   2.5302783156674495E-002  0.23012011244520070        0.0000000000000000     
   5.1884744808219779E-002  0.23039614709575915        0.0000000000000000     
   5.2152854184787580E-002  0.23887079247510279        0.0000000000000000     
   5.2376533627425080E-002  0.24740031978505991        0.0000000000000000     
   5.2555783136132260E-002  0.25598472902563058        0.0000000000000000     
   5.2690602710909140E-002  0.26462402019681469        0.0000000000000000     
   4.5058599732150366E-002  0.23031546607399478        0.0000000000000000     
   4.5285929812751771E-002  0.23878485575429703        0.0000000000000000     
   4.5478221793163326E-002  0.24729164712188884        0.0000000000000000     
   4.5635475673385009E-002  0.25583584017677002        0.0000000000000000     
   4.5757691453416835E-002  0.26441743491894065        0.0000000000000000     
   3.8352891098203015E-002  0.23024256662498016        0.0000000000000000     
   3.8542216926795256E-002  0.23870560214693309        0.0000000000000000     
   3.8704277983491790E-002  0.24719147213617462        0.0000000000000000     
   3.8839074268292598E-002  0.25570017659270500        0.0000000000000000     
   3.8946605781197706E-002  0.26423171551652402        0.0000000000000000     
   3.1767618906377720E-002  0.23017744874871554        0.0000000000000000     
   3.1921715526918013E-002  0.23863303165301075        0.0000000000000000     
   3.2054702198410445E-002  0.24709979482791739        0.0000000000000000     
   3.2166578920855032E-002  0.25557773827343533        0.0000000000000000     
   3.2257345694251753E-002  0.26406686198956475        0.0000000000000000     
   2.5302783156674495E-002  0.23012011244520070        0.0000000000000000     
   2.5424425613120048E-002  0.23856714427253015        0.0000000000000000     
   2.5529494437919319E-002  0.24701661519711698        0.0000000000000000     
   2.5617989631072296E-002  0.25546852521896130        0.0000000000000000     
   2.5689911192578983E-002  0.26392287433806294        0.0000000000000000     
   5.2690602710909140E-002  0.26462402019681469        0.0000000000000000     
   5.2811822821014459E-002  0.27326898315846826        0.0000000000000000     
   5.2950273935706955E-002  0.28187040777044720        0.0000000000000000     
   5.3105956054986636E-002  0.29042829403275150        0.0000000000000000     
   5.3278869178853494E-002  0.29894264194538112        0.0000000000000000     
   4.5757691453416835E-002  0.26441743491894065        0.0000000000000000     
   4.5869005967041215E-002  0.27298649218219750        0.0000000000000000     
   4.5993556048040556E-002  0.28149307280033731        0.0000000000000000     
   4.6131341696414856E-002  0.28993717677336017        0.0000000000000000     
   4.6282362912164116E-002  0.29831880410126588        0.0000000000000000     
   3.8946605781197706E-002  0.26423171551652402        0.0000000000000000     
   3.9045671786725293E-002  0.27273491800592892        0.0000000000000000     
   3.9155071549393551E-002  0.28115861315921670        0.0000000000000000     
   3.9274805069202466E-002  0.28950280097638736        0.0000000000000000     
   3.9404872346152059E-002  0.29776748145744092        0.0000000000000000     
   3.2257345694251753E-002  0.26406686198956475        0.0000000000000000     
   3.2341820280066706E-002  0.27251426062966250        0.0000000000000000     
   3.2434820439765949E-002  0.28086702884708520        0.0000000000000000     
   3.2536346173349488E-002  0.28912516664183313        0.0000000000000000     
   3.2646397480817324E-002  0.29728867401390602        0.0000000000000000     
   2.5689911192578983E-002  0.26392287433806294        0.0000000000000000     
   2.5757451447065448E-002  0.27232452005339819        0.0000000000000000     
   2.5832802719157756E-002  0.28061831986394298        0.0000000000000000     
   2.5915965008855915E-002  0.28880427376969742        0.0000000000000000     
   2.6006938316159908E-002  0.29688238177066140        0.0000000000000000     
   1.4021150984736460E-002   5.5780985517840179E-002   0.0000000000000000     
   1.4798342854467525E-002   6.1375404682350629E-002   0.0000000000000000     
   1.5548119976741463E-002   6.7153387433072281E-002   0.0000000000000000     
   1.6270482351558271E-002   7.3114933770005164E-002   0.0000000000000000     
   1.6965429978917947E-002   7.9260043693149249E-002   0.0000000000000000     
   1.0616388817588189E-002   5.5579591143320506E-002   0.0000000000000000     
   1.1169161500877232E-002   6.1179307789669783E-002   0.0000000000000000     
   1.1706458285976435E-002   6.6962847563092912E-002   0.0000000000000000     
   1.2228279172885798E-002   7.2930210463589940E-002   0.0000000000000000     
   1.2734624161605319E-002   7.9081396491160832E-002   0.0000000000000000     
   7.1446095976998858E-003   5.5435738019708469E-002   0.0000000000000000     
   7.4930439072983749E-003   6.1039238581113230E-002   0.0000000000000000     
   7.8345510596906850E-003   6.6826747656098237E-002   0.0000000000000000     
   8.1691310548768145E-003   7.2798265244663513E-002   0.0000000000000000     
   8.4967838928567633E-003   7.8953791346809021E-002   0.0000000000000000     
   3.6058133250715520E-003   5.5349426147004048E-002   0.0000000000000000     
   3.7699900737309592E-003   6.0955197056681003E-002   0.0000000000000000     
   3.9323982978842148E-003   6.6745087712088286E-002   0.0000000000000000     
   4.0930379975313205E-003   7.2719098113225883E-002   0.0000000000000000     
   4.2519091726722739E-003   7.8877228260093857E-002   0.0000000000000000     
  -2.9681205410136968E-013   5.5320655525207249E-002   0.0000000000000000     
   1.7498155702178053E-013   6.0927183216373068E-002   0.0000000000000000     
   5.5702274390223572E-013   6.6717867731063002E-002   0.0000000000000000     
   8.4931280758260286E-013   7.2692709069277092E-002   0.0000000000000000     
   1.0518530491054889E-012   7.8851707231015311E-002   0.0000000000000000     
   1.6965429978917947E-002   7.9260043693149249E-002   0.0000000000000000     
   1.7635032052010592E-002   8.5576913487605308E-002   0.0000000000000000     
   1.8281357764026295E-002   9.2053739438474044E-002   0.0000000000000000     
   1.8904407114965063E-002   9.8690521545755513E-002   0.0000000000000000     
   1.9504180104826893E-002  0.10548725980944966        0.0000000000000000     
   1.2734624161605319E-002   7.9081396491160832E-002   0.0000000000000000     
   1.3225561466188350E-002   8.5404642168740039E-002   0.0000000000000000     
   1.3701159300688229E-002   9.1888184019261951E-002   0.0000000000000000     
   1.4161417665104958E-002   9.8532022042726625E-002   0.0000000000000000     
   1.4606336559438538E-002  0.10533615623913400        0.0000000000000000     
   8.4967838928567633E-003   7.8953791346809021E-002   0.0000000000000000     
   8.8165659291030377E-003   8.5281591226680720E-002   0.0000000000000000     
   9.1275335190881442E-003   9.1769930148424439E-002   0.0000000000000000     
   9.4296866628120878E-003   9.8418808112040235E-002   0.0000000000000000     
   9.7230253602748618E-003  0.10522822511752809        0.0000000000000000     
   4.2519091726722739E-003   7.8877228260093857E-002   0.0000000000000000     
   4.4080454407546569E-003   8.5207760661427337E-002   0.0000000000000000     
   4.5604804192260484E-003   9.1698977825961522E-002   0.0000000000000000     
   4.7092141080864493E-003   9.8350879753696357E-002   0.0000000000000000     
   4.8542465073358578E-003  0.10516346644463193        0.0000000000000000     
   1.0518530491054889E-012   7.8851707231015311E-002   0.0000000000000000     
   1.1432061894356416E-012   8.5183150472979891E-002   0.0000000000000000     
   1.1019362505804153E-012   9.1675327051873132E-002   0.0000000000000000     
   9.2804399148133099E-013   9.8328236967694993E-002   0.0000000000000000     
   6.2152930371817128E-013  0.10514188022044547        0.0000000000000000     
   1.9504180104826893E-002  0.10548725980944966        0.0000000000000000     
   2.0078334838223005E-002  0.11243143991080107        0.0000000000000000     
   2.0624529419764621E-002  0.11951054753105425        0.0000000000000000     
   2.1142763849451744E-002  0.12672458267020925        0.0000000000000000     
   2.1633038127284374E-002  0.13407354532826599        0.0000000000000000     
   1.4606336559438538E-002  0.10533615623913400        0.0000000000000000     
   1.5033301768482487E-002  0.11228798688412929        0.0000000000000000     
   1.5439699077030319E-002  0.11937491425335754        0.0000000000000000     
   1.5825528485082032E-002  0.12659693834681890        0.0000000000000000     
   1.6190789992637625E-002  0.13395405916451325        0.0000000000000000     
   9.7230253602748618E-003  0.10522822511752809        0.0000000000000000     
   1.0005234938913190E-002  0.11218552043654424        0.0000000000000000     
   1.0274000726163792E-002  0.11927803334074495        0.0000000000000000     
   1.0529322722026670E-002  0.12650576383013024        0.0000000000000000     
   1.0771200926501818E-002  0.13386871190470007        0.0000000000000000     
   4.8542465073358578E-003  0.10516346644463193        0.0000000000000000     
   4.9941343495151103E-003  0.11212404056804599        0.0000000000000000     
   5.1274343671650451E-003  0.11921990479321641        0.0000000000000000     
   5.2541465602856576E-003  0.12645105912014321        0.0000000000000000     
   5.3742709288769515E-003  0.13381750354882635        0.0000000000000000     
   6.2152930371817128E-013  0.10514188022044547        0.0000000000000000     
   2.8825271163046562E-013  0.11210354727863450        0.0000000000000000     
   3.4076257440784907E-014  0.11920052861077196        0.0000000000000000     
  -1.4100065516206572E-013  0.12643282421685786        0.0000000000000000     
  -2.3697753828710866E-013  0.13380043409689218        0.0000000000000000     
   2.1633038127284374E-002  0.13407354532826599        0.0000000000000000     
   2.2095780602240801E-002  0.14154596850034123        0.0000000000000000     
   2.2531419623299319E-002  0.14913038518155164        0.0000000000000000     
   2.2939955190459927E-002  0.15682679537189717        0.0000000000000000     
   2.3321387303722622E-002  0.16463519907137786        0.0000000000000000     
   1.6190789992637625E-002  0.13395405916451325        0.0000000000000000     
   1.6535492457452013E-002  0.14143484468987025        0.0000000000000000     
   1.6859644737280098E-002  0.14902786290631939        0.0000000000000000     
   1.7163246832121885E-002  0.15673311381386074        0.0000000000000000     
   1.7446298741977364E-002  0.16455059741249428        0.0000000000000000     
   1.0771200926501818E-002  0.13386871190470007        0.0000000000000000     
   1.0999432975435392E-002  0.14135547053953731        0.0000000000000000     
   1.1213816504673535E-002  0.14895463270972487        0.0000000000000000     
   1.1414351514216247E-002  0.15666619841526269        0.0000000000000000     
   1.1601038004063532E-002  0.16449016765615085        0.0000000000000000     
   5.3742709288769515E-003  0.13381750354882635        0.0000000000000000     
   5.4876021561909363E-003  0.14130784604934243        0.0000000000000000     
   5.5939349254796270E-003  0.14891069459176795        0.0000000000000000     
   5.6932692367430218E-003  0.15662604917610301        0.0000000000000000     
   5.7856050899811242E-003  0.16445390980234750        0.0000000000000000     
  -2.3697753828710866E-013  0.13380043409689218        0.0000000000000000     
  -2.8135328268563686E-013  0.14129197121928561        0.0000000000000000     
  -3.0162428544394659E-013  0.14889604855244876        0.0000000000000000     
  -2.9779306733208888E-013  0.15661266609638164        0.0000000000000000     
  -2.6985922177424904E-013  0.16444182385108430        0.0000000000000000     
   2.3321387303722622E-002  0.16463519907137786        0.0000000000000000     
   2.3674088158490487E-002  0.17254356471580526        0.0000000000000000     
   2.3996429950166608E-002  0.18053986074099088        0.0000000000000000     
   2.4288412678750978E-002  0.18862408714693471        0.0000000000000000     
   2.4550036344243596E-002  0.19679624393363679        0.0000000000000000     
   1.7446298741977364E-002  0.16455059741249428        0.0000000000000000     
   1.7707847880993277E-002  0.17246791852668433        0.0000000000000000     
   1.7946941663316340E-002  0.18047268198089519        0.0000000000000000     
   1.8163580088946567E-002  0.18856488777512695        0.0000000000000000     
   1.8357763157883948E-002  0.19674453590937946        0.0000000000000000     
   1.1601038004063532E-002  0.16449016765615085        0.0000000000000000     
   1.1773419762039796E-002  0.17241388553446033        0.0000000000000000     
   1.1931040575969458E-002  0.18042469715226223        0.0000000000000000     
   1.2073900445852511E-002  0.18852260250955644        0.0000000000000000     
   1.2201999371688959E-002  0.19670760160634304        0.0000000000000000     
   5.7856050899811242E-003  0.16445390980234750        0.0000000000000000     
   5.8708038016300592E-003  0.17238146573913321        0.0000000000000000     
   5.9487266881259561E-003  0.18039590625509180        0.0000000000000000     
   6.0193737494688157E-003  0.18849723135022328        0.0000000000000000     
   6.0827449856586373E-003  0.19668544102452767        0.0000000000000000     
  -2.6985922177424904E-013  0.16444182385108430        0.0000000000000000     
  -2.3594125785064701E-013  0.17237065914070296        0.0000000000000000     
  -2.1416180460975820E-013  0.18038630928938404        0.0000000000000000     
  -2.0452145836277746E-013  0.18848877429712743        0.0000000000000000     
  -2.0701973121872719E-013  0.19667805416393319        0.0000000000000000     
   2.4550036344243596E-002  0.19679624393363679        0.0000000000000000     
   2.4781916120480592E-002  0.20504107719842044        0.0000000000000000     
   2.4984667181298069E-002  0.21334333303860897        0.0000000000000000     
   2.5158289526696038E-002  0.22170301145420238        0.0000000000000000     
   2.5302783156674495E-002  0.23012011244520070        0.0000000000000000     
   1.8357763157883948E-002  0.19674453590937946        0.0000000000000000     
   1.8529988007389926E-002  0.20499511361934683        0.0000000000000000     
   1.8680751774725939E-002  0.21330010814072323        0.0000000000000000     
   1.8810054459891996E-002  0.22165951947350851        0.0000000000000000     
   1.8917896062888087E-002  0.23007334761770284        0.0000000000000000     
   1.2201999371688959E-002  0.19670760160634304        0.0000000000000000     
   1.2315692616244087E-002  0.20496228249143930        0.0000000000000000     
   1.2415335442283180E-002  0.21326923321366240        0.0000000000000000     
   1.2500927849806239E-002  0.22162845377301227        0.0000000000000000     
   1.2572469838813265E-002  0.23003994416948900        0.0000000000000000     
   6.0827449856586373E-003  0.19668544102452767        0.0000000000000000     
   6.1390299470430766E-003  0.20494258381469774        0.0000000000000000     
   6.1884181839697858E-003  0.21325070825742640        0.0000000000000000     
   6.2309096964387675E-003  0.22160981435271357        0.0000000000000000     
   6.2665044844500209E-003  0.23001990210055934        0.0000000000000000     
  -2.0701973121872719E-013  0.19667805416393319        0.0000000000000000     
  -2.1310926114070927E-013  0.20493601758912219        0.0000000000000000     
  -2.1424301135247736E-013  0.21324453327201526        0.0000000000000000     
  -2.1042073790854265E-013  0.22160360121261241        0.0000000000000000     
  -2.0164252212406808E-013  0.23001322141091363        0.0000000000000000     
   2.5302783156674495E-002  0.23012011244520070        0.0000000000000000     
   2.5424425613120048E-002  0.23856714427253015        0.0000000000000000     
   2.5529494437919319E-002  0.24701661519711698        0.0000000000000000     
   2.5617989631072296E-002  0.25546852521896130        0.0000000000000000     
   2.5689911192578983E-002  0.26392287433806294        0.0000000000000000     
   1.8917896062888087E-002  0.23007334761770284        0.0000000000000000     
   1.9008635884219336E-002  0.23851241667673986        0.0000000000000000     
   1.9086633224390866E-002  0.24694755075405350        0.0000000000000000     
   1.9151888083402662E-002  0.25537874984964370        0.0000000000000000     
   1.9204400461254736E-002  0.26380601396351050        0.0000000000000000     
   1.2572469838813265E-002  0.23003994416948900        0.0000000000000000     
   1.2632635039033840E-002  0.23847332553688858        0.0000000000000000     
   1.2684097080197545E-002  0.24689821900900674        0.0000000000000000     
   1.2726855962304386E-002  0.25531462458584370        0.0000000000000000     
   1.2760911685354362E-002  0.26372254226739927        0.0000000000000000     
   6.2665044844500209E-003  0.23001990210055934        0.0000000000000000     
   6.2964230775635517E-003  0.23844987085297617        0.0000000000000000     
   6.3218860053393701E-003  0.24686861996197684        0.0000000000000000     
   6.3428932677774708E-003  0.25527614942756122        0.0000000000000000     
   6.3594448648778583E-003  0.26367245924972943        0.0000000000000000     
  -2.0164252212406808E-013  0.23001322141091363        0.0000000000000000     
  -1.9152106116304690E-013  0.23844205262500279        0.0000000000000000     
  -1.8366731746599640E-013  0.24685875361296367        0.0000000000000000     
  -1.7808389311813055E-013  0.25526332437479632        0.0000000000000000     
  -1.7476992075771136E-013  0.26365576491050080        0.0000000000000000     
   2.5689911192578983E-002  0.26392287433806294        0.0000000000000000     
   2.5757451447065448E-002  0.27232452005339819        0.0000000000000000     
   2.5832802719157756E-002  0.28061831986394298        0.0000000000000000     
   2.5915965008855915E-002  0.28880427376969742        0.0000000000000000     
   2.6006938316159908E-002  0.29688238177066140        0.0000000000000000     
   1.9204400461254736E-002  0.26380601396351050        0.0000000000000000     
   1.9254140109483654E-002  0.27217202314916655        0.0000000000000000     
   1.9311076779625996E-002  0.28041945746012470        0.0000000000000000     
   1.9375210471681753E-002  0.28854831689638483        0.0000000000000000     
   1.9446541185650930E-002  0.29655860145794694        0.0000000000000000     
   1.2760911685354362E-002  0.26372254226739927        0.0000000000000000     
   1.2793461089083460E-002  0.27206309678899826        0.0000000000000000     
   1.2831701013227687E-002  0.28027741288596508        0.0000000000000000     
   1.2875631457787036E-002  0.28836549055829996        0.0000000000000000     
   1.2925252422761508E-002  0.29632732980600263        0.0000000000000000     
   6.3594448648778583E-003  0.26367245924972943        0.0000000000000000     
   6.3754143858648672E-003  0.27199774097289309        0.0000000000000000     
   6.3946754199628352E-003  0.28019218614146424        0.0000000000000000     
   6.4172279671717595E-003  0.28825579475544277        0.0000000000000000     
   6.4430720274916411E-003  0.29618856681482864        0.0000000000000000     
  -1.7476992075771136E-013  0.26365576491050080        0.0000000000000000     
  -1.7212772006336419E-013  0.27197595570085126        0.0000000000000000     
  -1.6856459804370783E-013  0.28016377722662211        0.0000000000000000     
  -1.6407941628646117E-013  0.28821922948781326        0.0000000000000000     
  -1.5867168690064659E-013  0.29614231248442485        0.0000000000000000     
  -2.9681205410136968E-013   5.5320655525207249E-002   0.0000000000000000     
   1.7498155702178053E-013   6.0927183216373068E-002   0.0000000000000000     
   5.5702274390223572E-013   6.6717867731063002E-002   0.0000000000000000     
   8.4931280758260286E-013   7.2692709069277092E-002   0.0000000000000000     
   1.0518530491054889E-012   7.8851707231015311E-002   0.0000000000000000     
  -3.6058133254583788E-003   5.5349426153594020E-002   0.0000000000000000     
  -3.7699900731548055E-003   6.0955197059775187E-002   0.0000000000000000     
  -3.9323982965432545E-003   6.6745087712834161E-002   0.0000000000000000     
  -4.0930379956237309E-003   7.2719098112770927E-002   0.0000000000000000     
  -4.2519091703962300E-003   7.8877228259585486E-002   0.0000000000000000     
  -7.1446095974663226E-003   5.5435738031440286E-002   0.0000000000000000     
  -7.4930439060436451E-003   6.1039238586473123E-002   0.0000000000000000     
  -7.8345510576689828E-003   6.6826747657213456E-002   0.0000000000000000     
  -8.1691310523423367E-003   7.2798265243661259E-002   0.0000000000000000     
  -8.4967838900637041E-003   7.8953791345816579E-002   0.0000000000000000     
  -1.0616388816320642E-002   5.5579591158746083E-002   0.0000000000000000     
  -1.1169161498491538E-002   6.1179307796466860E-002   0.0000000000000000     
  -1.1706458282820161E-002   6.6962847564200872E-002   0.0000000000000000     
  -1.2228279169306503E-002   7.2930210461948100E-002   0.0000000000000000     
  -1.2734624157950573E-002   7.9081396489708550E-002   0.0000000000000000     
  -1.4021150982021339E-002   5.5780985535511377E-002   0.0000000000000000     
  -1.4798342850498487E-002   6.1375404689756427E-002   0.0000000000000000     
  -1.5548119971996788E-002   6.7153387433796452E-002   0.0000000000000000     
  -1.6270482346516235E-002   7.3114933767631438E-002   0.0000000000000000     
  -1.6965429974056832E-002   7.9260043691261384E-002   0.0000000000000000     
   1.0518530491054889E-012   7.8851707231015311E-002   0.0000000000000000     
   1.1432061894356416E-012   8.5183150472979891E-002   0.0000000000000000     
   1.1019362505804153E-012   9.1675327051873132E-002   0.0000000000000000     
   9.2804399148133099E-013   9.8328236967694993E-002   0.0000000000000000     
   6.2152930371817128E-013  0.10514188022044547        0.0000000000000000     
  -4.2519091703962300E-003   7.8877228259585486E-002   0.0000000000000000     
  -4.4080454383381099E-003   8.5207760661364165E-002   0.0000000000000000     
  -4.5604804169267280E-003   9.1698977826193212E-002   0.0000000000000000     
  -4.7092141061620824E-003   9.8350879754072626E-002   0.0000000000000000     
  -4.8542465060441731E-003  0.10516346644500242        0.0000000000000000     
  -8.4967838900637041E-003   7.8953791345816579E-002   0.0000000000000000     
  -8.8165659262960869E-003   8.5281591226605863E-002   0.0000000000000000     
  -9.1275335165024798E-003   9.1769930148955611E-002   0.0000000000000000     
  -9.4296866606828813E-003   9.8418808112865783E-002   0.0000000000000000     
  -9.7230253588372929E-003  0.10522822511833642        0.0000000000000000     
  -1.2734624157950573E-002   7.9081396489708550E-002   0.0000000000000000     
  -1.3225561462730722E-002   8.5404642168705011E-002   0.0000000000000000     
  -1.3701159297625318E-002   9.1888184020160329E-002   0.0000000000000000     
  -1.4161417662634353E-002   9.8532022044074449E-002   0.0000000000000000     
  -1.4606336557757836E-002  0.10533615624044741        0.0000000000000000     
  -1.6965429974056832E-002   7.9260043691261384E-002   0.0000000000000000     
  -1.7635032047642017E-002   8.5576913487661610E-002   0.0000000000000000     
  -1.8281357760295245E-002   9.2053739439807353E-002   0.0000000000000000     
  -1.8904407112016502E-002   9.8690521547698654E-002   0.0000000000000000     
  -1.9504180102805795E-002  0.10548725981133547        0.0000000000000000     
   6.2152930371817128E-013  0.10514188022044547        0.0000000000000000     
   2.8825271163046562E-013  0.11210354727863450        0.0000000000000000     
   3.4076257440784907E-014  0.11920052861077196        0.0000000000000000     
  -1.4100065516206572E-013  0.12643282421685786        0.0000000000000000     
  -2.3697753828710866E-013  0.13380043409689218        0.0000000000000000     
  -4.8542465060441731E-003  0.10516346644500242        0.0000000000000000     
  -4.9941343489043367E-003  0.11212404056833782        0.0000000000000000     
  -5.1274343670739122E-003  0.11921990479343399        0.0000000000000000     
  -5.2541465605528970E-003  0.12645105912029092        0.0000000000000000     
  -5.3742709293412901E-003  0.13381750354890867        0.0000000000000000     
  -9.7230253588372929E-003  0.10522822511833642        0.0000000000000000     
  -1.0005234938199608E-002  0.11218552043718397        0.0000000000000000     
  -1.0274000726003716E-002  0.11927803334122490        0.0000000000000000     
  -1.0529322722249615E-002  0.12650576383045925        0.0000000000000000     
  -1.0771200926937310E-002  0.13386871190488697        0.0000000000000000     
  -1.4606336557757836E-002  0.10533615624044741        0.0000000000000000     
  -1.5033301767597557E-002  0.11228798688517296        0.0000000000000000     
  -1.5439699076755338E-002  0.11937491425414473        0.0000000000000000     
  -1.5825528485231159E-002  0.12659693834736277        0.0000000000000000     
  -1.6190789993025038E-002  0.13395405916482708        0.0000000000000000     
  -1.9504180102805795E-002  0.10548725981133547        0.0000000000000000     
  -2.0078334837098193E-002  0.11243143991230477        0.0000000000000000     
  -2.0624529419328772E-002  0.11951054753219346        0.0000000000000000     
  -2.1142763849497530E-002  0.12672458267100153        0.0000000000000000     
  -2.1633038127604472E-002  0.13407354532872900        0.0000000000000000     
  -2.3697753828710866E-013  0.13380043409689218        0.0000000000000000     
  -2.8135328268563686E-013  0.14129197121928561        0.0000000000000000     
  -3.0162428544394659E-013  0.14889604855244876        0.0000000000000000     
  -2.9779306733208888E-013  0.15661266609638164        0.0000000000000000     
  -2.6985922177424904E-013  0.16444182385108430        0.0000000000000000     
  -5.3742709293412901E-003  0.13381750354890867        0.0000000000000000     
  -5.4876021567471286E-003  0.14130784604937296        0.0000000000000000     
  -5.5939349260784414E-003  0.14891069459176964        0.0000000000000000     
  -5.6932692373352304E-003  0.15662604917609863        0.0000000000000000     
  -5.7856050905174972E-003  0.16445390980235997        0.0000000000000000     
  -1.0771200926937310E-002  0.13386871190488697        0.0000000000000000     
  -1.0999432975972039E-002  0.14135547053961070        0.0000000000000000     
  -1.1213816505259041E-002  0.14895463270973300        0.0000000000000000     
  -1.1414351514798318E-002  0.15666619841525389        0.0000000000000000     
  -1.1601038004589869E-002  0.16449016765617330        0.0000000000000000     
  -1.6190789993025038E-002  0.13395405916482708        0.0000000000000000     
  -1.6535492457956082E-002  0.14143484468999873        0.0000000000000000     
  -1.6859644737843425E-002  0.14902786290633885        0.0000000000000000     
  -1.7163246832687051E-002  0.15673311381384741        0.0000000000000000     
  -1.7446298742486981E-002  0.16455059741252437        0.0000000000000000     
  -2.1633038127604472E-002  0.13407354532872900        0.0000000000000000     
  -2.2095780602699271E-002  0.14154596850053716        0.0000000000000000     
  -2.2531419623831591E-002  0.14913038518158722        0.0000000000000000     
  -2.2939955191001445E-002  0.15682679537187921        0.0000000000000000     
  -2.3321387304208827E-002  0.16463519907141311        0.0000000000000000     
  -2.6985922177424904E-013  0.16444182385108430        0.0000000000000000     
  -2.3594125785064701E-013  0.17237065914070296        0.0000000000000000     
  -2.1416180460975820E-013  0.18038630928938404        0.0000000000000000     
  -2.0452145836277746E-013  0.18848877429712743        0.0000000000000000     
  -2.0701973121872719E-013  0.19667805416393319        0.0000000000000000     
  -5.7856050905174972E-003  0.16445390980235997        0.0000000000000000     
  -5.8708038020981578E-003  0.17238146573916802        0.0000000000000000     
  -5.9487266885501306E-003  0.18039590625513716        0.0000000000000000     
  -6.0193737498734114E-003  0.18849723135026733        0.0000000000000000     
  -6.0827449860680069E-003  0.19668544102455857        0.0000000000000000     
  -1.1601038004589869E-002  0.16449016765617330        0.0000000000000000     
  -1.1773419762496542E-002  0.17241388553452675        0.0000000000000000     
  -1.1931040576381174E-002  0.18042469715234941        0.0000000000000000     
  -1.2073900446243766E-002  0.18852260250964140        0.0000000000000000     
  -1.2201999372084322E-002  0.19670760160640266        0.0000000000000000     
  -1.7446298742486981E-002  0.16455059741252437        0.0000000000000000     
  -1.7707847881431094E-002  0.17246791852677912        0.0000000000000000     
  -1.7946941663707295E-002  0.18047268198102084        0.0000000000000000     
  -1.8163580089315585E-002  0.18856488777524963        0.0000000000000000     
  -1.8357763158255963E-002  0.19674453590946542        0.0000000000000000     
  -2.3321387304208827E-002  0.16463519907141311        0.0000000000000000     
  -2.3674088158901818E-002  0.17254356471592514        0.0000000000000000     
  -2.3996429950528499E-002  0.18053986074115144        0.0000000000000000     
  -2.4288412679088871E-002  0.18862408714709203        0.0000000000000000     
  -2.4550036344582929E-002  0.19679624393374687        0.0000000000000000     
  -2.0701973121872719E-013  0.19667805416393319        0.0000000000000000     
  -2.1310926114070927E-013  0.20493601758912219        0.0000000000000000     
  -2.1424301135247736E-013  0.21324453327201526        0.0000000000000000     
  -2.1042073790854265E-013  0.22160360121261241        0.0000000000000000     
  -2.0164252212406808E-013  0.23001322141091363        0.0000000000000000     
  -6.0827449860680069E-003  0.19668544102455857        0.0000000000000000     
  -6.1390299474644982E-003  0.20494258381471206        0.0000000000000000     
  -6.1884181843934677E-003  0.21325070825742878        0.0000000000000000     
  -6.2309096968549173E-003  0.22160981435270882        0.0000000000000000     
  -6.2665044848488477E-003  0.23001990210055218        0.0000000000000000     
  -1.2201999372084322E-002  0.19670760160640266        0.0000000000000000     
  -1.2315692616651120E-002  0.20496228249146661        0.0000000000000000     
  -1.2415335442692453E-002  0.21326923321366661        0.0000000000000000     
  -1.2500927850208321E-002  0.22162845377300275        0.0000000000000000     
  -1.2572469839198717E-002  0.23003994416947490        0.0000000000000000     
  -1.8357763158255963E-002  0.19674453590946542        0.0000000000000000     
  -1.8529988007772981E-002  0.20499511361938594        0.0000000000000000     
  -1.8680751775111203E-002  0.21330010814072889        0.0000000000000000     
  -1.8810054460270627E-002  0.22165951947349422        0.0000000000000000     
  -1.8917896063251251E-002  0.23007334761768194        0.0000000000000000     
  -2.4550036344582929E-002  0.19679624393374687        0.0000000000000000     
  -2.4781916120830076E-002  0.20504107719847001        0.0000000000000000     
  -2.4984667181649715E-002  0.21334333303861547        0.0000000000000000     
  -2.5158289527041838E-002  0.22170301145418320        0.0000000000000000     
  -2.5302783157006452E-002  0.23012011244517322        0.0000000000000000     
  -2.0164252212406808E-013  0.23001322141091363        0.0000000000000000     
  -1.9152106116304690E-013  0.23844205262500279        0.0000000000000000     
  -1.8366731746599640E-013  0.24685875361296367        0.0000000000000000     
  -1.7808389311813055E-013  0.25526332437479632        0.0000000000000000     
  -1.7476992075771136E-013  0.26365576491050080        0.0000000000000000     
  -6.2665044848488477E-003  0.23001990210055218        0.0000000000000000     
  -6.2964230779423962E-003  0.23844987085296848        0.0000000000000000     
  -6.3218860057027045E-003  0.24686861996196752        0.0000000000000000     
  -6.3428932681297715E-003  0.25527614942754928        0.0000000000000000     
  -6.3594448652235973E-003  0.26367245924971372        0.0000000000000000     
  -1.2572469839198717E-002  0.23003994416947490        0.0000000000000000     
  -1.2632635039400092E-002  0.23847332553687339        0.0000000000000000     
  -1.2684097080548875E-002  0.24689821900898853        0.0000000000000000     
  -1.2726855962645080E-002  0.25531462458582027        0.0000000000000000     
  -1.2760911685688695E-002  0.26372254226736858        0.0000000000000000     
  -1.8917896063251251E-002  0.23007334761768194        0.0000000000000000     
  -1.9008635884564602E-002  0.23851241667671758        0.0000000000000000     
  -1.9086633224722181E-002  0.24694755075402675        0.0000000000000000     
  -1.9151888083724006E-002  0.25537874984960929        0.0000000000000000     
  -1.9204400461570070E-002  0.26380601396346531        0.0000000000000000     
  -2.5302783157006452E-002  0.23012011244517322        0.0000000000000000     
  -2.5424425613435931E-002  0.23856714427250103        0.0000000000000000     
  -2.5529494438222628E-002  0.24701661519708212        0.0000000000000000     
  -2.5617989631366557E-002  0.25546852521891644        0.0000000000000000     
  -2.5689911192867711E-002  0.26392287433800410        0.0000000000000000     
  -1.7476992075771136E-013  0.26365576491050080        0.0000000000000000     
  -1.7212772006336419E-013  0.27197595570085126        0.0000000000000000     
  -1.6856459804370783E-013  0.28016377722662211        0.0000000000000000     
  -1.6407941628646117E-013  0.28821922948781326        0.0000000000000000     
  -1.5867168690064659E-013  0.29614231248442485        0.0000000000000000     
  -6.3594448652235973E-003  0.26367245924971372        0.0000000000000000     
  -6.3754143862053648E-003  0.27199774097287299        0.0000000000000000     
  -6.3946754202962577E-003  0.28019218614143915        0.0000000000000000     
  -6.4172279674962751E-003  0.28825579475541208        0.0000000000000000     
  -6.4430720278054162E-003  0.29618856681479189        0.0000000000000000     
  -1.2760911685688695E-002  0.26372254226736858        0.0000000000000000     
  -1.2793461089412683E-002  0.27206309678895874        0.0000000000000000     
  -1.2831701013549994E-002  0.28027741288591568        0.0000000000000000     
  -1.2875631458100622E-002  0.28836549055823951        0.0000000000000000     
  -1.2925252423064575E-002  0.29632732980593024        0.0000000000000000     
  -1.9204400461570070E-002  0.26380601396346531        0.0000000000000000     
  -1.9254140109794083E-002  0.27217202314910838        0.0000000000000000     
  -1.9311076779929767E-002  0.28041945746005192        0.0000000000000000     
  -1.9375210471977128E-002  0.28854831689629579        0.0000000000000000     
  -1.9446541185936153E-002  0.29655860145784002        0.0000000000000000     
  -2.5689911192867711E-002  0.26392287433800410        0.0000000000000000     
  -2.5757451447349564E-002  0.27232452005332208        0.0000000000000000     
  -2.5832802719435589E-002  0.28061831986384755        0.0000000000000000     
  -2.5915965009125783E-002  0.28880427376958062        0.0000000000000000     
  -2.6006938316420147E-002  0.29688238177052118        0.0000000000000000     
  -1.4021150982021339E-002   5.5780985535511377E-002   0.0000000000000000     
  -1.4798342850498487E-002   6.1375404689756427E-002   0.0000000000000000     
  -1.5548119971996788E-002   6.7153387433796452E-002   0.0000000000000000     
  -1.6270482346516235E-002   7.3114933767631438E-002   0.0000000000000000     
  -1.6965429974056832E-002   7.9260043691261384E-002   0.0000000000000000     
  -1.7483106980857303E-002   5.6040501865371010E-002   0.0000000000000000     
  -1.8484461881209151E-002   6.1628237751492961E-002   0.0000000000000000     
  -1.9446592482140260E-002   6.7399107249827672E-002   0.0000000000000000     
  -2.0369498783650620E-002   7.3353110360375132E-002   0.0000000000000000     
  -2.1253180785740233E-002   7.9490247083135360E-002   0.0000000000000000     
  -2.1126467699117427E-002   5.6358720851959830E-002   0.0000000000000000     
  -2.2331392509768202E-002   6.1938515466827639E-002   0.0000000000000000     
  -2.3488932170191979E-002   6.7700746996122052E-002   0.0000000000000000     
  -2.4599086680388755E-002   7.3645415439843057E-002   0.0000000000000000     
  -2.5661856040358536E-002   7.9772520797990659E-002   0.0000000000000000     
  -2.4951233136801716E-002   5.6735642495277828E-002   0.0000000000000000     
  -2.6339134736175628E-002   6.2306237835760489E-002   0.0000000000000000     
  -2.7675139036151937E-002   6.8058306672679605E-002   0.0000000000000000     
  -2.8959246036730637E-002   7.3991849006035212E-002   0.0000000000000000     
  -3.0191455737911727E-002   8.0106864835827296E-002   0.0000000000000000     
  -2.8957403293910160E-002   5.7171266795325013E-002   0.0000000000000000     
  -3.0507688560431439E-002   6.2731404858291456E-002   0.0000000000000000     
  -3.2005213080020141E-002   6.8471786279500318E-002   0.0000000000000000     
  -3.3449976852676262E-002   7.4392411058951599E-002   0.0000000000000000     
  -3.4841979878399813E-002   8.0493279196645284E-002   0.0000000000000000     
  -1.6965429974056832E-002   7.9260043691261384E-002   0.0000000000000000     
  -1.7635032047642017E-002   8.5576913487661610E-002   0.0000000000000000     
  -1.8281357760295245E-002   9.2053739439807353E-002   0.0000000000000000     
  -1.8904407112016502E-002   9.8690521547698654E-002   0.0000000000000000     
  -1.9504180102805795E-002  0.10548725981133547        0.0000000000000000     
  -2.1253180785740233E-002   7.9490247083135360E-002   0.0000000000000000     
  -2.2101639625954638E-002   8.5798758402355499E-002   0.0000000000000000     
  -2.2918876441839379E-002   9.2266885302282803E-002   0.0000000000000000     
  -2.3704891233394445E-002   9.8894627782917202E-002   0.0000000000000000     
  -2.4459684000619843E-002  0.10568198584425874        0.0000000000000000     
  -2.5661856040358536E-002   7.9772520797990659E-002   0.0000000000000000     
  -2.6682046142593254E-002   8.6070530131666628E-002   0.0000000000000000     
  -2.7664462879584840E-002   9.2527910501972732E-002   0.0000000000000000     
  -2.8609106251333317E-002   9.9144661908909013E-002   0.0000000000000000     
  -2.9515976257838653E-002  0.10592078435247543        0.0000000000000000     
  -3.0191455737911727E-002   8.0106864835827296E-002   0.0000000000000000     
  -3.1376251597557851E-002   8.6392228675594943E-002   0.0000000000000000     
  -3.2518117073531631E-002   9.2836815038877196E-002   0.0000000000000000     
  -3.3617052165833085E-002   9.9440623925674057E-002   0.0000000000000000     
  -3.4673056874462226E-002  0.10620365533598553        0.0000000000000000     
  -3.4841979878399813E-002   8.0493279196645284E-002   0.0000000000000000     
  -3.6184255990848437E-002   8.6763854034140456E-002   0.0000000000000000     
  -3.7479839023679760E-002   9.3193598912996126E-002   0.0000000000000000     
  -3.8728728976893806E-002   9.9782513833212322E-002   0.0000000000000000     
  -3.9930925850490559E-002  0.10653059879478904        0.0000000000000000     
  -1.9504180102805795E-002  0.10548725981133547        0.0000000000000000     
  -2.0078334837098193E-002  0.11243143991230477        0.0000000000000000     
  -2.0624529419328772E-002  0.11951054753219346        0.0000000000000000     
  -2.1142763849497530E-002  0.12672458267100153        0.0000000000000000     
  -2.1633038127604472E-002  0.13407354532872900        0.0000000000000000     
  -2.4459684000619843E-002  0.10568198584425874        0.0000000000000000     
  -2.5181255333264225E-002  0.11261650125574892        0.0000000000000000     
  -2.5867605821076244E-002  0.11968571578682927        0.0000000000000000     
  -2.6518735464055899E-002  0.12688962943749976        0.0000000000000000     
  -2.7134644262203196E-002  0.13422824220776045        0.0000000000000000     
  -2.9515976257838653E-002  0.10592078435247543        0.0000000000000000     
  -3.0382984442658374E-002  0.11284379265267491        0.0000000000000000     
  -3.1208042349349971E-002  0.11990120162951033        0.0000000000000000     
  -3.1991149977913441E-002  0.12709301128298173        0.0000000000000000     
  -3.2732307328348788E-002  0.13441922161308908        0.0000000000000000     
  -3.4673056874462226E-002  0.10620365533598553        0.0000000000000000     
  -3.5683522165280632E-002  0.11311331410308270        0.0000000000000000     
  -3.6645839004149937E-002  0.12015700506023666        0.0000000000000000     
  -3.7560007391070155E-002  0.12733472820744740        0.0000000000000000     
  -3.8426027326041265E-002  0.13464648354471492        0.0000000000000000     
  -3.9930925850490559E-002  0.10653059879478904        0.0000000000000000     
  -4.1082868501131013E-002  0.11342506560697234        0.0000000000000000     
  -4.2180995785476183E-002  0.12045312607900827        0.0000000000000000     
  -4.3225307703526041E-002  0.12761478021089681        0.0000000000000000     
  -4.4215804255280614E-002  0.13491002800263799        0.0000000000000000     
  -2.1633038127604472E-002  0.13407354532872900        0.0000000000000000     
  -2.2095780602699271E-002  0.14154596850053716        0.0000000000000000     
  -2.2531419623831591E-002  0.14913038518158722        0.0000000000000000     
  -2.2939955191001445E-002  0.15682679537187921        0.0000000000000000     
  -2.3321387304208827E-002  0.16463519907141311        0.0000000000000000     
  -2.7134644262203196E-002  0.13422824220776045        0.0000000000000000     
  -2.7716198101084149E-002  0.14169007205295570        0.0000000000000000     
  -2.8264262866264774E-002  0.14926363692842995        0.0000000000000000     
  -2.8778838557745066E-002  0.15694893683418312        0.0000000000000000     
  -2.9259925175525028E-002  0.16474597177021530        0.0000000000000000     
  -3.2732307328348788E-002  0.13441922161308908        0.0000000000000000     
  -3.3432645643993286E-002  0.14186838542898420        0.0000000000000000     
  -3.4093296168184184E-002  0.14942905553981883        0.0000000000000000     
  -3.4714258900921488E-002  0.15710123194559303        0.0000000000000000     
  -3.5295533842205198E-002  0.16488491464630678        0.0000000000000000     
  -3.8426027326041265E-002  0.13464648354471492        0.0000000000000000     
  -3.9245123231426690E-002  0.14208090862862263        0.0000000000000000     
  -4.0018519529589840E-002  0.14962664101575399        0.0000000000000000     
  -4.0746216220530727E-002  0.15728368070610887        0.0000000000000000     
  -4.1428213304249333E-002  0.16505202769968746        0.0000000000000000     
  -4.4215804255280614E-002  0.13491002800263799        0.0000000000000000     
  -4.5153630863384357E-002  0.14232764165187106        0.0000000000000000     
  -4.6039932950481741E-002  0.14985639335623532        0.0000000000000000     
  -4.6874710516572771E-002  0.15749628311573077        0.0000000000000000     
  -4.7657963561657447E-002  0.16524731093035738        0.0000000000000000     
  -2.3321387304208827E-002  0.16463519907141311        0.0000000000000000     
  -2.3674088158901818E-002  0.17254356471592514        0.0000000000000000     
  -2.3996429950528499E-002  0.18053986074115144        0.0000000000000000     
  -2.4288412679088871E-002  0.18862408714709203        0.0000000000000000     
  -2.4550036344582929E-002  0.19679624393374687        0.0000000000000000     
  -2.9259925175525028E-002  0.16474597177021530        0.0000000000000000     
  -2.9705277820688266E-002  0.17264306411930755        0.0000000000000000     
  -3.0112651594318370E-002  0.18062853626424086        0.0000000000000000     
  -3.0482046496415349E-002  0.18870238820501531        0.0000000000000000     
  -3.0813462526979207E-002  0.19686461994163082        0.0000000000000000     
  -3.5295533842205198E-002  0.16488491464630678        0.0000000000000000     
  -3.5834554092569977E-002  0.17276865675426903        0.0000000000000000     
  -3.6328752752550507E-002  0.18074101138178886        0.0000000000000000     
  -3.6778129822146767E-002  0.18880197852886624        0.0000000000000000     
  -3.7182685301358778E-002  0.19695155819550120        0.0000000000000000     
  -4.1428213304249333E-002  0.16505202769968746        0.0000000000000000     
  -4.2061916974546969E-002  0.17292034262080960        0.0000000000000000     
  -4.2644733425224887E-002  0.18087728609379544        0.0000000000000000     
  -4.3176662656283123E-002  0.18892285811864487        0.0000000000000000     
  -4.3657704667721654E-002  0.19705705869535797        0.0000000000000000     
  -4.7657963561657447E-002  0.16524731093035738        0.0000000000000000     
  -4.8387366466619217E-002  0.17309812171892930        0.0000000000000000     
  -4.9060593612341545E-002  0.18103736040026056        0.0000000000000000     
  -4.9677644998824405E-002  0.18906502697435115        0.0000000000000000     
  -5.0238520626067817E-002  0.19718112144120109        0.0000000000000000     
  -2.4550036344582929E-002  0.19679624393374687        0.0000000000000000     
  -2.4781916120830076E-002  0.20504107719847001        0.0000000000000000     
  -2.4984667181649715E-002  0.21334333303861547        0.0000000000000000     
  -2.5158289527041838E-002  0.22170301145418320        0.0000000000000000     
  -2.5302783157006452E-002  0.23012011244517322        0.0000000000000000     
  -3.0813462526979207E-002  0.19686461994163082        0.0000000000000000     
  -3.1107417246807934E-002  0.20510148796797364        0.0000000000000000     
  -3.1364428216699526E-002  0.21339924877792985        0.0000000000000000     
  -3.1584495436653995E-002  0.22175790237149956        0.0000000000000000     
  -3.1767618906671333E-002  0.23017744874868262        0.0000000000000000     
  -3.7182685301358778E-002  0.19695155819550120        0.0000000000000000     
  -3.7542431676692078E-002  0.20517766066715168        0.0000000000000000     
  -3.7857381434652185E-002  0.21346819622927563        0.0000000000000000     
  -3.8127534575239125E-002  0.22182316488187298        0.0000000000000000     
  -3.8352891098452892E-002  0.23024256662494388        0.0000000000000000     
  -4.3657704667721654E-002  0.19705705869535797        0.0000000000000000     
  -4.4086959410482497E-002  0.20526959529600411        0.0000000000000000     
  -4.4463526835507708E-002  0.21355017539265264        0.0000000000000000     
  -4.4787406942797245E-002  0.22189879898530365        0.0000000000000000     
  -4.5058599732351150E-002  0.23031546607395703        0.0000000000000000     
  -5.0238520626067817E-002  0.19718112144120109        0.0000000000000000     
  -5.0741000448179231E-002  0.20537729185453088        0.0000000000000000     
  -5.1182864419266082E-002  0.21364518626806098        0.0000000000000000     
  -5.1564112539328362E-002  0.22198480468179135        0.0000000000000000     
  -5.1884744808366100E-002  0.23039614709572206        0.0000000000000000     
  -2.5302783157006452E-002  0.23012011244517322        0.0000000000000000     
  -2.5424425613435931E-002  0.23856714427250103        0.0000000000000000     
  -2.5529494438222628E-002  0.24701661519708212        0.0000000000000000     
  -2.5617989631366557E-002  0.25546852521891644        0.0000000000000000     
  -2.5689911192867711E-002  0.26392287433800410        0.0000000000000000     
  -3.1767618906671333E-002  0.23017744874868262        0.0000000000000000     
  -3.1921715527197671E-002  0.23863303165297556        0.0000000000000000     
  -3.2054702198679161E-002  0.24709979482787492        0.0000000000000000     
  -3.2166578921115782E-002  0.25557773827338071        0.0000000000000000     
  -3.2257345694507548E-002  0.26406686198949281        0.0000000000000000     
  -3.8352891098452892E-002  0.23024256662494388        0.0000000000000000     
  -3.8542216927033440E-002  0.23870560214689307        0.0000000000000000     
  -3.8704277983720725E-002  0.24719147213612550        0.0000000000000000     
  -3.8839074268514753E-002  0.25570017659264105        0.0000000000000000     
  -3.8946605781415511E-002  0.26423171551643992        0.0000000000000000     
  -4.5058599732351150E-002  0.23031546607395703        0.0000000000000000     
  -4.5285929812943229E-002  0.23878485575425346        0.0000000000000000     
  -4.5478221793347338E-002  0.24729164712183374        0.0000000000000000     
  -4.5635475673563450E-002  0.25583584017669769        0.0000000000000000     
  -4.5757691453591584E-002  0.26441743491884528        0.0000000000000000     
  -5.1884744808366100E-002  0.23039614709572206        0.0000000000000000     
  -5.2152854184927044E-002  0.23887079247505688        0.0000000000000000     
  -5.2376533627558973E-002  0.24740031978499966        0.0000000000000000     
  -5.2555783136261892E-002  0.25598472902555036        0.0000000000000000     
  -5.2690602711035789E-002  0.26462402019670905        0.0000000000000000     
  -2.5689911192867711E-002  0.26392287433800410        0.0000000000000000     
  -2.5757451447349564E-002  0.27232452005332208        0.0000000000000000     
  -2.5832802719435589E-002  0.28061831986384755        0.0000000000000000     
  -2.5915965009125783E-002  0.28880427376958062        0.0000000000000000     
  -2.6006938316420147E-002  0.29688238177052118        0.0000000000000000     
  -3.2257345694507548E-002  0.26406686198949281        0.0000000000000000     
  -3.2341820280318255E-002  0.27251426062956952        0.0000000000000000     
  -3.2434820440011704E-002  0.28086702884696874        0.0000000000000000     
  -3.2536346173587888E-002  0.28912516664169058        0.0000000000000000     
  -3.2646397481046814E-002  0.29728867401373499        0.0000000000000000     
  -3.8946605781415511E-002  0.26423171551643992        0.0000000000000000     
  -3.9045671786939289E-002  0.27273491800582045        0.0000000000000000     
  -3.9155071549602356E-002  0.28115861315908119        0.0000000000000000     
  -3.9274805069404735E-002  0.28950280097622189        0.0000000000000000     
  -3.9404872346346403E-002  0.29776748145724297        0.0000000000000000     
  -4.5757691453591584E-002  0.26441743491884528        0.0000000000000000     
  -4.5869005967212668E-002  0.27298649218207499        0.0000000000000000     
  -4.5993556048207582E-002  0.28149307280018471        0.0000000000000000     
  -4.6131341696576324E-002  0.28993717677317477        0.0000000000000000     
  -4.6282362912318922E-002  0.29831880410104494        0.0000000000000000     
  -5.2690602711035789E-002  0.26462402019670905        0.0000000000000000     
  -5.2811822821138367E-002  0.27326898315833303        0.0000000000000000     
  -5.2950273935827338E-002  0.28187040777027972        0.0000000000000000     
  -5.3105956055102654E-002  0.29042829403254899        0.0000000000000000     
  -5.3278869178964364E-002  0.29894264194514103        0.0000000000000000     
  -2.8957403293910160E-002   5.7171266795325013E-002   0.0000000000000000     
  -3.0507688560431439E-002   6.2731404858291456E-002   0.0000000000000000     
  -3.2005213080020141E-002   6.8471786279500318E-002   0.0000000000000000     
  -3.3449976852676262E-002   7.4392411058951599E-002   0.0000000000000000     
  -3.4841979878399813E-002   8.0493279196645284E-002   0.0000000000000000     
  -3.3081353066421910E-002   5.7666629116413230E-002   0.0000000000000000     
  -3.4794446735195023E-002   6.3213935545910135E-002   0.0000000000000000     
  -3.6453504180724260E-002   6.8940424174205650E-002   0.0000000000000000     
  -3.8058525403009622E-002   7.4846095001299753E-002   0.0000000000000000     
  -3.9609510402051101E-002   8.0930948027192445E-002   0.0000000000000000     
  -3.7259457350316126E-002   5.8222764822854343E-002   0.0000000000000000     
  -3.9156802013125797E-002   6.3753748910106059E-002   0.0000000000000000     
  -4.0994362217191979E-002   6.9463458714416990E-002   0.0000000000000000     
  -4.2772137962514681E-002   7.5351894235787156E-002   0.0000000000000000     
  -4.4490129249093902E-002   8.1419055474216545E-002   0.0000000000000000     
  -4.1491716145592786E-002   5.8839673914648373E-002   0.0000000000000000     
  -4.3594754394223743E-002   6.4350844950879241E-002   0.0000000000000000     
  -4.5627787189423299E-002   7.0040889900134407E-002   0.0000000000000000     
  -4.7590814531191447E-002   7.5909808762413836E-002   0.0000000000000000     
  -4.9483836419528214E-002   8.1957601537717611E-002   0.0000000000000000     
  -4.5778129452251910E-002   5.9517356391795298E-002   0.0000000000000000     
  -4.8108303878488870E-002   6.5005223668229639E-002   0.0000000000000000     
  -5.0353779097418214E-002   7.0672717731357804E-002   0.0000000000000000     
  -5.2514555109039934E-002   7.6519838581179819E-002   0.0000000000000000     
  -5.4590631913354032E-002   8.2546586217695644E-002   0.0000000000000000     
  -3.4841979878399813E-002   8.0493279196645284E-002   0.0000000000000000     
  -3.6184255990848437E-002   8.6763854034140456E-002   0.0000000000000000     
  -3.7479839023679760E-002   9.3193598912996126E-002   0.0000000000000000     
  -3.8728728976893806E-002   9.9782513833212322E-002   0.0000000000000000     
  -3.9930925850490559E-002  0.10653059879478904        0.0000000000000000     
  -3.9609510402051101E-002   8.0930948027192445E-002   0.0000000000000000     
  -4.1108365361959401E-002   8.7184955230111993E-002   0.0000000000000000     
  -4.2556996466845180E-002   9.3598088588286651E-002   0.0000000000000000     
  -4.3955403716708460E-002  0.10017034810171642        0.0000000000000000     
  -4.5303587111549228E-002  0.10690173377040131        0.0000000000000000     
  -4.4490129249093902E-002   8.1419055474216545E-002   0.0000000000000000     
  -4.6150885750385139E-002   8.7655081286318354E-002   0.0000000000000000     
  -4.7756957139843854E-002   9.4050110528705794E-002   0.0000000000000000     
  -4.9308343417470070E-002  0.10060414320137889        0.0000000000000000     
  -5.0805044583263806E-002  0.10731717930433758        0.0000000000000000     
  -4.9483836419528214E-002   8.1957601537717611E-002   0.0000000000000000     
  -5.1311817156125643E-002   8.8174232202759578E-002   0.0000000000000000     
  -5.3079721042675797E-002   9.4549664734253622E-002   0.0000000000000000     
  -5.4787548079178683E-002  0.10108389913219971        0.0000000000000000     
  -5.6435298265634280E-002  0.10777693539659788        0.0000000000000000     
  -5.4590631913354032E-002   8.2546586217695644E-002   0.0000000000000000     
  -5.6591159579180927E-002   8.8742407979435625E-002   0.0000000000000000     
  -5.8525288175340993E-002   9.5096751204930066E-002   0.0000000000000000     
  -6.0393017701834244E-002  0.10160961589417893        0.0000000000000000     
  -6.2194348158660678E-002  0.10828100204718225        0.0000000000000000     
  -3.9930925850490559E-002  0.10653059879478904        0.0000000000000000     
  -4.1082868501131013E-002  0.11342506560697234        0.0000000000000000     
  -4.2180995785476183E-002  0.12045312607900827        0.0000000000000000     
  -4.3225307703526041E-002  0.12761478021089681        0.0000000000000000     
  -4.4215804255280614E-002  0.13491002800263799        0.0000000000000000     
  -4.5303587111549228E-002  0.10690173377040131        0.0000000000000000     
  -4.6596995024966024E-002  0.11377928059084269        0.0000000000000000     
  -4.7831075830557374E-002  0.12079002355954195        0.0000000000000000     
  -4.9005829528323296E-002  0.12793396267649915        0.0000000000000000     
  -5.0121256118263763E-002  0.13521109794171421        0.0000000000000000     
  -5.0805044583263806E-002  0.10731717930433758        0.0000000000000000     
  -5.2241873311542134E-002  0.11417619248119258        0.0000000000000000     
  -5.3613642276622228E-002  0.12116815637555459        0.0000000000000000     
  -5.4920351478504076E-002  0.12829307098742354        0.0000000000000000     
  -5.6162000917187677E-002  0.13555093631679951        0.0000000000000000     
  -5.6435298265634280E-002  0.10777693539659788        0.0000000000000000     
  -5.8017503360859396E-002  0.11461580127802205        0.0000000000000000     
  -5.9528695123670775E-002  0.12158752452704613        0.0000000000000000     
  -6.0968873554068423E-002  0.12869210514367008        0.0000000000000000     
  -6.2338038652052327E-002  0.13592954312789393        0.0000000000000000     
  -6.2194348158660678E-002  0.10828100204718225        0.0000000000000000     
  -6.3923885172917763E-002  0.11509810698133108        0.0000000000000000     
  -6.5576234371702985E-002  0.12204812801401657        0.0000000000000000     
  -6.7151395755016288E-002  0.12913106514523870        0.0000000000000000     
  -6.8649369322857728E-002  0.13634691837499743        0.0000000000000000     
  -4.4215804255280614E-002  0.13491002800263799        0.0000000000000000     
  -4.5153630863384357E-002  0.14232764165187106        0.0000000000000000     
  -4.6039932950481741E-002  0.14985639335623532        0.0000000000000000     
  -4.6874710516572771E-002  0.15749628311573077        0.0000000000000000     
  -4.7657963561657447E-002  0.16524731093035738        0.0000000000000000     
  -5.0121256118263763E-002  0.13521109794171421        0.0000000000000000     
  -5.1178497182308103E-002  0.14261028832308975        0.0000000000000000     
  -5.2178694302385573E-002  0.15012039278852846        0.0000000000000000     
  -5.3121847478496194E-002  0.15774141133803021        0.0000000000000000     
  -5.4007956710639946E-002  0.16547334397159516        0.0000000000000000     
  -5.6162000917187677E-002  0.13555093631679951        0.0000000000000000     
  -5.7340050830639755E-002  0.14293055246663908        0.0000000000000000     
  -5.8455961456827035E-002  0.15042071953989888        0.0000000000000000     
  -5.9509732795749545E-002  0.15802143753657899        0.0000000000000000     
  -6.0501364847407257E-002  0.16573270645667931        0.0000000000000000     
  -6.2338038652052327E-002  0.13592954312789393        0.0000000000000000     
  -6.3638291808379294E-002  0.14328843408251898        0.0000000000000000     
  -6.4871734413806129E-002  0.15075737361034672        0.0000000000000000     
  -6.6038366468332846E-002  0.15833636171137694        0.0000000000000000     
  -6.7138187971959376E-002  0.16602539838560987        0.0000000000000000     
  -6.8649369322857728E-002  0.13634691837499743        0.0000000000000000     
  -7.0073220115526760E-002  0.14368393317072956        0.0000000000000000     
  -7.1426013173322866E-002  0.15113035499987182        0.0000000000000000     
  -7.2707748496246047E-002  0.15868618386242422        0.0000000000000000     
  -7.3918426084296301E-002  0.16635141975838680        0.0000000000000000     
  -4.7657963561657447E-002  0.16524731093035738        0.0000000000000000     
  -4.8387366466619217E-002  0.17309812171892930        0.0000000000000000     
  -4.9060593612341545E-002  0.18103736040026056        0.0000000000000000     
  -4.9677644998824405E-002  0.18906502697435115        0.0000000000000000     
  -5.0238520626067817E-002  0.19718112144120109        0.0000000000000000     
  -5.4007956710639946E-002  0.16547334397159516        0.0000000000000000     
  -5.4835040208557992E-002  0.17330487127621175        0.0000000000000000     
  -5.5601116181991456E-002  0.18122467383886867        0.0000000000000000     
  -5.6306184630940351E-002  0.18923275165956580        0.0000000000000000     
  -5.6950245555404670E-002  0.19732910473830326        0.0000000000000000     
  -6.0501364847407257E-002  0.16573270645667931        0.0000000000000000     
  -6.1429075840134510E-002  0.17354346852024072        0.0000000000000000     
  -6.2291084002265663E-002  0.18144266594730421        0.0000000000000000     
  -6.3087389333800675E-002  0.18943029873786965        0.0000000000000000     
  -6.3817991834739587E-002  0.19750636689193710        0.0000000000000000     
  -6.7138187971959376E-002  0.16602539838560987        0.0000000000000000     
  -6.8169473361348806E-002  0.17381391345101627        0.0000000000000000     
  -6.9130497073164140E-002  0.18169133672556720        0.0000000000000000     
  -7.0021259107405392E-002  0.18965766820926266        0.0000000000000000     
  -7.0841759464072562E-002  0.19771290790210264        0.0000000000000000     
  -7.3918426084296301E-002  0.16635141975838680        0.0000000000000000     
  -7.5056232772200832E-002  0.17411620606853828        0.0000000000000000     
  -7.6119355394686908E-002  0.18197068617365766        0.0000000000000000     
  -7.7107793951754502E-002  0.18991486007374481        0.0000000000000000     
  -7.8021548443403602E-002  0.19794872776879985        0.0000000000000000     
  -5.0238520626067817E-002  0.19718112144120109        0.0000000000000000     
  -5.0741000448179231E-002  0.20537729185453088        0.0000000000000000     
  -5.1182864419266082E-002  0.21364518626806098        0.0000000000000000     
  -5.1564112539328362E-002  0.22198480468179135        0.0000000000000000     
  -5.1884744808366100E-002  0.23039614709572206        0.0000000000000000     
  -5.6950245555404670E-002  0.19732910473830326        0.0000000000000000     
  -5.7530121448631552E-002  0.20550696265987201        0.0000000000000000     
  -5.8042634803868176E-002  0.21375955500906318        0.0000000000000000     
  -5.8487785621114508E-002  0.22208688178587679        0.0000000000000000     
  -5.8865573900370560E-002  0.23048894299031278        0.0000000000000000     
  -6.3817991834739587E-002  0.19750636689193710        0.0000000000000000     
  -6.4479889070688828E-002  0.20566482002916753        0.0000000000000000     
  -6.5070078607254861E-002  0.21389960776922204        0.0000000000000000     
  -6.5588560444437713E-002  0.22221073011210055        0.0000000000000000     
  -6.6035334582237371E-002  0.23059818705780308        0.0000000000000000     
  -7.0841759464072562E-002  0.19771290790210264        0.0000000000000000     
  -7.1590303314351025E-002  0.20585086396241742        0.0000000000000000     
  -7.2265195829426157E-002  0.21406534454853737        0.0000000000000000     
  -7.2866437009297999E-002  0.22235634966046255        0.0000000000000000     
  -7.3394026853966551E-002  0.23072387929819291        0.0000000000000000     
  -7.8021548443403602E-002  0.19794872776879985        0.0000000000000000     
  -7.8861364179618143E-002  0.20606509445962168        0.0000000000000000     
  -7.9627986470382092E-002  0.21425676534700938        0.0000000000000000     
  -8.0321415315695380E-002  0.22252374043096287        0.0000000000000000     
  -8.0941650715558061E-002  0.23086601971148221        0.0000000000000000     
  -5.1884744808366100E-002  0.23039614709572206        0.0000000000000000     
  -5.2152854184927044E-002  0.23887079247505688        0.0000000000000000     
  -5.2376533627558973E-002  0.24740031978499966        0.0000000000000000     
  -5.2555783136261892E-002  0.25598472902555036        0.0000000000000000     
  -5.2690602711035789E-002  0.26462402019670905        0.0000000000000000     
  -5.8865573900370560E-002  0.23048894299031278        0.0000000000000000     
  -5.9182076765351747E-002  0.23896484039452509        0.0000000000000000     
  -5.9443371339773440E-002  0.24751367577066757        0.0000000000000000     
  -5.9649457623635674E-002  0.25613544911874031        0.0000000000000000     
  -5.9800335616938413E-002  0.26483016043874319        0.0000000000000000     
  -6.6035334582237371E-002  0.23059818705780308        0.0000000000000000     
  -6.6412684276584200E-002  0.23906842759788005        0.0000000000000000     
  -6.6722892783408524E-002  0.24762790072388183        0.0000000000000000     
  -6.6965960102710373E-002  0.25627660643580841        0.0000000000000000     
  -6.7141886234489745E-002  0.26501454473365987        0.0000000000000000     
  -7.3394026853966551E-002  0.23072387929819291        0.0000000000000000     
  -7.3844676718624408E-002  0.23918155408512171        0.0000000000000000     
  -7.4215097958464246E-002  0.24774299464464233        0.0000000000000000     
  -7.4505290573486038E-002  0.25640820097675476        0.0000000000000000     
  -7.4715254563689784E-002  0.26517717308145905        0.0000000000000000     
  -8.0941650715558061E-002  0.23086601971148221        0.0000000000000000     
  -8.1478054091472366E-002  0.23930421985625011        0.0000000000000000     
  -8.1919986864940536E-002  0.24785895753294912        0.0000000000000000     
  -8.2267449035962600E-002  0.25653023274157932        0.0000000000000000     
  -8.2520440604538545E-002  0.26531804548214077        0.0000000000000000     
  -5.2690602711035789E-002  0.26462402019670905        0.0000000000000000     
  -5.2811822821138367E-002  0.27326898315833303        0.0000000000000000     
  -5.2950273935827338E-002  0.28187040777027972        0.0000000000000000     
  -5.3105956055102654E-002  0.29042829403254899        0.0000000000000000     
  -5.3278869178964364E-002  0.29894264194514103        0.0000000000000000     
  -5.9800335616938413E-002  0.26483016043874319        0.0000000000000000     
  -5.9932874195869137E-002  0.27355368311929307        0.0000000000000000     
  -6.0083942236615298E-002  0.28226189054900669        0.0000000000000000     
  -6.0253539739176902E-002  0.29095478272788405        0.0000000000000000     
  -6.0441666703553949E-002  0.29963235965592522        0.0000000000000000     
  -6.7141886234489745E-002  0.26501454473365987        0.0000000000000000     
  -6.7290911938557643E-002  0.27381188424965347        0.0000000000000000     
  -6.7453277974725154E-002  0.28263879361600658        0.0000000000000000     
  -6.7628984342992235E-002  0.29149527283271931        0.0000000000000000     
  -6.7818031043358901E-002  0.30038132189979150        0.0000000000000000     
  -7.4715254563689784E-002  0.26517717308145905        0.0000000000000000     
  -7.4885936049203947E-002  0.27404358654941419        0.0000000000000000     
  -7.5058281150156891E-002  0.28300111697127939        0.0000000000000000     
  -7.5232289866548646E-002  0.29204976434705465        0.0000000000000000     
  -7.5407962198379225E-002  0.30118952867673998        0.0000000000000000     
  -8.2520440604538545E-002  0.26531804548214077        0.0000000000000000     
  -8.2717946527807978E-002  0.27424879001857533        0.0000000000000000     
  -8.2898951762910511E-002  0.28334886061482517        0.0000000000000000     
  -8.3063456309846170E-002  0.29261825727089019        0.0000000000000000     
  -8.3211460168614915E-002  0.30205697998677050        0.0000000000000000     
  -4.5778129452251910E-002   5.9517356391795298E-002   0.0000000000000000     
  -4.8108303878488870E-002   6.5005223668229639E-002   0.0000000000000000     
  -5.0353779097418214E-002   7.0672717731357804E-002   0.0000000000000000     
  -5.2514555109039934E-002   7.6519838581179819E-002   0.0000000000000000     
  -5.4590631913354032E-002   8.2546586217695644E-002   0.0000000000000000     
  -5.0246846728214369E-002   6.0252540175095168E-002   0.0000000000000000     
  -5.2795920201913017E-002   6.5715820618914442E-002   0.0000000000000000     
  -5.5248255848181251E-002   7.1359265965743685E-002   0.0000000000000000     
  -5.7603853667019020E-002   7.7182876215582882E-002   0.0000000000000000     
  -5.9862713658426381E-002   8.3186651368432035E-002   0.0000000000000000     
  -5.5026017431401043E-002   6.1041953185348025E-002   0.0000000000000000     
  -5.7756073100488040E-002   6.6481571359690766E-002   0.0000000000000000     
  -6.0387135348716918E-002   7.2100858360948358E-002   0.0000000000000000     
  -6.2919204176087651E-002   7.7899814189120828E-002   0.0000000000000000     
  -6.5352279582600259E-002   8.3878438844208134E-002   0.0000000000000000     
  -6.0115641561811942E-002   6.1885595422553862E-002   0.0000000000000000     
  -6.2988762574213930E-002   6.7302475890558627E-002   0.0000000000000000     
  -6.5770417599025230E-002   7.2897494916971881E-002   0.0000000000000000     
  -6.8460606636245813E-002   7.8670652501793656E-002   0.0000000000000000     
  -7.1059329685875680E-002   8.4621948645023939E-002   0.0000000000000000     
  -6.5515719119447036E-002   6.2783466886712685E-002   0.0000000000000000     
  -6.8493988623090696E-002   6.8178534211517983E-002   0.0000000000000000     
  -7.1398102599106186E-002   7.3749175633814223E-002   0.0000000000000000     
  -7.4228061047493493E-002   7.9495391153601366E-002   0.0000000000000000     
  -7.6983863968252630E-002   8.5417180770879453E-002   0.0000000000000000     
  -5.4590631913354032E-002   8.2546586217695644E-002   0.0000000000000000     
  -5.6591159579180927E-002   8.8742407979435625E-002   0.0000000000000000     
  -5.8525288175340993E-002   9.5096751204930066E-002   0.0000000000000000     
  -6.0393017701834244E-002  0.10160961589417893        0.0000000000000000     
  -6.2194348158660678E-002  0.10828100204718225        0.0000000000000000     
  -5.9862713658426381E-002   8.3186651368432035E-002   0.0000000000000000     
  -6.2036690493527016E-002   8.9359715910466833E-002   0.0000000000000000     
  -6.4137638843444658E-002   9.5691194327862925E-002   0.0000000000000000     
  -6.6165558708179306E-002  0.10218108662062031        0.0000000000000000     
  -6.8120450087730933E-002  0.10882939278873899        0.0000000000000000     
  -6.5352279582600259E-002   8.3878438844208134E-002   0.0000000000000000     
  -6.7696187373139968E-002   9.0026263289973443E-002   0.0000000000000000     
  -6.9960753352591984E-002   9.6332818490179967E-002   0.0000000000000000     
  -7.2145977520956348E-002  0.10279810444482765        0.0000000000000000     
  -7.4251859878233017E-002  0.10942212115391650        0.0000000000000000     
  -7.1059329685875680E-002   8.4621948645023939E-002   0.0000000000000000     
  -7.3569650218019783E-002   9.0742050117955525E-002   0.0000000000000000     
  -7.5994631702782992E-002   9.7021623691881165E-002   0.0000000000000000     
  -7.8334274140165389E-002  0.10346066936680093        0.0000000000000000     
  -8.0588577530166905E-002  0.11005918714271479        0.0000000000000000     
  -7.6983863968252630E-002   8.5417180770879453E-002   0.0000000000000000     
  -7.9657079028166433E-002   9.1507076394413009E-002   0.0000000000000000     
  -8.2239273894017681E-002   9.7757609932966588E-002   0.0000000000000000     
  -8.4730448565806415E-002  0.10416878138654019        0.0000000000000000     
  -8.7130603043532609E-002  0.11074059075513384        0.0000000000000000     
  -6.2194348158660678E-002  0.10828100204718225        0.0000000000000000     
  -6.3923885172917763E-002  0.11509810698133108        0.0000000000000000     
  -6.5576234371702985E-002  0.12204812801401657        0.0000000000000000     
  -6.7151395755016288E-002  0.12913106514523870        0.0000000000000000     
  -6.8649369322857728E-002  0.13634691837499743        0.0000000000000000     
  -6.8120450087730933E-002  0.10882939278873899        0.0000000000000000     
  -6.9997135169481792E-002  0.11562336749314468        0.0000000000000000     
  -7.1790436140814026E-002  0.12255026539476310        0.0000000000000000     
  -7.3500353001727692E-002  0.12961008649359423        0.0000000000000000     
  -7.5126885752222747E-002  0.13680283078963809        0.0000000000000000     
  -7.4251859878233017E-002  0.10942212115391650        0.0000000000000000     
  -7.6273369772315955E-002  0.11619184071548781        0.0000000000000000     
  -7.8205476551099176E-002  0.12309423522758278        0.0000000000000000     
  -8.0048180214582584E-002  0.13012930469020151        0.0000000000000000     
  -8.1801480762766249E-002  0.13729704910334389        0.0000000000000000     
  -8.0588577530166905E-002  0.11005918714271479        0.0000000000000000     
  -8.2752588981420308E-002  0.11680352664836048        0.0000000000000000     
  -8.4821355602558338E-002  0.12368003751247567        0.0000000000000000     
  -8.6794877393580980E-002  0.13068871973506047        0.0000000000000000     
  -8.8673154354488248E-002  0.13782957331611478        0.0000000000000000     
  -8.7130603043532609E-002  0.11074059075513384        0.0000000000000000     
  -8.9434792796794810E-002  0.11745842529176265        0.0000000000000000     
  -9.1638073295191552E-002  0.12430767224944175        0.0000000000000000     
  -9.3740444538722836E-002  0.13128833162817116        0.0000000000000000     
  -9.5741906527388690E-002  0.13840040342795090        0.0000000000000000     
  -6.8649369322857728E-002  0.13634691837499743        0.0000000000000000     
  -7.0073220115526760E-002  0.14368393317072956        0.0000000000000000     
  -7.1426013173322866E-002  0.15113035499987182        0.0000000000000000     
  -7.2707748496246047E-002  0.15868618386242422        0.0000000000000000     
  -7.3918426084296301E-002  0.16635141975838680        0.0000000000000000     
  -7.5126885752222747E-002  0.13680283078963809        0.0000000000000000     
  -7.6674080574707537E-002  0.14411651979536141        0.0000000000000000     
  -7.8145983651590423E-002  0.15153917502323094        0.0000000000000000     
  -7.9542594982871348E-002  0.15907079647324673        0.0000000000000000     
  -8.0863914568550382E-002  0.16671138414540873        0.0000000000000000     
  -8.1801480762766249E-002  0.13729704910334389        0.0000000000000000     
  -8.3470118008547062E-002  0.14458566402050518        0.0000000000000000     
  -8.5058831764821957E-002  0.15198334499518071        0.0000000000000000     
  -8.6567622031590907E-002  0.15949009202737052        0.0000000000000000     
  -8.7996488808853968E-002  0.16710590511707440        0.0000000000000000     
  -8.8673154354488248E-002  0.13782957331611478        0.0000000000000000     
  -9.0461332417045334E-002  0.14509136584616095        0.0000000000000000     
  -9.2164557513017498E-002  0.15246286491572117        0.0000000000000000     
  -9.3782829642404739E-002  0.15994407052479540        0.0000000000000000     
  -9.5316148805207057E-002  0.16753498267338371        0.0000000000000000     
  -9.5741906527388690E-002  0.13840040342795090        0.0000000000000000     
  -9.7647723800202341E-002  0.14563362527232868        0.0000000000000000     
  -9.9463160896177044E-002  0.15297773478485224        0.0000000000000000     
 -0.10118821781531281       0.16043273196552163        0.0000000000000000     
 -0.10282289455760965       0.16799861681433678        0.0000000000000000     
  -7.3918426084296301E-002  0.16635141975838680        0.0000000000000000     
  -7.5056232772200832E-002  0.17411620606853828        0.0000000000000000     
  -7.6119355394686908E-002  0.18197068617365766        0.0000000000000000     
  -7.7107793951754502E-002  0.18991486007374481        0.0000000000000000     
  -7.8021548443403602E-002  0.19794872776879985        0.0000000000000000     
  -8.0863914568550382E-002  0.16671138414540873        0.0000000000000000     
  -8.2108265291774438E-002  0.17445164313177189        0.0000000000000000     
  -8.3273970035690439E-002  0.18228227852439108        0.0000000000000000     
  -8.4361028800298429E-002  0.19020329032326630        0.0000000000000000     
  -8.5369441585598407E-002  0.19821467852839758        0.0000000000000000     
  -8.7996488808853968E-002  0.16710590511707440        0.0000000000000000     
  -8.9344482139153303E-002  0.17482152139968204        0.0000000000000000     
  -9.0610652065031216E-002  0.18262767801058299        0.0000000000000000     
  -9.1794998586487667E-002  0.19052437494977717        0.0000000000000000     
  -9.2897521703522709E-002  0.19851161221726463        0.0000000000000000     
  -9.5316148805207057E-002  0.16753498267338371        0.0000000000000000     
  -9.6764883314337496E-002  0.17522584087226886        0.0000000000000000     
  -9.8129401482709266E-002  0.18300688463223344        0.0000000000000000     
  -9.9409703310322228E-002  0.19087811395327750        0.0000000000000000     
 -0.10060578879717647       0.19883952883540101        0.0000000000000000     
 -0.10282289455760965       0.16799861681433678        0.0000000000000000     
 -0.10436946881732705       0.17566460154953217        0.0000000000000000     
 -0.10583021828872452       0.18341989838934233        0.0000000000000000     
 -0.10720514297180207       0.19126450733376715        0.0000000000000000     
 -0.10849424286655970       0.19919842838280671        0.0000000000000000     
  -7.8021548443403602E-002  0.19794872776879985        0.0000000000000000     
  -7.8861364179618143E-002  0.20606509445962168        0.0000000000000000     
  -7.9627986470382092E-002  0.21425676534700938        0.0000000000000000     
  -8.0321415315695380E-002  0.22252374043096287        0.0000000000000000     
  -8.0941650715558061E-002  0.23086601971148221        0.0000000000000000     
  -8.5369441585598407E-002  0.19821467852839758        0.0000000000000000     
  -8.6302485121463560E-002  0.20630838715927829        0.0000000000000000     
  -8.7163436137767100E-002  0.21447636023540181        0.0000000000000000     
  -8.7952294634509057E-002  0.22271859775676814        0.0000000000000000     
  -8.8669060611689388E-002  0.23103509972337735        0.0000000000000000     
  -9.2897521703522709E-002  0.19851161221726463        0.0000000000000000     
  -9.3923079594860612E-002  0.20658161769988520        0.0000000000000000     
  -9.4876530439225823E-002  0.21472661928447864        0.0000000000000000     
  -9.5757874236618287E-002  0.22294661697104506        0.0000000000000000     
  -9.6567110987038018E-002  0.23124161075958449        0.0000000000000000     
 -0.10060578879717647       0.19883952883540101        0.0000000000000000     
 -0.10172314759980933       0.20688478608144234        0.0000000000000000     
 -0.10276726937475818       0.21500754249423992        0.0000000000000000     
 -0.10373815412202307       0.22320779807379368        0.0000000000000000     
 -0.10463580184160395       0.23148555282010358        0.0000000000000000     
 -0.10849424286655970       0.19919842838280671        0.0000000000000000     
 -0.10970268913630965       0.20721789230394988        0.0000000000000000     
 -0.11083565294436422       0.21531912986468560        0.0000000000000000     
 -0.11189313429072338       0.22350214106501390        0.0000000000000000     
 -0.11287513317538715       0.23176692590493472        0.0000000000000000     
  -8.0941650715558061E-002  0.23086601971148221        0.0000000000000000     
  -8.1478054091472366E-002  0.23930421985625011        0.0000000000000000     
  -8.1919986864940536E-002  0.24785895753294912        0.0000000000000000     
  -8.2267449035962600E-002  0.25653023274157932        0.0000000000000000     
  -8.2520440604538545E-002  0.26531804548214077        0.0000000000000000     
  -8.8669060611689388E-002  0.23103509972337735        0.0000000000000000     
  -8.9299345532953073E-002  0.23945140936791678        0.0000000000000000     
  -8.9828760861945106E-002  0.24799306992307402        0.0000000000000000     
  -9.0257306598665446E-002  0.25666008138884899        0.0000000000000000     
  -9.0584982743114106E-002  0.26545244376524169        0.0000000000000000     
  -9.6567110987038018E-002  0.23124161075958449        0.0000000000000000     
  -9.7295080180891572E-002  0.23963810707677347        0.0000000000000000     
  -9.7932621308585530E-002  0.24816261234928885        0.0000000000000000     
  -9.8479734370119823E-002  0.25681512657713057        0.0000000000000000     
  -9.8936419365494521E-002  0.26559564976029870        0.0000000000000000     
 -0.10463580184160395       0.23148555282010358        0.0000000000000000     
 -0.10546525803528786       0.23986431298282010        0.0000000000000000     
 -0.10623156820486179       0.24836758481159360        0.0000000000000000     
 -0.10693473235032580       0.25699536830642411        0.0000000000000000     
 -0.10757475047167984       0.26574766346731160        0.0000000000000000     
 -0.11287513317538715       0.23176692590493472        0.0000000000000000     
 -0.11380987909614189       0.24013002708605669        0.0000000000000000     
 -0.11472560155077394       0.24860798730998829        0.0000000000000000     
 -0.11562230053928332       0.25720080657672967        0.0000000000000000     
 -0.11649997606167001       0.26590848488628060        0.0000000000000000     
  -8.2520440604538545E-002  0.26531804548214077        0.0000000000000000     
  -8.2717946527807978E-002  0.27424879001857533        0.0000000000000000     
  -8.2898951762910511E-002  0.28334886061482517        0.0000000000000000     
  -8.3063456309846170E-002  0.29261825727089019        0.0000000000000000     
  -8.3211460168614915E-002  0.30205697998677050        0.0000000000000000     
  -9.0584982743114106E-002  0.26545244376524169        0.0000000000000000     
  -9.0842138174413709E-002  0.27443318233014513        0.0000000000000000     
  -9.1059121771686888E-002  0.28366532236145209        0.0000000000000000     
  -9.1235933534933644E-002  0.29314886385916272        0.0000000000000000     
  -9.1372573464153964E-002  0.30288380682327698        0.0000000000000000     
  -9.8936419365494521E-002  0.26559564976029870        0.0000000000000000     
  -9.9313705789065052E-002  0.27460245115713178        0.0000000000000000     
  -9.9622623135186883E-002  0.28393380002596852        0.0000000000000000     
  -9.9863171403859974E-002  0.29358969636680893        0.0000000000000000     
 -0.10003535059508435       0.30357014017965306        0.0000000000000000     
 -0.10757475047167984       0.26574766346731160        0.0000000000000000     
 -0.10813264937176202       0.27475659649953532        0.0000000000000000     
 -0.10858945585341045       0.28415429360837441        0.0000000000000000     
 -0.10894516991662515       0.29394075479382897        0.0000000000000000     
 -0.10919979156140609       0.30411598005589879        0.0000000000000000     
 -0.11649997606167001       0.26590848488628060        0.0000000000000000     
 -0.11729896892250460       0.27489561835735588        0.0000000000000000     
 -0.11795961992635767       0.28432680310866981        0.0000000000000000     
 -0.11848192907322919       0.29420203914022258        0.0000000000000000     
 -0.11886589636311916       0.30452132645201407        0.0000000000000000     
 </DataArray>
 <DataArray  type="Float64" Name="stress" NumberOfComponents="3" format="ascii">
   5776565663.7256355       -43003559.284397602       -183156173.19789675     
   5633620045.5389071       -44893594.250564814       -117149504.71888734     
   5492624951.6879997       -40281881.430708408       -67538140.667299062     
   5353580382.1728897       -29168420.824838638       -34322081.043143444     
   5216486336.9935675       -11553212.433007956       -17501325.846411500     
   5607300810.8272905        10337098.976136446        61263033.309154011     
   5428417239.7077503       -559160.56830120087        101163319.81928201     
   5250829583.2659721       -7135704.5201830864        131892691.09580165     
   5074537841.5019712       -9392532.8794946671        153451147.13871548     
   4899542014.4157314       -7329645.6462404728        165838687.94803122     
   5347715007.4802561        36581472.102056980        306746849.79681545     
   5153534595.4102306        22871321.574040890        319777043.07034874     
   4959995488.3599491        11298854.445153713        330860710.30410755     
   4767097686.3293972        1864070.7153785229        339997851.49807334     
   4574841189.3185844       -5433029.6152732372        347188466.65225893     
   4997808253.6845055        35729560.093368769        553295276.26507986     
   4808972112.6463614        25397852.176484823        538691665.03432333     
   4620122666.9699116        15021795.465277672        529365916.95760673     
   4431259916.6551704        4601389.9597525597        525318032.03492594     
   4242383861.7021294       -5863364.3400919437        526548010.26628226     
   4557580549.4400711        7781362.9500730038        800908312.71395612     
   4394729791.4161396        7020431.2390193939        757907185.71119976     
   4231211119.0958776        4033118.5402083397        727408311.05630600     
   4067024532.4792819       -1180575.1463725567        709411688.74927580     
   3902170031.5663643       -8620649.8207035065        703917318.79009736     
   5216486336.9935675       -11553212.433007956       -17501325.846411500     
   5044348827.4827528       -2815673.7865953445       -17868712.726368040     
   4871339059.2761450        3014335.8738520145       -14157501.704229554     
   4697457032.3737421        5936816.5483152866       -6367692.7799979700     
   4522702746.7755547        5951768.2368164062        5500714.0463273572     
   4899542014.4157314       -7329645.6462404728        165838687.94803122     
   4737819520.2436457       -234724.93632316589        162012326.52994159     
   4575493441.2415485        4848246.3402252197        162497983.14796913     
   4412563777.4094267        7919268.1833679676        167295657.80211639     
   4249030528.7472878        8978340.5931007862        176405350.49238724     
   4574841189.3185844       -5433029.6152732372        347188466.65225893     
   4424200625.1538715        219347.55874419212        340216583.53943795     
   4273225150.0249166        4755354.8519551754        337790138.59677005     
   4121914763.9317217        8174992.2643711567        339909131.82424212     
   3970269466.8742805        10478259.795972824        346573563.22185957     
   4242383861.7021294       -5863364.3400919437        526548010.26628226     
   4103492142.2134352       -1453456.3013813496        516744058.30214071     
   3964534185.6262689        2735661.4090969563        511718964.64216864     
   3825509991.9406404        6703988.7913682461        511472729.28636503     
   3686419561.1565504        10451525.845426559        516005352.23473710     
   3902170031.5663643       -8620649.8207035065        703917318.79009736     
   3775694071.4223270       -5253136.5167186260        691594750.81804013     
   3649420548.0456004       -1210833.9883651733        684284461.28417146     
   3523349461.4361863        3506257.7643649578        681986450.18850088     
   3397480811.5940800        8898138.7414484024        684700717.53102863     
   4522702746.7755547        5951768.2368164062        5500714.0463273572     
   4326928094.3912544       -811170.10624623299       -114735.30218985262     
   4131714636.9693112       -5703458.5747847557       -1612685.4825587305     
   3937062374.5097027       -8725097.1688840389        1006863.5051951025     
   3742971307.0124407       -9876085.8884749413        7743911.6610844573     
   4249030528.7472878        8978340.5931007862        176405350.49238724     
   4064495157.9499989        3427353.5088036060        169634712.79967669     
   3880359356.9145017       -791734.36955237389        167112496.09990284     
   3696623125.6407685       -3678923.0420117378        168838700.39305231     
   3513286464.1288137       -5234212.5085449219        174813325.67913339     
   3970269466.8742805        10478259.795972824        346573563.22185957     
   3797347440.0205693        6251442.6774146557        338459174.45095938     
   3624663357.7280655        2817774.0962259769        334724128.49778593     
   3452217219.9967537        177254.05233669281        335368425.36233270     
   3280009026.8266535       -1670117.4541745186        340392065.04460007     
   3686419561.1565504        10451525.845426559        516005352.23473710     
   3525484940.6029510        7661097.3995625973        506358649.65164876     
   3364626639.4099970        5125066.8224978447        501222211.71107024     
   3203844657.5776601        2843434.1141747236        500596038.41301233     
   3043138995.1059570        816199.27462124825        504480129.75746632     
   3397480811.5940800        8898138.7414484024        684700717.53102863     
   3248907659.6971560        7656317.6752638817        673333138.40174246     
   3100249201.9602909        6130143.8092807531        666606745.73976862     
   2951505438.3834743        4319617.1434607506        664521539.54509497     
   2802676368.9667296        2224737.6778709888        667077519.81773806     
   3742971307.0124407       -9876085.8884749413        7743911.6610844573     
   3570916675.7561855       -4958391.9570984840        3460289.1154320240     
   3397943323.2377892       -3103102.2328362465        3331307.8652721713     
   3224051249.4572649       -4310216.7156728506        7356967.9105972135     
   3049240454.4146190       -8579735.4055924416        15537269.251412274     
   3513286464.1288137       -5234212.5085449219        174813325.67913339     
   3351576034.5854526       -569991.37290859222        168253221.68009120     
   3189289095.2879734        2172530.5823441744        165554048.34834608     
   3026425646.2363749        2993353.3571927547        166715805.68388197     
   2862985687.4306507        1892476.9516243935        171738493.68672901     
   3280009026.8266535       -1670117.4541745186        340392065.04460007     
   3127803625.7727871        2488878.9187146425        331954726.35149658     
   2975363926.4728098        5866881.1379050016        327084607.69750804     
   2822689928.9267216        8463889.2034022808        325781709.08263034     
   2669781633.1345296        10279903.115201950        328046030.50683999     
   3043138995.1059570        816199.27462124825        504480129.75746632     
   2899599449.3181825        4218218.9177495241        494564803.12966323     
   2756167816.7923069        7979949.4338916540        487922985.91277826     
   2612844097.5283222        12101390.823001385        484554678.10679471     
   2469628291.5262489        16582543.085135221        484459879.71173084     
   2802676368.9667296        2224737.6778709888        667077519.81773806     
   2666963505.2216368        4618028.6242154837        656083452.01458049     
   2531700766.2464457        8511735.4702308178        648069182.99413848     
   2396888152.0411720        13905858.215982080        643034712.75641453     
   2262525662.6058111        20800396.861421227        640980041.30141139     
   3049240454.4146190       -8579735.4055924416        15537269.251412274     
   2883940180.8602734       -10302002.502782464        10311227.397549963     
   2719356933.0600810       -9634183.7528309822        5983304.7879777653     
   2555490711.0140576       -6576279.1556237936        2553501.4226572518     
   2392341514.7222023       -1128288.7112021446        21817.301626852597     
   2862985687.4306507        1892476.9516243935        171738493.68672901     
   2701006029.7199273        944865.11834156513        165014872.68155274     
   2539415084.5613923        1292961.7923353910        159768685.71243757     
   2378212851.9550610        2936766.9736845493        155999932.77939051     
   2217399331.9009180        5876280.6623287201        153708613.88241866     
   2669781633.1345296        10279903.115201950        328046030.50683999     
   2512777776.3868194        10603502.081610441        319441798.28138542     
   2355834318.9893398        11128432.215440869        312894314.88378984     
   2198951260.9420991        11854693.516737342        308403580.31404781     
   2042128602.2450912        12782285.985490322        305969594.57217818     
   2469628291.5262489        16582543.085135221        484459879.71173084     
   2319255420.8609657        18673908.387075663        473592004.19703972     
   2168614636.3439426        19872227.516555548        465360192.30201113     
   2017705937.9752066        20177500.473657012        459764444.02662683     
   1866529325.7547281        19589727.258281112        456804759.37089133     
   2262525662.6058111        20800396.861421227        640980041.30141139     
   2120438963.1423497        25156084.034698606        627465490.42854059     
   1977756036.6252036        27524347.695674419        617166317.96711433     
   1834476883.0543666        27905187.844350934        610082523.91712356     
   1690601502.4298458        26298604.480749249        606214108.27857733     
   2392341514.7222023       -1128288.7112021446        21817.301626852597     
   2249738892.7916350        6617393.3118621111       -6592660.6288278466     
   2103870049.0214210        3475669.2027606964       -11137112.204654494     
   1954734983.4115353       -10553461.038575649       -13611537.425863339     
   1802333695.9620004       -35469997.412075162       -14015936.292444130     
   2217399331.9009180        5876280.6623287201        153708613.88241866     
   2078872822.5770614        12838226.883316398        143410751.08973253     
   1938201334.3141639        12650243.307494879        134359195.28652641     
   1795384867.1122255        5312329.9348577261        126553946.47279841     
   1650423420.9712241       -9175513.2346353531        119995004.64854915     
   2042128602.2450912        12782285.985490322        305969594.57217818     
   1905324721.6275530        18254451.234286904        293296463.63462913     
   1767497104.9715791        20314163.021634102        281045920.32142615     
   1628645752.2771711        18961421.347541749        269217964.63256389     
   1488770663.5443304        14196226.211989164        257812596.56804967     
   1866529325.7547281        19589727.258281112        456804759.37089133     
   1729094589.9431107        22866066.364778996        443064477.00587320     
   1591757360.9936655        26467428.345193207        428923062.90005797     
   1454517638.9063964        30393813.199522734        414380517.05344355     
   1317375423.6812983        34645220.927755535        399436839.46603781     
   1690601502.4298458        26298604.480749249        606214108.27857733     
   1550182427.5237360        26673072.274784684        592714791.20347464     
   1410982102.3804123        31110039.278123677        577990623.02241826     
   1273000526.9998834        39609505.490775406        562041603.73542607     
   1136237701.3821406        52171470.912704170        544867733.34250820     
   1802333695.9620004       -35469997.412075162       -14015936.292444130     
   1771450501.1232123       -16663797.166200161       -8353448.5478153899     
   1748625160.3237650        29001916.544155598       -41491809.518912069     
   1733857673.5636635        101527143.71899146       -113431019.20572521     
   1727148040.8429148        200911884.35833681       -224171077.60827658     
   1650423420.9712241       -9175513.2346353531        119995004.64854915     
   1527761259.3414974       -13914831.100542367        135593751.20883328     
   1409260828.2663267       -4781713.7846018672        124827722.36376795     
   1294922127.7457118        18223838.713183463        87696918.113343611     
   1184745157.7796607        55101826.392870128        24201338.457560886     
   1488770663.5443304        14196226.211989164        257812596.56804967     
   1309861173.1532984       -3429118.3568196893        278802124.54506552     
   1131217289.8320346       -20169106.026403844        285862950.42709959     
   952839013.58053899       -36023736.796751320        278995074.21415645     
   774726344.39882553       -50993010.667830884        258198495.90622643     
   1317375423.6812983        34645220.927755535        399436839.46603781     
   1117750242.5585897        14793341.064918399        421271671.46085954     
   914494545.02087605       -17160260.181278229        441613874.67109329     
   707608331.06814778       -61215582.810858130        460463449.09670681     
   497091600.70041043       -117372626.82381251        477820394.73771745     
   1136237701.3821406        52171470.912704170        544867733.34250820     
   951428467.55739999        40752547.164748847        563002391.95624232     
   759092593.83285820        4244823.7507845163        592080495.09574723     
   559230080.20851552       -57351699.329171747        632102042.76100969     
   351840926.68438512       -144037022.07510388        683067034.95203662     
   1727148040.8429148        200911884.35833681       -224171077.60827658     
   1456634157.7738130        184586825.51683134       -96626528.175528616     
   1153951305.6919694        61031869.966162741        60096473.442697093     
   819099484.59741116       -169752982.29355401        245997927.24642617     
   452078694.49008715       -507767731.26246750        461077833.23562783     
   1184745157.7796607        55101826.392870128        24201338.457560886     
   977675838.24276495        11862239.257075787        155581664.34974566     
   732785533.24300969       -157447299.42161748        312798093.45681882     
   450074242.78041995       -452826789.64304221        495850625.77878928     
   129541966.85497284       -874276231.40739179        704739261.31563020     
   774726344.39882553       -50993010.667830884        258198495.90622643     
   621552019.90668893       -124011996.64420146        386820579.06606698     
   424904693.50157702       -341940988.99713957        537936416.47019887     
   184784365.18352556       -704779987.72655463        711546008.11860931     
  -98808965.047493219       -1212528992.8325214        907649354.01129305     
   497091600.70041043       -117372626.82381251        477820394.73771745     
   388262702.76557481       -223035882.18699682        597090215.97342265     
   230308786.46768418       -492449198.76038647        735511442.48279822     
   23229851.806725919       -925612576.54399860        893084074.26585603     
  -232974101.21731892       -1522526015.5378857        1069808111.3225933     
   351840926.68438512       -144037022.07510388        683067034.95203662     
   277807886.81945306       -285209417.37125450        786390575.07179964     
   148997812.14130795       -608971928.71143162        905523171.49463940     
  -34589297.349994063       -1115324556.0954487        1040464824.2205571     
  -272953441.65446740       -1804267299.5234203        1191215533.2495489     
   4557580549.4400711        7781362.9500730038        800908312.71395612     
   4394729791.4161396        7020431.2390193939        757907185.71119976     
   4231211119.0958776        4033118.5402083397        727408311.05630600     
   4067024532.4792819       -1180575.1463725567        709411688.74927580     
   3902170031.5663643       -8620649.8207035065        703917318.79009736     
   4101314619.9663539       -12413518.775594234        858386249.18254030     
   3967256564.6034784       -11238799.222401381        830663683.75227690     
   3832913335.8744860       -11014657.556294680        812140410.03706467     
   3698284933.7793632       -11741093.777270555        802816428.03691220     
   3563371358.3181124       -13418107.885342598        802691737.75181675     
   3695008718.1840320       -17620392.193841219        913063166.44155788     
   3580306335.1027813       -17341130.490227938        901065693.66901839     
   3465701519.5856166       -16736643.573026180        894964551.97872746     
   3351194271.6325212       -15806931.442246675        894759741.37069285     
   3236784591.2434998       -14551994.097882867        900451261.84490514     
   3338662844.0931025       -7839257.3046712875        964939064.49100971     
   3233879102.9140420       -11286562.564469695        969113215.46142566     
   3129575670.2292638       -13132839.510006905        975880736.88128948     
   3025752546.0387568       -13378088.141298890        985241628.75060725     
   2922409730.3425279       -12022308.458332777        997195891.06936646     
   3032276997.6935725        16929885.891918778        1014013943.3308945     
   2927974868.0372634        6924904.5548782349        1034806249.1295038     
   2824535787.8054276       -203245.36723589897        1054888964.7447602     
   2721959756.9980726       -4454563.8744280338        1074262090.1766589     
   2620246775.6151962       -5829050.9666908979        1092925625.4252045     
   3902170031.5663643       -8620649.8207035065        703917318.79009736     
   3775694071.4223270       -5253136.5167186260        691594750.81804013     
   3649420548.0456004       -1210833.9883651733        684284461.28417146     
   3523349461.4361863        3506257.7643649578        681986450.18850088     
   3397480811.5940800        8898138.7414484024        684700717.53102863     
   3563371358.3181124       -13418107.885342598        802691737.75181675     
   3449339725.8503804       -9031708.2544579506        794506841.06188822     
   3335460627.7427683       -4136860.7565042973        790647098.07086551     
   3221734063.9952812        1266434.6085351706        791112508.77875781     
   3108160034.6079187        7178177.8406471014        795903073.18554938     
   3236784591.2434998       -14551994.097882867        900451261.84490514     
   3133234072.9112492       -9735672.2023509741        896345816.96205974     
   3029786186.5319338       -4577243.7970408201        895878401.03883147     
   2926440932.1055536        923291.11806213856        899049014.07522738     
   2823198309.6321115        6765932.5429469347        905857656.07124197     
   2922409730.3425279       -12022308.458332777        997195891.06936646     
   2827377112.6049376       -7365028.3604041338        997111678.51854992     
   2732397224.4130940       -2531983.1099820137        999978370.18806553     
   2637470065.7669997        2476827.2929412127        1005795966.0779145     
   2542595636.6666565        7661402.8483601809        1014564466.1880972     
   2620246775.6151962       -5829050.9666908979        1092925625.4252045     
   2531768844.9314461       -1919776.7285995483        1096804425.7313638     
   2443293741.3862500        1998921.3046787977        1102947005.5185702     
   2354821464.9796219        5927043.1331710815        1111353364.7868221     
   2266352015.7115517        9864588.7568682432        1122023503.5361185     
   3397480811.5940800        8898138.7414484024        684700717.53102863     
   3248907659.6971560        7656317.6752638817        673333138.40174246     
   3100249201.9602909        6130143.8092807531        666606745.73976862     
   2951505438.3834743        4319617.1434607506        664521539.54509497     
   2802676368.9667296        2224737.6778709888        667077519.81773806     
   3108160034.6079187        7178177.8406471014        795903073.18554938     
   2971592975.0756345        6439972.8992685080        785936223.52094972     
   2835036871.8667374        5738289.0358630419        780447423.94842732     
   2698491724.9812284        5073126.2504113913        779436674.46797657     
   2561957534.4191136        4444484.5429350138        782903975.07960057     
   2823198309.6321115        6765932.5429469347        905857656.07124197     
   2698171238.5352302        6391512.5476179123        897403841.72854352     
   2573251385.9250669        6374487.5080204010        893264941.10268939     
   2448438751.8016229        6714857.4241541624        893440954.19367635     
   2323733336.1649022        7412622.2960270643        897931881.00150216     
   2542595636.6666565        7661402.8483601809        1014564466.1880972     
   2428642450.0759382        7510936.6202911139        1007735993.0245210     
   2314892744.1352706        8038739.2257317305        1005059297.2025598     
   2201346518.8446589        9244810.6646893024        1006534378.7222041     
   2088003774.2040932        11129150.937133193        1012161237.5834602     
   2266352015.7115517        9864588.7568682432        1122023503.5361185     
   2163006609.6977644        9798245.1173115969        1116932677.4088922     
   2059960946.4973540        10731044.189014316        1115830492.2480366     
   1957215026.1103323        12662985.972002625        1118716948.0535581     
   1854768848.5366912        15594070.466271400        1125592044.8254576     
   2802676368.9667296        2224737.6778709888        667077519.81773806     
   2666963505.2216368        4618028.6242154837        656083452.01458049     
   2531700766.2464457        8511735.4702308178        648069182.99413848     
   2396888152.0411720        13905858.215982080        643034712.75641453     
   2262525662.6058111        20800396.861421227        640980041.30141139     
   2561957534.4191136        4444484.5429350138        782903975.07960057     
   2434477240.1459899        7097696.0537151098        773413365.72644579     
   2307358968.2296300        10957648.753711104        767215721.66952682     
   2180602718.6700296        16024342.642908573        764311042.90884447     
   2054208491.4671953        22297777.721323133        764699329.44439220     
   2323733336.1649022        7412622.2960270643        897931881.00150216     
   2205380372.8309336        10594182.811398506        889841943.94968545     
   2087301329.4405789        14688809.805500865        885358138.70761955     
   1969496205.9938414        19696503.278311610        884480465.27530301     
   1851965002.4907191        25617263.229853630        887208923.65272701     
   2088003774.2040932        11129150.937133193        1012161237.5834602     
   1979672903.2764590        15107488.897246599        1005369186.6843096     
   1871527849.8793020        19705218.625622749        1002496434.1084210     
   1763568614.0126071        24922340.122209072        1003542979.8557967     
   1655795195.6763909        30758853.387045145        1008508823.9264306     
   1854768848.5366912        15594070.466271400        1125592044.8254576     
   1757354831.4825745        20637614.311281562        1119995093.9303029     
   1660038529.5457997        26006875.214093029        1118630607.8719287     
   1562819942.7263308        31701853.174592793        1121498586.6503224     
   1465699071.0241909        37722548.192855179        1128599030.2654972     
   2262525662.6058111        20800396.861421227        640980041.30141139     
   2120438963.1423497        25156084.034698606        627465490.42854059     
   1977756036.6252036        27524347.695674419        617166317.96711433     
   1834476883.0543666        27905187.844350934        610082523.91712356     
   1690601502.4298458        26298604.480749249        606214108.27857733     
   2054208491.4671953        22297777.721323133        764699329.44439220     
   1920514640.9547806        26326345.927647352        752780827.31018865     
   1786422517.6157968        29027338.045436978        744178473.41154671     
   1651932121.4502556        30400754.074679017        738892267.74849081     
   1517043452.4581504        30446594.015390396        736922210.32100689     
   1851965002.4907191        25617263.229853630        887208923.65272701     
   1726951914.7125773        29405086.604219198        877117416.85550070     
   1601738508.3350005        32525181.313802719        870442828.11798072     
   1476324783.3579783        34977547.358570516        867185157.44016004     
   1350710739.7815185        36762184.738540709        867344404.82204902     
   1655795195.6763909        30758853.387045145        1008508823.9264306     
   1539750784.4157491        34392306.064410031        1000475259.0644948     
   1423704008.7827990        38017877.500733554        995959382.08639443     
   1307654868.7775240        41635567.695982218        994961192.99212396     
   1191603364.3999450        45245376.650213420        997480691.78170013     
   1465699071.0241909        37722548.192855179        1128599030.2654972     
   1358911250.0642834        41288004.308183014        1122854353.9371629     
   1252319018.9591961        45505426.606239021        1120728135.3167970     
   1145922377.7089114        50374815.086970210        1122220374.4043915     
   1039721326.3134367        55896169.750412405        1127331071.1999569     
   1690601502.4298458        26298604.480749249        606214108.27857733     
   1550182427.5237360        26673072.274784684        592714791.20347464     
   1410982102.3804123        31110039.278123677        577990623.02241826     
   1273000526.9998834        39609505.490775406        562041603.73542607     
   1136237701.3821406        52171470.912704170        544867733.34250820     
   1517043452.4581504        30446594.015390396        736922210.32100689     
   1374966895.3015692        28226615.393728137        727739644.64424217     
   1233216444.7431977        27093658.766095221        719105662.13051558     
   1091792100.7830455        27047724.132532775        711020262.77983105     
   950693863.42110205        28088811.492989480        703483446.59220254     
   1350710739.7815185        36762184.738540709        867344404.82204902     
   1212043655.4287021        33467846.217464864        861437173.51827872     
   1072810034.5095171        28285052.475153685        857851959.64654052     
   933009877.02396739        21213803.511631489        856588763.20682943     
   792643182.97204769        12254099.326873451        857647584.19913697     
   1191603364.3999450        45245376.650213420        997480691.78170013     
   1061412707.9051257        42396764.745987177        993807377.82559085     
   929762871.67935848        34684220.405268699        994229515.57049429     
   796653855.72264254        22107743.628049493        998747105.01640499     
   662085660.03497696        4667334.4143408239        1007360146.1633173     
   1039721326.3134367        55896169.750412405        1127331071.1999569     
   923074052.73084176        55013370.979293883        1124850257.5661721     
   804074956.25271571        46291162.556406826        1128238329.9023795     
   682724036.87907565        29729544.481800258        1137495288.2085745     
   559021294.60990453        5328516.7554343343        1152621132.4847479     
   1136237701.3821406        52171470.912704170        544867733.34250820     
   951428467.55739999        40752547.164748847        563002391.95624232     
   759092593.83285820        4244823.7507845163        592080495.09574723     
   559230080.20851552       -57351699.329171747        632102042.76100969     
   351840926.68438512       -144037022.07510388        683067034.95203662     
   950693863.42110205        28088811.492989480        703483446.59220254     
   791560538.36081052        11107593.468629003        721382965.46965456     
   623785647.97133732       -34678842.319697887        749373345.24240601     
   447369192.25268483       -109270495.87195301        787454585.91045022     
   262311171.20483375       -212667367.18818128        835626687.47378683     
   792643182.97204769        12254099.326873451        857647584.19913697     
   656749813.44630015       -11020198.942865431        874011217.00603318     
   511099953.16197789       -66816133.074512661        899613127.07774627     
   355693602.11907971       -155133703.06808013        934453314.41427732     
   190530760.31760597       -275972908.92356157        978531779.01564348     
   662085660.03497696        4667334.4143408239        1007360146.1633173     
   546996292.81385922       -25630830.069729865        1020887146.5653539     
   421035509.40477771       -92167048.513685942        1042799840.6017433     
   284203309.80773503       -194941320.91750899        1073098228.2724857     
   136499694.02271670       -333953647.28124034        1111782309.5775838     
   559021294.60990453        5328516.7554343343        1152621132.4847479     
   462299976.46348953       -32724299.911986291        1162010754.1476524     
   353592316.69973087       -110731588.63721320        1178933485.8144233     
   232898315.31861341       -228693349.42030591        1203389327.4850869     
   100217972.32014650       -386609582.26122993        1235378279.1596293     
   351840926.68438512       -144037022.07510388        683067034.95203662     
   277807886.81945306       -285209417.37125450        786390575.07179964     
   148997812.14130795       -608971928.71143162        905523171.49463940     
  -34589297.349994063       -1115324556.0954487        1040464824.2205571     
  -272953441.65446740       -1804267299.5234203        1191215533.2495489     
   262311171.20483375       -212667367.18818128        835626687.47378683     
   223600726.98288146       -352349320.07844931        885012664.81393719     
   140659746.14163625       -639466395.03302693        945416865.02118778     
   13488228.681139410       -1074018592.0517709        1016839288.0955162     
  -157913825.39864713       -1656005911.1348255        1099279934.0369461     
   190530760.31760597       -275972908.92356157        978531779.01564348     
   173454816.20725295       -418270848.06736124        986284441.46906734     
   122694833.67151949       -672848915.29573584        1000264493.3535972     
   38250812.710418105       -1039707110.6086631        1020471934.6692384     
  -79877246.676053703       -1518845434.0061991        1046906765.4159729     
   136499694.02271670       -333953647.28124034        1111782309.5775838     
   127370154.49255905       -482974001.33797938        1090205905.0371878     
   95103074.730935544       -709119489.49961472        1070066056.4918898     
   39698454.737842262       -1012390111.7661382        1051362763.9417219     
  -38843705.486709595       -1392785868.1375473        1034096027.3866665     
   100217972.32014650       -386609582.26122993        1235378279.1596293     
   85346741.838812649       -546458779.89030004        1196777055.5182774     
   57884469.319906175       -748278117.64461219        1154821554.4360538     
   17831154.763446212       -992067595.52408886        1109511775.9129517     
  -34813201.830602407       -1277827213.5288665        1060847719.9489925     
   3032276997.6935725        16929885.891918778        1014013943.3308945     
   2927974868.0372634        6924904.5548782349        1034806249.1295038     
   2824535787.8054276       -203245.36723589897        1054888964.7447602     
   2721959756.9980726       -4454563.8744280338        1074262090.1766589     
   2620246775.6151962       -5829050.9666908979        1092925625.4252045     
   2725911262.1557918        37729268.597353816        1155242443.8267410     
   2622634636.9250331        25616571.508645415        1161735931.0833187     
   2520052236.1229367        15817955.848811746        1170214254.0240664     
   2418164059.7494993        8333421.6178467274        1180677412.6489778     
   2316970107.8047218        3162968.8157502413        1193125406.9580526     
   2372247123.1224332        44339130.254115582        1295640438.2319374     
   2277694361.9387097        32428225.300183892        1287638144.4513738     
   2183667000.1878300        22268651.789071441        1284315112.2224898     
   2090165037.8697968        13860409.720776200        1285671341.5452938     
   1997188474.9846084        7203499.0953011513        1291706832.4197793     
   1971284580.5934944        36759470.862203240        1435207926.5464880     
   1893154043.0782893        27359865.929491878        1412512889.2336602     
   1815380080.0001142        19148842.453548431        1397191539.3400326     
   1737962691.3589666        12126400.434365511        1389243876.8656075     
   1660901877.1548533        6292539.8719604015        1388669901.8103898     
   1523023634.5689754        14990290.421616733        1573944908.7703955     
   1469013680.3437750        10411493.396575034        1536360165.4301827     
   1415191475.5597873        6458527.8422453403        1508843535.3766899     
   1361557020.2170138        3131393.7586306334        1491395018.6099222     
   1308110314.3154542        430091.14572322369        1484014615.1298733     
   2620246775.6151962       -5829050.9666908979        1092925625.4252045     
   2531768844.9314461       -1919776.7285995483        1096804425.7313638     
   2443293741.3862500        1998921.3046787977        1102947005.5185702     
   2354821464.9796219        5927043.1331710815        1111353364.7868221     
   2266352015.7115517        9864588.7568682432        1122023503.5361185     
   2316970107.8047218        3162968.8157502413        1193125406.9580526     
   2235074281.9559221        4931338.4419932365        1191781052.1816115     
   2153242067.6781549        6911746.6383465528        1193730130.3998978     
   2071473464.9714239        9104193.4048259258        1198972641.6129119     
   1989768473.8357275        11508678.741420507        1207508585.8206477     
   1997188474.9846084        7203499.0953011513        1291706832.4197793     
   1924816621.1527076        7713524.2642879486        1285210237.7319565     
   1852569163.3243151        8638202.7782976627        1283036729.5525424     
   1780446101.4994321        9977534.6373392344        1285186307.8815341     
   1708447435.6780584        11731519.841415763        1291658972.7189400     
   1660901877.1548533        6292539.8719604015        1388669901.8103898     
   1600995862.5217988        6426780.7382679582        1377091982.3823998     
   1541275028.3247280        7178289.7245145440        1370866802.9765015     
   1481739374.5636430        8547066.8307183385        1369994363.5926971     
   1422388901.2385411        10533112.056863487        1374474664.2309816     
   1308110314.3154542        430091.14572322369        1484014615.1298733     
   1263612006.0631993        1071107.8639459014        1467426286.1329439     
   1219359662.6794009        2532007.4770244360        1457220350.6717861     
   1175353284.1640561        4812789.9849501252        1453396808.7463987     
   1131592870.5171716        7913455.3877420425        1455955660.3567865     
   2266352015.7115517        9864588.7568682432        1122023503.5361185     
   2163006609.6977644        9798245.1173115969        1116932677.4088922     
   2059960946.4973540        10731044.189014316        1115830492.2480366     
   1957215026.1103323        12662985.972002625        1118716948.0535581     
   1854768848.5366912        15594070.466271400        1125592044.8254576     
   1989768473.8357275        11508678.741420507        1207508585.8206477     
   1897213442.1403327        11141997.514795184        1201279631.0220261     
   1804913817.9539218        11626674.651447296        1199431631.8681896     
   1712869601.2764897        12962710.151368141        1201964588.3591454     
   1621080792.1080425        15150104.014566183        1208878500.4948866     
   1708447435.6780584        11731519.841415763        1291658972.7189400     
   1627803677.3822398        11400770.752096236        1284240164.7271192     
   1547370991.2910001        11773595.678033113        1281594627.0585027     
   1467149377.4043419        12849994.619245172        1283722359.7130842     
   1387138835.7222629        14629967.575720072        1290623362.6908715     
   1422388901.2385411        10533112.056863487        1374474664.2309816     
   1354777315.4234760        10574564.829188108        1365814278.5241654     
   1287332466.5085909        11171807.268777966        1362319477.8189623     
   1220054354.4938803        12324839.375616372        1363990262.1153750     
   1152942979.3793540        14033661.149736047        1370826631.4134021     
   1131592870.5171716        7913455.3877420425        1455955660.3567865     
   1078134356.2640448        8663379.7460798621        1446001972.4131699     
   1024798243.6066924        9821309.4236691594        1441606184.1495805     
   971584532.54511821        11387244.420516670        1442768295.5660176     
   918493223.07931983        13361184.736617804        1449488306.6624861     
   1854768848.5366912        15594070.466271400        1125592044.8254576     
   1757354831.4825745        20637614.311281562        1119995093.9303029     
   1660038529.5457997        26006875.214093029        1118630607.8719287     
   1562819942.7263308        31701853.174592793        1121498586.6503224     
   1465699071.0241909        37722548.192855179        1128599030.2654972     
   1621080792.1080425        15150104.014566183        1208878500.4948866     
   1534644750.5826373        19507451.365471065        1203386677.8078611     
   1448325250.9074640        24253271.550488532        1202265339.8817005     
   1362122293.0825212        29387564.569600701        1205514486.7164125     
   1276035877.1078064        34910330.422812700        1213134118.3119991     
   1387138835.7222629        14629967.575720072        1290623362.6908715     
   1312075112.3658314        18419421.224584877        1285258632.7336917     
   1237146757.5925424        22660103.483928680        1284402407.4614749     
   1162353771.4023833        27352014.353703618        1288054686.8742220     
   1087696153.7953625        32495153.833939075        1296215470.9719338     
   1152942979.3793540        14033661.149736047        1370826631.4134021     
   1089645916.8321669        17373523.888648629        1365610958.7077940     
   1026503049.6010251        21227371.014383256        1365041810.6112466     
   963514377.68592060        25595202.526908934        1369119187.1237564     
   900679901.08686209        30477018.426248401        1377843088.2453246     
   918493223.07931983        13361184.736617804        1449488306.6624861     
   867357163.98164225        16369759.357654244        1444443655.7301722     
   816394126.93291700        19955074.141859770        1444183549.3310151     
   765604111.93313944        24117129.089226931        1448707987.4650128     
   714987118.98230827        28855924.199748456        1458016970.1321588     
   1465699071.0241909        37722548.192855179        1128599030.2654972     
   1358911250.0642834        41288004.308183014        1122854353.9371629     
   1252319018.9591961        45505426.606239021        1120728135.3167970     
   1145922377.7089114        50374815.086970210        1122220374.4043915     
   1039721326.3134367        55896169.750412405        1127331071.1999569     
   1276035877.1078064        34910330.422812700        1213134118.3119991     
   1179091655.4265494        37441130.561366618        1208287761.1188459     
   1082205865.0801055        40166701.815967023        1207633712.4267118     
   985378506.06846166        43087044.186573088        1211171972.2355957     
   888609578.39163160        46202157.673216730        1218902540.5455086     
   1087696153.7953625        32495153.833939075        1296215470.9719338     
   1002235105.0871896        34483170.104049146        1292107414.6406345     
   916695329.19382715        36208762.423524588        1292765517.6034048     
   831076826.11526918        37671930.792346269        1298189779.8602481     
   745379595.85151911        38872675.210532099        1308380201.4111629     
   900679901.08686209        30477018.426248401        1377843088.2453246     
   828341599.04620755        32414122.936235011        1374313314.5025415     
   755787411.30036509        33631608.428927362        1376123550.8468771     
   683017337.84932351        34129474.904283553        1383273797.2783430     
   610031378.69309258        33907722.362348318        1395764053.7969313     
   714987118.98230827        28855924.199748456        1458016970.1321588     
   657411137.30361271        31233989.057956994        1454905460.7045527     
   599482111.39972126        32435239.832173973        1457707812.1571257     
   541200041.27063525        32459676.522414356        1466424024.4898748     
   482564926.91635805        31307299.128678739        1481054097.7028043     
   1039721326.3134367        55896169.750412405        1127331071.1999569     
   923074052.73084176        55013370.979293883        1124850257.5661721     
   804074956.25271571        46291162.556406826        1128238329.9023795     
   682724036.87907565        29729544.481800258        1137495288.2085745     
   559021294.60990453        5328516.7554343343        1152621132.4847479     
   888609578.39163160        46202157.673216730        1218902540.5455086     
   786918130.87028086        44429499.395956039        1216448464.9227087     
   682919230.60057163        34965331.957494736        1219835337.1092281     
   576612877.58251214        17809655.357866168        1229063157.1050558     
   467999071.81608593       -7037530.4029737711        1244131924.9101908     
   745379595.85151911        38872675.210532099        1308380201.4111629     
   658564151.07519746        36186210.432269722        1306004628.9710486     
   569485623.69768155        25956136.983364642        1309442066.1795757     
   478144013.71897852        8182454.8638342321        1318692513.0367317     
   384539321.13908255       -17134835.926340625        1333755969.5425279     
   610031378.69309258        33907722.362348318        1395764053.7969313     
   538012113.34557843        30283504.088211954        1393518749.7111986     
   463774135.54404628        19263577.634018108        1397058517.1134229     
   387317445.28847706        847942.99969534576        1406383356.0036099     
   308642042.57889301       -24963399.814668342        1421493266.3817425     
   482564926.91635805        31307299.128678739        1481054097.7028043     
   425262017.68143409        26721380.363806590        1478990827.1431460     
   365784766.13965303        14887653.909410864        1482684689.9107668     
   304133172.29101938       -4193880.2344937474        1492135686.0056672     
   240307236.13552606       -30523222.067935959        1507343815.4278545     
   559021294.60990453        5328516.7554343343        1152621132.4847479     
   462299976.46348953       -32724299.911986291        1162010754.1476524     
   353592316.69973087       -110731588.63721320        1178933485.8144233     
   232898315.31861341       -228693349.42030591        1203389327.4850869     
   100217972.32014650       -386609582.26122993        1235378279.1596293     
   467999071.81608593       -7037530.4029737711        1244131924.9101908     
   390398202.26325810       -41463254.363953426        1242662322.4252617     
   302654838.82301581       -109697291.28297278        1247530625.9223375     
   204768981.49538654       -211739641.15995157        1258736835.4014161     
   96740630.280353233       -347590303.99494112        1276280950.8624995     
   384539321.13908255       -17134835.926340625        1333755969.5425279     
   322644031.54588634       -48957927.771105960        1323578298.5947115     
   252450095.79524755       -108443173.47402169        1318543329.6070285     
   173957513.88716018       -195590573.03509712        1318651062.5794694     
   87166285.821620047       -310400126.45434421        1323901497.5120382     
   308642042.57889301       -24963399.814668342        1421493266.3817425     
   259037464.31140542       -55208320.133369610        1404758682.6559930     
   202978087.61641085       -106969235.21042109        1391971596.8684926     
   140463912.49393070       -180246145.04576349        1383132009.0192437     
   71494938.943951964       -275039049.63942951        1378239919.1082387     
   240307236.13552606       -30523222.067935959        1507343815.4278545     
   199578500.55979717       -60214431.450778097        1486203474.6091123     
   154238814.28652474       -105275476.49209869        1467815427.7067449     
   104288177.31570885       -165706357.19190016        1452179674.7207382     
   49726589.647348896       -241507073.55018193        1439296215.6511090     
   100217972.32014650       -386609582.26122993        1235378279.1596293     
   85346741.838812649       -546458779.89030004        1196777055.5182774     
   57884469.319906175       -748278117.64461219        1154821554.4360538     
   17831154.763446212       -992067595.52408886        1109511775.9129517     
  -34813201.830602407       -1277827213.5288665        1060847719.9489925     
   96740630.280353233       -347590303.99494112        1276280950.8624995     
   79801370.227939188       -488762135.36941695        1221964374.3166125     
   51478518.861878514       -667879271.12272334        1165101121.7904794     
   11772076.182152629       -884941711.25490260        1105691193.2840889     
  -39317957.811225116       -1139949455.7659297        1043734588.7974600     
   87166285.821620047       -310400126.45434421        1323901497.5120382     
   70466428.942763835       -432202361.75081122        1255278260.5728528     
   43590431.474154532       -587925065.67977738        1184915949.1140344     
   6538293.4158031046       -777568238.24121666        1112814563.1355937     
  -40689985.232287526       -1001131879.4351381        1038974102.6375090     
   71494938.943951964       -275039049.63942951        1378239919.1082387     
   57341917.983271614       -376779459.03451383        1296718714.2869756     
   34220207.156759709       -508415501.31570894        1214266036.4067111     
   2129806.4644018114       -669947176.48305452        1130881885.4674315     
  -38929284.093776315       -861374484.53646779        1046566261.4691344     
   49726589.647348896       -241507073.55018193        1439296215.6511090     
   40427837.349475250       -322493427.22049433        1346285735.4590082     
   23367845.909673244       -429350578.03056800        1253151383.6685159     
  -1453384.6720525026       -562078525.98038328        1159893160.2796245     
  -34035854.395692199       -720677271.06992555        1066511065.2923568     
   1523023634.5689754        14990290.421616733        1573944908.7703955     
   1469013680.3437750        10411493.396575034        1536360165.4301827     
   1415191475.5597873        6458527.8422453403        1508843535.3766899     
   1361557020.2170138        3131393.7586306334        1491395018.6099222     
   1308110314.3154542        430091.14572322369        1484014615.1298733     
   1073350697.4893161       -9432388.9596462250        1528271549.0171328     
   1043572365.3806027       -9647747.5737158060        1505707374.4996629     
   1013934845.4502207       -9393732.2600087523        1490707848.6902332     
   984438137.69817519       -8670343.0185191035        1483272971.5888486     
   955082242.12445831       -7477579.8492656946        1483402743.1955075     
   669622446.60208070       -20071662.483183652        1481507858.4785120     
   656922980.67076898       -18069409.467998475        1473909492.6437573     
   644317389.65490687       -15754240.067982078        1471372310.9383621     
   631805673.55449665       -13126154.283124119        1473896313.3623295     
   619387832.36953759       -10185152.113432050        1481481499.9156618     
   311838881.90726864       -16927530.148994133        1433653837.1545353     
   309065526.21427149       -14853492.286285222        1440966519.8624644     
   306339108.17384243       -12622995.581681326        1450836922.1210761     
   303659627.78598332       -10236040.035176247        1463265043.9303696     
   301027085.05069345       -7692625.6467754543        1478250885.2903440     
   3.4048813219438872        8.0429244766087429        1384709485.0451956     
   2.0111121559294078        3.9714344450410417        1406878456.1557817     
   1.0070275199805554        1.1988942348042106        1429101682.2383702     
  0.39263413948680581      -0.27467581780500028        1451379163.2929614     
  0.16792574656817150      -0.44929591183049428        1473710899.3195536     
   1308110314.3154542        430091.14572322369        1484014615.1298733     
   1263612006.0631993        1071107.8639459014        1467426286.1329439     
   1219359662.6794009        2532007.4770244360        1457220350.6717861     
   1175353284.1640561        4812789.9849501252        1453396808.7463987     
   1131592870.5171716        7913455.3877420425        1455955660.3567865     
   955082242.12445831       -7477579.8492656946        1483402743.1955075     
   926176837.77286816       -5656319.1557424664        1472610980.3791671     
   897455907.06116521       -3220146.3292652369        1467159001.4948058     
   868919449.98934460       -169061.36984521151        1467046806.5424218     
   840567466.55740476        3496935.7225105166        1472274395.5220168     
   619387832.36953759       -10185152.113432050        1481481499.9156618     
   603096447.33633959       -8077312.8192909062        1476414563.5132492     
   586928044.71445572       -5559532.1541037858        1475644801.4390202     
   570882624.50388229       -2631810.1178824604        1479172213.6929736     
   554960186.70462191        705853.28938251734        1486996800.2751040     
   301027085.05069345       -7692625.6467754543        1478250885.2903440     
   294370834.75361294       -6191873.1267000288        1478837035.5351939     
   287776075.63927758       -4486149.9974762946        1482677750.5044260     
   281242807.70767552       -2575456.2591397017        1489773030.1980429     
   274771030.95881546       -459791.91166339815        1500122874.6160452     
  0.16792574656817150      -0.44929591183049428        1473710899.3195536     
   2.4690048540464062E-002  -7.7964695139436824E-002   1479878396.4449914     
 -0.16437437491720300       0.14060410345175531        1488257848.6910214     
 -0.39927452369999866       0.20638715095918553        1498849256.0576398     
 -0.68000586846399003       0.11939954519596335        1511652618.5448453     
   1131592870.5171716        7913455.3877420425        1455955660.3567865     
   1078134356.2640448        8663379.7460798621        1446001972.4131699     
   1024798243.6066924        9821309.4236691594        1441606184.1495805     
   971584532.54511821        11387244.420516670        1442768295.5660176     
   918493223.07931983        13361184.736617804        1449488306.6624861     
   840567466.55740476        3496935.7225105166        1472274395.5220168     
   801322206.92543459        4313966.7910929024        1464242996.2758427     
   762168748.49064279        5437001.8502697647        1461571483.9712477     
   723107091.25303733        6866040.9000687003        1464259858.6082282     
   684137235.21261346        8601083.9404709339        1472308120.1867826     
   554960186.70462191        705853.28938251734        1486996800.2751040     
   529362431.01251572        1420265.8638066649        1480851989.2613521     
   503825876.11900049        2338681.1002026200        1479869052.4507225     
   478350522.02407497        3461098.9985628426        1484047989.8432188     
   452936368.72774005        4787519.5588922501        1493388801.4388397     
   274771030.95881546       -459791.91166339815        1500122874.6160452     
   262255028.52529097       -17723.035763025284        1495828951.3696861     
   249769626.49176058        526347.17345279455        1496498889.5880013     
   237314824.85822791        1172418.7159949541        1502132689.2709916     
   224890623.62469107        1920491.5918551236        1512730350.4186528     
 -0.68000586846399003       0.11939954519596335        1511652618.5448453     
 -0.53624403452488734        9.2367551336507370E-002   1509173882.6008539     
 -0.39107805821564307        7.0016725933580604E-002   1511460995.3830853     
 -0.24450642975494616        5.2350019923381785E-002   1518513956.8915420     
  -9.6530567422210001E-002   3.9366175154818384E-002   1530332767.1262164     
   918493223.07931983        13361184.736617804        1449488306.6624861     
   867357163.98164225        16369759.357654244        1444443655.7301722     
   816394126.93291700        19955074.141859770        1444183549.3310151     
   765604111.93313944        24117129.089226931        1448707987.4650128     
   714987118.98230827        28855924.199748456        1458016970.1321588     
   684137235.21261346        8601083.9404709339        1472308120.1867826     
   645315540.81894600        10716619.873910278        1468599180.9233472     
   606623612.96369731        13264710.935410976        1469784371.2115927     
   568061451.64686918        16245357.124981999        1475863691.0515263     
   529629056.86845845        19658558.442608565        1486837140.4431450     
   452936368.72774005        4787519.5588922501        1493388801.4388397     
   426742139.09103155        6103946.8206142187        1490965109.0819890     
   400634420.48220670        7708744.1752812862        1493545131.2953563     
   374613212.90127945        9601911.6229413748        1501128868.0789418     
   348678516.34823978        11783449.163561329        1513716319.4327447     
   224890623.62469107        1920491.5918551236        1512730350.4186528     
   211636958.79788741        2531740.1977292299        1511541440.2061059     
   198426549.48844615        3287173.8614771143        1515465829.5823102     
   185259395.69636941        4186792.5831079260        1524503518.5472603     
   172135497.42165199        5230596.3626017123        1538654507.1009679     
  -9.6530567422210001E-002   3.9366175154818384E-002   1530332767.1262164     
  -6.0468846047594949E-002   5.3105871348786970E-003   1530328174.2956903     
  -1.7586069962908929E-002  -6.0102335196622197E-003   1535546466.0724456     
   3.2139652660856999E-002   5.4798084568154657E-003   1545987642.4564831     
   8.8693704395555809E-002   3.9730947469736093E-002   1561651703.4478033     
   714987118.98230827        28855924.199748456        1458016970.1321588     
   657411137.30361271        31233989.057956994        1454905460.7045527     
   599482111.39972126        32435239.832173973        1457707812.1571257     
   541200041.27063525        32459676.522414356        1466424024.4898748     
   482564926.91635805        31307299.128678739        1481054097.7028043     
   529629056.86845845        19658558.442608565        1486837140.4431450     
   487109450.83305991        21640821.158805877        1484830586.5662405     
   444325061.62780958        22740473.308833271        1488583338.1829286     
   401275889.25270545        22957514.892682269        1498095395.2932036     
   357961933.70774847        22291945.910353541        1513366757.8970785     
   348678516.34823978        11783449.163561329        1513716319.4327447     
   320773699.13732219        13237433.692112595        1512917692.3377745     
   292692359.81189215        14103011.172291696        1517723815.3498058     
   264434498.37195116        14380181.604099721        1528134688.4688449     
   236000114.81749660        14068944.987528995        1544150311.6948845     
   172135497.42165199        5230596.3626017123        1538654507.1009679     
   158403882.21639213        6023826.6578449681        1539166778.0191572     
   144584005.95197076        6522853.4225485101        1545129243.6577682     
   130675868.62837499        6727676.6566721648        1556541904.0167971     
   116679470.24560796        6638296.3602234088        1573404759.0962465     
   8.8693704395555809E-002   3.9730947469736093E-002   1561651703.4478033     
   7.0285352629559469E-002   5.6057631064560270E-002   1563577843.6103919     
   4.8044947141602470E-002   5.9607332805896987E-002   1570799623.1068082     
   2.1974455222483945E-002   5.0391467555476077E-002   1583317041.9370599     
  -7.9256198673591082E-003   2.8411018958697111E-002   1601130100.1011403     
   482564926.91635805        31307299.128678739        1481054097.7028043     
   425262017.68143409        26721380.363806590        1478990827.1431460     
   365784766.13965303        14887653.909410864        1482684689.9107668     
   304133172.29101938       -4193880.2344937474        1492135686.0056672     
   240307236.13552606       -30523222.067935959        1507343815.4278545     
   357961933.70774847        22291945.910353541        1513366757.8970785     
   315798018.19533223        19096486.756721571        1509913376.1626906     
   272003345.95315504        10465171.837222204        1512027365.5926635     
   226577916.98122215       -3601998.8481321037        1519708726.1869998     
   179521731.27953863       -23105025.299319029        1532957457.9456973     
   236000114.81749660        14068944.987528995        1544150311.6948845     
   208433015.41923854        12101292.162620664        1539941001.9590597     
   179778744.86832690        6509735.4955345169        1541109301.2246721     
   150037303.16475314       -2705725.0137586668        1547655209.4917314     
   119208690.30852634       -15545089.365229540        1559578726.7602203     
   116679470.24560796        6638296.3602234088        1573404759.0962465     
   103167009.35316229        5735796.5815308504        1569073704.5322602     
   89110962.885163739        3021344.8843330033        1569930496.8067973     
   74511330.841610029       -1505058.7313841470        1575975135.9198449     
   59368113.222498327       -7843414.2656280994        1587207621.8714211     
  -7.9256198673591082E-003   2.8411018958697111E-002   1601130100.1011403     
  -2.8998781398148731E-003   1.3448582906646182E-002   1597311483.8822808     
   3.6752194694160763E-003   3.6471970132656815E-003   1598490952.3390229     
   1.1789630627068415E-002  -1.0227967740149939E-003   1604668505.4713595     
   2.1446946782624272E-002  -5.4699834405570226E-004   1615844143.2792966     
   240307236.13552606       -30523222.067935959        1507343815.4278545     
   199578500.55979717       -60214431.450778097        1486203474.6091123     
   154238814.28652474       -105275476.49209869        1467815427.7067449     
   104288177.31570885       -165706357.19190016        1452179674.7207382     
   49726589.647348896       -241507073.55018193        1439296215.6511090     
   179521731.27953863       -23105025.299319029        1532957457.9456973     
   148316350.74493188       -45571080.992435217        1507352330.6822612     
   113652757.18707833       -79564513.429705918        1484653224.0672224     
   75530950.605988145       -125085322.61109728        1464860138.1005919     
   33950931.001660012       -182133508.53662220        1447973072.7823560     
   119208690.30852634       -15545089.365229540        1559578726.7602203     
   97965884.049419731       -30654225.598303027        1530853673.6721039     
   74417602.441369861       -53448279.661186770        1505188367.9644241     
   48563845.484385520       -83927251.553852722        1482582809.6371760     
   20404613.178461112       -122091141.27631550        1463036998.6903613     
   59368113.222498327       -7843414.2656280994        1587207621.8714211     
   48527100.473265588       -15463865.268365104        1556707503.5786483     
   36533350.049397513       -26926775.186549287        1529420859.3983374     
   23386861.950900622       -42232144.020162657        1505347689.3304958     
   9087636.1777622029       -61379971.769252136        1484487993.3751252     
   2.1446946782624272E-002  -5.4699834405570226E-004   1615844143.2792966     
   1.6475099672786431E-002  -2.5981048814181350E-003   1584913820.4018881     
   1.1167074591041486E-002  -5.7725802160324656E-003   1557350698.3689713     
   5.5290021645309131E-003  -1.0044437808970658E-002   1533154777.1805577     
  -4.5018933635899202E-004  -1.5456134540734860E-002   1512326056.8366437     
   49726589.647348896       -241507073.55018193        1439296215.6511090     
   40427837.349475250       -322493427.22049433        1346285735.4590082     
   23367845.909673244       -429350578.03056800        1253151383.6685159     
  -1453384.6720525026       -562078525.98038328        1159893160.2796245     
  -34035854.395692199       -720677271.06992555        1066511065.2923568     
   33950931.001660012       -182133508.53662220        1447973072.7823560     
   29801500.537619650       -242025883.66263285        1347490389.6488161     
   19831140.717088267       -321321356.64361775        1246224753.7063897     
   4039851.5400786400       -420019927.47952938        1144176164.9550836     
  -17572366.993421257       -538121596.17040598        1041344623.3949028     
   20404613.178461112       -122091141.27631550        1463036998.6903613     
   19521415.375428684       -161454464.60988533        1357345807.3650537     
   14757598.001347229       -213753186.51361436        1250212582.0203824     
   6113161.0562212765       -278987306.98749208        1141637322.6563210     
  -6411895.4599506408       -357156826.03152651        1031620029.2729223     
   9087636.1777622029       -61379971.769252136        1484487993.3751252     
   9587581.8629121743       -80779170.062215433        1375851988.6077268     
   8147217.7624503747       -106646067.64055100        1265114868.6104789     
   4766543.8763784394       -138980664.50425372        1152276633.3833673     
  -554439.79529474676       -177782960.65329137        1037337282.9263999     
  -4.5018933635899202E-004  -1.5456134540734860E-002   1512326056.8366437     
   6.1123267619473190E-005  -1.9652594570022681E-002   1403008933.3768420     
   3.9345815982594866E-004  -2.4445646971883804E-002   1290931613.4766920     
   5.6552747832657423E-004  -2.9772224063374032E-002   1176094097.1361907     
   5.5852758315757915E-004  -3.5697086312543785E-002   1058496384.3553461     
   3.4048813219438872        8.0429244766087429        1384709485.0451956     
   2.0111121559294078        3.9714344450410417        1406878456.1557817     
   1.0070275199805554        1.1988942348042106        1429101682.2383702     
  0.39263413948680581      -0.27467581780500028        1451379163.2929614     
  0.16792574656817150      -0.44929591183049428        1473710899.3195536     
  -311838875.95349044        16927543.197675169        1433653834.4547796     
  -309065522.69523424        14853498.487488762        1440966518.0387154     
  -306339106.41631061        12622997.179526165        1450836921.1457491     
  -303659627.11671698        10236039.273797259        1463265043.7758870     
  -301027084.79645699        7692624.7702885121        1478250885.9291260     
  -669622441.38304317        20071672.531068236        1481507853.5984900     
  -656922977.61247134        18069413.940275878        1473909489.3919096     
  -644317388.19025040        15754240.854975909        1471372309.2595356     
  -631805673.11638093        13126153.275174886        1473896313.2013636     
  -619387832.39086461        10185151.200862139        1481481501.2173955     
  -1073350692.8837754        9432396.0431091189        1528271542.4763126     
  -1043572362.7405995        9647750.3297915459        1505707370.2153699     
  -1013934844.3147928        9393732.2252441049        1490707846.5797274     
  -984438137.60635912        8670341.7294572592        1483272971.5693927     
  -955082242.61529696        7477578.8424266577        1483402745.1843584     
  -1523023630.4556851       -14990286.266203284        1573944901.0882597     
  -1469013678.0796170       -10411492.343952954        1536360160.5090921     
  -1415191474.7899370       -6458528.7096675634        1508843533.1063271     
  -1361557020.5866492       -3131395.3633527756        1491395018.8799701     
  -1308110315.4697523       -430092.30500900745        1484014617.8300197     
  0.16792574656817150      -0.44929591183049428        1473710899.3195536     
   2.4690048540464062E-002  -7.7964695139436824E-002   1479878396.4449914     
 -0.16437437491720300       0.14060410345175531        1488257848.6910214     
 -0.39927452369999866       0.20638715095918553        1498849256.0576398     
 -0.68000586846399003       0.11939954519596335        1511652618.5448453     
  -301027084.79645699        7692624.7702885121        1478250885.9291260     
  -294370834.75274765        6191873.0551008433        1478837036.0006437     
  -287776075.99039793        4486150.4020489752        1482677750.8076484     
  -281242808.50940561        2575456.8111392260        1489773030.3501427     
  -274771032.30977267        459792.28236468136        1500122874.6281211     
  -619387832.39086461        10185151.200862139        1481481501.2173955     
  -603096447.54621756        8077312.7833500803        1476414564.4602108     
  -586928045.21845639        5559532.6428866684        1475644802.0534124     
  -570882625.40757859        2631810.7794787586        1479172213.9970021     
  -554960188.11358595       -705852.80688080192        1486996800.2909722     
  -955082242.61529696        7477578.8424266577        1483402745.1843584     
  -926176838.35571623        5656319.1067973375        1472610981.8236926     
  -897455907.84854877        3220146.8631225228        1467159002.4283111     
  -868919451.09379268        169062.11140924692        1467046806.9982116     
  -840567468.09144926       -3496935.1483412981        1472274395.5333955     
  -1308110315.4697523       -430092.30500900745        1484014617.8300197     
  -1263612007.1812477       -1071107.9745735526        1467426288.0910897     
  -1219359663.8806834       -2532006.9372717142        1457220351.9323437     
  -1175353285.5680516       -4812789.1930797100        1453396809.3537791     
  -1131592872.2433584       -7913454.7420155406        1455955660.3553941     
 -0.68000586846399003       0.11939954519596335        1511652618.5448453     
 -0.53624403452488734        9.2367551336507370E-002   1509173882.6008539     
 -0.39107805821564307        7.0016725933580604E-002   1511460995.3830853     
 -0.24450642975494616        5.2350019923381785E-002   1518513956.8915420     
  -9.6530567422210001E-002   3.9366175154818384E-002   1530332767.1262164     
  -274771032.30977267        459792.28236468136        1500122874.6281211     
  -262255029.58934361        17723.330684304237        1495828951.3638232     
  -249769627.26611790       -526346.94500523806        1496498889.5687385     
  -237314825.34009036       -1172418.5446896702        1502132689.2428584     
  -224890623.81126463       -1920491.4683798999        1512730350.3861873     
  -554960188.11358595       -705852.80688080192        1486996800.2909722     
  -529362432.12224948       -1420265.4749491513        1480851989.2413316     
  -503825876.92671633       -2338680.7956947386        1479869052.4038844     
  -478350522.52698904       -3461098.7691271305        1484047989.7786338     
  -452936368.92306691       -4787519.3952431381        1493388801.3655775     
  -840567468.09144926       -3496935.1483412981        1472274395.5333955     
  -801322208.13495576       -4313966.3245136142        1464242996.2333729     
  -762168749.37287533       -5437001.4820591211        1461571483.8885312     
  -723107091.80519998       -6866040.6209532320        1464259858.4988694     
  -684137235.43193507       -8601083.7412211001        1472308120.0643890     
  -1131592872.2433584       -7913454.7420155406        1455955660.3553941     
  -1078134357.6274683       -8663379.2180282474        1446001972.3399539     
  -1024798244.6045915       -9821309.0040830970        1441606184.0226777     
  -971584533.17472684       -11387244.100180566        1442768295.4035666     
  -918493223.33787954       -13361184.506335318        1449488306.4826236     
  -9.6530567422210001E-002   3.9366175154818384E-002   1530332767.1262164     
  -6.0468846047594949E-002   5.3105871348786970E-003   1530328174.2956903     
  -1.7586069962908929E-002  -6.0102335196622197E-003   1535546466.0724456     
   3.2139652660856999E-002   5.4798084568154657E-003   1545987642.4564831     
   8.8693704395555809E-002   3.9730947469736093E-002   1561651703.4478033     
  -224890623.81126463       -1920491.4683798999        1512730350.3861873     
  -211636958.91652456       -2531740.1628650501        1511541440.1859434     
  -198426549.52386880       -3287173.8642987013        1515465829.5759645     
  -185259395.63329393       -4186792.5726672933        1524503518.5562446     
  -172135497.24479589       -5230596.2879604921        1538654507.1267798     
  -452936368.92306691       -4787519.3952431381        1493388801.3655775     
  -426742139.21828222       -6103946.7647363096        1490965109.0352192     
  -400634420.52449542       -7708744.1708861589        1493545131.2781026     
  -374613212.84170473       -9601911.6136907190        1501128868.0942204     
  -348678516.16990662       -11783449.093138248        1513716319.4835777     
  -684137235.43193507       -8601083.7412211001        1472308120.0643890     
  -645315540.96574628       -10716619.800316960        1468599180.8435223     
  -606623613.01946843       -13264710.925786287        1469784371.1788650     
  -568061451.59309471       -16245357.117599636        1475863691.0704241     
  -529629056.68663454       -19658558.375794500        1486837140.5181963     
  -918493223.33787954       -13361184.506335318        1449488306.4826236     
  -867357164.15892243       -16369759.269624561        1444443655.6108394     
  -816394127.00878549       -19955074.128982961        1444183549.2782516     
  -765604111.88747990       -24117129.084445477        1448707987.4848523     
  -714987118.79498756       -28855924.135951638        1458016970.2306416     
   8.8693704395555809E-002   3.9730947469736093E-002   1561651703.4478033     
   7.0285352629559469E-002   5.6057631064560270E-002   1563577843.6103919     
   4.8044947141602470E-002   5.9607332805896987E-002   1570799623.1068082     
   2.1974455222483945E-002   5.0391467555476077E-002   1583317041.9370599     
  -7.9256198673591082E-003   2.8411018958697111E-002   1601130100.1011403     
  -172135497.24479589       -5230596.2879604921        1538654507.1267798     
  -158403882.07701373       -6023826.5522924364        1539166778.0368917     
  -144584005.85737640       -6522853.3104384318        1545129243.6673129     
  -130675868.58587047       -6727676.5623580292        1556541904.0180433     
  -116679470.26250441       -6638296.3080747873        1573404759.0890932     
  -348678516.16990662       -11783449.093138248        1513716319.4835777     
  -320773698.99742740       -13237433.592590183        1512917692.3728557     
  -292692359.71739441       -14103011.066863194        1517723815.3689234     
  -264434498.32980424       -14380181.515944183        1528134688.4717836     
  -236000114.83465856       -14068944.939839840        1544150311.6814337     
  -529629056.68663454       -19658558.375794500        1486837140.5181963     
  -487109450.69094902       -21640821.064820379        1484830586.6182840     
  -444325061.53201276       -22740473.209674731        1488583338.2116416     
  -401275889.20982748       -22957514.810368806        1498095395.2982705     
  -357961933.72438675       -22291945.866873786        1513366757.8781629     
  -714987118.79498756       -28855924.135951638        1458016970.2306416     
  -657411137.15757275       -31233988.968961120        1454905460.7731824     
  -599482111.30122244       -32435239.738850355        1457707812.1954682     
  -541200041.22592735       -32459676.445589811        1466424024.4975045     
  -482564926.93168861       -31307299.089186504        1481054097.6792924     
  -7.9256198673591082E-003   2.8411018958697111E-002   1601130100.1011403     
  -2.8998781398148731E-003   1.3448582906646182E-002   1597311483.8822808     
   3.6752194694160763E-003   3.6471970132656815E-003   1598490952.3390229     
   1.1789630627068415E-002  -1.0227967740149939E-003   1604668505.4713595     
   2.1446946782624272E-002  -5.4699834405570226E-004   1615844143.2792966     
  -116679470.26250441       -6638296.3080747873        1573404759.0890932     
  -103167009.35961598       -5735796.5572454371        1569073704.5288005     
  -89110962.878250465       -3021344.8781556338        1569930496.8068538     
  -74511330.818411291        1505058.7291777655        1575975135.9232485     
  -59368113.180084839        7843414.2647996508        1587207621.8779874     
  -236000114.83465856       -14068944.939839840        1544150311.6814337     
  -208433015.42607000       -12101292.140872471        1539941001.9527986     
  -179778744.86206812       -6509735.4905260503        1541109301.2252479     
  -150037303.14265949        2705725.0111774728        1547655209.4987817     
  -119208690.26783894        15545089.364252962        1559578726.7734084     
  -357961933.72438675       -22291945.866873786        1513366757.8781629     
  -315798018.20225787       -19096486.737420514        1509913376.1542749     
  -272003345.94777536       -10465171.833450034        1512027365.5942147     
  -226577916.96096414        3601998.8449469209        1519708726.1979856     
  -179521731.24179760        23105025.297861546        1532957457.9655879     
  -482564926.93168861       -31307299.089186504        1481054097.6792924     
  -425262017.68817371       -26721380.346870288        1478990827.1332307     
  -365784766.13538349       -14887653.906970918        1482684689.9137478     
  -304133172.27331614        4193880.2305188030        1492135686.0208390     
  -240307236.10197431        30523222.065591410        1507343815.4545026     
   2.1446946782624272E-002  -5.4699834405570226E-004   1615844143.2792966     
   1.6475099672786431E-002  -2.5981048814181350E-003   1584913820.4018881     
   1.1167074591041486E-002  -5.7725802160324656E-003   1557350698.3689713     
   5.5290021645309131E-003  -1.0044437808970658E-002   1533154777.1805577     
  -4.5018933635899202E-004  -1.5456134540734860E-002   1512326056.8366437     
  -59368113.180084839        7843414.2647996508        1587207621.8779874     
  -48527100.440618977        15463865.263612393        1556707503.5840552     
  -36533350.027167566        26926775.175706446        1529420859.4026809     
  -23386861.939743996        42232144.001043662        1505347689.3338702     
  -9087636.1783461198        61379971.739627168        1484487993.3776264     
  -119208690.26783894        15545089.364252962        1559578726.7734084     
  -97965884.018025234        30654225.593755879        1530853673.6829882     
  -74417602.419927090        53448279.650876328        1505188367.9731870     
  -48563845.473550215        83927251.535591364        1482582809.6440077     
  -20404613.178891264        122091141.24791571        1463036998.6954520     
  -179521731.24179760        23105025.297861546        1532957457.9655879     
  -148316350.71575916        45571080.987781085        1507352330.6986942     
  -113652757.16712195        79564513.419696450        1484653224.0804842     
  -75530950.595898271        125085322.59356675        1464860138.1109600     
  -33950931.002084732        182133508.50940311        1447973072.7901146     
  -240307236.10197431        30523222.065591410        1507343815.4545026     
  -199578500.53380916        60214431.445728108        1486203474.6311665     
  -154238814.26873940        105275476.48221478        1467815427.7245755     
  -104288177.30678344        165706357.17498887        1452179674.7347291     
  -49726589.647922799        241507073.52411047        1439296215.6616340     
  -4.5018933635899202E-004  -1.5456134540734860E-002   1512326056.8366437     
   6.1123267619473190E-005  -1.9652594570022681E-002   1403008933.3768420     
   3.9345815982594866E-004  -2.4445646971883804E-002   1290931613.4766920     
   5.6552747832657423E-004  -2.9772224063374032E-002   1176094097.1361907     
   5.5852758315757915E-004  -3.5697086312543785E-002   1058496384.3553461     
  -9087636.1783461198        61379971.739627168        1484487993.3776264     
  -9587581.8624256141        80779170.024425089        1375851988.6097736     
  -8147217.7612362802        106646067.59345485        1265114868.6120470     
  -4766543.8747672141        138980664.44675052        1152276633.3844488     
   554439.79696653783        177782960.58426189        1037337282.9269764     
  -20404613.178891264        122091141.24791571        1463036998.6954520     
  -19521415.374775581        161454464.57356045        1357345807.3692427     
  -14757597.999949723        213753186.46824190        1250212582.0236189     
  -6113161.0544024259        278987306.93199217        1141637322.6586025     
   6411895.4618539661        357156825.96477801        1031620029.2741752     
  -33950931.002084732        182133508.50940311        1447973072.7901146     
  -29801500.536997229        242025883.62771931        1347490389.6552224     
  -19831140.715745702        321321356.59991837        1246224753.7114015     
  -4039851.5383497477        420019927.42592871        1144176164.9586420     
   17572366.995213121        538121596.10583568        1041344623.3969698     
  -49726589.647922799        241507073.52411047        1439296215.6616340     
  -40427837.349078685        322493427.18694687        1346285735.4677422     
  -23367845.908642173        429350577.98842466        1253151383.6753976     
   1453384.6734047830        562078525.92859900        1159893160.2845936     
   34035854.397043139        720677271.00742114        1066511065.2953289     
  -1523023630.4556851       -14990286.266203284        1573944901.0882597     
  -1469013678.0796170       -10411492.343952954        1536360160.5090921     
  -1415191474.7899370       -6458528.7096675634        1508843533.1063271     
  -1361557020.5866492       -3131395.3633527756        1491395018.8799701     
  -1308110315.4697523       -430092.30500900745        1484014617.8300197     
  -1971284576.9036407       -36759469.280566692        1435207917.3914058     
  -1893154041.1375015       -27359866.352875710        1412512883.1459475     
  -1815380079.5538814       -19148844.033578396        1397191536.2536547     
  -1737962692.1527781       -12126402.322670817        1389243876.7145236     
  -1660901878.9341948       -6292541.2201639414        1388669904.5285518     
  -2372247120.0596018       -44339131.307335377        1295640428.0730917     
  -2277694360.3983765       -32428227.222699046        1287638137.5491979     
  -2183667000.0157948       -22268654.066880465        1284315108.5552239     
  -2090165038.9118593       -13860411.839881420        1285671341.0911696     
  -1997188477.0865672       -7203500.5416979790        1291706835.1570306     
  -2725911259.9235706       -37729272.346505284        1155242433.1333215     
  -2622634635.8622365       -25616574.953412652        1161735923.7188425     
  -2520052236.1756787       -15817958.809573531        1170214250.0110428     
  -2418164060.8638887       -8333423.9149696827        1180677412.0099149     
  -2316970109.9268732       -3162970.2696086168        1193125409.7154610     
  -3032276996.4955482       -16929892.398076057        1014013932.5720981     
  -2927974867.5290895       -6924909.5450309515        1034806241.6548855     
  -2824535788.0335317        203241.73834276199        1054888960.6211048     
  -2721959758.0088730        4454561.4520537853        1074262089.4707549     
  -2620246777.4551163        5829049.5960930586        1092925628.2038369     
  -1308110315.4697523       -430092.30500900745        1484014617.8300197     
  -1263612007.1812477       -1071107.9745735526        1467426288.0910897     
  -1219359663.8806834       -2532006.9372717142        1457220351.9323437     
  -1175353285.5680516       -4812789.1930797100        1453396809.3537791     
  -1131592872.2433584       -7913454.7420155406        1455955660.3553941     
  -1660901878.9341948       -6292541.2201639414        1388669904.5285518     
  -1600995864.1557491       -6426781.0019030571        1377091984.3186014     
  -1541275029.9325042       -7178289.3009753823        1370866804.1620038     
  -1481739376.2644608       -8547066.1173832417        1369994364.0587549     
  -1422388903.1516185       -10533111.451130271        1374474664.0088613     
  -1997188477.0865672       -7203500.5416979790        1291706835.1570306     
  -1924816623.0376961       -7713524.6014604568        1285210239.6475856     
  -1852569165.1112893       -8638202.4027711153        1283036730.6646619     
  -1780446103.3073492       -9977533.9456337690        1285186308.2082582     
  -1708447437.6258686       -11731519.230040431        1291658972.2783759     
  -2316970109.9268732       -3162970.2696086168        1193125409.7154610     
  -2235074283.8270903       -4931338.7732530832        1191781054.0780427     
  -2153242069.4170380       -6911746.2426629066        1193730131.4403188     
  -2071473466.6967094       -9104192.6778206825        1198972641.8022823     
  -1989768475.6661091       -11508678.078746796        1207508585.1639397     
  -2620246777.4551163        5829049.5960930586        1092925628.2038369     
  -2531768846.5239334        1919776.4827195406        1096804427.6099751     
  -2443293742.8497438       -1998920.8206253052        1102947006.4889729     
  -2354821466.4325500       -5927042.3139551878        1111353364.8408337     
  -2266352017.2723451       -9864587.9972550869        1122023502.6655533     
  -1131592872.2433584       -7913454.7420155406        1455955660.3553941     
  -1078134357.6274683       -8663379.2180282474        1446001972.3399539     
  -1024798244.6045915       -9821309.0040830970        1441606184.0226777     
  -971584533.17472684       -11387244.100180566        1442768295.4035666     
  -918493223.33787954       -13361184.506335318        1449488306.4826236     
  -1422388903.1516185       -10533111.451130271        1374474664.0088613     
  -1354777316.9357679       -10574564.325409591        1365814278.2807422     
  -1287332467.6184084       -11171806.861322641        1362319477.5617204     
  -1220054355.1995413       -12324839.058883846        1363990261.8517947     
  -1152942979.6791675       -14033660.918079853        1370826631.1509645     
  -1708447437.6258686       -11731519.230040431        1291658972.2783759     
  -1627803678.9216809       -11400770.236062467        1284240164.3145213     
  -1547370992.4214678       -11773595.255328596        1281594626.6706951     
  -1467149378.1252241       -12849994.287834406        1283722359.3468931     
  -1387138836.0329537       -14629967.333573937        1290623362.3431191     
  -1989768475.6661091       -11508678.078746796        1207508585.1639397     
  -1897213443.5852191       -11141996.950012565        1201279630.4412906     
  -1804913819.0137739       -11626674.186108470        1199431631.3495977     
  -1712869601.9517837       -12962709.787054539        1201964587.8888640     
  -1621080792.3992448       -15150103.752829432        1208878500.0590832     
  -2266352017.2723451       -9864587.9972550869        1122023502.6655533     
  -2163006610.9263697       -9798244.4672412872        1116932676.6610482     
  -2059960947.3953276       -10731043.653667450        1115830491.5984299     
  -1957215026.6792171       -12662985.556534648        1118716947.4777012     
  -1854768848.7780316       -15594070.175820351        1125592044.2988620     
  -918493223.33787954       -13361184.506335318        1449488306.4826236     
  -867357164.15892243       -16369759.269624561        1444443655.6108394     
  -816394127.00878549       -19955074.128982961        1444183549.2782516     
  -765604111.88747990       -24117129.084445477        1448707987.4848523     
  -714987118.79498756       -28855924.135951638        1458016970.2306416     
  -1152942979.6791675       -14033660.918079853        1370826631.1509645     
  -1089645917.0399528       -17373523.802810371        1365610958.5386305     
  -1026503049.6964476       -21227371.006561875        1365041810.5383983     
  -963514377.64863884       -25595202.529309213        1369119187.1502783     
  -900679900.89653170       -30477018.371061116        1377843088.3742702     
  -1387138836.0329537       -14629967.333573937        1290623362.3431191     
  -1312075112.5822968       -18419421.134406924        1285258632.5122030     
  -1237146757.6942251       -22660103.477175355        1284402407.3663135     
  -1162353771.3687272       -27352014.361865163        1288054686.9054468     
  -1087696153.6058109       -32495153.788491070        1296215471.1296065     
  -1621080792.3992448       -15150103.752829432        1208878500.0590832     
  -1534644750.7859523       -19507451.264391780        1203386677.5315654     
  -1448325251.0021179       -24253271.540810168        1202265339.7619867     
  -1362122293.0477445       -29387564.582106471        1205514486.7503479     
  -1276035876.9228246       -34910330.388241470        1213134118.4966519     
  -1854768848.7780316       -15594070.175820351        1125592044.2988620     
  -1757354831.6509099       -20637614.192757607        1119995093.5967109     
  -1660038529.6201329       -26006875.197503269        1118630607.7254183     
  -1562819942.6856840       -31701853.190009713        1121498586.6849899     
  -1465699070.8475742       -37722548.170319200        1128599030.4754112     
  -714987118.79498756       -28855924.135951638        1458016970.2306416     
  -657411137.15757275       -31233988.968961120        1454905460.7731824     
  -599482111.30122244       -32435239.738850355        1457707812.1954682     
  -541200041.22592735       -32459676.445589811        1466424024.4975045     
  -482564926.93168861       -31307299.089186504        1481054097.6792924     
  -900679900.89653170       -30477018.371061116        1377843088.3742702     
  -828341598.89952326       -32414122.859712392        1374313314.5935013     
  -755787411.20265806       -33631608.348845452        1376123550.8993607     
  -683017337.80595088       -34129474.838504761        1383273797.2918441     
  -610031378.70938957       -33907722.328646630        1395764053.7709584     
  -1087696153.6058109       -32495153.788491070        1296215471.1296065     
  -1002235104.9438369       -34483170.041149259        1292107414.7532578     
  -916695329.10110712       -36208762.357957900        1292765517.6704142     
  -831076826.07762051       -37671930.738910109        1298189779.8810759     
  -745379595.87337232       -38872675.183987916        1308380201.3852334     
  -1276035876.9228246       -34910330.388241470        1213134118.4966519     
  -1179091655.2905262       -37441130.513313770        1208287761.2524495     
  -1082205864.9965637       -40166701.766179264        1207633712.5086331     
  -985378506.04092896       -43087044.146802187        1211171972.2651932     
  -888609578.42363322       -46202157.655217618        1218902540.5221374     
  -1465699070.8475742       -37722548.170319200        1128599030.4754112     
  -1358911249.9395795       -41288004.276174188        1122854354.0910847     
  -1252319018.8890200       -45505426.573473930        1120728135.4140115     
  -1145922377.6958869       -50374815.062195778        1122220374.4442019     
  -1039721326.3601744       -55896169.742324769        1127331071.1816459     
  -482564926.93168861       -31307299.089186504        1481054097.6792924     
  -425262017.68817371       -26721380.346870288        1478990827.1332307     
  -365784766.13538349       -14887653.906970918        1482684689.9137478     
  -304133172.27331614        4193880.2305188030        1492135686.0208390     
  -240307236.10197431        30523222.065591410        1507343815.4545026     
  -610031378.70938957       -33907722.328646630        1395764053.7709584     
  -538012113.35295296       -30283504.071480274        1393518749.6998291     
  -463774135.54076606       -19263577.628488943        1397058517.1163304     
  -387317445.27282041       -847942.99962747097        1406383356.0204589     
  -308642042.54912031        24963399.815075323        1421493266.4122186     
  -745379595.87337232       -38872675.183987916        1308380201.3852334     
  -658564151.08671844       -36186210.416807830        1306004628.9599333     
  -569485623.69783163       -25956136.975518495        1309442066.1833129     
  -478144013.70670694       -8182454.8601017296        1318692513.0553801     
  -384539321.11334836        17134835.929431275        1333755969.5761337     
  -888609578.42363322       -46202157.655217618        1218902540.5221374     
  -786918130.88946068       -44429499.382817596        1216448464.9135456     
  -682919230.60657251       -34965331.948040664        1219835337.1147010     
  -576612877.57497549       -17809655.350893945        1229063157.1255875     
  -467999071.79465282        7037530.4086659551        1244131924.9462290     
  -1039721326.3601744       -55896169.742324769        1127331071.1816459     
  -923074052.76118386       -55013370.969528288        1124850257.5606663     
  -804074956.26699889       -46291162.546083510        1128238329.9104860     
  -682724036.87761593       -29729544.471981496        1137495288.2311027     
  -559021294.59303784       -5328516.7472234964        1152621132.5225124     
  -240307236.10197431        30523222.065591410        1507343815.4545026     
  -199578500.53380916        60214431.445728108        1486203474.6311665     
  -154238814.26873940        105275476.48221478        1467815427.7245755     
  -104288177.30678344        165706357.17498887        1452179674.7347291     
  -49726589.647922799        241507073.52411047        1439296215.6616340     
  -308642042.54912031        24963399.815075323        1421493266.4122186     
  -259037464.28858757        55208320.129761666        1404758682.6811638     
  -202978087.60098332        106969235.20133866        1391971596.8887451     
  -140463912.48632658        180246145.02976313        1383132009.0349710     
  -71494938.944612011        275039049.61504912        1378239919.1198442     
  -384539321.11334836        17134835.929431275        1333755969.5761337     
  -322644031.52645469        48957927.768866926        1323578298.6225400     
  -252450095.78233418        108443173.46573128        1318543329.6294882     
  -173957513.88099647        195590573.01998621        1318651062.5969701     
  -87166285.822432488        310400126.43166178        1323901497.5249901     
  -467999071.79465282        7037530.4086659551        1244131924.9462290     
  -390398202.24742007        41463254.363036871        1242662322.4552979     
  -302654838.81279224        109697291.27539131        1247530625.9467962     
  -204768981.49078849        211739641.14566591        1258736835.4207327     
  -96740630.281382054        347590303.97394907        1276280950.8770990     
  -559021294.59303784       -5328516.7472234964        1152621132.5225124     
  -462299976.45147252        32724299.912294000        1162010754.1794322     
  -353592316.69235694        110731588.63032101        1178933485.8406818     
  -232898315.31569302        228693349.40683562        1203389327.5062513     
  -100217972.32147804        386609582.24185908        1235378279.1761546     
  -49726589.647922799        241507073.52411047        1439296215.6616340     
  -40427837.349078685        322493427.18694687        1346285735.4677422     
  -23367845.908642173        429350577.98842466        1253151383.6753976     
   1453384.6734047830        562078525.92859900        1159893160.2845936     
   34035854.397043139        720677271.00742114        1066511065.2953289     
  -71494938.944612011        275039049.61504912        1378239919.1198442     
  -57341917.982909635        376779459.00359058        1296718714.2964332     
  -34220207.155583918        508415501.27754301        1214266036.4138939     
  -2129806.4626311362        669947176.43691158        1130881885.4722474     
   38929284.095948279        861374484.48171699        1046566261.4714582     
  -87166285.822432488        310400126.43166178        1323901497.5249901     
  -70466428.942637801        432202361.72247177        1255278260.5834341     
  -43590431.473192036        587925065.64545465        1184915949.1220829     
  -6538293.4140967727        777568238.20060837        1112814563.1409333     
   40689985.234656274        1001131879.3879405        1038974102.6400172     
  -96740630.281382054        347590303.97394907        1276280950.8770990     
  -79801370.228261441        488762135.34360087        1221964374.3287547     
  -51478518.861469775        667879271.09216213        1165101121.7999442     
  -11772076.180988073        884941711.21967757        1105691193.2906823     
   39317957.813165188        1139949455.7261171        1043734588.8009405     
  -100217972.32147804        386609582.24185908        1235378279.1761546     
  -85346741.839796841        546458779.86692989        1196777055.5323813     
  -57884469.320405424        748278117.61769056        1154821554.4474831     
  -17831154.763314486        992067595.49411070        1109511775.9214566     
   34813201.831477165        1277827213.4962220        1060847719.9542909     
  -3032276996.4955482       -16929892.398076057        1014013932.5720981     
  -2927974867.5290895       -6924909.5450309515        1034806241.6548855     
  -2824535788.0335317        203241.73834276199        1054888960.6211048     
  -2721959758.0088730        4454561.4520537853        1074262089.4707549     
  -2620246777.4551163        5829049.5960930586        1092925628.2038369     
  -3338662842.2308192        7839253.7589185238        964939053.70680451     
  -3233879101.9864240        11286559.146086335        969113208.03620565     
  -3129575670.1604519        13132836.471867085        975880732.88040388     
  -3025752546.7528906        13378085.736265540        985241628.23940098     
  -2922409731.7637463        12022306.939279795        997195894.11319065     
  -3695008715.4907532        17620391.658512831        913063155.05476415     
  -3580306333.5931034        17341128.692395210        901065685.85868073     
  -3465701519.0613790        16736641.173182487        894964547.80876160     
  -3351194271.8955865        15806929.100872278        894759740.90500319     
  -3236784592.0957236        14551992.475459099        900451265.14740694     
  -4101314616.2753510        12413521.300709248        858386236.61598289     
  -3967256562.3491130        11238799.093905449        830663675.12231743     
  -3832913334.7363138        11014655.842295885        812140405.40617716     
  -3698284933.4369593        11741091.545874834        802816427.46756327     
  -3563371358.4510508        13418106.204635143        802691741.30647731     
  -4557580544.5846205       -7781357.3144969940        800908298.39045870     
  -4394729788.2544603       -7020429.6493852139        757907175.82710624     
  -4231211117.1852570       -4033119.5207896233        727408305.67264843     
  -4067024531.3770127        1180573.0712728500        709411687.92708158     
  -3902170030.8297257        8620648.1268067360        703917322.59040618     
  -2620246777.4551163        5829049.5960930586        1092925628.2038369     
  -2531768846.5239334        1919776.4827195406        1096804427.6099751     
  -2443293742.8497438       -1998920.8206253052        1102947006.4889729     
  -2354821466.4325500       -5927042.3139551878        1111353364.8408337     
  -2266352017.2723451       -9864587.9972550869        1122023502.6655533     
  -2922409731.7637463        12022306.939279795        997195894.11319065     
  -2827377113.8187656        7365027.9451583624        997111680.57508135     
  -2732397225.5326481        2531983.4214969873        999978371.23950839     
  -2637470066.9054003       -2476826.6317361593        1005795966.1064804     
  -2542595637.9370217       -7661402.2145174742        1014564465.1759893     
  -3236784592.0957236        14551992.475459099        900451265.14740694     
  -3133234073.6235723        9735671.6546146870        896345819.19619155     
  -3029786187.2121601        4577243.9646368027        895878402.17719579     
  -2926440932.8614879       -923290.59448492527        899049014.09042084     
  -2823198310.5715590       -6765932.0227378607        905857654.93586588     
  -3563371358.4510508        13418106.204635143        802691741.30647731     
  -3449339725.9383554        9031707.6110746861        794506843.47330511     
  -3335460627.8882775        4136860.8087933064        790647099.30203414     
  -3221734064.3008108       -1266434.2021991014        791112508.79266191     
  -3108160035.1759639       -7178177.4219152927        795903071.94519007     
  -3902170030.8297257        8620648.1268067360        703917322.59040618     
  -3775694070.7631149        5253135.8145470619        691594753.40642345     
  -3649420547.5610008        1210833.9539697170        684284462.61402059     
  -3523349461.2233715       -3506257.4548933506        681986450.21319723     
  -3397480811.7502322       -8898138.4120583534        684700716.20395553     
  -2266352017.2723451       -9864587.9972550869        1122023502.6655533     
  -2163006610.9263697       -9798244.4672412872        1116932676.6610482     
  -2059960947.3953276       -10731043.653667450        1115830491.5984299     
  -1957215026.6792171       -12662985.556534648        1118716947.4777012     
  -1854768848.7780316       -15594070.175820351        1125592044.2988620     
  -2542595637.9370217       -7661402.2145174742        1014564465.1759893     
  -2428642451.0685620       -7510936.0691306591        1007735992.1462899     
  -2314892744.8545532       -8038738.7719048262        1005059296.4346071     
  -2201346519.2949872       -9244810.3228288889        1006534378.0409340     
  -2088003774.3898678       -11129150.721902251        1012161236.9652772     
  -2823198310.5715590       -6765932.0227378607        905857654.93586588     
  -2698171239.2488346       -6391512.0824533701        897403840.73487592     
  -2573251386.4200687       -6374487.1220331192        893264940.22802281     
  -2448438752.0852633       -6714857.1414781809        893440953.41531134     
  -2323733336.2444162       -7412622.1407878399        897931880.29673457     
  -3108160035.1759639       -7178177.4219152927        795903071.94519007     
  -2971592975.4671803       -6439972.5071966648        785936222.42680442     
  -2835036872.0918732       -5738288.7040477991        780447422.97868800     
  -2698491725.0500426       -5073126.0124902725        779436673.60083067     
  -2561957534.3416781       -4444484.4324959517        782903974.29324031     
  -3397480811.7502322       -8898138.4120583534        684700716.20395553     
  -3248907659.7236047       -7656317.3433569670        673333137.22207713     
  -3100249201.8699684       -6130143.5179479122        666606744.68659306     
  -2951505438.1893191       -4319616.9358351231        664521538.59749568     
  -2802676368.6816549       -2224737.5970050097        667077518.95478737     
  -1854768848.7780316       -15594070.175820351        1125592044.2988620     
  -1757354831.6509099       -20637614.192757607        1119995093.5967109     
  -1660038529.6201329       -26006875.197503269        1118630607.7254183     
  -1562819942.6856840       -31701853.190009713        1121498586.6849899     
  -1465699070.8475742       -37722548.170319200        1128599030.4754112     
  -2088003774.3898678       -11129150.721902251        1012161236.9652772     
  -1979672903.4107094       -15107488.845921516        1005369186.2986541     
  -1871527849.9400642       -19705218.664991260        1002496433.9428368     
  -1763568613.9779296       -24922340.179094434        1003542979.8978239     
  -1655795195.5243151       -30758853.388261616        1008508824.1636171     
  -2323733336.2444162       -7412622.1407878399        897931880.29673457     
  -2205380372.8990850       -10594182.817647219        889841943.51810062     
  -2087301329.4744437       -14688809.896812916        885358138.53021562     
  -1969496205.9704957       -19696503.378285050        884480465.33308291     
  -1851965002.3872447       -25617263.262070775        887208923.92670524     
  -2561957534.3416781       -4444484.4324959517        782903974.29324031     
  -2434477240.1160378       -7097696.1079447269        773413365.25504732     
  -2307358968.2232714       -10957648.892966032        767215721.48755610     
  -2180602718.6633782       -16024342.787572384        764311042.99075699     
  -2054208491.4363563       -22297777.791739345        764699329.76466286     
  -2802676368.6816549       -2224737.5970050097        667077518.95478737     
  -2666963505.0615773       -4618028.7168217897        656083451.50949991     
  -2531700766.1865501       -8511735.6534612179        648069182.81485498     
  -2396888152.0565758       -13905858.406944156        643034712.87085831     
  -2262525662.6716461       -20800396.977248192        640980041.67750287     
  -1465699070.8475742       -37722548.170319200        1128599030.4754112     
  -1358911249.9395795       -41288004.276174188        1122854354.0910847     
  -1252319018.8890200       -45505426.573473930        1120728135.4140115     
  -1145922377.6958869       -50374815.062195778        1122220374.4442019     
  -1039721326.3601744       -55896169.742324769        1127331071.1816459     
  -1655795195.5243151       -30758853.388261616        1008508824.1636171     
  -1539750784.3074179       -34392306.033222914        1000475259.2337958     
  -1423704008.7236142       -38017877.455162108        995959382.18950939     
  -1307654868.7729130       -41635567.654110134        994961193.03076184     
  -1191603364.4553025       -45245376.630025089        997480691.75755823     
  -1851965002.3872447       -25617263.262070775        887208923.92670524     
  -1726951914.6377730       -29405086.579010010        877117417.04643381     
  -1601738508.2970674       -32525181.258507967        870442828.22998595     
  -1476324783.3651328       -34977547.300569177        867185157.47735500     
  -1350710739.8419626       -36762184.705185056        867344404.78854823     
  -2054208491.4363563       -22297777.791739345        764699329.76466286     
  -1920514640.9306457       -26326345.913550854        752780827.52900207     
  -1786422517.6093817       -29027337.983505487        744178473.53543663     
  -1651932121.4725499       -30400754.001580715        738892267.78397655     
  -1517043452.5201650       -30446593.967801154        736922210.27461660     
  -2262525662.6716461       -20800396.977248192        640980041.67750287     
  -2120438963.1860473       -25156084.036866665        627465490.68149090     
  -1977756036.6605566       -27524347.630172849        617166318.10586870     
  -1834476883.0951767       -27905187.757181525        610082523.95062304     
  -1690601502.4899035       -26298604.417884588        606214108.21576607     
  -1039721326.3601744       -55896169.742324769        1127331071.1816459     
  -923074052.76118386       -55013370.969528288        1124850257.5606663     
  -804074956.26699889       -46291162.546083510        1128238329.9104860     
  -682724036.87761593       -29729544.471981496        1137495288.2311027     
  -559021294.59303784       -5328516.7472234964        1152621132.5225124     
  -1191603364.4553025       -45245376.630025089        997480691.75755823     
  -1061412707.9446158       -42396764.732179761        993807377.81552076     
  -929762871.70246232       -34684220.396104425        994229515.57513225     
  -796653855.72884679       -22107743.621835142        998747105.03639674     
  -662085660.02377272       -4667334.4093525410        1007360146.1993090     
  -1350710739.8419626       -36762184.705185056        867344404.78854823     
  -1212043655.4742846       -33467846.198692262        861437173.50109959     
  -1072810034.5388664       -28285052.466420054        857851959.64615202     
  -933009877.03572345       -21213803.508382320        856588763.22370934     
  -792643182.96484458       -12254099.324569315        857647584.23377466     
  -1517043452.5201650       -30446593.967801154        736922210.27461660     
  -1374966895.3501959       -28226615.369082570        727739644.61740291     
  -1233216444.7762194       -27093658.757017374        719105662.12354100     
  -1091792100.7982430       -27047724.131619096        711020262.79304004     
  -950693863.41627240       -28088811.492896259        703483446.62589920     
  -1690601502.4899035       -26298604.417884588        606214108.21576607     
  -1550182427.5723395       -26673072.243339121        592714791.16442645     
  -1410982102.4145083       -31110039.267892063        577990623.00730085     
  -1273000527.0164073       -39609505.491560161        562041603.74439132     
  -1136237701.3780429       -52171470.914332509        544867733.37568688     
  -559021294.59303784       -5328516.7472234964        1152621132.5225124     
  -462299976.45147252        32724299.912294000        1162010754.1794322     
  -353592316.69235694        110731588.63032101        1178933485.8406818     
  -232898315.31569302        228693349.40683562        1203389327.5062513     
  -100217972.32147804        386609582.24185908        1235378279.1761546     
  -662085660.02377272       -4667334.4093525410        1007360146.1993090     
  -546996292.80625176        25630830.068374187        1020887146.5960543     
  -421035509.40054464        92167048.506739527        1042799840.6273133     
  -284203309.80664629        194941320.90574121        1073098228.2930832     
  -136499694.02454686        333953647.26539683        1111782309.5933642     
  -792643182.96484458       -12254099.324569315        857647584.23377466     
  -656749813.44228625        11020198.940057784        874011217.03609502     
  -511099953.16089249        66816133.067469180        899613127.10311317     
  -355693602.12065148        155133703.05770445        934453314.43482757     
  -190530760.32156909        275972908.91074526        978531779.03123415     
  -950693863.41627240       -28088811.492896259        703483446.62589920     
  -791560538.35957205       -11107593.472633988        721382965.49955094     
  -623785647.97337723        34678842.312598139        749373345.26808131     
  -447369192.25770509        109270495.86276650        787454585.93149352     
  -262311171.21254089        212667367.17789716        835626687.48978925     
  -1136237701.3780429       -52171470.914332509        544867733.37568688     
  -951428467.55808949       -40752547.169678628        563002391.98641813     
  -759092593.83802032       -4244823.7579553127        592080495.12221706     
  -559230080.21779704        57351699.320931643        632102042.78308046     
  -351840926.69745886        144037022.06688523        683067034.96901023     
  -100217972.32147804        386609582.24185908        1235378279.1761546     
  -85346741.839796841        546458779.86692989        1196777055.5323813     
  -57884469.320405424        748278117.61769056        1154821554.4474831     
  -17831154.763314486        992067595.49411070        1109511775.9214566     
   34813201.831477165        1277827213.4962220        1060847719.9542909     
  -136499694.02454686        333953647.26539683        1111782309.5933642     
  -127370154.49399161        482974001.31940418        1090205905.0501733     
  -95103074.731990755        709119489.47823167        1070066056.5021029     
  -39698454.738539159        1012390111.7418816        1051362763.9491502     
   38843705.486356318        1392785868.1103694        1034096027.3913206     
  -190530760.32156909        275972908.91074526        978531779.03123415     
  -173454816.21000430        418270848.05330640        986284441.48133636     
  -122694833.67324156        672848915.27986062        1000264493.3627998     
  -38250812.711281300        1039707110.5903941        1020471934.6756428     
   79877246.675869405        1518845433.9849207        1046906765.4198493     
  -262311171.21254089        212667367.17789716        835626687.48978925     
  -223600726.98781785        352349320.06868166        885012664.82587481     
  -140659746.14415535        639466395.02259684        945416865.02958143     
  -13488228.681541979        1074018592.0396595        1016839288.1009156     
   157913825.39999598        1656005911.1198492        1099279934.0398495     
  -351840926.69745886        144037022.06688523        683067034.96901023     
  -277807886.82744002        285209417.36551440        786390575.08379006     
  -148997812.14472666        608971928.70644760        905523171.50243187     
   34589297.350667596        1115324556.0896420        1040464824.2249619     
   272953441.65875262        1804267299.5151668        1191215533.2513525     
  -4557580544.5846205       -7781357.3144969940        800908298.39045870     
  -4394729788.2544603       -7020429.6493852139        757907175.82710624     
  -4231211117.1852570       -4033119.5207896233        727408305.67264843     
  -4067024531.3770127        1180573.0712728500        709411687.92708158     
  -3902170030.8297257        8620648.1268067360        703917322.59040618     
  -4997808249.7708044       -35729553.120624065        553295263.56164670     
  -4808972109.9202127       -25397849.173381567        538691656.11667752     
  -4620122665.0326176       -15021795.102858067        529365912.13651419     
  -4431259915.1080475       -4601390.9090564251        525318031.62115788     
  -4242383860.1464944        5863363.4080228806        526548014.57060409     
  -5347715008.1348886       -36581464.880119085        306746838.71005410     
  -5153534596.0326595       -22871318.031399488        319777035.06440604     
  -4959995488.5954981       -11298853.399568796        330860705.93946761     
  -4767097685.8234186       -1864070.9846885204        339997851.33525491     
  -4574841187.7164087        5433029.2132985592        347188471.25175405     
  -5607300819.6768150       -10337092.592972517        61263023.835693941     
  -5428417246.5917883        559163.77658939362        101163312.67029211     
  -5250829587.8738852        7135705.5890426636        131892687.08151342     
  -5074537843.5231152        9392532.8443930149        153451147.06936905     
  -4899542013.5394812        7329645.5426251888        165838692.63385636     
  -5776565684.3966255        43003563.740815163       -183156181.06144503     
  -5633620061.5976171        44893596.250558376       -117149511.06567070     
  -5492624962.8677759        40281881.863031626       -67538144.437355772     
  -5353580388.2071505        29168420.578165770       -34322081.176496223     
  -5216486337.6157055        11553212.396006823       -17501321.283091266     
  -3902170030.8297257        8620648.1268067360        703917322.59040618     
  -3775694070.7631149        5253135.8145470619        691594753.40642345     
  -3649420547.5610008        1210833.9539697170        684284462.61402059     
  -3523349461.2233715       -3506257.4548933506        681986450.21319723     
  -3397480811.7502322       -8898138.4120583534        684700716.20395553     
  -4242383860.1464944        5863363.4080228806        526548014.57060409     
  -4103492140.8600583        1453455.8582918644        516744061.09729373     
  -3964534184.5211201       -2735661.5164277554        511718965.99475980     
  -3825509991.1296749       -6703988.7161390781        511472729.26300919     
  -3686419560.6857285       -10451525.740825891        516005350.90203279     
  -4574841187.7164087        5433029.2132985592        347188471.25175405     
  -4424200623.5552979       -219347.87744450569        340216586.39227337     
  -4273225148.4246817       -4755355.0698678493        337790139.88277066     
  -4121914762.3245735       -8174992.3639624119        339909131.72324598     
  -3970269465.2549605       -10478259.759720802        346573561.91369891     
  -4899542013.5394812        7329645.5426251888        165838692.63385636     
  -4737819518.8488293        234724.60732817650        162012329.29137230     
  -4575493439.2716942       -4848246.7063536644        162497984.27805763     
  -4412563774.8080482       -7919268.3983390331        167295657.59392169     
  -4249030525.4579248       -8978340.4687368870        176405349.23896310     
  -5216486337.6157055        11553212.396006823       -17501321.283091266     
  -5044348826.7406673        2815673.3126049042       -17868710.205428172     
  -4871339057.0621386       -3014336.4258422852       -14157500.819385754     
  -4697457028.5801258       -5936816.8193342686       -6367693.1249745013     
  -4522702741.2946253       -5951767.8678641319        5500712.8778184773     
  -3397480811.7502322       -8898138.4120583534        684700716.20395553     
  -3248907659.7236047       -7656317.3433569670        673333137.22207713     
  -3100249201.8699684       -6130143.5179479122        666606744.68659306     
  -2951505438.1893191       -4319616.9358351231        664521538.59749568     
  -2802676368.6816549       -2224737.5970050097        667077518.95478737     
  -3686419560.6857285       -10451525.740825891        516005350.90203279     
  -3525484940.1347723       -7661097.2499909401        506358648.60033512     
  -3364626638.9549441       -5125066.6629190445        501222210.85047352     
  -3203844657.1462436       -2843433.9795993567        500596037.65244091     
  -3043138994.7086616       -816199.20001697540        504480129.00624192     
  -3970269465.2549605       -10478259.759720802        346573561.91369891     
  -3797347438.7355561       -6251442.6135234833        338459173.56102413     
  -3624663356.7854128       -2817774.0315377712        334724127.86562079     
  -3452217219.4045458       -177254.01378679276        335368424.82749832     
  -3280009026.5929236        1670117.4397842884        340392064.44664121     
  -4249030525.4579248       -8978340.4687368870        176405349.23896310     
  -4064495155.5259547       -3427353.4339389801        169634712.10414267     
  -3880359355.3613791        791734.37619113922        167112495.73203838     
  -3696623124.9642072        3678922.9616529942        168838700.12265703     
  -3513286464.3344445        5234212.3224167824        174813325.27598503     
  -4522702741.2946253       -5951767.8678641319        5500712.8778184773     
  -4326928090.5059547        811170.28877925873       -114735.77029745659     
  -4131714634.6828403        5703458.5602612495       -1612685.5502693113     
  -3937062373.8252635        8725096.9466183186        1006863.5379306156     
  -3742971307.9332094        9876085.4478757381        7743911.4942794256     
  -2802676368.6816549       -2224737.5970050097        667077518.95478737     
  -2666963505.0615773       -4618028.7168217897        656083451.50949991     
  -2531700766.1865501       -8511735.6534612179        648069182.81485498     
  -2396888152.0565758       -13905858.406944156        643034712.87085831     
  -2262525662.6716461       -20800396.977248192        640980041.67750287     
  -3043138994.7086616       -816199.20001697540        504480129.00624192     
  -2899599449.0742588       -4218218.9376611710        494564802.67294806     
  -2756167816.6904368       -7979949.5105872154        487922985.74261022     
  -2612844097.5571933       -12101390.918765426        484554678.21522766     
  -2469628291.6745358       -16582543.162238479        484459880.09079969     
  -3280009026.5929236        1670117.4397842884        340392064.44664121     
  -3127803625.6518764       -2488878.9279867411        331954725.96889240     
  -2975363926.4669414       -5866881.1494721174        327084607.54640585     
  -2822689929.0381298       -8463889.2246924639        325781709.17918080     
  -2669781633.3654299       -10279903.153620005        328046030.86722416     
  -3513286464.3344445        5234212.3224167824        174813325.27598503     
  -3351576034.7944441        569991.31218242645        168253221.39732301     
  -3189289095.5160966       -2172530.5702055693        165554048.22623965     
  -3026425646.4993830       -2993353.3247159719        166715805.76272035     
  -2862985687.7443266       -1892476.9514175653        171738494.00677973     
  -3742971307.9332094        9876085.4478757381        7743911.4942794256     
  -3570916676.5019355        4958391.7829272747        3460288.9582462208     
  -3397943323.8378577        3103102.2273342609        3331307.7821124103     
  -3224051249.9409437        4310216.7811952829        7356967.9658458075     
  -3049240454.8112221        8579735.4444054365        15537269.509459704     
  -2262525662.6716461       -20800396.977248192        640980041.67750287     
  -2120438963.1860473       -25156084.036866665        627465490.68149090     
  -1977756036.6605566       -27524347.630172849        617166318.10586870     
  -1834476883.0951767       -27905187.757181525        610082523.95062304     
  -1690601502.4899035       -26298604.417884588        606214108.21576607     
  -2469628291.6745358       -16582543.162238479        484459880.09079969     
  -2319255420.9725847       -18673908.393756151        473592004.44179523     
  -2168614636.4269867       -19872227.479770541        465360192.42465389     
  -2017705938.0377285       -20177500.420259476        459764444.03937757     
  -1866529325.8048244       -19589727.215259671        456804759.28596312     
  -2669781633.3654299       -10279903.153620005        328046030.86722416     
  -2512777776.5571914       -10603502.090094447        319441798.50294793     
  -2355834319.1015410       -11128432.201826692        312894314.98202282     
  -2198951260.9984698       -11854693.488827825        308403580.30443609     
  -2042128602.2479703       -12782285.951092243        305969594.47019184     
  -2862985687.7443266       -1892476.9514175653        171738494.00677973     
  -2701006029.9398489       -944865.12580394745        165014872.86495829     
  -2539415084.6842003       -1292961.7962802649        159768685.77796552     
  -2378212851.9773583       -2936766.9627836943        155999932.74579611     
  -2217399331.8193555       -5876280.6254149675        153708613.76844397     
  -3049240454.8112221        8579735.4444054365        15537269.509459704     
  -2883940181.1205773        10302002.499011874        10311227.527825240     
  -2719356933.1749849        9634183.7368017435        5983304.8124953331     
  -2555490710.9744511        6576279.1577277184        2553501.3634613343     
  -2392341514.5189600        1128288.7618231773        21817.180733813428     
  -1690601502.4899035       -26298604.417884588        606214108.21576607     
  -1550182427.5723395       -26673072.243339121        592714791.16442645     
  -1410982102.4145083       -31110039.267892063        577990623.00730085     
  -1273000527.0164073       -39609505.491560161        562041603.74439132     
  -1136237701.3780429       -52171470.914332509        544867733.37568688     
  -1866529325.8048244       -19589727.215259671        456804759.28596312     
  -1729094589.9846954       -22866066.342453957        443064476.95819116     
  -1591757361.0247426       -26467428.336898744        428923062.88472956     
  -1454517638.9249489       -30393813.198545694        414380517.06558949     
  -1317375423.6853378       -34645220.927471936        399436839.50075912     
  -2042128602.2479703       -12782285.951092243        305969594.47019184     
  -1905324721.6392765       -18254451.214251041        293296463.58213520     
  -1767497104.9911859       -20314163.012766361        281045920.30849743     
  -1628645752.3037002       -18961421.346620500        269217964.64927936     
  -1488770663.5768237       -14196226.215848625        257812596.60448140     
  -2217399331.8193555       -5876280.6254149675        153708613.76844397     
  -2078872822.5360694       -12838226.858697772        143410751.03626150     
  -1938201334.3138335       -12650243.295476198        134359195.27860156     
  -1795384867.1526358       -5312329.9357206821        126553946.49546857     
  -1650423421.0525045        9175513.2204864025        119995004.68685217     
  -2392341514.5189600        1128288.7618231773        21817.180733813428     
  -2249738892.6750932       -6617393.2758402824       -6592660.6794143049     
  -2103870048.9927032       -3475669.1850825548       -11137112.204940803     
  -1954734983.4718003        10553461.034046173       -13611537.395846805     
  -1802333696.1123724        35469997.381591797       -14015936.252117414     
  -1136237701.3780429       -52171470.914332509        544867733.37568688     
  -951428467.55808949       -40752547.169678628        563002391.98641813     
  -759092593.83802032       -4244823.7579553127        592080495.12221706     
  -559230080.21779704        57351699.320931643        632102042.78308046     
  -351840926.69745886        144037022.06688523        683067034.96901023     
  -1317375423.6853378       -34645220.927471936        399436839.50075912     
  -1117750242.5656435       -14793341.067229450        421271671.48706681     
  -914494545.03078675        17160260.176897049        441613874.69066340     
  -707608331.08074486        61215582.804981709        460463449.11155301     
  -497091600.71552551        117372626.81696656        477820394.74973094     
  -1488770663.5768237       -14196226.215848625        257812596.60448140     
  -1309861173.1796045        3429118.3532926440        278802124.56725287     
  -1131217289.8521800        20169106.023142159        285862950.43953872     
  -952839013.59450412        36023736.793821871        278995074.22133994     
  -774726344.40663791        50993010.665137410        258198495.91266549     
  -1650423421.0525045        9175513.2204864025        119995004.68685217     
  -1527761259.3999822        13914831.091862321        135593751.22697869     
  -1409260828.3021796        4781713.7808282971        124827722.36884297     
  -1294922127.7591057       -18223838.712627470        87696918.112452537     
  -1184745157.7707739       -55101826.388560474        24201338.457807966     
  -1802333696.1123724        35469997.381591797       -14015936.252117414     
  -1771450501.2267418        16663797.148550510       -8353448.5337509988     
  -1748625160.3808072       -29001916.550110579       -41491809.521424800     
  -1733857673.5745342       -101527143.71432066       -113431019.21512458     
  -1727148040.8079667       -200911884.34422868       -224171077.61485079     
  -351840926.69745886        144037022.06688523        683067034.96901023     
  -277807886.82744002        285209417.36551440        786390575.08379006     
  -148997812.14472666        608971928.70644760        905523171.50243187     
   34589297.350667596        1115324556.0896420        1040464824.2249619     
   272953441.65875262        1804267299.5151668        1191215533.2513525     
  -497091600.71552551        117372626.81696656        477820394.74973094     
  -388262702.77540511        223035882.18156970        597090215.98276508     
  -230308786.47235915        492449198.75594139        735511442.48908877     
  -23229851.806382298        925612576.54005384        893084074.26868963     
   232974101.22253102        1522526015.5339737        1069808111.3215915     
  -774726344.40663791        50993010.665137410        258198495.91266549     
  -621552019.91236460        124011996.64095333        386820579.07257271     
  -424904693.50492984        341940988.99395466        537936416.47517598     
  -184784365.18432522        704779987.72423124        711546008.12049091     
   98808965.049461961        1212528992.8317399        907649354.00851059     
  -1184745157.7707739       -55101826.388560474        24201338.457807966     
  -977675838.23832560       -11862239.256396770        155581664.35319498     
  -732785533.24244440        157447299.42053097        312798093.46070790     
  -450074242.78316164        452826789.64212382        495850625.78034347     
  -129541966.86047417        874276231.40842593        704739261.31209779     
  -1727148040.8079667       -200911884.34422868       -224171077.61485079     
  -1456634157.7532611       -184586825.51038593       -96626528.175356954     
  -1153951305.6849303       -61031869.964470744        60096473.445678681     
  -819099484.60290945        169752982.29374468        245997927.24823865     
  -452078694.50725430        507767731.26408535        461077833.23234326     
 </DataArray>
 <DataArray  type="Float64" Name="VM" NumberOfComponents="1" format="ascii">
   5806859014.0252972     
   5659838842.5958242     
   5514117241.9761648     
   5368553176.2671452     
   5222360505.0573063     
   5603144250.5971460     
   5431523860.7333908     
   5259364756.7995892     
   5086189836.3813057     
   4911617349.9964113     
   5355935735.9434052     
   5171880301.0404739     
   4987388802.8165636     
   4802409107.4836807     
   4616890313.5219126     
   5071410202.2946272     
   4886234378.1484852     
   4702875864.4652271     
   4521456930.1496105     
   4342175523.0149193     
   4760304528.2773018     
   4583242982.2297916     
   4412875182.6190538     
   4249151233.1324511     
   4092327368.0534000     
   5222360505.0573063     
   5045852171.3178415     
   4869894328.3333778     
   4694504395.4263678     
   4519739843.6468143     
   4911617349.9964113     
   4746239556.5042496     
   4581724282.4713116     
   4418121890.5710506     
   4255531499.6596737     
   4616890313.5219126     
   4463162864.2997646     
   4310737944.6510363     
   4159707463.7526875     
   4010222889.4116964     
   4342175523.0149193     
   4200677015.1519737     
   4061066616.7879324     
   3923485507.0723896     
   3788146548.9806919     
   4092327368.0534000     
   3963664649.1468873     
   3837632905.4403725     
   3714426807.0003181     
   3594324554.6489782     
   4519739843.6468143     
   4327333741.0285196     
   4134570260.1750941     
   3941432551.9029875     
   3747943109.6003165     
   4255531499.6596737     
   4073392932.3562479     
   3891534573.7336755     
   3710007436.6155481     
   3528920169.1839061     
   4010222889.4116964     
   3839246228.0021687     
   3669345941.8248119     
   3500658193.5629411     
   3333397707.9727783     
   3788146548.9806919     
   3629227317.4261255     
   3472342994.1633391     
   3317726320.0624323     
   3165708831.4997802     
   3594324554.6489782     
   3448291965.1776552     
   3305400335.7934132     
   3165978564.0409794     
   3030468909.4666362     
   3747943109.6003165     
   3573403477.9424548     
   3399500833.2885294     
   3226233682.1149821     
   3053657946.9862990     
   3528920169.1839061     
   3364505914.6537790     
   3201072516.1873541     
   3038681370.3624148     
   2877456311.4175749     
   3333397707.9727783     
   3178987073.3381243     
   3025941478.3715253     
   2874397380.9112043     
   2724561825.8532963     
   3165708831.4997802     
   3021464321.8297620     
   2879016699.2658172     
   2738587479.3933859     
   2600478857.1808152     
   3030468909.4666362     
   2896849329.6317134     
   2765504122.2318859     
   2636743507.6084647     
   2510967908.7571759     
   3053657946.9862990     
   2889160158.4592681     
   2724206514.0274711     
   2558789011.0226841     
   2392905858.8776789     
   2877456311.4175749     
   2715616339.5424457     
   2553806056.7654233     
   2392055324.1775141     
   2230413253.3948307     
   2724561825.8532963     
   2567810259.8994884     
   2411964136.3133173     
   2257165832.0894551     
   2103616343.7132370     
   2600478857.1808152     
   2451296191.4281483     
   2304315401.3026462     
   2159856975.1536598     
   2018356372.2635875     
   2510967908.7571759     
   2371643124.3475676     
   2236184893.3872776     
   2105111581.3464625     
   1979103643.4701180     
   2392905858.8776789     
   2246466527.2497344     
   2102222874.2249441     
   1960174806.5553360     
   1820489764.6672959     
   2230413253.3948307     
   2087315961.2635517     
   1945873300.7596071     
   1806085565.3136396     
   1668029239.5210481     
   2103616343.7132370     
   1963130996.4850240     
   1823599156.8761694     
   1685051934.2197976     
   1547548610.2862551     
   2018356372.2635875     
   1881401541.0513453     
   1744759948.7632656     
   1608561670.2814820     
   1472985709.9857521     
   1979103643.4701180     
   1848340162.0355635     
   1717603592.2358453     
   1587245609.9456418     
   1457779587.1616521     
   1820489764.6672959     
   1779899714.0890496     
   1735794426.8505092     
   1696801804.6399264     
   1681415888.1491945     
   1668029239.5210481     
   1552631193.8305285     
   1428118870.9672627     
   1294847180.7748168     
   1158936060.5744507     
   1547548610.2862551     
   1397652172.2995002     
   1244197681.3959348     
   1084914499.6524498     
   917772419.74894226     
   1472985709.9857521     
   1328705629.7925301     
   1198897891.6635873     
   1088050236.9036939     
   1002077007.4413460     
   1457779587.1616521     
   1348710067.2592204     
   1274635362.8735166     
   1243687771.4401786     
   1262916681.1221771     
   1681415888.1491945     
   1383831618.5384421     
   1129484598.1173174     
   1010113637.9632926     
   1153053551.6099887     
   1158936060.5744507     
   1008469283.3895825     
   985224509.89630103     
   1161476701.9392700     
   1544139822.6490805     
   917772419.74894226     
   963159528.28991604     
   1144939620.3013783     
   1476477422.9058869     
   1957463431.2478733     
   1002077007.4413460     
   1164748738.3839290     
   1425445535.2333992     
   1808755816.0174203     
   2334763682.8879714     
   1262916681.1221771     
   1446715407.0384831     
   1715721214.3457408     
   2110513715.5510468     
   2663528944.9029922     
   4760304528.2773018     
   4583242982.2297916     
   4412875182.6190538     
   4249151233.1324511     
   4092327368.0534000     
   4368332440.6224775     
   4225381003.7090616     
   4088065597.2829852     
   3956565918.3568430     
   3831259748.6711388     
   4027351542.4144421     
   3913660547.3977280     
   3804241842.6087732     
   3699393191.8273892     
   3599517376.7861872     
   3737141403.8157129     
   3648580832.4231453     
   3562659989.3933172     
   3479646451.6422424     
   3399846498.6846166     
   3496902506.5080996     
   3430055503.2496343     
   3364067287.6053748     
   3298988787.5877452     
   3234881754.1125975     
   4092327368.0534000     
   3963664649.1468873     
   3837632905.4403725     
   3714426807.0003181     
   3594324554.6489782     
   3831259748.6711388     
   3717916473.9999723     
   3607558946.1682425     
   3500438382.8435960     
   3396878641.8128052     
   3599517376.7861872     
   3501151546.2185431     
   3406066306.6993923     
   3314547150.6343184     
   3226937740.8346615     
   3399846498.6846166     
   3316268142.2736483     
   3236168971.0323782     
   3159841530.9605370     
   3087619566.4931836     
   3234881754.1125975     
   3166016021.0476837     
   3100690349.1670203     
   3039174400.6628175     
   2981761621.2702618     
   3594324554.6489782     
   3448291965.1776552     
   3305400335.7934132     
   3165978564.0409794     
   3030468909.4666362     
   3396878641.8128052     
   3265632641.1385860     
   3138230915.0937419     
   3015088410.9280596     
   2896735314.7180457     
   3226937740.8346615     
   3111096985.6325779     
   2999837818.1913877     
   2893642463.9881673     
   2793100713.5068331     
   3087619566.4931836     
   2987760813.6989903     
   2893201823.5430326     
   2804459894.0667191     
   2722141991.6180243     
   2981761621.2702618     
   2898295317.5690708     
   2820759079.8844628     
   2749663552.6574464     
   2685583663.6634817     
   3030468909.4666362     
   2896849329.6317134     
   2765504122.2318859     
   2636743507.6084647     
   2510967908.7571759     
   2896735314.7180457     
   2775599995.2137899     
   2657931929.1403995     
   2544180886.2644672     
   2434904644.1964331     
   2793100713.5068331     
   2686243972.2362103     
   2584174864.4606948     
   2487454150.2404418     
   2396749332.3857727     
   2722141991.6180243     
   2630917474.6434383     
   2545805024.7945957     
   2467415380.4728131     
   2396443952.8677354     
   2685583663.6634817     
   2610674498.0796146     
   2543075927.4646640     
   2483373538.5743346     
   2432203561.9884014     
   2510967908.7571759     
   2371643124.3475676     
   2236184893.3872776     
   2105111581.3464625     
   1979103643.4701180     
   2434904644.1964331     
   2310529452.6822462     
   2191277642.9187083     
   2077852089.9165804     
   1971122030.1710844     
   2396749332.3857727     
   2289203200.4800253     
   2188044664.1163244     
   2094075062.3134818     
   2008226788.1820648     
   2396443952.8677354     
   2306926951.7228556     
   2224872475.2956972     
   2151067909.2497044     
   2086373497.3751578     
   2432203561.9884014     
   2361068286.1304255     
   2298147301.1460099     
   2244122500.2287602     
   2199694162.9948301     
   1979103643.4701180     
   1848340162.0355635     
   1717603592.2358453     
   1587245609.9456418     
   1457779587.1616521     
   1971122030.1710844     
   1855083559.9562137     
   1743411420.2666790     
   1637027953.7660458     
   1537065652.9401031     
   2008226788.1820648     
   1912021820.0857823     
   1824584029.3678145     
   1747111243.0623095     
   1680892139.9707093     
   2086373497.3751578     
   2011554938.3374279     
   1949074365.2378237     
   1900005589.0179410     
   1865371925.9929650     
   2199694162.9948301     
   2144801871.5833068     
   2104809499.6172295     
   2080477222.6137180     
   2072476989.4342473     
   1457779587.1616521     
   1348710067.2592204     
   1274635362.8735166     
   1243687771.4401786     
   1262916681.1221771     
   1537065652.9401031     
   1476170478.1176794     
   1447972566.2202053     
   1456440065.2050204     
   1504870581.8857069     
   1680892139.9707093     
   1652381946.8281116     
   1651589723.7140520     
   1680884725.5329270     
   1742876264.3635278     
   1865371925.9929650     
   1854862137.9765947     
   1867315128.1746268     
   1904939902.2264264     
   1970766725.7545722     
   2072476989.4342473     
   2068991921.0539117     
   2084729081.2076564     
   2122320001.7120218     
   2185574139.0637255     
   1262916681.1221771     
   1446715407.0384831     
   1715721214.3457408     
   2110513715.5510468     
   2663528944.9029922     
   1504870581.8857069     
   1613280863.0959716     
   1788879191.3799236     
   2066414984.9938180     
   2476092737.7188969     
   1742876264.3635278     
   1787696609.3654447     
   1884654329.2509606     
   2060658280.9450817     
   2340938265.3039618     
   1970766725.7545722     
   1968921090.7306685     
   2003611385.6690946     
   2093511646.2415354     
   2257282464.7000360     
   2185574139.0637255     
   2156238786.1087046     
   2146490834.5129449     
   2166853690.8774600     
   2228399143.9440012     
   3496902506.5080996     
   3430055503.2496343     
   3364067287.6053748     
   3298988787.5877452     
   3234881754.1125975     
   3366440907.0605392     
   3295538933.2439990     
   3227887173.7517505     
   3163768756.3011742     
   3103494271.1113224     
   3249675588.8846531     
   3176337133.1469412     
   3109447871.0794539     
   3049403851.2625031     
   2996655898.2301726     
   3161378837.7143145     
   3085216741.0148873     
   3019543289.7531719     
   2964722884.6611514     
   2921197637.7662940     
   3119118923.8620234     
   3037107610.8299994     
   2970436838.9642711     
   2919308318.4852962     
   2884005600.9810820     
   3234881754.1125975     
   3166016021.0476837     
   3100690349.1670203     
   3039174400.6628175     
   2981761621.2702618     
   3103494271.1113224     
   3040655469.6725535     
   2982715437.8705554     
   2929988445.9446144     
   2882818478.0720224     
   2996655898.2301726     
   2940310777.6770520     
   2890438375.6614542     
   2847355781.5617013     
   2811411796.4928389     
   2921197637.7662940     
   2870903479.7040701     
   2828841440.6946406     
   2795284201.9821243     
   2770534381.4812355     
   2884005600.9810820     
   2838200609.5560303     
   2802539994.6270900     
   2777212384.3974404     
   2762432061.1480098     
   2981761621.2702618     
   2898295317.5690708     
   2820759079.8844628     
   2749663552.6574464     
   2685583663.6634817     
   2882818478.0720224     
   2812049519.0189075     
   2748230820.4819999     
   2691847597.0365076     
   2643432352.9179134     
   2811411796.4928389     
   2753022879.5294538     
   2702541738.0947833     
   2660388852.5658002     
   2627013586.2421842     
   2770534381.4812355     
   2723518523.0722718     
   2685276696.6055584     
   2656135512.5582662     
   2636435359.8039298     
   2762432061.1480098     
   2725045608.7244182     
   2697207483.3252645     
   2679138586.6991911     
   2671064435.3742485     
   2685583663.6634817     
   2610674498.0796146     
   2543075927.4646640     
   2483373538.5743346     
   2432203561.9884014     
   2643432352.9179134     
   2582633642.6776986     
   2529710155.4201746     
   2485157308.1946883     
   2449494360.8371944     
   2627013586.2421842     
   2579415044.2386217     
   2540094553.2476320     
   2509437453.8288498     
   2487833926.4755454     
   2636435359.8039298     
   2600649716.0639553     
   2573399810.5987344     
   2554959054.5479722     
   2545595769.6399202     
   2671064435.3742485     
   2645303463.6157761     
   2628232246.7045460     
   2620025117.7728214     
   2620848733.9300933     
   2432203561.9884014     
   2361068286.1304255     
   2298147301.1460099     
   2244122500.2287602     
   2199694162.9948301     
   2449494360.8371944     
   2393196687.8107557     
   2346156816.6324596     
   2308935444.1720901     
   2282077157.4110107     
   2487833926.4755454     
   2445348393.2119975     
   2412918781.9248466     
   2390959997.6159606     
   2379853605.2005062     
   2545595769.6399202     
   2515265745.9815965     
   2495611234.0425763     
   2486906849.1761484     
   2489392521.0018368     
   2620848733.9300933     
   2600553997.1356030     
   2591471145.4084592     
   2593758314.8398690     
   2607547693.1629353     
   2199694162.9948301     
   2144801871.5833068     
   2104809499.6172295     
   2080477222.6137180     
   2072476989.4342473     
   2282077157.4110107     
   2241760993.0425739     
   2215336882.1346383     
   2203251926.1882968     
   2205891873.0285873     
   2379853605.2005062     
   2351197463.9817700     
   2335406072.5767994     
   2332729322.1524048     
   2343388160.1540661     
   2489392521.0018368     
   2469770181.6327796     
   2462080641.6272507     
   2466460932.4795032     
   2483045943.1093893     
   2607547693.1629353     
   2594694553.9008994     
   2592997518.2137189     
   2602536606.7692413     
   2623408149.6563601     
   2072476989.4342473     
   2068991921.0539117     
   2084729081.2076564     
   2122320001.7120218     
   2185574139.0637255     
   2205891873.0285873     
   2191562474.6930079     
   2192220757.8236537     
   2209836415.7721810     
   2247327984.6674814     
   2343388160.1540661     
   2319023624.3964052     
   2306195351.3147082     
   2306309435.7108374     
   2321453887.4102688     
   2483045943.1093893     
   2450406141.6992235     
   2426336685.5398660     
   2411783432.5210180     
   2408123279.4549341     
   2623408149.6563601     
   2584932719.7051454     
   2552362923.2326159     
   2526280518.4141560     
   2507494469.1063433     
   2185574139.0637255     
   2156238786.1087046     
   2146490834.5129449     
   2166853690.8774600     
   2228399143.9440012     
   2247327984.6674814     
   2182624880.2934766     
   2134356124.5368314     
   2112187742.6157053     
   2127053326.6599970     
   2321453887.4102688     
   2224722609.7930846     
   2141322333.3381093     
   2079617233.8857834     
   2049777117.4896061     
   2408123279.4549341     
   2282825964.6964507     
   2168036311.9295945     
   2070493209.3140497     
   1998962635.6406243     
   2507494469.1063433     
   2357144453.9858665     
   2214968655.3983641     
   2085946762.3051889     
   1976952922.7905080     
   3119118923.8620234     
   3037107610.8299994     
   2970436838.9642711     
   2919308318.4852962     
   2884005600.9810820     
   2858170172.2670035     
   2810812796.4066572     
   2775663238.9270816     
   2752821309.6521730     
   2742413317.2645321     
   2654587375.1994519     
   2638365420.8495650     
   2630656430.9534454     
   2631492905.4510374     
   2640911942.3558936     
   2503776880.2321429     
   2515847046.6684594     
   2532321707.4835591     
   2553205041.6164088     
   2578501349.7540293     
   2398387181.8208151     
   2436784966.1358771     
   2475276722.8190103     
   2513862451.8702154     
   2552542153.2894893     
   2884005600.9810820     
   2838200609.5560303     
   2802539994.6270900     
   2777212384.3974404     
   2762432061.1480098     
   2742413317.2645321     
   2714557713.3600082     
   2695550782.4576163     
   2685488212.1549120     
   2684474282.0750504     
   2640911942.3558936     
   2628319207.4973478     
   2623044266.3914113     
   2625122409.5909023     
   2634590677.6324906     
   2578501349.7540293     
   2578641535.2892523     
   2584400537.3424106     
   2595784953.1361537     
   2612801482.1641707     
   2552542153.2894893     
   2563224571.6662822     
   2577738208.6960039     
   2596083064.3786459     
   2618259138.7142072     
   2762432061.1480098     
   2725045608.7244182     
   2697207483.3252645     
   2679138586.6991911     
   2671064435.3742485     
   2684474282.0750504     
   2659079101.6177487     
   2642983249.5766778     
   2636311234.5981770     
   2639186809.5620394     
   2634590677.6324906     
   2618824661.4521880     
   2612030806.1020818     
   2614262972.8256755     
   2625573493.4532647     
   2612801482.1641707     
   2604091992.1391721     
   2603993175.3821139     
   2612517811.7766767     
   2629678101.8907466     
   2618259138.7142072     
   2613965842.1206670     
   2617927237.6621318     
   2630143325.3386068     
   2650614105.1500778     
   2671064435.3742485     
   2645303463.6157761     
   2628232246.7045460     
   2620025117.7728214     
   2620848733.9300933     
   2639186809.5620394     
   2622971988.8783536     
   2615515201.0765190     
   2616916175.0077190     
   2627267725.1539302     
   2625573493.4532647     
   2616958572.3926263     
   2617156883.5292916     
   2626212841.4817915     
   2644166827.0016985     
   2629678101.8907466     
   2626505925.8685827     
   2632231312.0965991     
   2646865290.1972547     
   2670417700.2803488     
   2650614105.1500778     
   2650606150.1342559     
   2659644496.6203151     
   2677729144.6082563     
   2704860094.0980802     
   2620848733.9300933     
   2600553997.1356030     
   2591471145.4084592     
   2593758314.8398690     
   2607547693.1629353     
   2627267725.1539302     
   2615600907.2733188     
   2614474859.5960846     
   2623967707.4571829     
   2644142742.0802808     
   2644166827.0016985     
   2639239399.2403307     
   2644276197.3432016     
   2659307551.9293618     
   2684357329.4359941     
   2670417700.2803488     
   2670445092.2147880     
   2679977074.7032709     
   2699020265.9788833     
   2727579736.8166652     
   2704860094.0980802     
   2708196266.7221832     
   2720704755.7310352     
   2742385561.1246505     
   2773238682.9030170     
   2607547693.1629353     
   2594694553.9008994     
   2592997518.2137189     
   2602536606.7692413     
   2623408149.6563601     
   2644142742.0802808     
   2633168745.4425187     
   2632475838.6695337     
   2642103422.9571652     
   2662101698.2738810     
   2684357329.4359941     
   2674943611.1658235     
   2675116090.3126116     
   2684890019.2323813     
   2704286021.5371995     
   2727579736.8166652     
   2719570086.7904649     
   2720611319.4816146     
   2730706728.0591235     
   2749861059.3085084     
   2773238682.9030170     
   2766624645.5973458     
   2768667544.8903484     
   2779367380.7820115     
   2798724153.2723460     
   2623408149.6563601     
   2584932719.7051454     
   2552362923.2326159     
   2526280518.4141560     
   2507494469.1063433     
   2662101698.2738810     
   2616709106.1470985     
   2576989672.9592571     
   2543274414.6757140     
   2516026021.5938725     
   2704286021.5371995     
   2654068381.7266903     
   2609434471.3261304     
   2570531739.3514118     
   2537566865.3531232     
   2749861059.3085084     
   2696916606.4687958     
   2649609019.7762418     
   2607974918.1962104     
   2572065646.9737411     
   2798724153.2723460     
   2745151262.5541649     
   2697410534.7779317     
   2655501969.9436674     
   2619425568.0513644     
   2507494469.1063433     
   2357144453.9858665     
   2214968655.3983641     
   2085946762.3051889     
   1976952922.7905080     
   2516026021.5938725     
   2348162780.3214192     
   2183859260.0412912     
   2026214985.4803746     
   1879793457.8543890     
   2537566865.3531232     
   2357278806.5443296     
   2176730850.5572715     
   1997394330.6178093     
   1821546516.8214004     
   2572065646.9737411     
   2384595931.5186329     
   2194050027.2270379     
   2000806118.0448790     
   1805467926.6608982     
   2619425568.0513644     
   2430082756.0817084     
   2235959143.6384983     
   2037054730.7217286     
   1833369517.3314140     
   2398387181.8208151     
   2436784966.1358771     
   2475276722.8190103     
   2513862451.8702154     
   2552542153.2894893     
   2503776875.7336864     
   2515847043.5095897     
   2532321705.6948037     
   2553205041.2215343     
   2578501350.7688303     
   2654587367.0359564     
   2638365415.2151284     
   2630656427.8744259     
   2631492904.9482560     
   2640911944.4411163     
   2858170161.3910961     
   2810812789.0579748     
   2775663235.1034994     
   2752821309.3531933     
   2742413320.4854512     
   3119118911.2284946     
   3037107602.5215034     
   2970436834.9338713     
   2919308318.6988778     
   2884005605.4100375     
   2552542153.2894893     
   2563224571.6662822     
   2577738208.6960039     
   2596083064.3786459     
   2618259138.7142072     
   2578501350.7688303     
   2578641536.0856929     
   2584400537.9269185     
   2595784953.5157461     
   2612801482.3467183     
   2640911944.4411163     
   2628319209.1374149     
   2623044267.5973558     
   2625122410.3744140     
   2634590678.0066485     
   2742413320.4854512     
   2714557715.9019318     
   2695550784.3340373     
   2685488213.3792963     
   2684474282.6622601     
   2884005605.4100375     
   2838200613.0662498     
   2802539997.2324820     
   2777212386.1101861     
   2762432061.9808517     
   2618259138.7142072     
   2613965842.1206670     
   2617927237.6621318     
   2630143325.3386068     
   2650614105.1500778     
   2612801482.3467183     
   2604091992.2510843     
   2603993175.4340096     
   2612517811.7795157     
   2629678101.8557959     
   2634590678.0066485     
   2618824661.6813331     
   2612030806.2070036     
   2614262972.8280616     
   2625573493.3755884     
   2684474282.6622601     
   2659079101.9806476     
   2642983249.7452908     
   2636311234.6042409     
   2639186809.4388738     
   2762432061.9808517     
   2725045609.2479019     
   2697207483.5772982     
   2679138586.7204533     
   2671064435.2081394     
   2650614105.1500778     
   2650606150.1342559     
   2659644496.6203151     
   2677729144.6082563     
   2704860094.0980802     
   2629678101.8557959     
   2626505925.8446455     
   2632231312.0881839     
   2646865290.2087622     
   2670417700.3159986     
   2625573493.3755884     
   2616958572.3377151     
   2617156883.5064874     
   2626212841.5002279     
   2644166827.0702109     
   2639186809.4388738     
   2622971988.7888408     
   2615515201.0352058     
   2616916175.0289421     
   2627267725.2516117     
   2671064435.2081394     
   2645303463.4917603     
   2628232246.6427484     
   2620025117.7932539     
   2620848734.0523844     
   2704860094.0980802     
   2708196266.7221832     
   2720704755.7310352     
   2742385561.1246505     
   2773238682.9030170     
   2670417700.3159986     
   2670445092.2402353     
   2679977074.7175431     
   2699020265.9810829     
   2727579736.8059773     
   2644166827.0702109     
   2639239399.2895575     
   2644276197.3711853     
   2659307551.9342575     
   2684357329.4160919     
   2627267725.2516117     
   2615600907.3440471     
   2614474859.6368284     
   2623967707.4650655     
   2644142742.0525608     
   2620848734.0523844     
   2600553997.2249284     
   2591471145.4606194     
   2593758314.8508143     
   2607547693.1287975     
   2773238682.9030170     
   2766624645.5973458     
   2768667544.8903484     
   2779367380.7820115     
   2798724153.2723460     
   2727579736.8059773     
   2719570086.7851243     
   2720611319.4815841     
   2730706728.0643458     
   2749861059.3188910     
   2684357329.4160919     
   2674943611.1562757     
   2675116090.3133497     
   2684890019.2432528     
   2704286021.5580788     
   2644142742.0525608     
   2633168745.4298644     
   2632475838.6718416     
   2642103422.9742303     
   2662101698.3054714     
   2607547693.1287975     
   2594694553.8862276     
   2592997518.2184005     
   2602536606.7930150     
   2623408149.6988907     
   2798724153.2723460     
   2745151262.5541649     
   2697410534.7779317     
   2655501969.9436674     
   2619425568.0513644     
   2749861059.3188910     
   2696916606.4774075     
   2649609019.7831588     
   2607974918.2014675     
   2572065646.9773221     
   2704286021.5580788     
   2654068381.7440476     
   2609434471.3401051     
   2570531739.3620820     
   2537566865.3604617     
   2662101698.3054714     
   2616709106.1733766     
   2576989672.9804602     
   2543274414.6919589     
   2516026021.6051350     
   2623408149.6988907     
   2584932719.7405634     
   2552362923.2612305     
   2526280518.4361639     
   2507494469.1217365     
   2619425568.0513644     
   2430082756.0817084     
   2235959143.6384983     
   2037054730.7217286     
   1833369517.3314140     
   2572065646.9773221     
   2384595931.5208097     
   2194050027.2273397     
   2000806118.0426250     
   1805467926.6550233     
   2537566865.3604617     
   2357278806.5489001     
   2176730850.5581608     
   1997394330.6137519     
   1821546516.8103793     
   2516026021.6051350     
   2348162780.3285875     
   2183859260.0431323     
   2026214985.4750557     
   1879793457.8394020     
   2507494469.1217365     
   2357144453.9959207     
   2214968655.4015422     
   2085946762.2993610     
   1976952922.7728477     
   3119118911.2284946     
   3037107602.5215034     
   2970436834.9338713     
   2919308318.6988778     
   2884005605.4100375     
   3161378823.4409585     
   3085216731.3449798     
   3019543284.7370114     
   2964722884.3667297     
   2921197642.2721410     
   3249675574.1486974     
   3176337122.9864783     
   3109447865.6316090     
   3049403850.6833830     
   2996655902.6897011     
   3366440892.7808657     
   3295538923.2700963     
   3227887168.2869992     
   3163768755.5641685     
   3103494275.3335733     
   3496902493.3234611     
   3430055493.9315720     
   3364067282.3940077     
   3298988786.7302213     
   3234881757.8633628     
   2884005605.4100375     
   2838200613.0662498     
   2802539997.2324820     
   2777212386.1101861     
   2762432061.9808517     
   2921197642.2721410     
   2870903483.3267398     
   2828841443.4063888     
   2795284203.7532434     
   2770534382.2823739     
   2996655902.6897011     
   2940310781.3110385     
   2890438378.4043069     
   2847355783.3452702     
   2811411797.2484059     
   3103494275.3335733     
   3040655473.1551638     
   2982715440.5149374     
   2929988447.6489029     
   2882818478.7325630     
   3234881757.8633628     
   3166016024.1755953     
   3100690351.5457053     
   3039174402.1621904     
   2981761621.7573924     
   2762432061.9808517     
   2725045609.2479019     
   2697207483.5772982     
   2679138586.7204533     
   2671064435.2081394     
   2770534382.2823739     
   2723518523.5787253     
   2685276696.8397541     
   2656135512.5459719     
   2636435359.5742965     
   2811411797.2484059     
   2753022880.0095172     
   2702541738.3070374     
   2660388852.5212970     
   2627013585.9554133     
   2882818478.7325630     
   2812049519.4349017     
   2748230820.6476598     
   2691847596.9487677     
   2643432352.5765157     
   2981761621.7573924     
   2898295317.8596802     
   2820759079.9610634     
   2749663552.5041494     
   2685583663.2659459     
   2671064435.2081394     
   2645303463.4917603     
   2628232246.6427484     
   2620025117.7932539     
   2620848734.0523844     
   2636435359.5742965     
   2600649715.9012456     
   2573399810.5219736     
   2554959054.5763073     
   2545595769.7922010     
   2627013585.9554133     
   2579415044.0391636     
   2540094553.1539311     
   2509437453.8597240     
   2487833926.6497040     
   2643432352.5765157     
   2582633642.4407892     
   2529710155.3059058     
   2485157308.2219381     
   2449494361.0250134     
   2685583663.2659459     
   2610674497.8018789     
   2543075927.3247132     
   2483373538.5913281     
   2432203562.1819935     
   2620848734.0523844     
   2600553997.2249284     
   2591471145.4606194     
   2593758314.8508143     
   2607547693.1287975     
   2545595769.7922010     
   2515265746.0949473     
   2495611234.1115127     
   2486906849.1951933     
   2489392520.9657016     
   2487833926.6497040     
   2445348393.3447857     
   2412918782.0094924     
   2390959997.6455417     
   2379853605.1681299     
   2449494361.0250134     
   2393196687.9582520     
   2346156816.7317715     
   2308935444.2149181     
   2282077157.3888388     
   2432203562.1819935     
   2361068286.2879963     
   2298147301.2589669     
   2244122500.2877488     
   2199694162.9898806     
   2607547693.1287975     
   2594694553.8862276     
   2592997518.2184005     
   2602536606.7930150     
   2623408149.6988907     
   2489392520.9657016     
   2469770181.6167130     
   2462080641.6320729     
   2466460932.5058746     
   2483045943.1579094     
   2379853605.1681299     
   2351197463.9683132     
   2335406072.5839911     
   2332729322.1819062     
   2343388160.2074065     
   2282077157.3888388     
   2241760993.0362458     
   2215336882.1467896     
   2203251926.2215710     
   2205891873.0856051     
   2199694162.9898806     
   2144801871.5891645     
   2104809499.6373096     
   2080477222.6516719     
   2072476989.4938147     
   2623408149.6988907     
   2584932719.7405634     
   2552362923.2612305     
   2526280518.4361639     
   2507494469.1217365     
   2483045943.1579094     
   2450406141.7395716     
   2426336685.5723114     
   2411783432.5456882     
   2408123279.4717712     
   2343388160.2074065     
   2319023624.4409423     
   2306195351.3506708     
   2306309435.7382779     
   2321453887.4290538     
   2205891873.0856051     
   2191562474.7410316     
   2192220757.8628397     
   2209836415.8025126     
   2247327984.6887803     
   2072476989.4938147     
   2068991921.1047163     
   2084729081.2498074     
   2122320001.7453549     
   2185574139.0880561     
   2507494469.1217365     
   2357144453.9959207     
   2214968655.4015422     
   2085946762.2993610     
   1976952922.7728477     
   2408123279.4717712     
   2282825964.7070365     
   2168036311.9322557     
   2070493209.3066983     
   1998962635.6207888     
   2321453887.4290538     
   2224722609.8050251     
   2141322333.3415456     
   2079617233.8787837     
   2049777117.4703054     
   2247327984.6887803     
   2182624880.3076653     
   2134356124.5423257     
   2112187742.6109529     
   2127053326.6436679     
   2185574139.0880561     
   2156238786.1259675     
   2146490834.5217443     
   2166853690.8766451     
   2228399143.9328666     
   3496902493.3234611     
   3430055493.9315720     
   3364067282.3940077     
   3298988786.7302213     
   3234881757.8633628     
   3737141392.2052426     
   3648580824.1573076     
   3562659984.6993780     
   3479646450.7754569     
   3399846501.9288464     
   4027351531.9449177     
   3913660539.7883162     
   3804241838.0833278     
   3699393190.6578488     
   3599517379.2966805     
   4368332430.9363422     
   4225380996.4390831     
   4088065592.6462541     
   3956565916.6402192     
   3831259750.2417574     
   4760304519.0915031     
   4583242975.0568228     
   4412875177.6564608     
   4249151230.6718140     
   4092327368.5001154     
   3234881757.8633628     
   3166016024.1755953     
   3100690351.5457053     
   3039174402.1621904     
   2981761621.7573924     
   3399846501.9288464     
   3316268144.9869723     
   3236168973.0845351     
   3159841532.2130041     
   3087619566.7994256     
   3599517379.2966805     
   3501151548.3263011     
   3406066308.2779474     
   3314547151.5449867     
   3226937740.9258957     
   3831259750.2417574     
   3717916475.3276186     
   3607558947.1365762     
   3500438383.3210163     
   3396878641.6507907     
   4092327368.5001154     
   3963664649.5380259     
   3837632905.6744704     
   3714426806.9586382     
   3594324554.1928430     
   2981761621.7573924     
   2898295317.8596802     
   2820759079.9610634     
   2749663552.5041494     
   2685583663.2659459     
   3087619566.7994256     
   2987760813.8385839     
   2893201823.4975085     
   2804459893.8189702     
   2722141991.1522393     
   3226937740.9258957     
   3111096985.5916133     
   2999837817.9988503     
   2893642463.6257920     
   2793100712.9573331     
   3396878641.6507907     
   3265632640.8821220     
   3138230914.7226987     
   3015088410.4231563     
   2896735314.0606952     
   3594324554.1928430     
   3448291964.6671219     
   3305400335.2076778     
   3165978563.3599186     
   3030468908.6705618     
   2685583663.2659459     
   2610674497.8018789     
   2543075927.3247132     
   2483373538.5913281     
   2432203562.1819935     
   2722141991.1522393     
   2630917474.3209677     
   2545805024.6292505     
   2467415380.4797277     
   2396443953.0626812     
   2793100712.9573331     
   2686243971.8605886     
   2584174864.2692537     
   2487454150.2448988     
   2396749332.5985255     
   2896735314.0606952     
   2775599994.7698517     
   2657931928.9174447     
   2544180886.2715268     
   2434904644.4432487     
   3030468908.6705618     
   2896849329.0988278     
   2765504121.9678006     
   2636743507.6203680     
   2510967909.0530171     
   2432203562.1819935     
   2361068286.2879963     
   2298147301.2589669     
   2244122500.2877488     
   2199694162.9898806     
   2396443953.0626812     
   2306926951.8815694     
   2224872475.4106097     
   2151067909.3124776     
   2086373497.3768754     
   2396749332.5985255     
   2289203200.6527300     
   2188044664.2419276     
   2094075062.3841517     
   2008226788.1893656     
   2434904644.4432487     
   2310529452.8818917     
   2191277643.0641680     
   2077852089.9999862     
   1971122030.1838818     
   2510967909.0530171     
   2371643124.5862284     
   2236184893.5613718     
   2105111581.4477069     
   1979103643.4893181     
   2199694162.9898806     
   2144801871.5891645     
   2104809499.6373096     
   2080477222.6516719     
   2072476989.4938147     
   2086373497.3768754     
   2011554938.3462756     
   1949074365.2577596     
   1900005589.0532632     
   1865371926.0481849     
   2008226788.1893656     
   1912021820.0966802     
   1824584029.3867280     
   1747111243.0941725     
   1680892140.0208852     
   1971122030.1838818     
   1855083559.9690573     
   1743411420.2842195     
   1637027953.7935572     
   1537065652.9834538     
   1979103643.4893181     
   1848340162.0511436     
   1717603592.2523017     
   1587245609.9679165     
   1457779587.1951585     
   2072476989.4938147     
   2068991921.1047163     
   2084729081.2498074     
   2122320001.7453549     
   2185574139.0880561     
   1865371926.0481849     
   1854862138.0247712     
   1867315128.2152805     
   1904939902.2589350     
   1970766725.7783275     
   1680892140.0208852     
   1652381946.8736289     
   1651589723.7537711     
   1680884725.5655503     
   1742876264.3878047     
   1537065652.9834538     
   1476170478.1598060     
   1447972566.2592726     
   1456440065.2387831     
   1504870581.9119029     
   1457779587.1951585     
   1348710067.2958961     
   1274635362.9113572     
   1243687771.4759858     
   1262916681.1520243     
   2185574139.0880561     
   2156238786.1259675     
   2146490834.5217443     
   2166853690.8766451     
   2228399143.9328666     
   1970766725.7783275     
   1968921090.7473502     
   2003611385.6776195     
   2093511646.2409487     
   2257282464.6900001     
   1742876264.3878047     
   1787696609.3823702     
   1884654329.2598484     
   2060658280.9454429     
   2340938265.2957730     
   1504870581.9119029     
   1613280863.1140308     
   1788879191.3897417     
   2066414984.9955614     
   2476092737.7128606     
   1262916681.1520243     
   1446715407.0586741     
   1715721214.3569970     
   2110513715.5543735     
   2663528944.8992319     
   4760304519.0915031     
   4583242975.0568228     
   4412875177.6564608     
   4249151230.6718140     
   4092327368.5001154     
   5071410197.6802950     
   4886234373.9853020     
   4702875861.1139622     
   4521456928.0257025     
   4342175522.6032753     
   5355935738.2460041     
   5171880301.9236689     
   4987388802.6994610     
   4802409106.8133793     
   4616890312.7713976     
   5603144262.3165064     
   5431523868.8179483     
   5259364761.6361561     
   5086189838.3758326     
   4911617349.5444717     
   5806859037.6586599     
   5659838860.0491648     
   5514117253.5102081     
   5368553182.1791945     
   5222360505.6149931     
   4092327368.5001154     
   3963664649.5380259     
   3837632905.6744704     
   3714426806.9586382     
   3594324554.1928430     
   4342175522.6032753     
   4200677014.6446342     
   4061066616.1684117     
   3923485506.3097806     
   3788146548.0291634     
   4616890312.7713976     
   4463162863.2096367     
   4310737943.2601566     
   4159707462.0878139     
   4010222887.4893126     
   4911617349.5444717     
   4746239555.2304344     
   4581724280.4429913     
   4418121887.8446608     
   4255531496.2847552     
   5222360505.6149931     
   5045852170.3117990     
   4869894325.8359470     
   4694504391.4989147     
   4519739838.3457460     
   3594324554.1928430     
   3448291964.6671219     
   3305400335.2076778     
   3165978563.3599186     
   3030468908.6705618     
   3788146548.0291634     
   3629227316.6041107     
   3472342993.4271436     
   3317726319.3665948     
   3165708830.7946162     
   4010222887.4893126     
   3839246226.5283542     
   3669345940.7528982     
   3500658192.8442354     
   3333397707.5524640     
   4255531496.2847552     
   4073392929.8889103     
   3891534572.1407757     
   3710007435.8640618     
   3528920169.2359376     
   4519739838.3457460     
   4327333737.2345495     
   4134570257.8814278     
   3941432551.1070728     
   3747943110.2988749     
   3030468908.6705618     
   2896849329.0988278     
   2765504121.9678006     
   2636743507.6203680     
   2510967909.0530171     
   3165708830.7946162     
   3021464321.3620496     
   2879016699.0454183     
   2738587479.4331641     
   2600478857.4969058     
   3333397707.5524640     
   3178987073.0947971     
   3025941478.3110971     
   2874397381.0428824     
   2724561826.1906152     
   3528920169.2359376     
   3364505914.7893062     
   3201072516.4016542     
   3038681370.6533494     
   2877456311.7869787     
   3747943110.2988749     
   3573403478.6004796     
   3399500833.8855982     
   3226233682.6318612     
   3053657947.4063120     
   2510967909.0530171     
   2371643124.5862284     
   2236184893.5613718     
   2105111581.4477069     
   1979103643.4893181     
   2600478857.4969058     
   2451296191.6720810     
   2304315401.4717379     
   2159856975.2443604     
   2018356372.2714832     
   2724561826.1906152     
   2567810260.1444297     
   2411964136.4674644     
   2257165832.1537323     
   2103616343.6880090     
   2877456311.7869787     
   2715616339.7908711     
   2553806056.8978477     
   2392055324.1985016     
   2230413253.3085403     
   3053657947.4063120     
   2889160158.7190657     
   2724206514.1344786     
   2558789010.9839563     
   2392905858.6997619     
   1979103643.4893181     
   1848340162.0511436     
   1717603592.2523017     
   1587245609.9679165     
   1457779587.1951585     
   2018356372.2714832     
   1881401541.0656114     
   1744759948.7837348     
   1608561670.3078926     
   1472985710.0176845     
   2103616343.6880090     
   1963130996.4823563     
   1823599156.8932848     
   1685051934.2537360     
   1547548610.3337522     
   2230413253.3085403     
   2087315961.2239382     
   1945873300.7635448     
   1806085565.3580902     
   1668029239.6028833     
   2392905858.6997619     
   2246466527.1515708     
   2102222874.2050493     
   1960174806.6126881     
   1820489764.8010182     
   1457779587.1951585     
   1348710067.2958961     
   1274635362.9113572     
   1243687771.4759858     
   1262916681.1520243     
   1472985710.0176845     
   1328705629.8224056     
   1198897891.6911101     
   1088050236.9288480     
   1002077007.4644146     
   1547548610.3337522     
   1397652172.3358028     
   1244197681.4214525     
   1084914499.6691048     
   917772419.75990224     
   1668029239.6028833     
   1552631193.8887444     
   1428118871.0021584     
   1294847180.7882063     
   1158936060.5675907     
   1820489764.8010182     
   1779899714.1834259     
   1735794426.9047766     
   1696801804.6547012     
   1681415888.1235735     
   1262916681.1520243     
   1446715407.0586741     
   1715721214.3569970     
   2110513715.5543735     
   2663528944.8992319     
   1002077007.4644146     
   1164748738.4005711     
   1425445535.2428048     
   1808755816.0194812     
   2334763682.8830595     
   917772419.75990224     
   963159528.30031621     
   1144939620.3085964     
   1476477422.9076438     
   1957463431.2430279     
   1158936060.5675907     
   1008469283.3872224     
   985224509.89896190     
   1161476701.9423215     
   1544139822.6468916     
   1681415888.1235735     
   1383831618.5206761     
   1129484598.1115646     
   1010113637.9696468     
   1153053551.6175888     
 </DataArray>
 <DataArray  type="Float64" Name="strain" NumberOfComponents="3" format="ascii">
   9.6491112191849249E-002  -2.9599554306701470E-002  -7.9367675052421927E-003
   9.4118135396901281E-002  -2.8916326798537284E-002  -5.0764785378184518E-003
   9.1745158601953536E-002  -2.8134489448951805E-002  -2.9266527622496263E-003
   8.9372181807005679E-002  -2.7254042257945088E-002  -1.4872901785362158E-003
   8.6999205012057823E-002  -2.6274985225517966E-002  -7.5839078667783166E-004
   9.3403328018907494E-002  -2.7864219071200846E-002   2.6547314433966740E-003
   9.0476416464637333E-002  -2.7151405541343765E-002   4.3837438588355537E-003
   8.7549504910367115E-002  -2.6373076324999578E-002   5.7153499474847380E-003
   8.4622593356097009E-002  -2.5529231422168105E-002   6.6495497093443379E-003
   8.1695681801826736E-002  -2.4619870832849333E-002   7.1863431444146864E-003
   8.8945676097493986E-002  -2.6128883835700334E-002   1.3292363491195336E-002
   8.5777886648966961E-002  -2.5386484284150468E-002   1.3857005199715111E-002
   8.2610097200440047E-002  -2.4611663201047185E-002   1.4337297446511327E-002
   7.9442307751913063E-002  -2.3804420586390679E-002   1.4733240231583178E-002
   7.6274518303386107E-002  -2.2964756440180811E-002   1.5044833554931220E-002
   8.3118156427608239E-002  -2.4393548600199710E-002   2.3976128638153460E-002
   8.0022545949890264E-002  -2.3621563026957060E-002   2.3343305484820678E-002
   7.6926935472172137E-002  -2.2850250077094930E-002   2.2939189734829626E-002
   7.3831324994454078E-002  -2.2079609750613308E-002   2.2763781388180124E-002
   7.0735714516735951E-002  -2.1309642047512178E-002   2.2817080444872233E-002
   7.5920769009250821E-002  -2.2658213364699142E-002   3.4706026884271435E-002
   7.3210394367407228E-002  -2.1856641769763707E-002   3.2842644714151992E-002
   7.0500019725563579E-002  -2.1088836953142578E-002   3.1521026812439928E-002
   6.7789645083719902E-002  -2.0354798914835954E-002   3.0741173179135287E-002
   6.5079270441876252E-002  -1.9654527654843545E-002   3.0503083814237553E-002
   8.6999205012057823E-002  -2.6274985225517966E-002  -7.5839078667783166E-004
   8.4086558826978852E-002  -2.5268672033857020E-002  -7.7431088480928167E-004
   8.1173912641899826E-002  -2.4306456365149859E-002  -6.1349174051661404E-004
   7.8261266456820799E-002  -2.3388338219396794E-002  -2.7593335379991202E-004
   7.5348620271741829E-002  -2.2514317596597500E-002   2.3836427534085214E-004
   8.1695681801826736E-002  -2.4619870832849333E-002   7.1863431444146864E-003
   7.8964832295409043E-002  -2.3693009683490279E-002   7.0205341496308027E-003
   7.6233982788991350E-002  -2.2796663100537323E-002   7.0415792697453294E-003
   7.3503133282573602E-002  -2.1930831083991000E-002   7.2494785047583776E-003
   7.0772283776155964E-002  -2.1095513633851426E-002   7.6442318546701138E-003
   7.6274518303386107E-002  -2.2964756440180811E-002   1.5044833554931220E-002
   7.3735580348104138E-002  -2.2117347333123621E-002   1.4742718620042311E-002
   7.1196642392822168E-002  -2.1286869835925329E-002   1.4637572672526702E-002
   6.8657704437540171E-002  -2.0473323948585757E-002   1.4729395712383825E-002
   6.6118766482258146E-002  -1.9676709671105186E-002   1.5018187739613914E-002
   7.0735714516735951E-002  -2.1309642047512178E-002   2.2817080444872233E-002
   6.8398802985064164E-002  -2.0541684982756866E-002   2.2392242526426097E-002
   6.6061891453392335E-002  -1.9777076571313064E-002   2.2174488467827307E-002
   6.3724979921720507E-002  -1.9015816813180403E-002   2.2163818269075819E-002
   6.1388068390048706E-002  -1.8257905708358974E-002   2.2360231930171941E-002
   6.5079270441876252E-002  -1.9654527654843545E-002   3.0503083814237553E-002
   6.2954500206289038E-002  -1.8966022632390278E-002   2.9969105868781737E-002
   6.0829729970701837E-002  -1.8267283306700757E-002   2.9652326655647432E-002
   5.8704959735114616E-002  -1.7558309677774848E-002   2.9552746174835040E-002
   5.6580189499527422E-002  -1.6839101745612928E-002   2.9670364426344575E-002
   7.5348620271741829E-002  -2.2514317596597500E-002   2.3836427534085214E-004
   7.2119524090385467E-002  -2.1648159973727044E-002  -4.9718630948936138E-006
   6.8890427909029106E-002  -2.0753630827759634E-002  -6.9883037577544993E-005
   6.5661331727672800E-002  -1.9830730158696581E-002   4.3630751891787778E-005
   6.2432235546316384E-002  -1.8879457966536783E-002   3.3556950531365981E-004
   7.0772283776155964E-002  -2.1095513633851426E-002   7.6442318546701138E-003
   6.7724449198289294E-002  -2.0265353231269934E-002   7.3508375546526561E-003
   6.4676614620422790E-002  -1.9414992357398381E-002   7.2415414976624570E-003
   6.1628780042556203E-002  -1.8544431012237371E-002   7.3163436836989337E-003
   5.8580945464689615E-002  -1.7653669195786481E-002   7.5752441127624470E-003
   6.6118766482258146E-002  -1.9676709671105186E-002   1.5018187739613914E-002
   6.3257866786955746E-002  -1.8882546488812602E-002   1.4666564226208240E-002
   6.0396967091653292E-002  -1.8076353887036559E-002   1.4504712234904057E-002
   5.7536067396350879E-002  -1.7258131865778157E-002   1.4532631765701083E-002
   5.4675167701048438E-002  -1.6427880425036179E-002   1.4750322818599337E-002
   6.1388068390048706E-002  -1.8257905708358974E-002   2.2360231930171941E-002
   5.8719776856384708E-002  -1.7499739746355381E-002   2.1942208151571448E-002
   5.6051485322720793E-002  -1.6737715416675021E-002   2.1719629174146379E-002
   5.3383193789056795E-002  -1.5971832719318721E-002   2.1692494997897202E-002
   5.0714902255392845E-002  -1.5202091654286098E-002   2.1860805622823540E-002
   5.6580189499527422E-002  -1.6839101745612928E-002   2.9670364426344575E-002
   5.4110179406576281E-002  -1.6116933003898049E-002   2.9177769330742176E-002
   5.1640169313625112E-002  -1.5399076946313442E-002   2.8886292315389972E-002
   4.9170159220673942E-002  -1.4685533572859694E-002   2.8795933380287450E-002
   4.6700149127722801E-002  -1.3976302883535796E-002   2.8906692525435318E-002
   6.2432235546316384E-002  -1.8879457966536783E-002   3.3556950531365981E-004
   5.9540069889055247E-002  -1.7937223244732570E-002   1.4994586166872104E-004
   5.6647904231794000E-002  -1.7041434986736215E-002   1.4435667416179410E-004
   5.3755738574532780E-002  -1.6192093192547538E-002   3.1880194279254592E-004
   5.0863572917271616E-002  -1.5389197862166304E-002   6.7328166756119856E-004
   5.8580945464689615E-002  -1.7653669195786481E-002   7.5752441127624470E-003
   5.5862450533288754E-002  -1.6767380029142409E-002   7.2909729394706191E-003
   5.3143955601887838E-002  -1.5910236633400798E-002   7.1740087617616632E-003
   5.0425460670486949E-002  -1.5082239008561996E-002   7.2243515796348856E-003
   4.7706965739086060E-002  -1.4283387154626181E-002   7.4420013930915907E-003
   5.4675167701048438E-002  -1.6427880425036179E-002   1.4750322818599337E-002
   5.2117616034952879E-002  -1.5597536813552026E-002   1.4384704808564852E-002
   4.9560064368857307E-002  -1.4779038280065632E-002   1.4173666333558682E-002
   4.7002512702761685E-002  -1.3972384824576904E-002   1.4117207393580647E-002
   4.4444961036666147E-002  -1.3177576447085948E-002   1.4215327988629733E-002
   5.0714902255392845E-002  -1.5202091654286098E-002   2.1860805622823540E-002
   4.8305566394047629E-002  -1.4427693597961755E-002   2.1431141468952072E-002
   4.5896230532702323E-002  -1.3647839926730007E-002   2.1143329389553725E-002
   4.3486894671357031E-002  -1.2862530640591587E-002   2.0997369384627772E-002
   4.1077558810011808E-002  -1.2071765739545659E-002   2.0993261454175002E-002
   4.6700149127722801E-002  -1.3976302883535796E-002   2.8906692525435318E-002
   4.4426301610572871E-002  -1.3257850382371261E-002   2.8430282920631822E-002
   4.2152454093422942E-002  -1.2516641573395049E-002   2.8082997929746001E-002
   3.9878606576272957E-002  -1.1752676456606159E-002   2.7864837552777966E-002
   3.7604759059123083E-002  -1.0965955032005370E-002   2.7775801789727828E-002
   5.0863572917271616E-002  -1.5389197862166304E-002   6.7328166756119856E-004
   4.8117179693518475E-002  -1.4591400946014410E-002   4.4681985389383172E-004
   4.5370786469765501E-002  -1.3757354394514254E-002   2.5927654081236984E-004
   4.2624393246012415E-002  -1.2887058207664018E-002   1.1065172831514758E-004
   3.9878000022259386E-002  -1.1980512385464381E-002   9.4541640383027925E-007
   4.7706965739086060E-002  -1.4283387154626181E-002   7.4420013930915907E-003
   4.5012042836407085E-002  -1.3489282396627278E-002   7.1506444828672855E-003
   4.2317119933728192E-002  -1.2675526059601372E-002   6.9233097142056277E-003
   3.9622197031049258E-002  -1.1842118143547228E-002   6.7599970871069226E-003
   3.6927274128370324E-002  -1.0989058648465777E-002   6.6607066015714755E-003
   4.4444961036666147E-002  -1.3177576447085948E-002   1.4215327988629733E-002
   4.1826612096038940E-002  -1.2387163847240590E-002   1.3842477925526703E-002
   3.9208263155411788E-002  -1.1593697724689350E-002   1.3558753644964228E-002
   3.6589914214784636E-002  -1.0797178079431542E-002   1.3364155146942072E-002
   3.3971565274157400E-002  -9.9976049114672838E-003   1.3258682431461055E-002
   4.1077558810011808E-002  -1.2071765739545659E-002   2.0993261454175002E-002
   3.8560887472414054E-002  -1.1285045297853569E-002   2.0522320181871723E-002
   3.6044216134816266E-002  -1.0511869389777120E-002   2.0165608333087150E-002
   3.3527544797218492E-002  -9.7522380153150824E-003   1.9923125907820496E-002
   3.1010873459620732E-002  -9.0061511744689571E-003   1.9794872906071959E-002
   3.7604759059123083E-002  -1.0965955032005370E-002   2.7775801789727828E-002
   3.5214868965532331E-002  -1.0182926748466770E-002   2.7190171251903428E-002
   3.2824978871941690E-002  -9.4300410548647795E-003   2.6743873778574956E-002
   3.0435088778351022E-002  -8.7072979511993165E-003   2.6436909369742023E-002
   2.8045198684760353E-002  -8.0146974374700752E-003   2.6269278025405018E-002
   3.9878000022259386E-002  -1.1980512385464381E-002   9.4541640383027925E-007
   3.7462561246634607E-002  -1.1138404575427141E-002  -2.8568196058254003E-004
   3.5047122471009884E-002  -1.0461422425061095E-002  -4.8260819553502809E-004
   3.2631683695385133E-002  -9.9495659343672715E-003  -5.8983328845407801E-004
   3.0216244919760382E-002  -9.6028351033445869E-003  -6.0735723933924568E-004
   3.6927274128370324E-002  -1.0989058648465777E-002   6.6607066015714755E-003
   3.4583689241867777E-002  -1.0180393664830034E-002   6.2144658805550756E-003
   3.2240104355365257E-002  -9.4801692831125717E-003   5.8222317957494774E-003
   2.9896519468862806E-002  -8.8883855033135006E-003   5.4840043471545974E-003
   2.7552934582360245E-002  -8.4050423254333761E-003   5.1997835347704635E-003
   3.3971565274157400E-002  -9.9976049114672838E-003   1.3258682431461055E-002
   3.1664139770954447E-002  -9.2223827542329828E-003   1.2709513424167262E-002
   2.9356714267751480E-002  -8.4989161411639924E-003   1.2178656547261801E-002
   2.7049288764548478E-002  -7.8272050722601599E-003   1.1666111800744436E-002
   2.4741863261345559E-002  -7.2072495475218323E-003   1.1171879184615485E-002
   3.1010873459620732E-002  -9.0061511744689571E-003   1.9794872906071959E-002
   2.8703912833894618E-002  -8.2643718436359037E-003   1.9199460670254506E-002
   2.6396952208168459E-002  -7.5176629992151078E-003   1.8586666059002513E-002
   2.4089991582442329E-002  -6.7660246412066041E-003   1.7956489072315888E-002
   2.1783030956716194E-002  -6.0094567696105661E-003   1.7308929710194973E-002
   2.8045198684760353E-002  -8.0146974374700752E-003   2.6269278025405018E-002
   2.5703008430688346E-002  -7.3063609330389356E-003   2.5684307618817237E-002
   2.3360818176616255E-002  -6.5364098572666673E-003   2.5046260330971459E-002
   2.1018627922544178E-002  -5.7048442101531593E-003   2.4355136161868463E-002
   1.8676437668472157E-002  -4.8116639916989667E-003   2.3610935111508691E-002
   3.0216244919760382E-002  -9.6028351033445869E-003  -6.0735723933924568E-004
   2.9607494004551205E-002  -9.1349824583860650E-003  -3.6198277040533355E-004
   2.8998743089341972E-002  -8.2597605258828977E-003  -1.7979784124861897E-003
   2.8389992174132767E-002  -6.9771693058351264E-003  -4.9153441655814256E-003
   2.7781241258923561E-002  -5.2872087982422933E-003  -9.7140800296919849E-003
   2.7552934582360245E-002  -8.4050423254333761E-003   5.1997835347704635E-003
   2.5532261811194334E-002  -7.8707201483831923E-003   5.8757292190494415E-003
   2.3511589040028452E-002  -7.1259993710749980E-003   5.4092013024299446E-003
   2.1490916268862612E-002  -6.1708799935088349E-003   3.8001997849115565E-003
   1.9470243497696660E-002  -5.0053620156838008E-003   1.0487246664943051E-003
   2.4741863261345559E-002  -7.2072495475218323E-003   1.1171879184615485E-002
   2.1848165144339071E-002  -6.6064578383801531E-003   1.2081425396952838E-002
   1.8954467027332597E-002  -5.9922382162669041E-003   1.2387394518507649E-002
   1.6060768910326075E-002  -5.3645906811818841E-003   1.2089786549280113E-002
   1.3167070793319580E-002  -4.7235152331246422E-003   1.1188601489269812E-002
   2.1783030956716194E-002  -6.0094567696105661E-003   1.7308929710194973E-002
   1.8555204003985235E-002  -5.3421955283776412E-003   1.8255105763303914E-002
   1.5327377051254327E-002  -4.8584770614590184E-003   1.9136601235747376E-002
   1.2099550098523421E-002  -4.5583013688550410E-003   1.9953416127523962E-002
   8.8717231457925705E-003  -4.4416684505655946E-003   2.0705550438634424E-002
   1.8676437668472157E-002  -4.8116639916989667E-003   2.3610935111508691E-002
   1.5653378390132922E-002  -4.0779332183745187E-003   2.4396770318103833E-002
   1.2630319111793714E-002  -3.7247159066512159E-003   2.5656821454149048E-002
   9.6072598334544512E-003  -3.7520120565287737E-003   2.7391088519643753E-002
   6.5842005551152716E-003  -4.1598216680069910E-003   2.9599571514588252E-002
   2.7781241258923561E-002  -5.2872087982422933E-003  -9.7140800296919849E-003
   2.3354301835312730E-002  -4.2067236969218769E-003  -4.1871495542729065E-003
   1.8927362411702009E-002  -4.7525586956904675E-003   2.6041805158502074E-003
   1.4500422988091288E-002  -6.9247137945462889E-003   1.0659910180678467E-002
   1.0073483564480457E-002  -1.0723188993491561E-002   1.9980039440210540E-002
   1.9470243497696660E-002  -5.0053620156838008E-003   1.0487246664943051E-003
   1.6235286107760705E-002  -4.6906752035958954E-003   6.7418721218223121E-003
   1.3000328717824916E-002  -6.2880493232420065E-003   1.3554584049795482E-002
   9.7653713278888776E-003  -9.7974843746194695E-003   2.1486860450414202E-002
   6.5304139379531723E-003  -1.5218980357731393E-002   3.0538701323677309E-002
   1.3167070793319580E-002  -4.7235152331246422E-003   1.1188601489269812E-002
   1.0979260314999156E-002  -5.1746267102701360E-003   1.6762225092862904E-002
   8.7914498366786498E-003  -7.8235399507935455E-003   2.3310578047041952E-002
   6.6036393583581987E-003  -1.2670254954693538E-002   3.0833660351806402E-002
   4.4158288800377199E-003  -1.9714771721971225E-002   3.9331472007156032E-002
   8.8717231457925705E-003  -4.4416684505655946E-003   2.0705550438634424E-002
   7.5862244570278972E-003  -5.6585782169444876E-003   2.5873909358848313E-002
   6.3007257682633350E-003  -9.3590305783448624E-003   3.1872162507587926E-002
   5.0152270794987588E-003  -1.5543025534766941E-002   3.8700309884853762E-002
   3.7297283907341133E-003  -2.4210563086211501E-002   4.6358351490645711E-002
   6.5842005551152716E-003  -4.1598216680069910E-003   2.9599571514588252E-002
   6.0561785338471563E-003  -6.1425297236181731E-003   3.4076924919777984E-002
   5.5281565125789578E-003  -1.0894521205897068E-002   3.9239337431434373E-002
   5.0001344913106760E-003  -1.8415796114840843E-002   4.5086809049557475E-002
   4.4721124700426440E-003  -2.8706354450451332E-002   5.1619339774147122E-002
   7.5920769009250821E-002  -2.2658213364699142E-002   3.4706026884271435E-002
   7.3210394367407228E-002  -2.1856641769763707E-002   3.2842644714151992E-002
   7.0500019725563579E-002  -2.1088836953142578E-002   3.1521026812439928E-002
   6.7789645083719902E-002  -2.0354798914835954E-002   3.0741173179135287E-002
   6.5079270441876252E-002  -1.9654527654843545E-002   3.0503083814237553E-002
   6.8417311259983876E-002  -2.0713465079425009E-002   3.7196737464576746E-002
   6.6177136739503317E-002  -2.0023596143390748E-002   3.5995426295931998E-002
   6.3936962219022911E-002  -1.9348144305310677E-002   3.5192751101606135E-002
   6.1696787698542400E-002  -1.8687109565184656E-002   3.4788711881599529E-002
   5.9456613178061918E-002  -1.8040491923012936E-002   3.4783308635912058E-002
   6.1671580597369741E-002  -1.8768716794150847E-002   3.9566070545800844E-002
   5.9758477904164164E-002  -1.8190550517017706E-002   3.9046180058990798E-002
   5.7845375210958741E-002  -1.7607451657478519E-002   3.8781797252411522E-002
   5.5932272517753255E-002  -1.7019420215533383E-002   3.8772922126063356E-002
   5.4019169824547748E-002  -1.6426456191182215E-002   3.9019554679945889E-002
   5.5683577021408394E-002  -1.6823968508876699E-002   4.1814026127943757E-002
   5.3954417861389714E-002  -1.6357504890644706E-002   4.1994906003328447E-002
   5.2225258701371097E-002  -1.5866759009646434E-002   4.2288165264855876E-002
   5.0496099541352445E-002  -1.5351730865882100E-002   4.2693803912526314E-002
   4.8766940381333800E-002  -1.4812420459351522E-002   4.3211821946339213E-002
   5.0453300532099954E-002  -1.4879220223602552E-002   4.3940604211005430E-002
   4.8764956611179994E-002  -1.4524459264271677E-002   4.4841604128945167E-002
   4.7076612690259978E-002  -1.4126066361814404E-002   4.5711855138939606E-002
   4.5388268769340018E-002  -1.3684041516230830E-002   4.6551357240988550E-002
   4.3699924848420058E-002  -1.3198384727520829E-002   4.7360110435092195E-002
   6.5079270441876252E-002  -1.9654527654843545E-002   3.0503083814237553E-002
   6.2954500206289038E-002  -1.8966022632390278E-002   2.9969105868781737E-002
   6.0829729970701837E-002  -1.8267283306700757E-002   2.9652326655647432E-002
   5.8704959735114616E-002  -1.7558309677774848E-002   2.9552746174835040E-002
   5.6580189499527422E-002  -1.6839101745612928E-002   2.9670364426344575E-002
   5.9456613178061918E-002  -1.8040491923012936E-002   3.4783308635912058E-002
   5.7534153972111965E-002  -1.7397227100159535E-002   3.4428629779348491E-002
   5.5611694766161998E-002  -1.6746250817988917E-002   3.4261374249737506E-002
   5.3689235560212011E-002  -1.6087563076500819E-002   3.4281542047079505E-002
   5.1766776354262078E-002  -1.5421163875695476E-002   3.4489133171373809E-002
   5.4019169824547748E-002  -1.6426456191182215E-002   3.9019554679945889E-002
   5.2269246242865913E-002  -1.5828431567928763E-002   3.8841652068355922E-002
   5.0519322661184099E-002  -1.5225218329277014E-002   3.8821397378349366E-002
   4.8769399079502250E-002  -1.4616816475226732E-002   3.8958790609926519E-002
   4.7019475497820457E-002  -1.4003226005778108E-002   3.9253831763087152E-002
   4.8766940381333800E-002  -1.4812420459351522E-002   4.3211821946339213E-002
   4.7159777018550980E-002  -1.4259636035698089E-002   4.3208172735803831E-002
   4.5552613655768140E-002  -1.3704185840565170E-002   4.3332396041482840E-002
   4.3945450292985293E-002  -1.3146069873952646E-002   4.3584491863376297E-002
   4.2338286930202480E-002  -1.2585288135860614E-002   4.3964460201484215E-002
   4.3699924848420058E-002  -1.3198384727520829E-002   4.7360110435092195E-002
   4.2205746299167096E-002  -1.2690840503467221E-002   4.7528191781692430E-002
   4.0711567749914107E-002  -1.2183153351853271E-002   4.7794370239138045E-002
   3.9217389200661174E-002  -1.1675323272678589E-002   4.8158645807428957E-002
   3.7723210651408184E-002  -1.1167350265943288E-002   4.8621018486565137E-002
   5.6580189499527422E-002  -1.6839101745612928E-002   2.9670364426344575E-002
   5.4110179406576281E-002  -1.6116933003898049E-002   2.9177769330742176E-002
   5.1640169313625112E-002  -1.5399076946313442E-002   2.8886292315389972E-002
   4.9170159220673942E-002  -1.4685533572859694E-002   2.8795933380287450E-002
   4.6700149127722801E-002  -1.3976302883535796E-002   2.8906692525435318E-002
   5.1766776354262078E-002  -1.5421163875695476E-002   3.4489133171373809E-002
   4.9494349720097572E-002  -1.4750631993723701E-002   3.4057236352574488E-002
   4.7221923085932982E-002  -1.4079546208735971E-002   3.3819388371098519E-002
   4.4949496451768420E-002  -1.3407906520732621E-002   3.3775589226945651E-002
   4.2677069817603885E-002  -1.2735712929713316E-002   3.3925838920116025E-002
   4.7019475497820457E-002  -1.4003226005778108E-002   3.9253831763087152E-002
   4.4937563079515748E-002  -1.3384330983549186E-002   3.8887499808236886E-002
   4.2855650661211012E-002  -1.2760015471158327E-002   3.8708147447783205E-002
   4.0773738242906275E-002  -1.2130279468605546E-002   3.8715774681725976E-002
   3.8691825824601567E-002  -1.1495122975890726E-002   3.8910381510065095E-002
   4.2338286930202480E-002  -1.2585288135860614E-002   4.3964460201484215E-002
   4.0439819484830851E-002  -1.2018029973374839E-002   4.3668559697729245E-002
   3.8541352039459187E-002  -1.1440484733580825E-002   4.3552569545444259E-002
   3.6642884594087530E-002  -1.0852652416478471E-002   4.3616489744628846E-002
   3.4744417148715886E-002  -1.0254533022068246E-002   4.3860320295283278E-002
   3.7723210651408184E-002  -1.1167350265943288E-002   4.8621018486565137E-002
   3.6001118936042853E-002  -1.0651728963200296E-002   4.8400416021051995E-002
   3.4279027220677494E-002  -1.0120953996003199E-002   4.8352654664081590E-002
   3.2556935505312190E-002  -9.5750253643516157E-003   4.8477734415654186E-002
   3.0834843789946831E-002  -9.0139430682456001E-003   4.8775655275769825E-002
   4.6700149127722801E-002  -1.3976302883535796E-002   2.8906692525435318E-002
   4.4426301610572871E-002  -1.3257850382371261E-002   2.8430282920631822E-002
   4.2152454093422942E-002  -1.2516641573395049E-002   2.8082997929746001E-002
   3.9878606576272957E-002  -1.1752676456606159E-002   2.7864837552777966E-002
   3.7604759059123083E-002  -1.0965955032005370E-002   2.7775801789727828E-002
   4.2677069817603885E-002  -1.2735712929713316E-002   3.3925838920116025E-002
   4.0539132188831262E-002  -1.2054091266501366E-002   3.3514579181479320E-002
   3.8401194560058610E-002  -1.1354167361919631E-002   3.3246014605679497E-002
   3.6263256931285945E-002  -1.0635941215968336E-002   3.3120145192716596E-002
   3.4125319302513307E-002  -9.8994128286472582E-003   3.3136970942590327E-002
   3.8691825824601567E-002  -1.1495122975890726E-002   3.8910381510065095E-002
   3.6703368633125233E-002  -1.0850332150631359E-002   3.8559817571153038E-002
   3.4714911441648816E-002  -1.0191693150444547E-002   3.8365519343996846E-002
   3.2726454250172468E-002  -9.5192059753306801E-003   3.8327486828596463E-002
   3.0737997058696051E-002  -8.8328706252893685E-003   3.8445720024951502E-002
   3.4744417148715886E-002  -1.0254533022068246E-002   4.3860320295283278E-002
   3.2919010943454750E-002  -9.6465730347615186E-003   4.3565998089653418E-002
   3.1093604738193587E-002  -9.0292189389694633E-003   4.3441512144698241E-002
   2.9268198532932409E-002  -8.4024707346928851E-003   4.3486862460417858E-002
   2.7442792327671287E-002  -7.7663284219312012E-003   4.3702049036811991E-002
   3.0834843789946831E-002  -9.0139430682456001E-003   4.8775655275769825E-002
   2.9186059119819835E-002  -8.4428139188915119E-003   4.8533120736979796E-002
   2.7537274449692867E-002  -7.8667447274941155E-003   4.8473993007783572E-002
   2.5888489779565885E-002  -7.2857354940551074E-003   4.8598272088180641E-002
   2.4239705109438903E-002  -6.6997862185733670E-003   4.8905957978171544E-002
   3.7604759059123083E-002  -1.0965955032005370E-002   2.7775801789727828E-002
   3.5214868965532331E-002  -1.0182926748466770E-002   2.7190171251903428E-002
   3.2824978871941690E-002  -9.4300410548647795E-003   2.6743873778574956E-002
   3.0435088778351022E-002  -8.7072979511993165E-003   2.6436909369742023E-002
   2.8045198684760353E-002  -8.0146974374700752E-003   2.6269278025405018E-002
   3.4125319302513307E-002  -9.8994128286472582E-003   3.3136970942590327E-002
   3.1876945619608105E-002  -9.1638007726464465E-003   3.2620502516774841E-002
   2.9628571936702763E-002  -8.4483236206550349E-003   3.2247733847833693E-002
   2.7380198253797533E-002  -7.7529813726732941E-003   3.2018664935767938E-002
   2.5131824570892219E-002  -7.0777740287009117E-003   3.1933295780576965E-002
   3.0737997058696051E-002  -8.8328706252893685E-003   3.8445720024951502E-002
   2.8635506478855197E-002  -8.1446747968259015E-003   3.8008421397071696E-002
   2.6533015899014328E-002  -7.4666061864449573E-003   3.7719189218445831E-002
   2.4430525319173453E-002  -6.7986647941470496E-003   3.7578023489073603E-002
   2.2328034739332606E-002  -6.1408506199319146E-003   3.7584924208955456E-002
   2.7442792327671287E-002  -7.7663284219312012E-003   4.3702049036811991E-002
   2.5490551543273770E-002  -7.1255488210052453E-003   4.3353927892794776E-002
   2.3538310758876316E-002  -6.4848887522351017E-003   4.3158239890410427E-002
   2.1586069974478820E-002  -5.8443482156212492E-003   4.3114985029658708E-002
   1.9633829190081348E-002  -5.2039272111628343E-003   4.3224163310540339E-002
   2.4239705109438903E-002  -6.6997862185733670E-003   4.8905957978171544E-002
   2.2442080812863807E-002  -6.1064228451850333E-003   4.8657022003943728E-002
   2.0644456516288739E-002  -5.5031713180253294E-003   4.8564885863727869E-002
   1.8846832219713672E-002  -4.8900316370950533E-003   4.8629549557523633E-002
   1.7049207923138548E-002  -4.2670038023936430E-003   4.8851013085331463E-002
   2.8045198684760353E-002  -8.0146974374700752E-003   2.6269278025405018E-002
   2.5703008430688346E-002  -7.3063609330389356E-003   2.5684307618817237E-002
   2.3360818176616255E-002  -6.5364098572666673E-003   2.5046260330971459E-002
   2.1018627922544178E-002  -5.7048442101531593E-003   2.4355136161868463E-002
   1.8676437668472157E-002  -4.8116639916989667E-003   2.3610935111508691E-002
   2.5131824570892219E-002  -7.0777740287009117E-003   3.1933295780576965E-002
   2.2774981844724179E-002  -6.4043908866123767E-003   3.1535384601250493E-002
   2.0418139118556153E-002  -5.7145212442810678E-003   3.1161245358989009E-002
   1.8061296392388092E-002  -5.0081651017063467E-003   3.0810878053792679E-002
   1.5704453666220086E-002  -4.2853224588890182E-003   3.0484282685662112E-002
   2.2328034739332606E-002  -6.1408506199319146E-003   3.7584924208955456E-002
   2.0033388359391044E-002  -5.5024208401857622E-003   3.7328944185792079E-002
   1.7738741979449517E-002  -4.8926326312950241E-003   3.7173584918016755E-002
   1.5444095599507966E-002  -4.3114859932593119E-003   3.7118846405629277E-002
   1.3149449219566428E-002  -3.7589809260790141E-003   3.7164728648629269E-002
   1.9633829190081348E-002  -5.2039272111628343E-003   4.3224163310540339E-002
   1.7478227974688825E-002  -4.6004507937591754E-003   4.3064986372442271E-002
   1.5322626759296297E-002  -4.0707440183089805E-003   4.3083279008054753E-002
   1.3167025543903796E-002  -3.6148068848123882E-003   4.3279041217377551E-002
   1.1011424328511245E-002  -3.2326393932692044E-003   4.3652273000410420E-002
   1.7049207923138548E-002  -4.2670038023936430E-003   4.8851013085331463E-002
   1.5109500690617561E-002  -3.6984807473326442E-003   4.8743511161200792E-002
   1.3169793458096560E-002  -3.2488554053234642E-003   4.8890327629103114E-002
   1.1230086225575593E-002  -2.9181277763653743E-003   4.9291462489038235E-002
   9.2903789930545710E-003  -2.7062978604589505E-003   4.9946915741005737E-002
   1.8676437668472157E-002  -4.8116639916989667E-003   2.3610935111508691E-002
   1.5653378390132922E-002  -4.0779332183745187E-003   2.4396770318103833E-002
   1.2630319111793714E-002  -3.7247159066512159E-003   2.5656821454149048E-002
   9.6072598334544512E-003  -3.7520120565287737E-003   2.7391088519643753E-002
   6.5842005551152716E-003  -4.1598216680069910E-003   2.9599571514588252E-002
   1.5704453666220086E-002  -4.2853224588890182E-003   3.0484282685662112E-002
   1.3137137672003696E-002  -3.7726761339935688E-003   3.1259928503685031E-002
   1.0569821677787444E-002  -3.6969089451849846E-003   3.2472844960504260E-002
   8.0025056835711789E-003  -4.0580208924626410E-003   3.4123032056119509E-002
   5.4351896893548024E-003  -4.8560119758271902E-003   3.6210489790530764E-002
   1.3149449219566428E-002  -3.7589809260790141E-003   3.7164728648629269E-002
   1.1000931218819329E-002  -3.4674190496125912E-003   3.7873819403594772E-002
   8.8524132180721957E-003  -3.6691019837184341E-003   3.8983235506702338E-002
   6.7038952173250621E-003  -4.3640297283967337E-003   4.0492976957952016E-002
   4.5553772165779077E-003  -5.5522022836473894E-003   4.2403043757344550E-002
   1.1011424328511245E-002  -3.2326393932692044E-003   4.3652273000410420E-002
   9.2447590305796377E-003  -3.1621619652314609E-003   4.4238443017832002E-002
   7.4780937326480584E-003  -3.6412950222519877E-003   4.5187993092742212E-002
   5.7114284347164618E-003  -4.6700385643304917E-003   4.6500923225141051E-002
   3.9447631367848131E-003  -6.2483925914675886E-003   4.8177233415028636E-002
   9.2903789930545710E-003  -2.7062978604589505E-003   4.9946915741005737E-002
   7.8686211072847567E-003  -2.8569048808505526E-003   5.0353799346398276E-002
   6.4468632215149146E-003  -3.6134880607855413E-003   5.1087117718625008E-002
   5.0251053357450864E-003  -4.9760474002648325E-003   5.2146870857687100E-002
   3.6033474499752582E-003  -6.9445828992878988E-003   5.3533058763583941E-002
   6.5842005551152716E-003  -4.1598216680069910E-003   2.9599571514588252E-002
   6.0561785338471563E-003  -6.1425297236181731E-003   3.4076924919777984E-002
   5.5281565125789578E-003  -1.0894521205897068E-002   3.9239337431434373E-002
   5.0001344913106760E-003  -1.8415796114840843E-002   4.5086809049557475E-002
   4.4721124700426440E-003  -2.8706354450451332E-002   5.1619339774147122E-002
   5.4351896893548024E-003  -4.8560119758271902E-003   3.6210489790530764E-002
   5.4884253834402708E-003  -6.9904923028885624E-003   3.8350548808603946E-002
   5.5416610775257391E-003  -1.1361071981258630E-002   4.0968064150918138E-002
   5.5948967716111797E-003  -1.7967751010935215E-002   4.4063035817472368E-002
   5.6481324656966758E-003  -2.6810529391920523E-002   4.7635463808267664E-002
   4.5553772165779077E-003  -5.5522022836473894E-003   4.2403043757344550E-002
   4.9822678437910217E-003  -7.8384548821589517E-003   4.2738992463659586E-002
   5.4091584710040039E-003  -1.1827622756619860E-002   4.3344794711989210E-002
   5.8360490982169513E-003  -1.7519705907029809E-002   4.4220450502333669E-002
   6.2629397254301000E-003  -2.4914704333389714E-002   4.5365959834692160E-002
   3.9447631367848131E-003  -6.2483925914675886E-003   4.8177233415028636E-002
   4.5377059148992149E-003  -8.6864174614291190E-003   4.7242255884944809E-002
   5.1306486930136654E-003  -1.2294173531981589E-002   4.6369529114648561E-002
   5.7235914711280620E-003  -1.7071660803124847E-002   4.5559053104141281E-002
   6.3165342492425766E-003  -2.3018879274858906E-002   4.4810827853422219E-002
   3.6033474499752582E-003  -6.9445828992878988E-003   5.3533058763583941E-002
   4.1547395967650447E-003  -9.5343800406990642E-003   5.1860339072458683E-002
   4.7061317435548311E-003  -1.2760724307343069E-002   5.0042267358895665E-002
   5.2575238903445481E-003  -1.6623615699218712E-002   4.8078843622894579E-002
   5.8089160371342929E-003  -2.1123054216328097E-002   4.5970067864456343E-002
   5.0453300532099954E-002  -1.4879220223602552E-002   4.3940604211005430E-002
   4.8764956611179994E-002  -1.4524459264271677E-002   4.4841604128945167E-002
   4.7076612690259978E-002  -1.4126066361814404E-002   4.5711855138939606E-002
   4.5388268769340018E-002  -1.3684041516230830E-002   4.6551357240988550E-002
   4.3699924848420058E-002  -1.3198384727520829E-002   4.7360110435092195E-002
   4.5243208026276432E-002  -1.3000735167489730E-002   5.0060505899158780E-002
   4.3582494424540652E-002  -1.2686230326147740E-002   5.0341890346943807E-002
   4.1921780822804885E-002  -1.2336628583134487E-002   5.0709284341042882E-002
   4.0261067221069084E-002  -1.1951929938450050E-002   5.1162687881455698E-002
   3.8600353619333283E-002  -1.1532134392094440E-002   5.1702100968182285E-002
   3.9315756400769980E-002  -1.1122250111376908E-002   5.6144418990050626E-002
   3.7799431572477581E-002  -1.0848001388023817E-002   5.5797652926226196E-002
   3.6283106744185140E-002  -1.0547190804454626E-002   5.5653654862974564E-002
   3.4766781915892733E-002  -1.0219818360669382E-002   5.5712424800296062E-002
   3.3250457087600299E-002  -9.8658840566680228E-003   5.5973962738190441E-002
   3.2670945655580562E-002  -9.2437650552640860E-003   6.2192343483681148E-002
   3.1415768054990696E-002  -9.0097724498999152E-003   6.1208891866791945E-002
   3.0160590454400827E-002  -8.7577530257747643E-003   6.0544966704734741E-002
   2.8905412853810951E-002  -8.4877067828887411E-003   6.0200567997509655E-002
   2.7650235253221085E-002  -8.1996337212415921E-003   6.0175695745116886E-002
   2.5308775790708171E-002  -7.3652799991512641E-003   6.8204279380050470E-002
   2.4431503872080040E-002  -7.1715435117759574E-003   6.6575607168641249E-002
   2.3554231953451896E-002  -6.9683152470948473E-003   6.5383219866323228E-002
   2.2676960034823744E-002  -6.7555952051078921E-003   6.4627117473096629E-002
   2.1799688116195620E-002  -6.5333833858152168E-003   6.4307299988961175E-002
   4.3699924848420058E-002  -1.3198384727520829E-002   4.7360110435092195E-002
   4.2205746299167096E-002  -1.2690840503467221E-002   4.7528191781692430E-002
   4.0711567749914107E-002  -1.2183153351853271E-002   4.7794370239138045E-002
   3.9217389200661174E-002  -1.1675323272678589E-002   4.8158645807428957E-002
   3.7723210651408184E-002  -1.1167350265943288E-002   4.8621018486565137E-002
   3.8600353619333283E-002  -1.1532134392094440E-002   5.1702100968182285E-002
   3.7226581340388740E-002  -1.1093182435746390E-002   5.1643845594536497E-002
   3.5852809061444182E-002  -1.0651014561084998E-002   5.1728305650662235E-002
   3.4479036782499604E-002  -1.0205630768110020E-002   5.1955481136559518E-002
   3.3105264503555026E-002  -9.7570310568216301E-003   5.2325372052228064E-002
   3.3250457087600299E-002  -9.8658840566680228E-003   5.5973962738190441E-002
   3.2041709397890354E-002  -9.4955243680254070E-003   5.5692443635051450E-002
   3.0832961708180430E-002  -9.1188757703166146E-003   5.5598258280610172E-002
   2.9624214018470506E-002  -8.7359382635415067E-003   5.5691406674866481E-002
   2.8415466328760561E-002  -8.3467118477000279E-003   5.5971888817820739E-002
   2.7650235253221085E-002  -8.1996337212415921E-003   6.0175695745116886E-002
   2.6651130471671974E-002  -7.8978663003045277E-003   5.9673985903237324E-002
   2.5652025690122895E-002  -7.5867369795483974E-003   5.9404228128981731E-002
   2.4652920908573794E-002  -7.2662457589729099E-003   5.9366422422350205E-002
   2.3653816127024704E-002  -6.9363926385783148E-003   5.9560568783342538E-002
   2.1799688116195620E-002  -6.5333833858152168E-003   6.4307299988961175E-002
   2.1054844561733593E-002  -6.3002082325835651E-003   6.3588472399094237E-002
   2.0310001007271559E-002  -6.0545981887799305E-003   6.3146215195777400E-002
   1.9565157452809515E-002  -5.7965532544044449E-003   6.2980528379010609E-002
   1.8820313898347485E-002  -5.5260734294568237E-003   6.3091411948794085E-002
   3.7723210651408184E-002  -1.1167350265943288E-002   4.8621018486565137E-002
   3.6001118936042853E-002  -1.0651728963200296E-002   4.8400416021051995E-002
   3.4279027220677494E-002  -1.0120953996003199E-002   4.8352654664081590E-002
   3.2556935505312190E-002  -9.5750253643516157E-003   4.8477734415654186E-002
   3.0834843789946831E-002  -9.0139430682456001E-003   4.8775655275769825E-002
   3.3105264503555026E-002  -9.7570310568216301E-003   5.2325372052228064E-002
   3.1564514048098236E-002  -9.3003672521217440E-003   5.2055450677621129E-002
   3.0023763592641459E-002  -8.8307911789121535E-003   5.1975370714288219E-002
   2.8483013137184654E-002  -8.3483028371929800E-003   5.2085132162229632E-002
   2.6942262681727877E-002  -7.8529022269641091E-003   5.2384735021445084E-002
   2.8415466328760561E-002  -8.3467118477000279E-003   5.5971888817820739E-002
   2.7073057435943515E-002  -7.9490055410429278E-003   5.5650407138175165E-002
   2.5730648543126504E-002  -7.5406283618211153E-003   5.5535767172535118E-002
   2.4388239650309472E-002  -7.1215803100342905E-003   5.5627968920900314E-002
   2.3045830757492447E-002  -6.6918613856826459E-003   5.5927012383271094E-002
   2.3653816127024704E-002  -6.9363926385783148E-003   5.9560568783342538E-002
   2.2526749099578657E-002  -6.5976438299642434E-003   5.9185285402713839E-002
   2.1399682072132629E-002  -6.2504655447299905E-003   5.9033844038821698E-002
   2.0272615044686589E-002  -5.8948577828757944E-003   5.9106244691666254E-002
   1.9145548017240551E-002  -5.5308205444011688E-003   5.9402487361247425E-002
   1.8820313898347485E-002  -5.5260734294568237E-003   6.3091411948794085E-002
   1.7925589039003681E-002  -5.2462821188855591E-003   6.2660085471237359E-002
   1.7030864179659863E-002  -4.9603027276389766E-003   6.2469601313148493E-002
   1.6136139320316052E-002  -4.6681352557169792E-003   6.2519959474527431E-002
   1.5241414460972241E-002  -4.3697797031196361E-003   6.2811159955374396E-002
   3.0834843789946831E-002  -9.0139430682456001E-003   4.8775655275769825E-002
   2.9186059119819835E-002  -8.4428139188915119E-003   4.8533120736979796E-002
   2.7537274449692867E-002  -7.8667447274941155E-003   4.8473993007783572E-002
   2.5888489779565885E-002  -7.2857354940551074E-003   4.8598272088180641E-002
   2.4239705109438903E-002  -6.6997862185733670E-003   4.8905957978171544E-002
   2.6942262681727877E-002  -7.8529022269641091E-003   5.2384735021445084E-002
   2.5479875252883269E-002  -7.3480995634886692E-003   5.2146756038340653E-002
   2.4017487824038626E-002  -6.8374050620291782E-003   5.2098164728207025E-002
   2.2555100395194014E-002  -6.3208187225859275E-003   5.2238961091044547E-002
   2.1092712966349375E-002  -5.7983405451588199E-003   5.2569145126853289E-002
   2.3045830757492447E-002  -6.6918613856826459E-003   5.5927012383271094E-002
   2.1775821433307599E-002  -6.2533852080860763E-003   5.5694540751793309E-002
   2.0505812109122730E-002  -5.8080653965639009E-003   5.5657437656663915E-002
   1.9235802784937871E-002  -5.3559019511168569E-003   5.5815703097882960E-002
   1.7965793460753013E-002  -4.8968948717444949E-003   5.6169337075450465E-002
   1.9145548017240551E-002  -5.5308205444011688E-003   5.9402487361247425E-002
   1.8073897661092873E-002  -5.1586708526833586E-003   5.9176474877337737E-002
   1.7002247304945171E-002  -4.7787257310987381E-003   5.9151811793154020E-002
   1.5930596948797466E-002  -4.3909851796477871E-003   5.9328498108696108E-002
   1.4858946592649792E-002  -3.9954491983301699E-003   5.9706533823964063E-002
   1.5241414460972241E-002  -4.3697797031196361E-003   6.2811159955374396E-002
   1.4374103936239099E-002  -4.0639564972806408E-003   6.2592558414974131E-002
   1.3506793411505985E-002  -3.7493860656335892E-003   6.2581287137677327E-002
   1.2639482886772857E-002  -3.4260684081785821E-003   6.2777346123483888E-002
   1.1772172362039729E-002  -3.0940035249157338E-003   6.3180735372393548E-002
   2.4239705109438903E-002  -6.6997862185733670E-003   4.8905957978171544E-002
   2.2442080812863807E-002  -6.1064228451850333E-003   4.8657022003943728E-002
   2.0644456516288739E-002  -5.5031713180253294E-003   4.8564885863727869E-002
   1.8846832219713672E-002  -4.8900316370950533E-003   4.8629549557523633E-002
   1.7049207923138548E-002  -4.2670038023936430E-003   4.8851013085331463E-002
   2.1092712966349375E-002  -5.7983405451588199E-003   5.2569145126853289E-002
   1.9464321937635656E-002  -5.2714394344433035E-003   5.2359136315149990E-002
   1.7835930908921924E-002  -4.7415842951344100E-003   5.2330794205157516E-002
   1.6207539880208163E-002  -4.2087751272327570E-003   5.2484118796875812E-002
   1.4579148851494445E-002  -3.6730119307378795E-003   5.2819110090305377E-002
   1.7965793460753013E-002  -4.8968948717444949E-003   5.6169337075450465E-002
   1.6531502567599582E-002  -4.4364560237017958E-003   5.5991321301094160E-002
   1.5097211674446165E-002  -3.9799972722437266E-003   5.6019839096147536E-002
   1.3662920781292755E-002  -3.5275186173705751E-003   5.6254890460610753E-002
   1.2228629888139324E-002  -3.0790200590820604E-003   5.6696475394483720E-002
   1.4858946592649792E-002  -3.9954491983301699E-003   5.9706533823964063E-002
   1.3643622702755619E-002  -3.6014726129604546E-003   5.9553576961776801E-002
   1.2428298812861447E-002  -3.2184102493530362E-003   5.9632020536698013E-002
   1.1212974922967307E-002  -2.8462621075085581E-003   5.9941864548728199E-002
   9.9976510330731360E-003  -2.4850281874263247E-003   6.0483108997867026E-002
   1.1772172362039729E-002  -3.0940035249157338E-003   6.3180735372393548E-002
   1.0800682343103760E-002  -2.7664892022187804E-003   6.3045903297197281E-002
   9.8291923241678181E-003  -2.4568232264623735E-003   6.3167338526808781E-002
   8.8577023052318488E-003  -2.1650055976462704E-003   6.3545041061227908E-002
   7.8862122862959072E-003  -1.8910363157704779E-003   6.4179010900454858E-002
   1.7049207923138548E-002  -4.2670038023936430E-003   4.8851013085331463E-002
   1.5109500690617561E-002  -3.6984807473326442E-003   4.8743511161200792E-002
   1.3169793458096560E-002  -3.2488554053234642E-003   4.8890327629103114E-002
   1.1230086225575593E-002  -2.9181277763653743E-003   4.9291462489038235E-002
   9.2903789930545710E-003  -2.7062978604589505E-003   4.9946915741005737E-002
   1.4579148851494445E-002  -3.6730119307378795E-003   5.2819110090305377E-002
   1.2893154684191568E-002  -3.1940989977521372E-003   5.2712766813317380E-002
   1.1207160516888720E-002  -2.8318406203779456E-003   5.2859531274733224E-002
   9.5211663495858717E-003  -2.5862367986147911E-003   5.3259403474552422E-002
   7.8351721822829679E-003  -2.4572875324633259E-003   5.3912383412774934E-002
   1.2228629888139324E-002  -3.0790200590820604E-003   5.6696475394483720E-002
   1.0795138132425275E-002  -2.6897172481714915E-003   5.6593533922078776E-002
   9.3616463767112017E-003  -2.4148258354323299E-003   5.6742489534448284E-002
   7.9281546209971372E-003  -2.2543458208643223E-003   5.7143342231591711E-002
   6.4946628652830796E-003  -2.2082772044677568E-003   5.7796092013509548E-002
   9.9976510330731360E-003  -2.4850281874263247E-003   6.0483108997867026E-002
   8.8154510353185798E-003  -2.1853354985910262E-003   6.0385812487485271E-002
   7.6332510375640142E-003  -1.9978110504865962E-003   6.0539202408248324E-002
   6.4510510398094745E-003  -1.9224548431141294E-003   6.0943278760156434E-002
   5.2688510420548923E-003  -1.9592668764722709E-003   6.1598041543208845E-002
   7.8862122862959072E-003  -1.8910363157704779E-003   6.4179010900454858E-002
   6.9540933928715354E-003  -1.6809537490103943E-003   6.4089602509536325E-002
   6.0219744994471636E-003  -1.5807962655414176E-003   6.4249669896133232E-002
   5.0898556060227917E-003  -1.5905638653633258E-003   6.4659213060245579E-002
   4.1577367125984477E-003  -1.7102565484765631E-003   6.5318232001873699E-002
   9.2903789930545710E-003  -2.7062978604589505E-003   4.9946915741005737E-002
   7.8686211072847567E-003  -2.8569048808505526E-003   5.0353799346398276E-002
   6.4468632215149146E-003  -3.6134880607855413E-003   5.1087117718625008E-002
   5.0251053357450864E-003  -4.9760474002648325E-003   5.2146870857687100E-002
   3.6033474499752582E-003  -6.9445828992878988E-003   5.3533058763583941E-002
   7.8351721822829679E-003  -2.4572875324633259E-003   5.3912383412774934E-002
   6.7139529762074018E-003  -2.6430452507155144E-003   5.3848700638428004E-002
   5.5927337701317942E-003  -3.3415623821646256E-003   5.4059660456634628E-002
   4.4715145640562004E-003  -4.5528389268094591E-003   5.4545262867394695E-002
   3.3502953579805927E-003  -6.2768748846507849E-003   5.5305507870708315E-002
   6.4946628652830796E-003  -2.2082772044677568E-003   5.7796092013509548E-002
   5.6221901646203026E-003  -2.4291856205811979E-003   5.7355059605770836E-002
   4.7497174639575673E-003  -3.0696367035432659E-003   5.7136877616304566E-002
   3.8772447632948216E-003  -4.1296304533540856E-003   5.7141546045110347E-002
   3.0047720626320551E-003  -5.6091668700138375E-003   5.7369064892188321E-002
   5.2688510420548923E-003  -1.9592668764722709E-003   6.1598041543208845E-002
   4.5933326725236048E-003  -2.2153259904465206E-003   6.0872876248426362E-002
   3.9178143029922861E-003  -2.7977110249224058E-003   6.0318769197634681E-002
   3.2422959334609961E-003  -3.7064219798990453E-003   5.9935720390833898E-002
   2.5667775639296800E-003  -4.9414588553769179E-003   5.9723729828023674E-002
   4.1577367125984477E-003  -1.7102565484765631E-003   6.5318232001873699E-002
   3.6273804999171766E-003  -2.0014663603119542E-003   6.4402150566394867E-002
   3.0970242872359055E-003  -2.5257853463009350E-003   6.3605335200625612E-002
   2.5666680745546483E-003  -3.2832135064435469E-003   6.2927785904565325E-002
   2.0363118618733911E-003  -4.2737508407397762E-003   6.2369502678214728E-002
   3.6033474499752582E-003  -6.9445828992878988E-003   5.3533058763583941E-002
   4.1547395967650447E-003  -9.5343800406990642E-003   5.1860339072458683E-002
   4.7061317435548311E-003  -1.2760724307343069E-002   5.0042267358895665E-002
   5.2575238903445481E-003  -1.6623615699218712E-002   4.8078843622894579E-002
   5.8089160371342929E-003  -2.1123054216328097E-002   4.5970067864456343E-002
   3.3502953579805927E-003  -6.2768748846507849E-003   5.5305507870708315E-002
   3.7738335139794049E-003  -8.5450424406299796E-003   5.2951789553719875E-002
   4.1973716699782587E-003  -1.1388713779688114E-002   5.0487715277587442E-002
   4.6209098259770570E-003  -1.4807888901825807E-002   4.7913285042310516E-002
   5.0444479819758969E-003  -1.8802567807042703E-002   4.5228498847889931E-002
   3.0047720626320551E-003  -5.6091668700138375E-003   5.7369064892188321E-002
   3.3354522911334533E-003  -7.5557048405606730E-003   5.4395391291490292E-002
   3.6661325196347960E-003  -1.0016703252033729E-002   5.1346357794941497E-002
   3.9968127481361353E-003  -1.2992162104432627E-002   4.8221964402542387E-002
   4.3274929766375647E-003  -1.6482081397757531E-002   4.5022211114292054E-002
   2.5667775639296800E-003  -4.9414588553769179E-003   5.9723729828023674E-002
   2.8395959282270962E-003  -6.5663672404915885E-003   5.6191144285768942E-002
   3.1124142925245402E-003  -8.6446927243789481E-003   5.2618194910957483E-002
   3.3852326568219694E-003  -1.1176435307039585E-002   4.9004881703588701E-002
   3.6580510211194003E-003  -1.4161594988472248E-002   4.5351204663662492E-002
   2.0363118618733911E-003  -4.2737508407397762E-003   6.2369502678214728E-002
   2.2862644252603925E-003  -5.5770296404222819E-003   5.8339048536557025E-002
   2.5362169886473940E-003  -7.2726821967245003E-003   5.4303226625635692E-002
   2.7861695520343746E-003  -9.3607085096461262E-003   5.0262036945450395E-002
   3.0361221154214246E-003  -1.1841108579186965E-002   4.6215479496002132E-002
   2.5308775790708171E-002  -7.3652799991512641E-003   6.8204279380050470E-002
   2.4431503872080040E-002  -7.1715435117759574E-003   6.6575607168641249E-002
   2.3554231953451896E-002  -6.9683152470948473E-003   6.5383219866323228E-002
   2.2676960034823744E-002  -6.7555952051078921E-003   6.4627117473096629E-002
   2.1799688116195620E-002  -6.5333833858152168E-003   6.4307299988961175E-002
   1.7936340236286832E-002  -5.5239599701073505E-003   6.6225100457409092E-002
   1.7441111494211958E-002  -5.3786576197982772E-003   6.5247319561652056E-002
   1.6945882752137056E-002  -5.2262364315845827E-003   6.4597340109910112E-002
   1.6450654010062182E-002  -5.0666964054661943E-003   6.4275162102183439E-002
   1.5955425267987301E-002  -4.9000375414433861E-003   6.4280785538471996E-002
   1.1260732422450598E-002  -3.6826399410634647E-003   6.4198673867402190E-002
   1.1039063391852809E-002  -3.5857717278204859E-003   6.3869411347896157E-002
   1.0817394361255023E-002  -3.4841576160742349E-003   6.3759466807329024E-002
   1.0595725330657233E-002  -3.3777976058245521E-003   6.3868840245700942E-002
   1.0374056300059453E-002  -3.2666916970715554E-003   6.4197531663012009E-002
   5.2819523491994484E-003  -1.8413199120195789E-003   6.2124999610029860E-002
   5.2253595650026182E-003  -1.7928858358427779E-003   6.2441882527373455E-002
   5.1687667808057803E-003  -1.7420788005639010E-003   6.2869599958579964E-002
   5.1121739966089371E-003  -1.6888988061828543E-003   6.3408151903649346E-002
   5.0555812124121009E-003  -1.6333458526997247E-003   6.4057538362581573E-002
   1.6533399649354408E-011   1.1702433466709294E-010   6.0004077685291812E-002
   1.3661363706951590E-011   5.6135013304370318E-011   6.0964733100083879E-002
   1.0789320825654869E-011   1.4946432980167401E-011   6.1927739563662709E-002
   7.9172814138050995E-012  -6.5411009941840348E-012   6.2893097076028331E-002
   5.0452420019553301E-012  -8.3278939300157617E-012   6.3860805637180662E-002
   2.1799688116195620E-002  -6.5333833858152168E-003   6.4307299988961175E-002
   2.1054844561733593E-002  -6.3002082325835651E-003   6.3588472399094237E-002
   2.0310001007271559E-002  -6.0545981887799305E-003   6.3146215195777400E-002
   1.9565157452809515E-002  -5.7965532544044449E-003   6.2980528379010609E-002
   1.8820313898347485E-002  -5.5260734294568237E-003   6.3091411948794085E-002
   1.5955425267987301E-002  -4.9000375414433861E-003   6.4280785538471996E-002
   1.5464562225326516E-002  -4.7251561747933823E-003   6.3813142483097246E-002
   1.4973699182665747E-002  -4.5409486407935809E-003   6.3576890064774919E-002
   1.4482836140004970E-002  -4.3474149394441431E-003   6.3572028283504944E-002
   1.3991973097344193E-002  -4.1445550707451817E-003   6.3798557139287393E-002
   1.0374056300059453E-002  -3.2666916970715554E-003   6.4197531663012009E-002
   1.0091994019702115E-002  -3.1501041170032135E-003   6.3977964418907463E-002
   9.8099317393447825E-003  -3.0272990928073423E-003   6.3944608062357536E-002
   9.5278694589874501E-003  -2.8982766244841189E-003   6.4097462593362187E-002
   9.2458071786301194E-003  -2.7630367120334010E-003   6.4436528011921179E-002
   5.0555812124121009E-003  -1.6333458526997247E-003   6.4057538362581573E-002
   4.9371399448603828E-003  -1.5750520592130654E-003   6.4082938206525067E-002
   4.8186986773086742E-003  -1.5136495448209927E-003   6.4249369188525127E-002
   4.7002574097569569E-003  -1.4491383095240392E-003   6.4556831308581863E-002
   4.5818161422052413E-003  -1.3815183533218006E-003   6.5005324566695291E-002
   5.0452420019553301E-012  -8.3278939300157617E-012   6.3860805637180662E-002
   8.0132428470491845E-013  -1.4228618283596006E-012   6.4128063845949629E-002
  -3.4425934325454932E-012   3.1652735987819369E-012   6.4491173443277594E-002
  -7.6865111497959049E-012   5.4361584678197516E-012   6.4950134429164391E-002
  -1.1930428867046317E-011   5.3900217622526725E-012   6.5504946803609965E-002
   1.8820313898347485E-002  -5.5260734294568237E-003   6.3091411948794085E-002
   1.7925589039003681E-002  -5.2462821188855591E-003   6.2660085471237359E-002
   1.7030864179659863E-002  -4.9603027276389766E-003   6.2469601313148493E-002
   1.6136139320316052E-002  -4.6681352557169792E-003   6.2519959474527431E-002
   1.5241414460972241E-002  -4.3697797031196361E-003   6.2811159955374396E-002
   1.3991973097344193E-002  -4.1445550707451817E-003   6.3798557139287393E-002
   1.3333800281468446E-002  -3.9347115881089578E-003   6.3450529838619846E-002
   1.2675627465592698E-002  -3.7202270449487179E-003   6.3334764305420732E-002
   1.2017454649716947E-002  -3.5011014412640422E-003   6.3451260539689885E-002
   1.1359281833841203E-002  -3.2773347770552186E-003   6.3800018541427250E-002
   9.2458071786301194E-003  -2.7630367120334010E-003   6.4436528011921179E-002
   8.8156058542228945E-003  -2.6231410573324676E-003   6.4170252867991925E-002
   8.3854045298156626E-003  -2.4801513622582927E-003   6.4127658939531304E-002
   7.9552032054084360E-003  -2.3340676268109942E-003   6.4308746226539482E-002
   7.5250018810012059E-003  -2.1848898509904957E-003   6.4713514729016389E-002
   4.5818161422052413E-003  -1.3815183533218006E-003   6.5005324566695291E-002
   4.3710057572669981E-003  -1.3115705265558386E-003   6.4819254559353071E-002
   4.1601953723287453E-003  -1.2400756795679230E-003   6.4848285215480056E-002
   3.9493849873904908E-003  -1.1670338123578906E-003   6.5092416535076303E-002
   3.7385746024522423E-003  -1.0924449249258700E-003   6.5551648518141617E-002
  -1.1930428867046317E-011   5.3900217622526725E-012   6.5504946803609965E-002
  -9.3992383320973261E-012   4.2206793615662264E-012   6.5397534912703670E-002
  -6.8680512665952875E-012   3.1223357233045590E-012   6.5496643133267030E-002
  -4.3368572621993451E-012   2.0950324808310938E-012   6.5802271465300155E-002
  -1.8056736661442585E-012   1.1387557563580231E-012   6.6314419908802713E-002
   1.5241414460972241E-002  -4.3697797031196361E-003   6.2811159955374396E-002
   1.4374103936239099E-002  -4.0639564972806408E-003   6.2592558414974131E-002
   1.3506793411505985E-002  -3.7493860656335892E-003   6.2581287137677327E-002
   1.2639482886772857E-002  -3.4260684081785821E-003   6.2777346123483888E-002
   1.1772172362039729E-002  -3.0940035249157338E-003   6.3180735372393548E-002
   1.1359281833841203E-002  -3.2773347770552186E-003   6.3800018541427250E-002
   1.0701675914279549E-002  -3.0479673728628920E-003   6.3639297840011710E-002
   1.0044069994717901E-002  -2.8120395492283040E-003   6.3690656085835684E-002
   9.3864640751562430E-003  -2.5695513061513124E-003   6.3954093278899476E-002
   8.7288581555945988E-003  -2.3205026436321496E-003   6.4429609419202949E-002
   7.5250018810012059E-003  -2.1848898509904957E-003   6.4713514729016389E-002
   7.0818492507474552E-003  -2.0319782484449211E-003   6.4608488060219529E-002
   6.6386966204937045E-003  -1.8746930328230119E-003   6.4720289022798777E-002
   6.1955439902399503E-003  -1.7130342041240410E-003   6.5048917616754146E-002
   5.7523913599861892E-003  -1.5470017623485099E-003   6.5594373842085607E-002
   3.7385746024522423E-003  -1.0924449249258700E-003   6.5551648518141617E-002
   3.5146239456428112E-003  -1.0159891240272834E-003   6.5500129075597921E-002
   3.2906732888333835E-003  -9.3734651641761216E-004   6.5670185948566773E-002
   3.0667226320239506E-003  -8.5651710209671498E-004   6.6061819137047950E-002
   2.8427719752145246E-003  -7.7350088106489800E-004   6.6675028641041939E-002
  -1.8056736661442585E-012   1.1387557563580231E-012   6.6314419908802713E-002
  -1.0343670364676427E-012   3.9085401581928636E-013   6.6314220886146580E-002
  -2.6304999845017107E-013  -1.2240208846492351E-014   6.6540346863139310E-002
   5.0826183539687264E-013  -6.9368122357360562E-014   6.6992797839780932E-002
   1.2795736692439164E-012   2.1871393585115584E-013   6.7671573816071473E-002
   1.1772172362039729E-002  -3.0940035249157338E-003   6.3180735372393548E-002
   1.0800682343103760E-002  -2.7664892022187804E-003   6.3045903297197281E-002
   9.8291923241678181E-003  -2.4568232264623735E-003   6.3167338526808781E-002
   8.8577023052318488E-003  -2.1650055976462704E-003   6.3545041061227908E-002
   7.8862122862959072E-003  -1.8910363157704779E-003   6.4179010900454858E-002
   8.7288581555945988E-003  -2.3205026436321496E-003   6.4429609419202949E-002
   8.0102867414236362E-003  -2.0748669015185350E-003   6.4342658751203763E-002
   7.2917153272526597E-003  -1.8426174196584932E-003   6.4505277987926907E-002
   6.5731439130816798E-003  -1.6237541980521561E-003   6.4917467129372158E-002
   5.8545724989107067E-003  -1.4182772366995167E-003   6.5579226175540073E-002
   5.7523913599861892E-003  -1.5470017623485099E-003   6.5594373842085607E-002
   5.2800411504948068E-003  -1.3832446008180677E-003   6.5559766667970226E-002
   4.8076909410034105E-003  -1.2284116128545991E-003   6.5768031998491586E-002
   4.3353407315120211E-003  -1.0825027984580939E-003   6.6219169833649949E-002
   3.8629905220206318E-003  -9.4551815762866642E-004   6.6913180173444997E-002
   2.8427719752145246E-003  -7.7350088106489800E-004   6.6675028641041939E-002
   2.6099455703173105E-003  -6.9162230011787784E-004   6.6697227047496810E-002
   2.3771191654201034E-003  -6.1420580605071190E-004   6.6955600558503289E-002
   2.1442927605228894E-003  -5.4125139886400560E-004   6.7450149174061211E-002
   1.9114663556256822E-003  -4.7275907855764965E-004   6.8180872894170685E-002
   1.2795736692439164E-012   2.1871393585115584E-013   6.7671573816071473E-002
   8.9113438850318971E-013   5.8286708792820718E-013   6.7755039889783653E-002
   5.0271245499722284E-013   7.5323081105693745E-013   6.8067983667961685E-002
   1.1428358259735205E-013   7.2998551647884824E-013   6.8610405150605930E-002
  -2.7414875924947069E-013   5.1314508198174735E-013   6.9382304337716083E-002
   7.8862122862959072E-003  -1.8910363157704779E-003   6.4179010900454858E-002
   6.9540933928715354E-003  -1.6809537490103943E-003   6.4089602509536325E-002
   6.0219744994471636E-003  -1.5807962655414176E-003   6.4249669896133232E-002
   5.0898556060227917E-003  -1.5905638653633258E-003   6.4659213060245579E-002
   4.1577367125984477E-003  -1.7102565484765631E-003   6.5318232001873699E-002
   5.8545724989107067E-003  -1.4182772366995167E-003   6.5579226175540073E-002
   5.1678178694719301E-003  -1.2607153116979686E-003   6.5429579633716595E-002
   4.4810632400331396E-003  -1.1855971991454051E-003   6.5521185842348756E-002
   3.7943086105943630E-003  -1.1929228990416457E-003   6.5854044801436654E-002
   3.1075539811555725E-003  -1.2826924113863436E-003   6.6428156510980219E-002
   3.8629905220206318E-003  -9.4551815762866642E-004   6.6913180173444997E-002
   3.4133771295075388E-003  -8.4047687438584817E-004   6.6730776751559251E-002
   2.9637637369944424E-003  -7.9039813274939252E-004   6.6781403053069122E-002
   2.5141503444813459E-003  -7.9528193271974357E-004   6.7065059077975026E-002
   2.0645369519682530E-003  -8.5512827429645721E-004   6.7581744826276213E-002
   1.9114663556256822E-003  -4.7275907855764965E-004   6.8180872894170685E-002
   1.6907711729783840E-003  -4.2023843707363062E-004   6.7993193863064613E-002
   1.4700759903310641E-003  -3.9519906635360202E-004   6.8030321528294552E-002
   1.2493808076837545E-003  -3.9764096639778590E-004   6.8292255889859946E-002
   1.0286856250364459E-003  -4.2756413720629327E-004   6.8778996947761586E-002
  -2.7414875924947069E-013   5.1314508198174735E-013   6.9382304337716083E-002
  -1.1557421686347880E-013   2.3864243914317740E-013   6.9216830968232168E-002
   4.3017672757272862E-014   4.2410519540680980E-014   6.9267941268024324E-002
   2.0160782765454854E-013  -7.5994766035591965E-014   6.9535635237092247E-002
   3.6018410476401641E-013  -1.1635137298071641E-013   7.0019912875436185E-002
   4.1577367125984477E-003  -1.7102565484765631E-003   6.5318232001873699E-002
   3.6273804999171766E-003  -2.0014663603119542E-003   6.4402150566394867E-002
   3.0970242872359055E-003  -2.5257853463009350E-003   6.3605335200625612E-002
   2.5666680745546483E-003  -3.2832135064435469E-003   6.2927785904565325E-002
   2.0363118618733911E-003  -4.2737508407397762E-003   6.2369502678214728E-002
   3.1075539811555725E-003  -1.2826924113863436E-003   6.6428156510980219E-002
   2.6997945840443738E-003  -1.5010997702652462E-003   6.5318600996231324E-002
   2.2920351869331682E-003  -1.8943390097638235E-003   6.4334973042912968E-002
   1.8842757898219556E-003  -2.4624101298815620E-003   6.3477272651025651E-002
   1.4765163927107777E-003  -3.2053131306186700E-003   6.2745499820568762E-002
   2.0645369519682530E-003  -8.5512827429645721E-004   6.7581744826276213E-002
   1.7860358621485106E-003  -1.0007331802188157E-003   6.6336992525791172E-002
   1.5075347723287648E-003  -1.2628926732266288E-003   6.5224829278458379E-002
   1.2290336825090224E-003  -1.6416067533194731E-003   6.4245255084277628E-002
   9.5053259268926271E-004  -2.1368754204975637E-003   6.3398269943248986E-002
   1.0286856250364459E-003  -4.2756413720629327E-004   6.8778996947761586E-002
   8.8610433422958539E-004  -5.0036659017241303E-004   6.7457325155074757E-002
   7.4352304342270494E-004  -6.3144633668947570E-004   6.6274903907261290E-002
   6.0094175261582363E-004  -8.2080337675721413E-004   6.5231733204321490E-002
   4.5836046180896400E-004  -1.0684377103763465E-003   6.4327813046255428E-002
   3.6018410476401641E-013  -1.1635137298071641E-013   7.0019912875436185E-002
   2.8757551895353117E-013  -1.2567724638756772E-013   6.8679598884081816E-002
   2.1498081093085375E-013  -1.5204504322241519E-013   6.7485196929322089E-002
   1.4237222512036851E-013  -1.9505230763883219E-013   6.6436707011157503E-002
   6.9777517097691089E-014  -2.5535129566378600E-013   6.5534129129587892E-002
   2.0363118618733911E-003  -4.2737508407397762E-003   6.2369502678214728E-002
   2.2862644252603925E-003  -5.5770296404222819E-003   5.8339048536557025E-002
   2.5362169886473940E-003  -7.2726821967245003E-003   5.4303226625635692E-002
   2.7861695520343746E-003  -9.3607085096461262E-003   5.0262036945450395E-002
   3.0361221154214246E-003  -1.1841108579186965E-002   4.6215479496002132E-002
   1.4765163927107777E-003  -3.2053131306186700E-003   6.2745499820568762E-002
   1.7068210939401585E-003  -4.1827722303986459E-003   5.8391250218115365E-002
   1.9371257951695600E-003  -5.4545116476457378E-003   5.4003072660610218E-002
   2.1674304963989581E-003  -7.0205313823592172E-003   4.9580967148053628E-002
   2.3977351976283423E-003  -8.8808314345396600E-003   4.5124933680445789E-002
   9.5053259268926271E-004  -2.1368754204975637E-003   6.3398269943248986E-002
   1.1326292459732379E-003  -2.7885148203752319E-003   5.8818318319152324E-002
   1.3147258992571922E-003  -3.6363410985669753E-003   5.4175878554216572E-002
   1.4968225525411483E-003  -4.6803542550726412E-003   4.9470950648440579E-002
   1.6789192058251218E-003  -5.9205542898923547E-003   4.4703534601826633E-002
   4.5836046180896400E-004  -1.0684377103763465E-003   6.4327813046255428E-002
   5.6368888135961345E-004  -1.3942574103514849E-003   5.9620252839668160E-002
   6.6901730091026117E-004  -1.8181705494881018E-003   5.4821644306454087E-002
   7.7434572046090932E-004  -2.3401771277861208E-003   4.9931987446612584E-002
   8.7967414001154445E-004  -2.9602771452450494E-003   4.4951282260143999E-002
   6.9777517097691089E-014  -2.5535129566378600E-013   6.5534129129587892E-002
   9.9281693977104624E-014  -3.2784885917180873E-013   6.0797053779663157E-002
   1.2878587085651816E-013  -4.0939474033052647E-013   5.5940369917323318E-002
   1.5828657828897974E-013  -4.9903137178120005E-013   5.0964077542568265E-002
   1.8779422461534523E-013  -5.9774407645818428E-013   4.5868176655398329E-002
   1.6533399649354408E-011   1.1702433466709294E-010   6.0004077685291812E-002
   1.3661363706951590E-011   5.6135013304370318E-011   6.0964733100083879E-002
   1.0789320825654869E-011   1.4946432980167401E-011   6.1927739563662709E-002
   7.9172814138050995E-012  -6.5411009941840348E-012   6.2893097076028331E-002
   5.0452420019553301E-012  -8.3278939300157617E-012   6.3860805637180662E-002
  -5.2819523152132161E-003   1.8413200997287049E-003   6.2124999493040456E-002
  -5.2253595373580146E-003   1.7928859216009840E-003   6.2441882448344338E-002
  -5.1687667595028079E-003   1.7420788184069891E-003   6.2869599916315799E-002
  -5.1121739816476029E-003   1.6888987901468727E-003   6.3408151896955103E-002
  -5.0555812037923926E-003   1.6333458368204268E-003   6.4057538390262125E-002
  -1.1260732385706060E-002   3.6826400824330197E-003   6.4198673655934568E-002
  -1.1039063363242568E-002   3.5857717870669548E-003   6.3869411206982751E-002
  -1.0817394340779054E-002   3.4841576218675174E-003   6.3759466734579870E-002
  -1.0595725318315555E-002   3.3777975868348187E-003   6.3868840238725758E-002
  -1.0374056295852054E-002   3.2666916819686920E-003   6.4197531719420470E-002
  -1.7936340194945135E-002   5.5239600651373622E-003   6.6225100173973553E-002
  -1.7441111463992281E-002   5.3786576525328561E-003   6.5247319375999369E-002
  -1.6945882733039434E-002   5.2262364253280319E-003   6.4597340018454852E-002
  -1.6450654002086607E-002   5.0666963835227508E-003   6.4275162101340350E-002
  -1.5955425271133750E-002   4.9000375271169294E-003   6.4280785624655529E-002
  -2.5308775742930403E-002   7.3652800478417046E-003   6.8204279047157923E-002
  -2.4431503839607183E-002   7.1715435179988685E-003   6.6575606955393996E-002
  -2.3554231936283948E-002   6.9683152287885602E-003   6.5383219767940842E-002
  -2.2676960032960724E-002   6.7555951802107002E-003   6.4627117484798699E-002
  -2.1799688129637493E-002   6.5333833722652779E-003   6.4307300105967524E-002
   5.0452420019553301E-012  -8.3278939300157617E-012   6.3860805637180662E-002
   8.0132428470491845E-013  -1.4228618283596006E-012   6.4128063845949629E-002
  -3.4425934325454932E-012   3.1652735987819369E-012   6.4491173443277594E-002
  -7.6865111497959049E-012   5.4361584678197516E-012   6.4950134429164391E-002
  -1.1930428867046317E-011   5.3900217622526725E-012   6.5504946803609965E-002
  -5.0555812037923926E-003   1.6333458368204268E-003   6.4057538390262125E-002
  -4.9371399444879654E-003   1.5750520580154193E-003   6.4082938226694558E-002
  -4.8186986851835433E-003   1.5136495533194724E-003   6.4249369201664769E-002
  -4.7002574258791230E-003   1.4491383227326817E-003   6.4556831315172855E-002
  -4.5818161665747009E-003   1.3815183662549413E-003   6.5005324567218581E-002
  -1.0374056295852054E-002   3.2666916819686920E-003   6.4197531719420470E-002
  -1.0091994023020377E-002   3.1501041174535893E-003   6.3977964459942471E-002
  -9.8099317501887072E-003   3.0272991034737268E-003   6.3944608088981211E-002
  -9.5278694773570354E-003   2.8982766400292050E-003   6.4097462606536759E-002
  -9.2458072045253619E-003   2.7630367271199163E-003   6.4436528012608796E-002
  -1.5955425271133750E-002   4.9000375271169294E-003   6.4280785624655529E-002
  -1.5464562234795923E-002   4.7251561768918704E-003   6.3813142545693341E-002
  -1.4973699198458094E-002   4.5409486536281199E-003   6.3576890105226810E-002
  -1.4482836162120257E-002   4.3474149573257837E-003   6.3572028303255840E-002
  -1.3991973125782448E-002   4.1445550879848914E-003   6.3798557139780471E-002
  -2.1799688129637493E-002   6.5333833722652779E-003   6.4307300105967524E-002
  -2.1054844579814595E-002   6.3002082363300127E-003   6.3588472483947223E-002
  -2.0310001029991698E-002   6.0545982037822216E-003   6.3146215250401566E-002
  -1.9565157480168793E-002   5.7965532746222619E-003   6.2980528405330430E-002
  -1.8820313930345896E-002   5.5260734488498664E-003   6.3091411948733744E-002
  -1.1930428867046317E-011   5.3900217622526725E-012   6.5504946803609965E-002
  -9.3992383320973261E-012   4.2206793615662264E-012   6.5397534912703670E-002
  -6.8680512665952875E-012   3.1223357233045590E-012   6.5496643133267030E-002
  -4.3368572621993451E-012   2.0950324808310938E-012   6.5802271465300155E-002
  -1.8056736661442585E-012   1.1387557563580231E-012   6.6314419908802713E-002
  -4.5818161665747009E-003   1.3815183662549413E-003   6.5005324567218581E-002
  -4.3710057764758149E-003   1.3115705367914565E-003   6.4819254559099010E-002
  -4.1601953863769393E-003   1.2400756872471691E-003   6.4848285214645335E-002
  -3.9493849962780577E-003   1.1670338176222907E-003   6.5092416533857195E-002
  -3.7385746061791778E-003   1.0924449279166581E-003   6.5551648516734784E-002
  -9.2458072045253619E-003   2.7630367271199163E-003   6.4436528012608796E-002
  -8.8156058746627457E-003   2.6231410693620949E-003   6.4170252867124369E-002
  -8.3854045448001312E-003   2.4801513713720025E-003   6.4127658937501664E-002
  -7.9552032149375149E-003   2.3340676331494933E-003   6.4308746223740804E-002
  -7.5250018850749004E-003   2.1848898546946161E-003   6.4713514725841692E-002
  -1.3991973125782448E-002   4.1445550879848914E-003   6.3798557139780471E-002
  -1.3333800303960029E-002   3.9347116019328859E-003   6.3450529836779498E-002
  -1.2675627482137627E-002   3.7202270554967248E-003   6.3334764301836349E-002
  -1.2017454660315233E-002   3.5011014486767793E-003   6.3451260534951009E-002
  -1.1359281838492812E-002   3.2773347814726572E-003   6.3800018536123521E-002
  -1.8820313930345896E-002   5.5260734488498664E-003   6.3091411948733744E-002
  -1.7925589064367666E-002   5.2462821345035382E-003   6.2660085468064675E-002
  -1.7030864198389443E-002   4.9603027396215721E-003   6.2469601307649364E-002
  -1.6136139332411210E-002   4.6681352642039577E-003   6.2519959467487882E-002
  -1.5241414466432984E-002   4.3697797082504763E-003   6.2811159947580353E-002
  -1.8056736661442585E-012   1.1387557563580231E-012   6.6314419908802713E-002
  -1.0343670364676427E-012   3.9085401581928636E-013   6.6314220886146580E-002
  -2.6304999845017107E-013  -1.2240208846492351E-014   6.6540346863139310E-002
   5.0826183539687264E-013  -6.9368122357360562E-014   6.6992797839780932E-002
   1.2795736692439164E-012   2.1871393585115584E-013   6.7671573816071473E-002
  -3.7385746061791778E-003   1.0924449279166581E-003   6.5551648516734784E-002
  -3.5146239477944173E-003   1.0159891252015385E-003   6.5500129074724217E-002
  -3.2906732894096534E-003   9.3734651654769907E-004   6.5670185948291798E-002
  -3.0667226310248956E-003   8.5651710195534803E-004   6.6061819137437264E-002
  -2.8427719726401290E-003   7.7350088142463802E-004   6.6675028642160461E-002
  -7.5250018850749004E-003   2.1848898546946161E-003   6.4713514725841692E-002
  -7.0818492531476897E-003   2.0319782500124728E-003   6.4608488058192831E-002
  -6.6386966212204929E-003   1.8746930331077077E-003   6.4720289022051111E-002
  -6.1955439892932927E-003   1.7130342039803452E-003   6.5048917617416213E-002
  -5.7523913573660854E-003   1.5470017626305621E-003   6.5594373844288373E-002
  -1.1359281838492812E-002   3.2773347814726572E-003   6.3800018536123521E-002
  -1.0701675917094186E-002   3.0479673748234487E-003   6.3639297836552630E-002
  -1.0044069995695543E-002   2.8120395496675707E-003   6.3690656084417485E-002
  -9.3864640742969130E-003   2.5695513060054794E-003   6.3954093279718377E-002
  -8.7288581528982695E-003   2.3205026438365972E-003   6.4429609422455181E-002
  -1.5241414466432984E-002   4.3697797082504763E-003   6.2811159947580353E-002
  -1.4374103939633918E-002   4.0639564996342026E-003   6.2592558409803045E-002
  -1.3506793412834842E-002   3.7493860662275447E-003   6.2581287135390906E-002
  -1.2639482886035771E-002   3.4260684080299753E-003   6.2777346124343603E-002
  -1.1772172359236700E-002   3.0940035250424103E-003   6.3180735376661135E-002
   1.2795736692439164E-012   2.1871393585115584E-013   6.7671573816071473E-002
   8.9113438850318971E-013   5.8286708792820718E-013   6.7755039889783653E-002
   5.0271245499722284E-013   7.5323081105693745E-013   6.8067983667961685E-002
   1.1428358259735205E-013   7.2998551647884824E-013   6.8610405150605930E-002
  -2.7414875924947069E-013   5.1314508198174735E-013   6.9382304337716083E-002
  -2.8427719726401290E-003   7.7350088142463802E-004   6.6675028642160461E-002
  -2.6099455685220999E-003   6.9162230118019474E-004   6.6697227048265306E-002
  -2.3771191644040811E-003   6.1420580744624143E-004   6.6955600558916889E-002
  -2.1442927602860510E-003   5.4125140022338522E-004   6.7450149174115209E-002
  -1.9114663561680331E-003   4.7275907951127571E-004   6.8180872893860711E-002
  -5.7523913573660854E-003   1.5470017626305621E-003   6.5594373844288373E-002
  -5.2800411486608389E-003   1.3832446017773004E-003   6.5559766669490413E-002
  -4.8076909399555907E-003   1.2284116141392520E-003   6.5768031999320020E-002
  -4.3353407312503502E-003   1.0825027997166184E-003   6.6219169833777292E-002
  -3.8629905225451098E-003   9.4551815850929533E-004   6.6913180172862130E-002
  -8.7288581528982695E-003   2.3205026438365972E-003   6.4429609422455181E-002
  -8.0102867395250490E-003   2.0748669023744060E-003   6.4342658753458973E-002
  -7.2917153261518389E-003   1.8426174208321516E-003   6.4505277989171134E-002
  -6.5731439127786140E-003   1.6237541992096573E-003   6.4917467129591719E-002
  -5.8545724994054100E-003   1.4182772375073704E-003   6.5579226174720395E-002
  -1.1772172359236700E-002   3.0940035250424103E-003   6.3180735376661135E-002
  -1.0800682341114740E-002   2.7664892029718446E-003   6.3045903300171235E-002
  -9.8291923229927892E-003   2.4568232275252733E-003   6.3167338528470285E-002
  -8.8577023048708407E-003   2.1650055987031402E-003   6.3545041061558533E-002
  -7.8862122867488782E-003   1.8910363165053345E-003   6.4179010899436006E-002
  -2.7414875924947069E-013   5.1314508198174735E-013   6.9382304337716083E-002
  -1.1557421686347880E-013   2.3864243914317740E-013   6.9216830968232168E-002
   4.3017672757272862E-014   4.2410519540680980E-014   6.9267941268024324E-002
   2.0160782765454854E-013  -7.5994766035591965E-014   6.9535635237092247E-002
   3.6018410476401641E-013  -1.1635137298071641E-013   7.0019912875436185E-002
  -1.9114663561680331E-003   4.7275907951127571E-004   6.8180872893860711E-002
  -1.6907711732073727E-003   4.2023843751065604E-004   6.7993193862914691E-002
  -1.4700759902467296E-003   3.9519906642199176E-004   6.8030321528296994E-002
  -1.2493808072860770E-003   3.9764096624501921E-004   6.8292255890007439E-002
  -1.0286856243254122E-003   4.2756413698041840E-004   6.8778996948046123E-002
  -3.8629905225451098E-003   9.4551815850929533E-004   6.6913180172862130E-002
  -3.4133771297301376E-003   8.4047687478247535E-004   6.6730776751287940E-002
  -2.9637637369151716E-003   7.9039813280157301E-004   6.6781403053094074E-002
  -2.5141503441002120E-003   7.9528193256625523E-004   6.7065059078280545E-002
  -2.0645369512852473E-003   8.5512827407674408E-004   6.7581744826847701E-002
  -5.8545724994054100E-003   1.4182772375073704E-003   6.5579226174720395E-002
  -5.1678178696838613E-003   1.2607153120542808E-003   6.5429579633351914E-002
  -4.4810632399623395E-003   1.1855971991813763E-003   6.5521185842415966E-002
  -3.7943086102408033E-003   1.1929228988872692E-003   6.5854044801912717E-002
  -3.1075539805192681E-003   1.2826924111733473E-003   6.6428156511842140E-002
  -7.8862122867488782E-003   1.8910363165053345E-003   6.4179010899436006E-002
  -6.9540933930685445E-003   1.6809537493263638E-003   6.4089602509106669E-002
  -6.0219744993882038E-003   1.5807962655607355E-003   6.4249669896262407E-002
  -5.0898556057078631E-003   1.5905638652085607E-003   6.4659213060903026E-002
  -4.1577367120275294E-003   1.7102565482697285E-003   6.5318232003028442E-002
   3.6018410476401641E-013  -1.1635137298071641E-013   7.0019912875436185E-002
   2.8757551895353117E-013  -1.2567724638756772E-013   6.8679598884081816E-002
   2.1498081093085375E-013  -1.5204504322241519E-013   6.7485196929322089E-002
   1.4237222512036851E-013  -1.9505230763883219E-013   6.6436707011157503E-002
   6.9777517097691089E-014  -2.5535129566378600E-013   6.5534129129587892E-002
  -1.0286856243254122E-003   4.2756413698041840E-004   6.8778996948046123E-002
  -8.8610433366171151E-004   5.0036658992996808E-004   6.7457325155309056E-002
  -7.4352304299799173E-004   6.3144633639761194E-004   6.6274903907449501E-002
  -6.0094175233428495E-004   8.2080337638278100E-004   6.5231733204467707E-002
  -4.5836046167057123E-004   1.0684377098855169E-003   6.4327813046363813E-002
  -2.0645369512852473E-003   8.5512827407674408E-004   6.7581744826847701E-002
  -1.7860358616025333E-003   1.0007331799860575E-003   6.6336992526262822E-002
  -1.5075347719198332E-003   1.2628926729475742E-003   6.5224829278838103E-002
  -1.2290336822371271E-003   1.6416067529609404E-003   6.4245255084573669E-002
  -9.5053259255443306E-004   2.1368754200263851E-003   6.3398269943469587E-002
  -3.1075539805192681E-003   1.2826924111733473E-003   6.6428156511842140E-002
  -2.6997945835348911E-003   1.5010997700418138E-003   6.5318600996943421E-002
  -2.2920351865505146E-003   1.8943390094972173E-003   6.4334973043487648E-002
  -1.8842757895661381E-003   2.4624101295389368E-003   6.3477272651474931E-002
  -1.4765163925817611E-003   3.2053131301671423E-003   6.2745499820904965E-002
  -4.1577367120275294E-003   1.7102565482697285E-003   6.5318232003028442E-002
  -3.6273804994587933E-003   2.0014663600978477E-003   6.4402150567350547E-002
  -3.0970242868900641E-003   2.5257853460472768E-003   6.3605335201398272E-002
  -2.5666680743213349E-003   3.2832135061170650E-003   6.2927785905171590E-002
  -2.0363118617525988E-003   4.2737508403081215E-003   6.2369502678670807E-002
   6.9777517097691089E-014  -2.5535129566378600E-013   6.5534129129587892E-002
   9.9281693977104624E-014  -3.2784885917180873E-013   6.0797053779663157E-002
   1.2878587085651816E-013  -4.0939474033052647E-013   5.5940369917323318E-002
   1.5828657828897974E-013  -4.9903137178120005E-013   5.0964077542568265E-002
   1.8779422461534523E-013  -5.9774407645818428E-013   4.5868176655398329E-002
  -4.5836046167057123E-004   1.0684377098855169E-003   6.4327813046363813E-002
  -5.6368888116255234E-004   1.3942574097192129E-003   5.9620252839756860E-002
  -6.6901730065454558E-004   1.8181705486970956E-003   5.4821644306522033E-002
  -7.7434572014653969E-004   2.3401771268196786E-003   4.9931987446659443E-002
  -8.7967413963853380E-004   2.9602771440861986E-003   4.4951282260168979E-002
  -9.5053259255443306E-004   2.1368754200263851E-003   6.3398269943469587E-002
  -1.1326292457807287E-003   2.7885148197665521E-003   5.8818318319333845E-002
  -1.3147258990070382E-003   3.6363410978037802E-003   5.4175878554356821E-002
  -1.4968225522333347E-003   4.6803542541385482E-003   4.9470950648539444E-002
  -1.6789192054596572E-003   5.9205542887703633E-003   4.4703534601880923E-002
  -1.4765163925817611E-003   3.2053131301671423E-003   6.2745499820904965E-002
  -1.7068210937552172E-003   4.1827722298136416E-003   5.8391250218392976E-002
  -1.9371257949286867E-003   5.4545116469107008E-003   5.4003072660827399E-002
  -2.1674304961021391E-003   7.0205313814572269E-003   4.9580967148207825E-002
  -2.3977351972756262E-003   8.8808314334545280E-003   4.5124933680535356E-002
  -2.0363118617525988E-003   4.2737508403081215E-003   6.2369502678670807E-002
  -2.2862644250860459E-003   5.5770296398611752E-003   5.8339048536935501E-002
  -2.5362169884194929E-003   7.2726821960169552E-003   5.4303226625933898E-002
  -2.7861695517529157E-003   9.3607085087762942E-003   5.0262036945665722E-002
  -3.0361221150863871E-003   1.1841108578138471E-002   4.6215479496130918E-002
  -2.5308775742930403E-002   7.3652800478417046E-003   6.8204279047157923E-002
  -2.4431503839607183E-002   7.1715435179988685E-003   6.6575606955393996E-002
  -2.3554231936283948E-002   6.9683152287885602E-003   6.5383219767940842E-002
  -2.2676960032960724E-002   6.7555951802107002E-003   6.4627117484798699E-002
  -2.1799688129637493E-002   6.5333833722652779E-003   6.4307300105967524E-002
  -3.2670945601991179E-002   9.2437650631754242E-003   6.2192343086960922E-002
  -3.1415768020527313E-002   9.0097724331395790E-003   6.1208891602991061E-002
  -3.0160590439063464E-002   8.7577529972097667E-003   6.0544966570991704E-002
  -2.8905412857599615E-002   8.4877067553860430E-003   6.0200567990962683E-002
  -2.7650235276135759E-002   8.1996337076682413E-003   6.0175695862903916E-002
  -3.9315756344456693E-002   1.1122250078509088E-002   5.6144418549833972E-002
  -3.7799431537192785E-002   1.0848001348280234E-002   5.5797652627131905E-002
  -3.6283106729928842E-002   1.0547190765630966E-002   5.5653654704059703E-002
  -3.4766781922664913E-002   1.0219818330561273E-002   5.5712424780617345E-002
  -3.3250457115400964E-002   9.8658840430712047E-003   5.5973962856804657E-002
  -4.5243207970326986E-002   1.3000735093842766E-002   5.0060505435777267E-002
  -4.3582494389603550E-002   1.2686230263420972E-002   5.0341890027816513E-002
  -4.1921780808880114E-002   1.2336628534052169E-002   5.0709284167145187E-002
  -4.0261067228156630E-002   1.1951929905736614E-002   5.1162687853762975E-002
  -3.8600353647433180E-002   1.1532134378474224E-002   5.1702101087669983E-002
  -5.0453300479602087E-002   1.4879220109176472E-002   4.3940603744790918E-002
  -4.8764956577759672E-002   1.4524459178561600E-002   4.4841603805045038E-002
  -4.7076612675917243E-002   1.4126066302473372E-002   4.5711854960247877E-002
  -4.5388268774074821E-002   1.3684041480911929E-002   4.6551357210399380E-002
  -4.3699924872232399E-002   1.3198384713877132E-002   4.7360110555499602E-002
  -2.1799688129637493E-002   6.5333833722652779E-003   6.4307300105967524E-002
  -2.1054844579814595E-002   6.3002082363300127E-003   6.3588472483947223E-002
  -2.0310001029991698E-002   6.0545982037822216E-003   6.3146215250401566E-002
  -1.9565157480168793E-002   5.7965532746222619E-003   6.2980528405330430E-002
  -1.8820313930345896E-002   5.5260734488498664E-003   6.3091411948733744E-002
  -2.7650235276135759E-002   8.1996337076682413E-003   6.0175695862903916E-002
  -2.6651130497586304E-002   7.8978663040803615E-003   5.9673985987139397E-002
  -2.5652025719036860E-002   7.5867369946462648E-003   5.9404228180353499E-002
  -2.4652920940487429E-002   7.2662457793659166E-003   5.9366422442546050E-002
  -2.3653816161937992E-002   6.9363926582392543E-003   5.9560568773717321E-002
  -3.3250457115400964E-002   9.8658840430712047E-003   5.5973962856804657E-002
  -3.2041709427620968E-002   9.4955243718308074E-003   5.5692443718062049E-002
  -3.0832961739840965E-002   9.1188757855102595E-003   5.5598258328802018E-002
  -2.9624214052060987E-002   8.7359382841095175E-003   5.5691406689024517E-002
  -2.8415466364280943E-002   8.3467118676286700E-003   5.5971888798729622E-002
  -3.8600353647433180E-002   1.1532134378474224E-002   5.1702101087669983E-002
  -3.7226581369918570E-002   1.1093182439581233E-002   5.1643845676715185E-002
  -3.5852809092403980E-002   1.0651014576374140E-002   5.1728305695747150E-002
  -3.4479036814889383E-002   1.0205630788853202E-002   5.1955481144765572E-002
  -3.3105264537374751E-002   9.7570310770180996E-003   5.2325372023770717E-002
  -4.3699924872232399E-002   1.3198384713877132E-002   4.7360110555499602E-002
  -4.2205746324479154E-002   1.2690840507331658E-002   4.7528191863098923E-002
  -4.0711567776725938E-002   1.2183153367238297E-002   4.7794370281188825E-002
  -3.9217389228972721E-002   1.1675323293596829E-002   4.8158645809769460E-002
  -3.7723210681219477E-002   1.1167350286407474E-002   4.8621018448840647E-002
  -1.8820313930345896E-002   5.5260734488498664E-003   6.3091411948733744E-002
  -1.7925589064367666E-002   5.2462821345035382E-003   6.2660085468064675E-002
  -1.7030864198389443E-002   4.9603027396215721E-003   6.2469601307649364E-002
  -1.6136139332411210E-002   4.6681352642039577E-003   6.2519959467487882E-002
  -1.5241414466432984E-002   4.3697797082504763E-003   6.2811159947580353E-002
  -2.3653816161937992E-002   6.9363926582392543E-003   5.9560568773717321E-002
  -2.2526749127302417E-002   6.5976438459220133E-003   5.9185285392165499E-002
  -2.1399682092666860E-002   6.2504655570699980E-003   5.9033844027674545E-002
  -2.0272615058031268E-002   5.8948577916829760E-003   5.9106244680244439E-002
  -1.9145548023395725E-002   5.5308205497611729E-003   5.9402487349875133E-002
  -2.8415466364280943E-002   8.3467118676286700E-003   5.5971888798729622E-002
  -2.7073057464181035E-002   7.9490055573406965E-003   5.5650407120295925E-002
  -2.5730648564081152E-002   7.5406283745185279E-003   5.5535767155730116E-002
  -2.4388239663981230E-002   7.1215803191622146E-003   5.5627968905032035E-002
  -2.3045830763881357E-002   6.6918613912718694E-003   5.5927012368201828E-002
  -3.3105264537374751E-002   9.7570310770180996E-003   5.2325372023770717E-002
  -3.1564514075003589E-002   9.3003672687592201E-003   5.2055450652455926E-002
  -3.0023763612632356E-002   8.8307911919670613E-003   5.1975370691815903E-002
  -2.8483013150261121E-002   8.3483028466413423E-003   5.2085132141850780E-002
  -2.6942262687889931E-002   7.8529022327823994E-003   5.2384735002560273E-002
  -3.7723210681219477E-002   1.1167350286407474E-002   4.8621018448840647E-002
  -3.6001118959769957E-002   1.0651728980177827E-002   4.8400415988645418E-002
  -3.4279027238320450E-002   1.0120954009415511E-002   4.8352654635931969E-002
  -3.2556935516870944E-002   9.5750253741205063E-003   4.8477734390700383E-002
  -3.0834843795421424E-002   9.0139430742931514E-003   4.8775655252950689E-002
  -1.5241414466432984E-002   4.3697797082504763E-003   6.2811159947580353E-002
  -1.4374103939633918E-002   4.0639564996342026E-003   6.2592558409803045E-002
  -1.3506793412834842E-002   3.7493860662275447E-003   6.2581287135390906E-002
  -1.2639482886035771E-002   3.4260684080299753E-003   6.2777346124343603E-002
  -1.1772172359236700E-002   3.0940035250424103E-003   6.3180735376661135E-002
  -1.9145548023395725E-002   5.5308205497611729E-003   5.9402487349875133E-002
  -1.8073897664985163E-002   5.1586708551529248E-003   5.9176474870007323E-002
  -1.7002247306574653E-002   4.7787257317062071E-003   5.9151811789997261E-002
  -1.5930596948164101E-002   4.3909851794213736E-003   5.9328498109845390E-002
  -1.4858946589753556E-002   3.9954491982983065E-003   5.9706533829551711E-002
  -2.3045830763881357E-002   6.6918613912718694E-003   5.5927012368201828E-002
  -2.1775821437366248E-002   6.2533852106713694E-003   5.5694540742195459E-002
  -2.0505812110851208E-002   5.8080653971848695E-003   5.5657437652540248E-002
  -1.9235802784336127E-002   5.3559019508125499E-003   5.5815703099236030E-002
  -1.7965793457821060E-002   4.8968948715542027E-003   5.6169337082282944E-002
  -2.6942262687889931E-002   7.8529022327823994E-003   5.2384735002560273E-002
  -2.5479875256777244E-002   7.3480995661898973E-003   5.2146756026367834E-002
  -2.4017487825664582E-002   6.8374050626637539E-003   5.2098164723019424E-002
  -2.2555100394551875E-002   6.3208187222036152E-003   5.2238961092515072E-002
  -2.1092712963439203E-002   5.7983405448100989E-003   5.2569145134854917E-002
  -3.0834843795421424E-002   9.0139430742931514E-003   4.8775655252950689E-002
  -2.9186059123218047E-002   8.4428139217085918E-003   4.8533120722524137E-002
  -2.7537274451014698E-002   7.8667447281422775E-003   4.8473993001434790E-002
  -2.5888489778811349E-002   7.2857354935949234E-003   4.8598272089682898E-002
  -2.4239705106607973E-002   6.6997862180658840E-003   4.8905957987267823E-002
  -1.1772172359236700E-002   3.0940035250424103E-003   6.3180735376661135E-002
  -1.0800682341114740E-002   2.7664892029718446E-003   6.3045903300171235E-002
  -9.8291923229927892E-003   2.4568232275252733E-003   6.3167338528470285E-002
  -8.8577023048708407E-003   2.1650055987031402E-003   6.3545041061558533E-002
  -7.8862122867488782E-003   1.8910363165053345E-003   6.4179010899436006E-002
  -1.4858946589753556E-002   3.9954491982983065E-003   5.9706533829551711E-002
  -1.3643622700693494E-002   3.6014726135024100E-003   5.9553576965718391E-002
  -1.2428298811633407E-002   3.2184102501991996E-003   5.9632020538972291E-002
  -1.1212974922573326E-002   2.8462621083880091E-003   5.9941864549313245E-002
  -9.9976510335132614E-003   2.4850281880695047E-003   6.0483108996741530E-002
  -1.7965793457821060E-002   4.8968948715542027E-003   5.6169337082282944E-002
  -1.6531502565524870E-002   4.4364560240333639E-003   5.5991321305974506E-002
  -1.5097211673228663E-002   3.9799972728729038E-003   5.6019839099051283E-002
  -1.3662920780932458E-002   3.5275186180729334E-003   5.6254890461513288E-002
  -1.2228629888636267E-002   3.0790200596337303E-003   5.6696475393360118E-002
  -2.1092712963439203E-002   5.7983405448100989E-003   5.2569145134854917E-002
  -1.9464321935608868E-002   5.2714394345640680E-003   5.2359136320939484E-002
  -1.7835930907778498E-002   4.7415842955464971E-003   5.2330794208707440E-002
  -1.6207539879948139E-002   4.2087751277579410E-003   5.2484118798158376E-002
  -1.4579148852117800E-002   3.6730119311978726E-003   5.2819110089292617E-002
  -2.4239705106607973E-002   6.6997862180658840E-003   4.8905957987267823E-002
  -2.2442080810945453E-002   6.1064228450949942E-003   4.8657022010613671E-002
  -2.0644456515282961E-002   5.5031713182205344E-003   4.8564885867940499E-002
  -1.8846832219620469E-002   4.8900316374428376E-003   4.8629549559248753E-002
  -1.7049207923957949E-002   4.2670038027621260E-003   4.8851013084537986E-002
  -7.8862122867488782E-003   1.8910363165053345E-003   6.4179010899436006E-002
  -6.9540933930685445E-003   1.6809537493263638E-003   6.4089602509106669E-002
  -6.0219744993882038E-003   1.5807962655607355E-003   6.4249669896262407E-002
  -5.0898556057078631E-003   1.5905638652085607E-003   6.4659213060903026E-002
  -4.1577367120275294E-003   1.7102565482697285E-003   6.5318232003028442E-002
  -9.9976510335132614E-003   2.4850281880695047E-003   6.0483108996741530E-002
  -8.8154510355251472E-003   2.1853354989067597E-003   6.0385812486992596E-002
  -7.6332510375369898E-003   1.9978110505623481E-003   6.0539202408374321E-002
  -6.4510510395488696E-003   1.9224548430369776E-003   6.0943278760886552E-002
  -5.2688510415607147E-003   1.9592668763301901E-003   6.1598041544529469E-002
  -1.2228629888636267E-002   3.0790200596337303E-003   5.6696475393360118E-002
  -1.0795138132694601E-002   2.6897172484867948E-003   5.6593533921597106E-002
  -9.3616463767529339E-003   2.4148258355638497E-003   5.6742489534610224E-002
  -7.9281546208112737E-003   2.2543458208651723E-003   5.7143342232399807E-002
  -6.4946628648696290E-003   2.2082772043905963E-003   5.7796092014965800E-002
  -1.4579148852117800E-002   3.6730119311978726E-003   5.2819110089292617E-002
  -1.2893154684576923E-002   3.1940989980670104E-003   5.2712766812920309E-002
  -1.1207160517036005E-002   2.8318406205655178E-003   5.2859531274970381E-002
  -9.5211663494951214E-003   2.5862367986933116E-003   5.3259403475442127E-002
  -7.8351721819542100E-003   2.4572875324510302E-003   5.3912383414336594E-002
  -1.7049207923957949E-002   4.2670038027621260E-003   4.8851013084537986E-002
  -1.5109500691172090E-002   3.6984807476471149E-003   4.8743511160962205E-002
  -1.3169793458386231E-002   3.2488554055669361E-003   4.8890327629454389E-002
  -1.1230086225600358E-002   2.9181277765217215E-003   4.9291462490014454E-002
  -9.2903789928145131E-003   2.7062978605114640E-003   4.9946915742642206E-002
  -4.1577367120275294E-003   1.7102565482697285E-003   6.5318232003028442E-002
  -3.6273804994587933E-003   2.0014663600978477E-003   6.4402150567350547E-002
  -3.0970242868900641E-003   2.5257853460472768E-003   6.3605335201398272E-002
  -2.5666680743213349E-003   3.2832135061170650E-003   6.2927785905171590E-002
  -2.0363118617525988E-003   4.2737508403081215E-003   6.2369502678670807E-002
  -5.2688510415607147E-003   1.9592668763301901E-003   6.1598041544529469E-002
  -4.5933326721252672E-003   2.2153259902722988E-003   6.0872876249517094E-002
  -3.9178143026897486E-003   2.7977110246938941E-003   6.0318769198512284E-002
  -3.2422959332542587E-003   3.7064219795943515E-003   5.9935720391515415E-002
  -2.5667775638187791E-003   4.9414588549738792E-003   5.9723729828526584E-002
  -6.4946628648696290E-003   2.2082772043905963E-003   5.7796092014965800E-002
  -5.6221901642852460E-003   2.4291856204467221E-003   5.7355059606976733E-002
  -4.7497174637008924E-003   3.0696367033405253E-003   5.7136877617277829E-002
  -3.8772447631165389E-003   4.1296304530714194E-003   5.7141546045868706E-002
  -3.0047720625321836E-003   5.6091668696398589E-003   5.7369064892749566E-002
  -7.8351721819542100E-003   2.4572875324510302E-003   5.3912383414336594E-002
  -6.7139529759388519E-003   2.6430452506210483E-003   5.3848700639729574E-002
  -5.5927337699234938E-003   3.3415623819871496E-003   5.4059660457694503E-002
  -4.4715145639081374E-003   4.5528389265483745E-003   5.4545262868231754E-002
  -3.3502953578927793E-003   6.2768748843060607E-003   5.5305507871340961E-002
  -9.2903789928145131E-003   2.7062978605114640E-003   4.9946915742642206E-002
  -7.8686211070860129E-003   2.8569048807955966E-003   5.0353799347775396E-002
  -6.4468632213575544E-003   3.6134880606338016E-003   5.1087117719762876E-002
  -5.0251053356290612E-003   4.9760474000257252E-003   5.2146870858604227E-002
  -3.6033474499005957E-003   6.9445828989717073E-003   5.3533058764300034E-002
  -2.0363118617525988E-003   4.2737508403081215E-003   6.2369502678670807E-002
  -2.2862644250860459E-003   5.5770296398611752E-003   5.8339048536935501E-002
  -2.5362169884194929E-003   7.2726821960169552E-003   5.4303226625933898E-002
  -2.7861695517529157E-003   9.3607085087762942E-003   5.0262036945665722E-002
  -3.0361221150863871E-003   1.1841108578138471E-002   4.6215479496130918E-002
  -2.5667775638187791E-003   4.9414588549738792E-003   5.9723729828526584E-002
  -2.8395959280664469E-003   6.5663672399743911E-003   5.6191144286178774E-002
  -3.1124142923141130E-003   8.6446927237369686E-003   5.2618194911268734E-002
  -3.3852326565617435E-003   1.1176435306261681E-002   4.9004881703797382E-002
  -3.6580510208094469E-003   1.4161594987548876E-002   4.5351204663763189E-002
  -3.0047720625321836E-003   5.6091668696398589E-003   5.7369064892749566E-002
  -3.3354522909896551E-003   7.5557048400877180E-003   5.4395391291948814E-002
  -3.6661325194471406E-003   1.0016703251456871E-002   5.1346357795290259E-002
  -3.9968127479046546E-003   1.2992162103747290E-002   4.8221964402773779E-002
  -4.3274929763620976E-003   1.6482081396959058E-002   4.5022211114400745E-002
  -3.3502953578927793E-003   6.2768748843060607E-003   5.5305507871340961E-002
  -3.7738335138556957E-003   8.5450424402013225E-003   5.2951789554246037E-002
  -4.1973716698186399E-003   1.1388713779176718E-002   5.0487715277997586E-002
  -4.6209098257815225E-003   1.4807888901232899E-002   4.7913285042596232E-002
  -5.0444479817445004E-003   1.8802567806369463E-002   4.5228498848040755E-002
  -3.6033474499005957E-003   6.9445828989717073E-003   5.3533058764300034E-002
  -4.1547395966645972E-003   9.5343800403144829E-003   5.1860339073069861E-002
  -4.7061317434285432E-003   1.2760724306896870E-002   5.0042267359390935E-002
  -5.2575238901924615E-003   1.6623615698718418E-002   4.8078843623263118E-002
  -5.8089160369564907E-003   2.1123054215779646E-002   4.5970067864685937E-002
  -5.0453300479602087E-002   1.4879220109176472E-002   4.3940603744790918E-002
  -4.8764956577759672E-002   1.4524459178561600E-002   4.4841603805045038E-002
  -4.7076612675917243E-002   1.4126066302473372E-002   4.5711854960247877E-002
  -4.5388268774074821E-002   1.3684041480911929E-002   4.6551357210399380E-002
  -4.3699924872232399E-002   1.3198384713877132E-002   4.7360110555499602E-002
  -5.5683576972641577E-002   1.6823968440469406E-002   4.1814025660628196E-002
  -5.3954417828837503E-002   1.6357504829033559E-002   4.1994905681568911E-002
  -5.2225258685033533E-002   1.5866758958666710E-002   4.2288165091484170E-002
  -5.0496099541229508E-002   1.5351730829368880E-002   4.2693803890374041E-002
  -4.8766940397425504E-002   1.4812420441140062E-002   4.3211822078238260E-002
  -6.1671580549805115E-002   1.8768716771762312E-002   3.9566070052373115E-002
  -5.9758477870013697E-002   1.8190550479505435E-002   3.9046179720542834E-002
  -5.7845375190222231E-002   1.7607451614859937E-002   3.8781797071713003E-002
  -5.5932272510430800E-002   1.7019420177825803E-002   3.8772922105883470E-002
  -5.4019169830639355E-002   1.6426456168402936E-002   3.9019554823054303E-002
  -6.8417311211092735E-002   2.0713465103055245E-002   3.7196736920025925E-002
  -6.6177136701288081E-002   2.0023596129977325E-002   3.5995425921967091E-002
  -6.3936962191483371E-002   1.9348144271053164E-002   3.5192750900934343E-002
  -6.1696787681678696E-002   1.8687109526282712E-002   3.4788711856927744E-002
  -5.9456613171874020E-002   1.8040491895665839E-002   3.4783308789947349E-002
  -7.5920768956504514E-002   2.2658213434348151E-002   3.4706026263586542E-002
  -7.3210394322660743E-002   2.1856641780449215E-002   3.2842644285841271E-002
  -7.0500019688817001E-002   2.1088836927246460E-002   3.1521026579148098E-002
  -6.7789645054973244E-002   2.0354798874739611E-002   3.0741173143506870E-002
  -6.5079270421129459E-002   1.9654527622928741E-002   3.0503083978917600E-002
  -4.3699924872232399E-002   1.3198384713877132E-002   4.7360110555499602E-002
  -4.2205746324479154E-002   1.2690840507331658E-002   4.7528191863098923E-002
  -4.0711567776725938E-002   1.2183153367238297E-002   4.7794370281188825E-002
  -3.9217389228972721E-002   1.1675323293596829E-002   4.8158645809769460E-002
  -3.7723210681219477E-002   1.1167350286407474E-002   4.8621018448840647E-002
  -4.8766940397425504E-002   1.4812420441140062E-002   4.3211822078238260E-002
  -4.7159777036705215E-002   1.4259636034846465E-002   4.3208172824920191E-002
  -4.5552613675984947E-002   1.3704185851354855E-002   4.3332396087045366E-002
  -4.3945450315264659E-002   1.3146069890664733E-002   4.3584491864614147E-002
  -4.2338286954544446E-002   1.2585288152776486E-002   4.3964460157626201E-002
  -5.4019169830639355E-002   1.6426456168402936E-002   3.9019554823054303E-002
  -5.2269246251999274E-002   1.5828431562361439E-002   3.8841652165168300E-002
  -5.0519322673359186E-002   1.5225218335471413E-002   3.8821397427678483E-002
  -4.8769399094719043E-002   1.4616816487732692E-002   3.8958790610584902E-002
  -4.7019475516078962E-002   1.4003226019145498E-002   3.9253831713887521E-002
  -5.9456613171874020E-002   1.8040491895665839E-002   3.4783308789947349E-002
  -5.7534153970361296E-002   1.7397227089876358E-002   3.4428629883843223E-002
  -5.5611694768848592E-002   1.6746250819587943E-002   3.4261374303088149E-002
  -5.3689235567335847E-002   1.6087563084800735E-002   3.4281542047682016E-002
  -5.1766776365823157E-002   1.5421163885514566E-002   3.4489133117624901E-002
  -6.5079270421129459E-002   1.9654527622928741E-002   3.0503083978917600E-002
  -6.2954500191791316E-002   1.8966022617391359E-002   2.9969105980945016E-002
  -6.0829729962453200E-002   1.8267283303704501E-002   2.9652326713274224E-002
  -5.8704959733115056E-002   1.7558309681868632E-002   2.9552746175905212E-002
  -5.6580189503776912E-002   1.6839101751883523E-002   2.9670364368838076E-002
  -3.7723210681219477E-002   1.1167350286407474E-002   4.8621018448840647E-002
  -3.6001118959769957E-002   1.0651728980177827E-002   4.8400415988645418E-002
  -3.4279027238320450E-002   1.0120954009415511E-002   4.8352654635931969E-002
  -3.2556935516870944E-002   9.5750253741205063E-003   4.8477734390700383E-002
  -3.0834843795421424E-002   9.0139430742931514E-003   4.8775655252950689E-002
  -4.2338286954544446E-002   1.2585288152776486E-002   4.3964460157626201E-002
  -4.0439819504130378E-002   1.2018029987523965E-002   4.3668559659672562E-002
  -3.8541352053716366E-002   1.1440484744741020E-002   4.3552569512166309E-002
  -3.6642884603302311E-002   1.0852652424427789E-002   4.3616489715107142E-002
  -3.4744417152888285E-002   1.0254533026584300E-002   4.3860320268495345E-002
  -4.7019475516078962E-002   1.4003226019145498E-002   3.9253831713887521E-002
  -4.4937563093734978E-002   1.3384330994869950E-002   3.8887499765177955E-002
  -4.2855650671390980E-002   1.2760015480066458E-002   3.8708147409880989E-002
  -4.0773738249046995E-002   1.2130279474735012E-002   3.8715774647996824E-002
  -3.8691825826702997E-002   1.1495122978875616E-002   3.8910381479525163E-002
  -5.1766776365823157E-002   1.5421163885514566E-002   3.4489133117624901E-002
  -4.9494349728583686E-002   1.4750632002215956E-002   3.4057236305161526E-002
  -4.7221923091344320E-002   1.4079546215391904E-002   3.3819388329076480E-002
  -4.4949496454104926E-002   1.3407906525042044E-002   3.3775589189369327E-002
  -4.2677069816865490E-002   1.2735712931166793E-002   3.3925838886040414E-002
  -5.6580189503776912E-002   1.6839101751883523E-002   2.9670364368838076E-002
  -5.4110179408676629E-002   1.6116933009562073E-002   2.9177769279623345E-002
  -5.1640169313576401E-002   1.5399076950717377E-002   2.8886292269752367E-002
  -4.9170159218476145E-002   1.4685533575349345E-002   2.8795933339224811E-002
  -4.6700149123375889E-002   1.3976302883458191E-002   2.8906692488040786E-002
  -3.0834843795421424E-002   9.0139430742931514E-003   4.8775655252950689E-002
  -2.9186059123218047E-002   8.4428139217085918E-003   4.8533120722524137E-002
  -2.7537274451014698E-002   7.8667447281422775E-003   4.8473993001434790E-002
  -2.5888489778811349E-002   7.2857354935949234E-003   4.8598272089682898E-002
  -2.4239705106607973E-002   6.6997862180658840E-003   4.8905957987267823E-002
  -3.4744417152888285E-002   1.0254533026584300E-002   4.3860320268495345E-002
  -3.2919010945948880E-002   9.6465730362881863E-003   4.3565998072941675E-002
  -3.1093604739009448E-002   9.0292189386171340E-003   4.3441512137522925E-002
  -2.9268198532070022E-002   8.4024707335714072E-003   4.3486862462239040E-002
  -2.7442792325130611E-002   7.7663284211505479E-003   4.3702049047090075E-002
  -3.8691825826702997E-002   1.1495122978875616E-002   3.8910381479525163E-002
  -3.6703368634229856E-002   1.0850332150867975E-002   3.8559817552451026E-002
  -3.4714911441756667E-002   1.0191693149092004E-002   3.8365519336309342E-002
  -3.2726454249283506E-002   9.5192059735477279E-003   3.8327486831100259E-002
  -3.0737997056810393E-002   8.8328706242350452E-003   3.8445720036823894E-002
  -4.2677069816865490E-002   1.2735712931166793E-002   3.3925838886040414E-002
  -4.0539132188060913E-002   1.2054091265447778E-002   3.3514579161052049E-002
  -3.8401194559256363E-002   1.1354167359566923E-002   3.3246014597794096E-002
  -3.6263256930451779E-002   1.0635941213524019E-002   3.3120145196266139E-002
  -3.4125319301647243E-002   9.8994128273194593E-003   3.3136970956468725E-002
  -4.6700149123375889E-002   1.3976302883458191E-002   2.8906692488040786E-002
  -4.4426301607442181E-002   1.3257850380027525E-002   2.8430282898744996E-002
  -4.2152454091508529E-002   1.2516641570041731E-002   2.8082997921977049E-002
  -3.9878606575574876E-002   1.1752676453500477E-002   2.7864837557737193E-002
  -3.7604759059641196E-002   1.0965955030404095E-002   2.7775801806025124E-002
  -2.4239705106607973E-002   6.6997862180658840E-003   4.8905957987267823E-002
  -2.2442080810945453E-002   6.1064228450949942E-003   4.8657022010613671E-002
  -2.0644456515282961E-002   5.5031713182205344E-003   4.8564885867940499E-002
  -1.8846832219620469E-002   4.8900316374428376E-003   4.8629549559248753E-002
  -1.7049207923957949E-002   4.2670038027621260E-003   4.8851013084537986E-002
  -2.7442792325130611E-002   7.7663284211505479E-003   4.3702049047090075E-002
  -2.5490551541624183E-002   7.1255488209833739E-003   4.3353927900131151E-002
  -2.3538310758117763E-002   6.4848887526987031E-003   4.3158239894878742E-002
  -2.1586069974611335E-002   5.8443482162960636E-003   4.3114985031333014E-002
  -1.9633829191104915E-002   5.2039272117760937E-003   4.3224163309494190E-002
  -3.0737997056810393E-002   8.8328706242350452E-003   3.8445720036823894E-002
  -2.8635506477734503E-002   8.1446747968720312E-003   3.8008421405345466E-002
  -2.6533015898658585E-002   7.4666061871768719E-003   3.7719189223299393E-002
  -2.4430525319582702E-002   6.7986647951495116E-003   3.7578023490685383E-002
  -2.2328034740506784E-002   6.1408506207900615E-003   3.7584924207503756E-002
  -3.4125319301647243E-002   9.8994128273194593E-003   3.3136970956468725E-002
  -3.1876945619276342E-002   9.1638007727607163E-003   3.2620502526256756E-002
  -2.9628571936905500E-002   8.4483236216551516E-003   3.2247733853202253E-002
  -2.7380198254534596E-002   7.7529813740030706E-003   3.2018664937305652E-002
  -2.5131824572163747E-002   7.0777740298041403E-003   3.1933295778566718E-002
  -3.7604759059641196E-002   1.0965955030404095E-002   2.7775801806025124E-002
  -3.5214868966249785E-002   1.0182926748649124E-002   2.7190171262864604E-002
  -3.2824978872858415E-002   9.4300410561332371E-003   2.6743873784587646E-002
  -3.0435088779467039E-002   8.7072979528561925E-003   2.6436909371193668E-002
  -2.8045198686075634E-002   8.0146974388181080E-003   2.6269278022683196E-002
  -1.7049207923957949E-002   4.2670038027621260E-003   4.8851013084537986E-002
  -1.5109500691172090E-002   3.6984807476471149E-003   4.8743511160962205E-002
  -1.3169793458386231E-002   3.2488554055669361E-003   4.8890327629454389E-002
  -1.1230086225600358E-002   2.9181277765217215E-003   4.9291462490014454E-002
  -9.2903789928145131E-003   2.7062978605114640E-003   4.9946915742642206E-002
  -1.9633829191104915E-002   5.2039272117760937E-003   4.3224163309494190E-002
  -1.7478227975416032E-002   4.6004507941867501E-003   4.3064986372005898E-002
  -1.5322626759727183E-002   4.0707440185772381E-003   4.3083279008255732E-002
  -1.3167025544038272E-002   3.6148068849469819E-003   4.3279041218243858E-002
  -1.1011424328349451E-002   3.2326393932963216E-003   4.3652273001970054E-002
  -2.2328034740506784E-002   6.1408506207900615E-003   3.7584924207503756E-002
  -2.0033388360244615E-002   5.5024208407265518E-003   3.7328944185047647E-002
  -1.7738741979982341E-002   4.8926326315873320E-003   3.7173584917999922E-002
  -1.5444095599720147E-002   4.3114859933722459E-003   3.7118846406360741E-002
  -1.3149449219457897E-002   3.7589809260814011E-003   3.7164728650130235E-002
  -2.5131824572163747E-002   7.0777740298041403E-003   3.1933295778566718E-002
  -2.2774981845657852E-002   6.4043908872662703E-003   3.1535384600087459E-002
  -2.0418139119151905E-002   5.7145212445974744E-003   3.1161245358686775E-002
  -1.8061296392645955E-002   5.0081651017975636E-003   3.0810878054365068E-002
  -1.5704453666140060E-002   4.2853224588664252E-003   3.0484282687122298E-002
  -2.8045198686075634E-002   8.0146974388181080E-003   2.6269278022683196E-002
  -2.5703008431655627E-002   7.3063609338060442E-003   2.5684307617125146E-002
  -2.3360818177235676E-002   6.5364098576076723E-003   2.5046260330316372E-002
  -2.1018627922815655E-002   5.7048442102227009E-003   2.4355136162256957E-002
  -1.8676437668395718E-002   4.8116639916513382E-003   2.3610935112946430E-002
  -9.2903789928145131E-003   2.7062978605114640E-003   4.9946915742642206E-002
  -7.8686211070860129E-003   2.8569048807955966E-003   5.0353799347775396E-002
  -6.4468632213575544E-003   3.6134880606338016E-003   5.1087117719762876E-002
  -5.0251053356290612E-003   4.9760474000257252E-003   5.2146870858604227E-002
  -3.6033474499005957E-003   6.9445828989717073E-003   5.3533058764300034E-002
  -1.1011424328349451E-002   3.2326393932963216E-003   4.3652273001970054E-002
  -9.2447590304460675E-003   3.1621619651708288E-003   4.4238443019162355E-002
  -7.4780937325427746E-003   3.6412950221150486E-003   4.5187993093850243E-002
  -5.7114284346394782E-003   4.6700385641289185E-003   4.6500923226033608E-002
  -3.9447631367360986E-003   6.2483925912126814E-003   4.8177233415712450E-002
  -1.3149449219457897E-002   3.7589809260814011E-003   3.7164728650130235E-002
  -1.1000931218738394E-002   3.4674190495457280E-003   3.7873819404897452E-002
  -8.8524132180188876E-003   3.6691019835956157E-003   3.8983235507801570E-002
  -6.7038952172993795E-003   4.3640297282316644E-003   4.0492976958842526E-002
  -4.5553772165798784E-003   5.5522022834536000E-003   4.2403043758020148E-002
  -1.5704453666140060E-002   4.2853224588664252E-003   3.0484282687122298E-002
  -1.3137137671963030E-002   3.7726761339206272E-003   3.1259928504980543E-002
  -1.0569821677785946E-002   3.6969089450768558E-003   3.2472844961616856E-002
  -8.0025056836089178E-003   4.0580208923346340E-003   3.4123032057031384E-002
  -5.4351896894318345E-003   4.8560119756943243E-003   3.6210489791224203E-002
  -1.8676437668395718E-002   4.8116639916513382E-003   2.3610935112946430E-002
  -1.5653378390119765E-002   4.0779332182958039E-003   2.4396770319411454E-002
  -1.2630319111843896E-002   3.7247159065575131E-003   2.5656821455296075E-002
  -9.6072598335679438E-003   3.7520120564378465E-003   2.7391088520600154E-002
  -6.5842005552920746E-003   4.1598216679353817E-003   2.9599571515323775E-002
  -3.6033474499005957E-003   6.9445828989717073E-003   5.3533058764300034E-002
  -4.1547395966645972E-003   9.5343800403144829E-003   5.1860339073069861E-002
  -4.7061317434285432E-003   1.2760724306896870E-002   5.0042267359390935E-002
  -5.2575238901924615E-003   1.6623615698718418E-002   4.8078843623263118E-002
  -5.8089160369564907E-003   2.1123054215779646E-002   4.5970067864685937E-002
  -3.9447631367360986E-003   6.2483925912126814E-003   4.8177233415712450E-002
  -4.5377059148302146E-003   8.6864174611266942E-003   4.7242255885507511E-002
  -5.1306486929243375E-003   1.2294173531630481E-002   4.6369529115091124E-002
  -5.7235914710183945E-003   1.7071660802724056E-002   4.5559053104463176E-002
  -6.3165342491125764E-003   2.3018879274407711E-002   4.4810827853623891E-002
  -4.5553772165798784E-003   5.5522022834536000E-003   4.2403043758020148E-002
  -4.9822678437666038E-003   7.8384548819384614E-003   4.2738992464191244E-002
  -5.4091584709533291E-003   1.1827622756363884E-002   4.3344794712387988E-002
  -5.8360490981399921E-003   1.7519705906729643E-002   4.4220450502611190E-002
  -6.2629397253267799E-003   2.4914704333035997E-002   4.5365959834860137E-002
  -5.4351896894318345E-003   4.8560119756943243E-003   3.6210489791224203E-002
  -5.4884253834737058E-003   6.9904923027504506E-003   3.8350548809121240E-002
  -5.5416610775155736E-003   1.1361071981097391E-002   4.0968064151281861E-002
  -5.5948967715573304E-003   1.7967751010735368E-002   4.4063035817706341E-002
  -5.6481324655993127E-003   2.6810529391664173E-002   4.7635463808393480E-002
  -6.5842005552920746E-003   4.1598216679353817E-003   2.9599571515323775E-002
  -6.0561785339515728E-003   6.1425297235624399E-003   3.4076924920297569E-002
  -5.5281565126110155E-003   1.0894521205831093E-002   3.9239337431772048E-002
  -5.0001344912704165E-003   1.8415796114740694E-002   4.5086809049748350E-002
  -4.4721124699299564E-003   2.8706354450292348E-002   5.1619339774225281E-002
  -7.5920768956504514E-002   2.2658213434348151E-002   3.4706026263586542E-002
  -7.3210394322660743E-002   2.1856641780449215E-002   3.2842644285841271E-002
  -7.0500019688817001E-002   2.1088836927246460E-002   3.1521026579148098E-002
  -6.7789645054973244E-002   2.0354798874739611E-002   3.0741173143506870E-002
  -6.5079270421129459E-002   1.9654527622928741E-002   3.0503083978917600E-002
  -8.3118156397243625E-002   2.4393548696843625E-002   2.3976128087671356E-002
  -8.0022545919469973E-002   2.3621563063378037E-002   2.3343305098389361E-002
  -7.6926935441696015E-002   2.2850250073448791E-002   2.2939189525915615E-002
  -7.3831324963922182E-002   2.2079609727055964E-002   2.2763781370250175E-002
  -7.0735714486148363E-002   2.1309642024199521E-002   2.2817080631392844E-002
  -8.8945676144514221E-002   2.6128883959339128E-002   1.3292363010769012E-002
  -8.5777886677053994E-002   2.5386484346306637E-002   1.3857004852790927E-002
  -8.2610097209593780E-002   2.4611663219651338E-002   1.4337297257376931E-002
  -7.9442307742133539E-002   2.3804420579372286E-002   1.4733240224527714E-002
  -7.6274518274673311E-002   2.2964756425470356E-002   1.5044833754242676E-002
  -9.3403328198315386E-002   2.7864219221834532E-002   2.6547310328800706E-003
  -9.0476416595412751E-002   2.7151405629235431E-002   4.3837435490459917E-003
  -8.7549504992509977E-002   2.6373076365853471E-002   5.7153497735322484E-003
  -8.4622593389607217E-002   2.5529231431688792E-002   6.6495497063393258E-003
  -8.1695681786704485E-002   2.4619870826741164E-002   7.1863433474671085E-003
  -9.6491112558647840E-002   2.9599554484330048E-002  -7.9367678459959512E-003
  -9.4118135674546410E-002   2.8916326912164059E-002  -5.0764788128457305E-003
  -9.1745158790444759E-002   2.8134489512056077E-002  -2.9266529256187501E-003
  -8.9372181906343329E-002   2.7254042284005180E-002  -1.4872901843148364E-003
  -8.6999205022241788E-002   2.6274985228011971E-002  -7.5839058893395483E-004
  -6.5079270421129459E-002   1.9654527622928741E-002   3.0503083978917600E-002
  -6.2954500191791316E-002   1.8966022617391359E-002   2.9969105980945016E-002
  -6.0829729962453200E-002   1.8267283303704501E-002   2.9652326713274224E-002
  -5.8704959733115056E-002   1.7558309681868632E-002   2.9552746175905212E-002
  -5.6580189503776912E-002   1.6839101751883523E-002   2.9670364368838076E-002
  -7.0735714486148363E-002   2.1309642024199521E-002   2.2817080631392844E-002
  -6.8398802960292437E-002   2.0541684968605159E-002   2.2392242647549396E-002
  -6.6061891434436526E-002   1.9777076563998471E-002   2.2174488526439592E-002
  -6.3724979908580559E-002   1.9015816810379393E-002   2.2163818268063733E-002
  -6.1388068382724675E-002   1.8257905707748212E-002   2.2360231872421421E-002
  -7.6274518274673311E-002   2.2964756425470356E-002   1.5044833754242676E-002
  -7.3735580319867752E-002   2.2117347319819083E-002   1.4742718743665180E-002
  -7.1196642365062013E-002   2.1286869824292273E-002   1.4637572728253397E-002
  -6.8657704410256412E-002   2.0473323938890158E-002   1.4729395708007326E-002
  -6.6118766455450742E-002   1.9676709663612790E-002   1.5018187682926953E-002
  -8.1695681786704485E-002   2.4619870826741164E-002   7.1863433474671085E-003
  -7.8964832270517121E-002   2.3693009671032945E-002   7.0205342692928000E-003
  -7.6233982754329799E-002   2.2796663084585909E-002   7.0415793187158307E-003
  -7.3503133238142435E-002   2.1930831067401256E-002   7.2494784957366065E-003
  -7.0772283721955057E-002   2.1095513619477341E-002   7.6442318003550683E-003
  -8.6999205022241788E-002   2.6274985228011971E-002  -7.5839058893395483E-004
  -8.4086558812240808E-002   2.5268672022246752E-002  -7.7431077556855410E-004
  -8.1173912602239773E-002   2.4306456344879990E-002  -6.1349170217338267E-004
  -7.8261266392238765E-002   2.3388338195911726E-002  -2.7593336874889504E-004
  -7.5348620182237758E-002   2.2514317575342058E-002   2.3836422470546736E-004
  -5.6580189503776912E-002   1.6839101751883523E-002   2.9670364368838076E-002
  -5.4110179408676629E-002   1.6116933009562073E-002   2.9177769279623345E-002
  -5.1640169313576401E-002   1.5399076950717377E-002   2.8886292269752367E-002
  -4.9170159218476145E-002   1.4685533575349345E-002   2.8795933339224811E-002
  -4.6700149123375889E-002   1.3976302883458191E-002   2.8906692488040786E-002
  -6.1388068382724675E-002   1.8257905707748212E-002   2.2360231872421421E-002
  -5.8719776849329580E-002   1.7499739746507342E-002   2.1942208106014521E-002
  -5.6051485315934471E-002   1.6737715417059401E-002   2.1719629136853852E-002
  -5.3383193782539397E-002   1.5971832719404562E-002   2.1692494964939107E-002
  -5.0714902249144281E-002   1.5202091653543026E-002   2.1860805590270482E-002
  -6.6118766455450742E-002   1.9676709663612790E-002   1.5018187682926953E-002
  -6.3257866765858317E-002   1.8882546483452389E-002   1.4666564187644379E-002
  -6.0396967076265864E-002   1.8076353883401439E-002   1.4504712207510234E-002
  -5.7536067386673495E-002   1.7258131863459616E-002   1.4532631742524928E-002
  -5.4675167697080987E-002   1.6427880423627694E-002   1.4750322792687787E-002
  -7.0772283721955057E-002   2.1095513619477341E-002   7.6442318003550683E-003
  -6.7724449158262895E-002   2.0265353220397464E-002   7.3508375245128488E-003
  -6.4676614594570608E-002   1.9414992349743414E-002   7.2415414817216632E-003
  -6.1628780030878384E-002   1.8544431007515252E-002   7.3163436719818047E-003
  -5.8580945467186160E-002   1.7653669193712501E-002   7.5752440952926853E-003
  -7.5348620182237758E-002   2.2514317575342058E-002   2.3836422470546736E-004
  -7.2119524026543147E-002   2.1648159957342761E-002  -4.9718833795564521E-006
  -6.8890427870848647E-002   2.0753630816085222E-002  -6.9883040511670158E-005
  -6.5661331715154148E-002   1.9830730151569956E-002   4.3630753310326675E-005
  -6.2432235559459537E-002   1.8879457963797308E-002   3.3556949808544179E-004
  -4.6700149123375889E-002   1.3976302883458191E-002   2.8906692488040786E-002
  -4.4426301607442181E-002   1.3257850380027525E-002   2.8430282898744996E-002
  -4.2152454091508529E-002   1.2516641570041731E-002   2.8082997921977049E-002
  -3.9878606575574876E-002   1.1752676453500477E-002   2.7864837557737193E-002
  -3.7604759059641196E-002   1.0965955030404095E-002   2.7775801806025124E-002
  -5.0714902249144281E-002   1.5202091653543026E-002   2.1860805590270482E-002
  -4.8305566389882676E-002   1.4427693596410274E-002   2.1431141449161084E-002
  -4.5896230530621009E-002   1.3647839924942395E-002   2.1143329382179776E-002
  -4.3486894671359397E-002   1.2862530639139877E-002   2.0997369389326531E-002
  -4.1077558812097736E-002   1.2071765739002038E-002   2.0993261470601321E-002
  -5.4675167697080987E-002   1.6427880423627694E-002   1.4750322792687787E-002
  -5.2117616032891348E-002   1.5597536812792939E-002   1.4384704791985337E-002
  -4.9560064368701660E-002   1.4779038279843504E-002   1.4173666327010920E-002
  -4.7002512704512042E-002   1.3972384824779110E-002   1.4117207397764502E-002
  -4.4444961040322396E-002   1.3177576447600148E-002   1.4215328004246380E-002
  -5.8580945467186160E-002   1.7653669193712501E-002   7.5752440952926853E-003
  -5.5862450536468308E-002   1.6767380029175258E-002   7.2909729272173304E-003
  -5.3143955605750588E-002   1.5910236634743724E-002   7.1740087564703854E-003
  -5.0425460675032806E-002   1.5082239010418316E-002   7.2243515830512153E-003
  -4.7706965744315023E-002   1.4283387156198007E-002   7.4420014069604551E-003
  -6.2432235559459537E-002   1.8879457963797308E-002   3.3556949808544179E-004
  -5.9540069900613557E-002   1.7937223245558465E-002   1.4994585485733625E-004
  -5.6647904241767633E-002   1.7041434989644860E-002   1.4435667055820445E-004
  -5.3755738582921708E-002   1.6192093196057973E-002   3.1880194518665167E-004
  -5.0863572924075728E-002   1.5389197864796200E-002   6.7328167874325384E-004
  -3.7604759059641196E-002   1.0965955030404095E-002   2.7775801806025124E-002
  -3.5214868966249785E-002   1.0182926748649124E-002   2.7190171262864604E-002
  -3.2824978872858415E-002   9.4300410561332371E-003   2.6743873784587646E-002
  -3.0435088779467039E-002   8.7072979528561925E-003   2.6436909371193668E-002
  -2.8045198686075634E-002   8.0146974388181080E-003   2.6269278022683196E-002
  -4.1077558812097736E-002   1.2071765739002038E-002   2.0993261470601321E-002
  -3.8560887474240968E-002   1.1285045298300322E-002   2.0522320192477794E-002
  -3.6044216136384255E-002   1.0511869390805423E-002   2.0165608338401669E-002
  -3.3527544798527514E-002   9.7522380165176517E-003   1.9923125908373029E-002
  -3.1010873460670774E-002   9.0061511754364609E-003   1.9794872902391736E-002
  -4.4444961040322396E-002   1.3177576447600148E-002   1.4215328004246380E-002
  -4.1826612098836050E-002   1.2387163847951049E-002   1.3842477935127745E-002
  -3.9208263157349890E-002   1.1593697725477262E-002   1.3558753649220989E-002
  -3.6589914215863689E-002   1.0797178080178552E-002   1.3364155146525565E-002
  -3.3971565274377377E-002   9.9976049120549804E-003   1.3258682427041646E-002
  -4.7706965744315023E-002   1.4283387156198007E-002   7.4420014069604551E-003
  -4.5012042840035127E-002   1.3489282397602512E-002   7.1506444908148586E-003
  -4.2317119935755265E-002   1.2675526060149662E-002   6.9233097170451723E-003
  -3.9622197031475390E-002   1.1842118143840398E-002   6.7599970856511652E-003
  -3.6927274127195514E-002   1.0989058648673194E-002   6.6607065966325721E-003
  -5.0863572924075728E-002   1.5389197864796200E-002   6.7328167874325384E-004
  -4.8117179697838020E-002   1.4591400947253086E-002   4.4681985953909376E-004
  -4.5370786471600422E-002   1.3757354394821619E-002   2.5927654187479776E-004
  -4.2624393245362824E-002   1.2887058207501051E-002   1.1065172574999116E-004
  -3.9878000019125115E-002   1.1980512385291853E-002   9.4541116513191525E-007
  -2.8045198686075634E-002   8.0146974388181080E-003   2.6269278022683196E-002
  -2.5703008431655627E-002   7.3063609338060442E-003   2.5684307617125146E-002
  -2.3360818177235676E-002   6.5364098576076723E-003   2.5046260330316372E-002
  -2.1018627922815655E-002   5.7048442102227009E-003   2.4355136162256957E-002
  -1.8676437668395718E-002   4.8116639916513382E-003   2.3610935112946430E-002
  -3.1010873460670774E-002   9.0061511754364609E-003   1.9794872902391736E-002
  -2.8703912834699322E-002   8.2643718442159120E-003   1.9199460668188284E-002
  -2.6396952208727884E-002   7.5176629995087341E-003   1.8586666058338280E-002
  -2.4089991582756418E-002   6.7660246413156488E-003   1.7956489072842211E-002
  -2.1783030956784938E-002   6.0094567696354906E-003   1.7308929711699561E-002
  -3.3971565274377377E-002   9.9976049120549804E-003   1.3258682427041646E-002
  -3.1664139771250016E-002   9.2223827546255299E-003   1.2709513421892527E-002
  -2.9356714268122600E-002   8.4989161414098235E-003   1.2178656546701555E-002
  -2.7049288764995235E-002   7.8272050724081596E-003   1.1666111801468773E-002
  -2.4741863261867822E-002   7.2072495476199760E-003   1.1171879186194195E-002
  -3.6927274127195514E-002   1.0989058648673194E-002   6.6607065966325721E-003
  -3.4583689241307669E-002   1.0180393665035384E-002   6.2144658782379986E-003
  -3.2240104355419845E-002   9.4801692833112322E-003   5.8222317954060680E-003
  -2.9896519469531993E-002   8.8883855035011665E-003   5.4840043481369713E-003
  -2.7552934583644176E-002   8.4050423256039619E-003   5.1997835364302608E-003
  -3.9878000019125115E-002   1.1980512385291853E-002   9.4541116513191525E-007
  -3.7462561244872350E-002   1.1138404575444794E-002  -2.8568196277461988E-004
  -3.5047122470619640E-002   1.0461422425212141E-002  -4.8260819554743484E-004
  -3.2631683696366903E-002   9.9495659345931048E-003  -5.8983328715336153E-004
  -3.0216244922114166E-002   9.6028351035883919E-003  -6.0735723759175464E-004
  -1.8676437668395718E-002   4.8116639916513382E-003   2.3610935112946430E-002
  -1.5653378390119765E-002   4.0779332182958039E-003   2.4396770319411454E-002
  -1.2630319111843896E-002   3.7247159065575131E-003   2.5656821455296075E-002
  -9.6072598335679438E-003   3.7520120564378465E-003   2.7391088520600154E-002
  -6.5842005552920746E-003   4.1598216679353817E-003   2.9599571515323775E-002
  -2.1783030956784938E-002   6.0094567696354906E-003   1.7308929711699561E-002
  -1.8555204004091247E-002   5.3421955283743938E-003   1.8255105764439561E-002
  -1.5327377051397598E-002   4.8584770614355510E-003   1.9136601236595413E-002
  -1.2099550098703990E-002   4.5583013688200863E-003   1.9953416128167298E-002
  -8.8717231460102575E-003   4.4416684505270698E-003   2.0705550439155007E-002
  -2.4741863261867822E-002   7.2072495476199760E-003   1.1171879186194195E-002
  -2.1848165144759873E-002   6.6064578384529005E-003   1.2081425397914292E-002
  -1.8954467027652043E-002   5.9922382163132698E-003   1.2387394519046677E-002
  -1.6060768910544178E-002   5.3645906812028847E-003   1.2089786549591398E-002
  -1.3167070793436320E-002   4.7235152331188135E-003   1.1188601489548838E-002
  -2.7552934583644176E-002   8.4050423256039619E-003   5.1997835364302608E-003
  -2.5532261812125680E-002   7.8707201485309491E-003   5.8757292198357430E-003
  -2.3511589040607135E-002   7.1259993711913702E-003   5.4092013026498624E-003
  -2.1490916269088625E-002   6.1708799935850708E-003   3.8001997848729433E-003
  -1.9470243497570098E-002   5.0053620157111955E-003   1.0487246665050118E-003
  -3.0216244922114166E-002   9.6028351035883919E-003  -6.0735723759175464E-004
  -2.9607494006188451E-002   9.1349824586095529E-003  -3.6198276979587662E-004
  -2.8998743090262902E-002   8.2597605260688600E-003  -1.7979784125950748E-003
  -2.8389992174337297E-002   6.9771693059673262E-003  -4.9153441659887318E-003
  -2.7781241258411637E-002   5.2872087983026894E-003  -9.7140800299768681E-003
  -6.5842005552920746E-003   4.1598216679353817E-003   2.9599571515323775E-002
  -6.0561785339515728E-003   6.1425297235624399E-003   3.4076924920297569E-002
  -5.5281565126110155E-003   1.0894521205831093E-002   3.9239337431772048E-002
  -5.0001344912704165E-003   1.8415796114740694E-002   4.5086809049748350E-002
  -4.4721124699299564E-003   2.8706354450292348E-002   5.1619339774225281E-002
  -8.8717231460102575E-003   4.4416684505270698E-003   2.0705550439155007E-002
  -7.5862244571646004E-003   5.6585782169031873E-003   2.5873909359253155E-002
  -6.3007257683190265E-003   9.3590305782941530E-003   3.1872162507860513E-002
  -5.0152270794733070E-003   1.5543025534699474E-002   3.8700309884976553E-002
  -3.7297283906276846E-003   2.4210563086120240E-002   4.6358351490602301E-002
  -1.3167070793436320E-002   4.7235152331188135E-003   1.1188601489548838E-002
  -1.0979260315077510E-002   5.1746267102443788E-003   1.6762225093144817E-002
  -8.7914498367186039E-003   7.8235399507572273E-003   2.3310578047257627E-002
  -6.6036393583599091E-003   1.2670254954658813E-002   3.0833660351887941E-002
  -4.4158288800009993E-003   1.9714771721948354E-002   3.9331472007035462E-002
  -1.9470243497570098E-002   5.0053620157111955E-003   1.0487246665050118E-003
  -1.6235286107690108E-002   4.6906752035850152E-003   6.7418721219717828E-003
  -1.3000328717810062E-002   6.2880493232210719E-003   1.3554584049964010E-002
  -9.7653713279299802E-003   9.7974843746178718E-003   2.1486860450481551E-002
  -6.5304139380500323E-003   1.5218980357776135E-002   3.0538701323524237E-002
  -2.7781241258411637E-002   5.2872087983026894E-003  -9.7140800299768681E-003
  -2.3354301835002422E-002   4.2067236969265398E-003  -4.1871495542654680E-003
  -1.8927362411593152E-002   4.7525586956834731E-003   2.6041805159794096E-003
  -1.4500422988183881E-002   6.9247137945769588E-003   1.0659910180757008E-002
  -1.0073483564774666E-002   1.0723188993604360E-002   1.9980039440068209E-002
 </DataArray>
 </PointData>
 </Piece>
 </UnstructuredGrid>
 </VTKFile>
