 <VTKFile type="UnstructuredGrid"  version="0.1"   >
 <UnstructuredGrid>
 <Piece  NumberOfPoints="          1600 "  NumberOfCells="         1024 ">
 <Points>
 <DataArray  type="Float64" NumberOfComponents="3"  format="ascii" >
   0.0000000000000000        0.0000000000000000        0.0000000000000000     
   3.1250000000000000E-002   0.0000000000000000        0.0000000000000000     
   6.2500000000000000E-002   0.0000000000000000        0.0000000000000000     
   9.3750000000000000E-002   0.0000000000000000        0.0000000000000000     
  0.12500000000000000        0.0000000000000000        0.0000000000000000     
   0.0000000000000000        3.1250000000000000E-002   0.0000000000000000     
   3.1250000000000000E-002   3.1250000000000000E-002   0.0000000000000000     
   6.2500000000000000E-002   3.1250000000000000E-002   0.0000000000000000     
   9.3750000000000000E-002   3.1250000000000000E-002   0.0000000000000000     
  0.12500000000000000        3.1250000000000000E-002   0.0000000000000000     
   0.0000000000000000        6.2500000000000000E-002   0.0000000000000000     
   3.1250000000000000E-002   6.2500000000000000E-002   0.0000000000000000     
   6.2500000000000000E-002   6.2500000000000000E-002   0.0000000000000000     
   9.3750000000000000E-002   6.2500000000000000E-002   0.0000000000000000     
  0.12500000000000000        6.2500000000000000E-002   0.0000000000000000     
   0.0000000000000000        9.3750000000000000E-002   0.0000000000000000     
   3.1250000000000000E-002   9.3750000000000000E-002   0.0000000000000000     
   6.2500000000000000E-002   9.3750000000000000E-002   0.0000000000000000     
   9.3750000000000000E-002   9.3750000000000000E-002   0.0000000000000000     
  0.12500000000000000        9.3750000000000000E-002   0.0000000000000000     
   0.0000000000000000       0.12500000000000000        0.0000000000000000     
   3.1250000000000000E-002  0.12500000000000000        0.0000000000000000     
   6.2500000000000000E-002  0.12500000000000000        0.0000000000000000     
   9.3750000000000000E-002  0.12500000000000000        0.0000000000000000     
  0.12500000000000000       0.12500000000000000        0.0000000000000000     
  0.12500000000000000        0.0000000000000000        0.0000000000000000     
  0.15625000000000000        0.0000000000000000        0.0000000000000000     
  0.18750000000000000        0.0000000000000000        0.0000000000000000     
  0.21875000000000000        0.0000000000000000        0.0000000000000000     
  0.25000000000000000        0.0000000000000000        0.0000000000000000     
  0.12500000000000000        3.1250000000000000E-002   0.0000000000000000     
  0.15625000000000000        3.1250000000000000E-002   0.0000000000000000     
  0.18750000000000000        3.1250000000000000E-002   0.0000000000000000     
  0.21875000000000000        3.1250000000000000E-002   0.0000000000000000     
  0.25000000000000000        3.1250000000000000E-002   0.0000000000000000     
  0.12500000000000000        6.2500000000000000E-002   0.0000000000000000     
  0.15625000000000000        6.2500000000000000E-002   0.0000000000000000     
  0.18750000000000000        6.2500000000000000E-002   0.0000000000000000     
  0.21875000000000000        6.2500000000000000E-002   0.0000000000000000     
  0.25000000000000000        6.2500000000000000E-002   0.0000000000000000     
  0.12500000000000000        9.3750000000000000E-002   0.0000000000000000     
  0.15625000000000000        9.3750000000000000E-002   0.0000000000000000     
  0.18750000000000000        9.3750000000000000E-002   0.0000000000000000     
  0.21875000000000000        9.3750000000000000E-002   0.0000000000000000     
  0.25000000000000000        9.3750000000000000E-002   0.0000000000000000     
  0.12500000000000000       0.12500000000000000        0.0000000000000000     
  0.15625000000000000       0.12500000000000000        0.0000000000000000     
  0.18750000000000000       0.12500000000000000        0.0000000000000000     
  0.21875000000000000       0.12500000000000000        0.0000000000000000     
  0.25000000000000000       0.12500000000000000        0.0000000000000000     
  0.25000000000000000        0.0000000000000000        0.0000000000000000     
  0.28125000000000000        0.0000000000000000        0.0000000000000000     
  0.31250000000000000        0.0000000000000000        0.0000000000000000     
  0.34375000000000000        0.0000000000000000        0.0000000000000000     
  0.37500000000000000        0.0000000000000000        0.0000000000000000     
  0.25000000000000000        3.1250000000000000E-002   0.0000000000000000     
  0.28125000000000000        3.1250000000000000E-002   0.0000000000000000     
  0.31250000000000000        3.1250000000000000E-002   0.0000000000000000     
  0.34375000000000000        3.1250000000000000E-002   0.0000000000000000     
  0.37500000000000000        3.1250000000000000E-002   0.0000000000000000     
  0.25000000000000000        6.2500000000000000E-002   0.0000000000000000     
  0.28125000000000000        6.2500000000000000E-002   0.0000000000000000     
  0.31250000000000000        6.2500000000000000E-002   0.0000000000000000     
  0.34375000000000000        6.2500000000000000E-002   0.0000000000000000     
  0.37500000000000000        6.2500000000000000E-002   0.0000000000000000     
  0.25000000000000000        9.3750000000000000E-002   0.0000000000000000     
  0.28125000000000000        9.3750000000000000E-002   0.0000000000000000     
  0.31250000000000000        9.3750000000000000E-002   0.0000000000000000     
  0.34375000000000000        9.3750000000000000E-002   0.0000000000000000     
  0.37500000000000000        9.3750000000000000E-002   0.0000000000000000     
  0.25000000000000000       0.12500000000000000        0.0000000000000000     
  0.28125000000000000       0.12500000000000000        0.0000000000000000     
  0.31250000000000000       0.12500000000000000        0.0000000000000000     
  0.34375000000000000       0.12500000000000000        0.0000000000000000     
  0.37500000000000000       0.12500000000000000        0.0000000000000000     
  0.37500000000000000        0.0000000000000000        0.0000000000000000     
  0.40625000000000000        0.0000000000000000        0.0000000000000000     
  0.43750000000000000        0.0000000000000000        0.0000000000000000     
  0.46875000000000000        0.0000000000000000        0.0000000000000000     
  0.50000000000000000        0.0000000000000000        0.0000000000000000     
  0.37500000000000000        3.1250000000000000E-002   0.0000000000000000     
  0.40625000000000000        3.1250000000000000E-002   0.0000000000000000     
  0.43750000000000000        3.1250000000000000E-002   0.0000000000000000     
  0.46875000000000000        3.1250000000000000E-002   0.0000000000000000     
  0.50000000000000000        3.1250000000000000E-002   0.0000000000000000     
  0.37500000000000000        6.2500000000000000E-002   0.0000000000000000     
  0.40625000000000000        6.2500000000000000E-002   0.0000000000000000     
  0.43750000000000000        6.2500000000000000E-002   0.0000000000000000     
  0.46875000000000000        6.2500000000000000E-002   0.0000000000000000     
  0.50000000000000000        6.2500000000000000E-002   0.0000000000000000     
  0.37500000000000000        9.3750000000000000E-002   0.0000000000000000     
  0.40625000000000000        9.3750000000000000E-002   0.0000000000000000     
  0.43750000000000000        9.3750000000000000E-002   0.0000000000000000     
  0.46875000000000000        9.3750000000000000E-002   0.0000000000000000     
  0.50000000000000000        9.3750000000000000E-002   0.0000000000000000     
  0.37500000000000000       0.12500000000000000        0.0000000000000000     
  0.40625000000000000       0.12500000000000000        0.0000000000000000     
  0.43750000000000000       0.12500000000000000        0.0000000000000000     
  0.46875000000000000       0.12500000000000000        0.0000000000000000     
  0.50000000000000000       0.12500000000000000        0.0000000000000000     
  0.50000000000000000        0.0000000000000000        0.0000000000000000     
  0.53125000000000000        0.0000000000000000        0.0000000000000000     
  0.56250000000000000        0.0000000000000000        0.0000000000000000     
  0.59375000000000000        0.0000000000000000        0.0000000000000000     
  0.62500000000000000        0.0000000000000000        0.0000000000000000     
  0.50000000000000000        3.1250000000000000E-002   0.0000000000000000     
  0.53125000000000000        3.1250000000000000E-002   0.0000000000000000     
  0.56250000000000000        3.1250000000000000E-002   0.0000000000000000     
  0.59375000000000000        3.1250000000000000E-002   0.0000000000000000     
  0.62500000000000000        3.1250000000000000E-002   0.0000000000000000     
  0.50000000000000000        6.2500000000000000E-002   0.0000000000000000     
  0.53125000000000000        6.2500000000000000E-002   0.0000000000000000     
  0.56250000000000000        6.2500000000000000E-002   0.0000000000000000     
  0.59375000000000000        6.2500000000000000E-002   0.0000000000000000     
  0.62500000000000000        6.2500000000000000E-002   0.0000000000000000     
  0.50000000000000000        9.3750000000000000E-002   0.0000000000000000     
  0.53125000000000000        9.3750000000000000E-002   0.0000000000000000     
  0.56250000000000000        9.3750000000000000E-002   0.0000000000000000     
  0.59375000000000000        9.3750000000000000E-002   0.0000000000000000     
  0.62500000000000000        9.3750000000000000E-002   0.0000000000000000     
  0.50000000000000000       0.12500000000000000        0.0000000000000000     
  0.53125000000000000       0.12500000000000000        0.0000000000000000     
  0.56250000000000000       0.12500000000000000        0.0000000000000000     
  0.59375000000000000       0.12500000000000000        0.0000000000000000     
  0.62500000000000000       0.12500000000000000        0.0000000000000000     
  0.62500000000000000        0.0000000000000000        0.0000000000000000     
  0.65625000000000000        0.0000000000000000        0.0000000000000000     
  0.68750000000000000        0.0000000000000000        0.0000000000000000     
  0.71875000000000000        0.0000000000000000        0.0000000000000000     
  0.75000000000000000        0.0000000000000000        0.0000000000000000     
  0.62500000000000000        3.1250000000000000E-002   0.0000000000000000     
  0.65625000000000000        3.1250000000000000E-002   0.0000000000000000     
  0.68750000000000000        3.1250000000000000E-002   0.0000000000000000     
  0.71875000000000000        3.1250000000000000E-002   0.0000000000000000     
  0.75000000000000000        3.1250000000000000E-002   0.0000000000000000     
  0.62500000000000000        6.2500000000000000E-002   0.0000000000000000     
  0.65625000000000000        6.2500000000000000E-002   0.0000000000000000     
  0.68750000000000000        6.2500000000000000E-002   0.0000000000000000     
  0.71875000000000000        6.2500000000000000E-002   0.0000000000000000     
  0.75000000000000000        6.2500000000000000E-002   0.0000000000000000     
  0.62500000000000000        9.3750000000000000E-002   0.0000000000000000     
  0.65625000000000000        9.3750000000000000E-002   0.0000000000000000     
  0.68750000000000000        9.3750000000000000E-002   0.0000000000000000     
  0.71875000000000000        9.3750000000000000E-002   0.0000000000000000     
  0.75000000000000000        9.3750000000000000E-002   0.0000000000000000     
  0.62500000000000000       0.12500000000000000        0.0000000000000000     
  0.65625000000000000       0.12500000000000000        0.0000000000000000     
  0.68750000000000000       0.12500000000000000        0.0000000000000000     
  0.71875000000000000       0.12500000000000000        0.0000000000000000     
  0.75000000000000000       0.12500000000000000        0.0000000000000000     
  0.75000000000000000        0.0000000000000000        0.0000000000000000     
  0.78125000000000000        0.0000000000000000        0.0000000000000000     
  0.81250000000000000        0.0000000000000000        0.0000000000000000     
  0.84375000000000000        0.0000000000000000        0.0000000000000000     
  0.87500000000000000        0.0000000000000000        0.0000000000000000     
  0.75000000000000000        3.1250000000000000E-002   0.0000000000000000     
  0.78125000000000000        3.1250000000000000E-002   0.0000000000000000     
  0.81250000000000000        3.1250000000000000E-002   0.0000000000000000     
  0.84375000000000000        3.1250000000000000E-002   0.0000000000000000     
  0.87500000000000000        3.1250000000000000E-002   0.0000000000000000     
  0.75000000000000000        6.2500000000000000E-002   0.0000000000000000     
  0.78125000000000000        6.2500000000000000E-002   0.0000000000000000     
  0.81250000000000000        6.2500000000000000E-002   0.0000000000000000     
  0.84375000000000000        6.2500000000000000E-002   0.0000000000000000     
  0.87500000000000000        6.2500000000000000E-002   0.0000000000000000     
  0.75000000000000000        9.3750000000000000E-002   0.0000000000000000     
  0.78125000000000000        9.3750000000000000E-002   0.0000000000000000     
  0.81250000000000000        9.3750000000000000E-002   0.0000000000000000     
  0.84375000000000000        9.3750000000000000E-002   0.0000000000000000     
  0.87500000000000000        9.3750000000000000E-002   0.0000000000000000     
  0.75000000000000000       0.12500000000000000        0.0000000000000000     
  0.78125000000000000       0.12500000000000000        0.0000000000000000     
  0.81250000000000000       0.12500000000000000        0.0000000000000000     
  0.84375000000000000       0.12500000000000000        0.0000000000000000     
  0.87500000000000000       0.12500000000000000        0.0000000000000000     
  0.87500000000000000        0.0000000000000000        0.0000000000000000     
  0.90625000000000000        0.0000000000000000        0.0000000000000000     
  0.93750000000000000        0.0000000000000000        0.0000000000000000     
  0.96875000000000000        0.0000000000000000        0.0000000000000000     
   1.0000000000000000        0.0000000000000000        0.0000000000000000     
  0.87500000000000000        3.1250000000000000E-002   0.0000000000000000     
  0.90625000000000000        3.1250000000000000E-002   0.0000000000000000     
  0.93750000000000000        3.1250000000000000E-002   0.0000000000000000     
  0.96875000000000000        3.1250000000000000E-002   0.0000000000000000     
   1.0000000000000000        3.1250000000000000E-002   0.0000000000000000     
  0.87500000000000000        6.2500000000000000E-002   0.0000000000000000     
  0.90625000000000000        6.2500000000000000E-002   0.0000000000000000     
  0.93750000000000000        6.2500000000000000E-002   0.0000000000000000     
  0.96875000000000000        6.2500000000000000E-002   0.0000000000000000     
   1.0000000000000000        6.2500000000000000E-002   0.0000000000000000     
  0.87500000000000000        9.3750000000000000E-002   0.0000000000000000     
  0.90625000000000000        9.3750000000000000E-002   0.0000000000000000     
  0.93750000000000000        9.3750000000000000E-002   0.0000000000000000     
  0.96875000000000000        9.3750000000000000E-002   0.0000000000000000     
   1.0000000000000000        9.3750000000000000E-002   0.0000000000000000     
  0.87500000000000000       0.12500000000000000        0.0000000000000000     
  0.90625000000000000       0.12500000000000000        0.0000000000000000     
  0.93750000000000000       0.12500000000000000        0.0000000000000000     
  0.96875000000000000       0.12500000000000000        0.0000000000000000     
   1.0000000000000000       0.12500000000000000        0.0000000000000000     
   0.0000000000000000       0.12500000000000000        0.0000000000000000     
   3.1250000000000000E-002  0.12500000000000000        0.0000000000000000     
   6.2500000000000000E-002  0.12500000000000000        0.0000000000000000     
   9.3750000000000000E-002  0.12500000000000000        0.0000000000000000     
  0.12500000000000000       0.12500000000000000        0.0000000000000000     
   0.0000000000000000       0.15625000000000000        0.0000000000000000     
   3.1250000000000000E-002  0.15625000000000000        0.0000000000000000     
   6.2500000000000000E-002  0.15625000000000000        0.0000000000000000     
   9.3750000000000000E-002  0.15625000000000000        0.0000000000000000     
  0.12500000000000000       0.15625000000000000        0.0000000000000000     
   0.0000000000000000       0.18750000000000000        0.0000000000000000     
   3.1250000000000000E-002  0.18750000000000000        0.0000000000000000     
   6.2500000000000000E-002  0.18750000000000000        0.0000000000000000     
   9.3750000000000000E-002  0.18750000000000000        0.0000000000000000     
  0.12500000000000000       0.18750000000000000        0.0000000000000000     
   0.0000000000000000       0.21875000000000000        0.0000000000000000     
   3.1250000000000000E-002  0.21875000000000000        0.0000000000000000     
   6.2500000000000000E-002  0.21875000000000000        0.0000000000000000     
   9.3750000000000000E-002  0.21875000000000000        0.0000000000000000     
  0.12500000000000000       0.21875000000000000        0.0000000000000000     
   0.0000000000000000       0.25000000000000000        0.0000000000000000     
   3.1250000000000000E-002  0.25000000000000000        0.0000000000000000     
   6.2500000000000000E-002  0.25000000000000000        0.0000000000000000     
   9.3750000000000000E-002  0.25000000000000000        0.0000000000000000     
  0.12500000000000000       0.25000000000000000        0.0000000000000000     
  0.12500000000000000       0.12500000000000000        0.0000000000000000     
  0.15625000000000000       0.12500000000000000        0.0000000000000000     
  0.18750000000000000       0.12500000000000000        0.0000000000000000     
  0.21875000000000000       0.12500000000000000        0.0000000000000000     
  0.25000000000000000       0.12500000000000000        0.0000000000000000     
  0.12500000000000000       0.15625000000000000        0.0000000000000000     
  0.15625000000000000       0.15625000000000000        0.0000000000000000     
  0.18750000000000000       0.15625000000000000        0.0000000000000000     
  0.21875000000000000       0.15625000000000000        0.0000000000000000     
  0.25000000000000000       0.15625000000000000        0.0000000000000000     
  0.12500000000000000       0.18750000000000000        0.0000000000000000     
  0.15625000000000000       0.18750000000000000        0.0000000000000000     
  0.18750000000000000       0.18750000000000000        0.0000000000000000     
  0.21875000000000000       0.18750000000000000        0.0000000000000000     
  0.25000000000000000       0.18750000000000000        0.0000000000000000     
  0.12500000000000000       0.21875000000000000        0.0000000000000000     
  0.15625000000000000       0.21875000000000000        0.0000000000000000     
  0.18750000000000000       0.21875000000000000        0.0000000000000000     
  0.21875000000000000       0.21875000000000000        0.0000000000000000     
  0.25000000000000000       0.21875000000000000        0.0000000000000000     
  0.12500000000000000       0.25000000000000000        0.0000000000000000     
  0.15625000000000000       0.25000000000000000        0.0000000000000000     
  0.18750000000000000       0.25000000000000000        0.0000000000000000     
  0.21875000000000000       0.25000000000000000        0.0000000000000000     
  0.25000000000000000       0.25000000000000000        0.0000000000000000     
  0.25000000000000000       0.12500000000000000        0.0000000000000000     
  0.28125000000000000       0.12500000000000000        0.0000000000000000     
  0.31250000000000000       0.12500000000000000        0.0000000000000000     
  0.34375000000000000       0.12500000000000000        0.0000000000000000     
  0.37500000000000000       0.12500000000000000        0.0000000000000000     
  0.25000000000000000       0.15625000000000000        0.0000000000000000     
  0.28125000000000000       0.15625000000000000        0.0000000000000000     
  0.31250000000000000       0.15625000000000000        0.0000000000000000     
  0.34375000000000000       0.15625000000000000        0.0000000000000000     
  0.37500000000000000       0.15625000000000000        0.0000000000000000     
  0.25000000000000000       0.18750000000000000        0.0000000000000000     
  0.28125000000000000       0.18750000000000000        0.0000000000000000     
  0.31250000000000000       0.18750000000000000        0.0000000000000000     
  0.34375000000000000       0.18750000000000000        0.0000000000000000     
  0.37500000000000000       0.18750000000000000        0.0000000000000000     
  0.25000000000000000       0.21875000000000000        0.0000000000000000     
  0.28125000000000000       0.21875000000000000        0.0000000000000000     
  0.31250000000000000       0.21875000000000000        0.0000000000000000     
  0.34375000000000000       0.21875000000000000        0.0000000000000000     
  0.37500000000000000       0.21875000000000000        0.0000000000000000     
  0.25000000000000000       0.25000000000000000        0.0000000000000000     
  0.28125000000000000       0.25000000000000000        0.0000000000000000     
  0.31250000000000000       0.25000000000000000        0.0000000000000000     
  0.34375000000000000       0.25000000000000000        0.0000000000000000     
  0.37500000000000000       0.25000000000000000        0.0000000000000000     
  0.37500000000000000       0.12500000000000000        0.0000000000000000     
  0.40625000000000000       0.12500000000000000        0.0000000000000000     
  0.43750000000000000       0.12500000000000000        0.0000000000000000     
  0.46875000000000000       0.12500000000000000        0.0000000000000000     
  0.50000000000000000       0.12500000000000000        0.0000000000000000     
  0.37500000000000000       0.15625000000000000        0.0000000000000000     
  0.40625000000000000       0.15625000000000000        0.0000000000000000     
  0.43750000000000000       0.15625000000000000        0.0000000000000000     
  0.46875000000000000       0.15625000000000000        0.0000000000000000     
  0.50000000000000000       0.15625000000000000        0.0000000000000000     
  0.37500000000000000       0.18750000000000000        0.0000000000000000     
  0.40625000000000000       0.18750000000000000        0.0000000000000000     
  0.43750000000000000       0.18750000000000000        0.0000000000000000     
  0.46875000000000000       0.18750000000000000        0.0000000000000000     
  0.50000000000000000       0.18750000000000000        0.0000000000000000     
  0.37500000000000000       0.21875000000000000        0.0000000000000000     
  0.40625000000000000       0.21875000000000000        0.0000000000000000     
  0.43750000000000000       0.21875000000000000        0.0000000000000000     
  0.46875000000000000       0.21875000000000000        0.0000000000000000     
  0.50000000000000000       0.21875000000000000        0.0000000000000000     
  0.37500000000000000       0.25000000000000000        0.0000000000000000     
  0.40625000000000000       0.25000000000000000        0.0000000000000000     
  0.43750000000000000       0.25000000000000000        0.0000000000000000     
  0.46875000000000000       0.25000000000000000        0.0000000000000000     
  0.50000000000000000       0.25000000000000000        0.0000000000000000     
  0.50000000000000000       0.12500000000000000        0.0000000000000000     
  0.53125000000000000       0.12500000000000000        0.0000000000000000     
  0.56250000000000000       0.12500000000000000        0.0000000000000000     
  0.59375000000000000       0.12500000000000000        0.0000000000000000     
  0.62500000000000000       0.12500000000000000        0.0000000000000000     
  0.50000000000000000       0.15625000000000000        0.0000000000000000     
  0.53125000000000000       0.15625000000000000        0.0000000000000000     
  0.56250000000000000       0.15625000000000000        0.0000000000000000     
  0.59375000000000000       0.15625000000000000        0.0000000000000000     
  0.62500000000000000       0.15625000000000000        0.0000000000000000     
  0.50000000000000000       0.18750000000000000        0.0000000000000000     
  0.53125000000000000       0.18750000000000000        0.0000000000000000     
  0.56250000000000000       0.18750000000000000        0.0000000000000000     
  0.59375000000000000       0.18750000000000000        0.0000000000000000     
  0.62500000000000000       0.18750000000000000        0.0000000000000000     
  0.50000000000000000       0.21875000000000000        0.0000000000000000     
  0.53125000000000000       0.21875000000000000        0.0000000000000000     
  0.56250000000000000       0.21875000000000000        0.0000000000000000     
  0.59375000000000000       0.21875000000000000        0.0000000000000000     
  0.62500000000000000       0.21875000000000000        0.0000000000000000     
  0.50000000000000000       0.25000000000000000        0.0000000000000000     
  0.53125000000000000       0.25000000000000000        0.0000000000000000     
  0.56250000000000000       0.25000000000000000        0.0000000000000000     
  0.59375000000000000       0.25000000000000000        0.0000000000000000     
  0.62500000000000000       0.25000000000000000        0.0000000000000000     
  0.62500000000000000       0.12500000000000000        0.0000000000000000     
  0.65625000000000000       0.12500000000000000        0.0000000000000000     
  0.68750000000000000       0.12500000000000000        0.0000000000000000     
  0.71875000000000000       0.12500000000000000        0.0000000000000000     
  0.75000000000000000       0.12500000000000000        0.0000000000000000     
  0.62500000000000000       0.15625000000000000        0.0000000000000000     
  0.65625000000000000       0.15625000000000000        0.0000000000000000     
  0.68750000000000000       0.15625000000000000        0.0000000000000000     
  0.71875000000000000       0.15625000000000000        0.0000000000000000     
  0.75000000000000000       0.15625000000000000        0.0000000000000000     
  0.62500000000000000       0.18750000000000000        0.0000000000000000     
  0.65625000000000000       0.18750000000000000        0.0000000000000000     
  0.68750000000000000       0.18750000000000000        0.0000000000000000     
  0.71875000000000000       0.18750000000000000        0.0000000000000000     
  0.75000000000000000       0.18750000000000000        0.0000000000000000     
  0.62500000000000000       0.21875000000000000        0.0000000000000000     
  0.65625000000000000       0.21875000000000000        0.0000000000000000     
  0.68750000000000000       0.21875000000000000        0.0000000000000000     
  0.71875000000000000       0.21875000000000000        0.0000000000000000     
  0.75000000000000000       0.21875000000000000        0.0000000000000000     
  0.62500000000000000       0.25000000000000000        0.0000000000000000     
  0.65625000000000000       0.25000000000000000        0.0000000000000000     
  0.68750000000000000       0.25000000000000000        0.0000000000000000     
  0.71875000000000000       0.25000000000000000        0.0000000000000000     
  0.75000000000000000       0.25000000000000000        0.0000000000000000     
  0.75000000000000000       0.12500000000000000        0.0000000000000000     
  0.78125000000000000       0.12500000000000000        0.0000000000000000     
  0.81250000000000000       0.12500000000000000        0.0000000000000000     
  0.84375000000000000       0.12500000000000000        0.0000000000000000     
  0.87500000000000000       0.12500000000000000        0.0000000000000000     
  0.75000000000000000       0.15625000000000000        0.0000000000000000     
  0.78125000000000000       0.15625000000000000        0.0000000000000000     
  0.81250000000000000       0.15625000000000000        0.0000000000000000     
  0.84375000000000000       0.15625000000000000        0.0000000000000000     
  0.87500000000000000       0.15625000000000000        0.0000000000000000     
  0.75000000000000000       0.18750000000000000        0.0000000000000000     
  0.78125000000000000       0.18750000000000000        0.0000000000000000     
  0.81250000000000000       0.18750000000000000        0.0000000000000000     
  0.84375000000000000       0.18750000000000000        0.0000000000000000     
  0.87500000000000000       0.18750000000000000        0.0000000000000000     
  0.75000000000000000       0.21875000000000000        0.0000000000000000     
  0.78125000000000000       0.21875000000000000        0.0000000000000000     
  0.81250000000000000       0.21875000000000000        0.0000000000000000     
  0.84375000000000000       0.21875000000000000        0.0000000000000000     
  0.87500000000000000       0.21875000000000000        0.0000000000000000     
  0.75000000000000000       0.25000000000000000        0.0000000000000000     
  0.78125000000000000       0.25000000000000000        0.0000000000000000     
  0.81250000000000000       0.25000000000000000        0.0000000000000000     
  0.84375000000000000       0.25000000000000000        0.0000000000000000     
  0.87500000000000000       0.25000000000000000        0.0000000000000000     
  0.87500000000000000       0.12500000000000000        0.0000000000000000     
  0.90625000000000000       0.12500000000000000        0.0000000000000000     
  0.93750000000000000       0.12500000000000000        0.0000000000000000     
  0.96875000000000000       0.12500000000000000        0.0000000000000000     
   1.0000000000000000       0.12500000000000000        0.0000000000000000     
  0.87500000000000000       0.15625000000000000        0.0000000000000000     
  0.90625000000000000       0.15625000000000000        0.0000000000000000     
  0.93750000000000000       0.15625000000000000        0.0000000000000000     
  0.96875000000000000       0.15625000000000000        0.0000000000000000     
   1.0000000000000000       0.15625000000000000        0.0000000000000000     
  0.87500000000000000       0.18750000000000000        0.0000000000000000     
  0.90625000000000000       0.18750000000000000        0.0000000000000000     
  0.93750000000000000       0.18750000000000000        0.0000000000000000     
  0.96875000000000000       0.18750000000000000        0.0000000000000000     
   1.0000000000000000       0.18750000000000000        0.0000000000000000     
  0.87500000000000000       0.21875000000000000        0.0000000000000000     
  0.90625000000000000       0.21875000000000000        0.0000000000000000     
  0.93750000000000000       0.21875000000000000        0.0000000000000000     
  0.96875000000000000       0.21875000000000000        0.0000000000000000     
   1.0000000000000000       0.21875000000000000        0.0000000000000000     
  0.87500000000000000       0.25000000000000000        0.0000000000000000     
  0.90625000000000000       0.25000000000000000        0.0000000000000000     
  0.93750000000000000       0.25000000000000000        0.0000000000000000     
  0.96875000000000000       0.25000000000000000        0.0000000000000000     
   1.0000000000000000       0.25000000000000000        0.0000000000000000     
   0.0000000000000000       0.25000000000000000        0.0000000000000000     
   3.1250000000000000E-002  0.25000000000000000        0.0000000000000000     
   6.2500000000000000E-002  0.25000000000000000        0.0000000000000000     
   9.3750000000000000E-002  0.25000000000000000        0.0000000000000000     
  0.12500000000000000       0.25000000000000000        0.0000000000000000     
   0.0000000000000000       0.28125000000000000        0.0000000000000000     
   3.1250000000000000E-002  0.28125000000000000        0.0000000000000000     
   6.2500000000000000E-002  0.28125000000000000        0.0000000000000000     
   9.3750000000000000E-002  0.28125000000000000        0.0000000000000000     
  0.12500000000000000       0.28125000000000000        0.0000000000000000     
   0.0000000000000000       0.31250000000000000        0.0000000000000000     
   3.1250000000000000E-002  0.31250000000000000        0.0000000000000000     
   6.2500000000000000E-002  0.31250000000000000        0.0000000000000000     
   9.3750000000000000E-002  0.31250000000000000        0.0000000000000000     
  0.12500000000000000       0.31250000000000000        0.0000000000000000     
   0.0000000000000000       0.34375000000000000        0.0000000000000000     
   3.1250000000000000E-002  0.34375000000000000        0.0000000000000000     
   6.2500000000000000E-002  0.34375000000000000        0.0000000000000000     
   9.3750000000000000E-002  0.34375000000000000        0.0000000000000000     
  0.12500000000000000       0.34375000000000000        0.0000000000000000     
   0.0000000000000000       0.37500000000000000        0.0000000000000000     
   3.1250000000000000E-002  0.37500000000000000        0.0000000000000000     
   6.2500000000000000E-002  0.37500000000000000        0.0000000000000000     
   9.3750000000000000E-002  0.37500000000000000        0.0000000000000000     
  0.12500000000000000       0.37500000000000000        0.0000000000000000     
  0.12500000000000000       0.25000000000000000        0.0000000000000000     
  0.15625000000000000       0.25000000000000000        0.0000000000000000     
  0.18750000000000000       0.25000000000000000        0.0000000000000000     
  0.21875000000000000       0.25000000000000000        0.0000000000000000     
  0.25000000000000000       0.25000000000000000        0.0000000000000000     
  0.12500000000000000       0.28125000000000000        0.0000000000000000     
  0.15625000000000000       0.28125000000000000        0.0000000000000000     
  0.18750000000000000       0.28125000000000000        0.0000000000000000     
  0.21875000000000000       0.28125000000000000        0.0000000000000000     
  0.25000000000000000       0.28125000000000000        0.0000000000000000     
  0.12500000000000000       0.31250000000000000        0.0000000000000000     
  0.15625000000000000       0.31250000000000000        0.0000000000000000     
  0.18750000000000000       0.31250000000000000        0.0000000000000000     
  0.21875000000000000       0.31250000000000000        0.0000000000000000     
  0.25000000000000000       0.31250000000000000        0.0000000000000000     
  0.12500000000000000       0.34375000000000000        0.0000000000000000     
  0.15625000000000000       0.34375000000000000        0.0000000000000000     
  0.18750000000000000       0.34375000000000000        0.0000000000000000     
  0.21875000000000000       0.34375000000000000        0.0000000000000000     
  0.25000000000000000       0.34375000000000000        0.0000000000000000     
  0.12500000000000000       0.37500000000000000        0.0000000000000000     
  0.15625000000000000       0.37500000000000000        0.0000000000000000     
  0.18750000000000000       0.37500000000000000        0.0000000000000000     
  0.21875000000000000       0.37500000000000000        0.0000000000000000     
  0.25000000000000000       0.37500000000000000        0.0000000000000000     
  0.25000000000000000       0.25000000000000000        0.0000000000000000     
  0.28125000000000000       0.25000000000000000        0.0000000000000000     
  0.31250000000000000       0.25000000000000000        0.0000000000000000     
  0.34375000000000000       0.25000000000000000        0.0000000000000000     
  0.37500000000000000       0.25000000000000000        0.0000000000000000     
  0.25000000000000000       0.28125000000000000        0.0000000000000000     
  0.28125000000000000       0.28125000000000000        0.0000000000000000     
  0.31250000000000000       0.28125000000000000        0.0000000000000000     
  0.34375000000000000       0.28125000000000000        0.0000000000000000     
  0.37500000000000000       0.28125000000000000        0.0000000000000000     
  0.25000000000000000       0.31250000000000000        0.0000000000000000     
  0.28125000000000000       0.31250000000000000        0.0000000000000000     
  0.31250000000000000       0.31250000000000000        0.0000000000000000     
  0.34375000000000000       0.31250000000000000        0.0000000000000000     
  0.37500000000000000       0.31250000000000000        0.0000000000000000     
  0.25000000000000000       0.34375000000000000        0.0000000000000000     
  0.28125000000000000       0.34375000000000000        0.0000000000000000     
  0.31250000000000000       0.34375000000000000        0.0000000000000000     
  0.34375000000000000       0.34375000000000000        0.0000000000000000     
  0.37500000000000000       0.34375000000000000        0.0000000000000000     
  0.25000000000000000       0.37500000000000000        0.0000000000000000     
  0.28125000000000000       0.37500000000000000        0.0000000000000000     
  0.31250000000000000       0.37500000000000000        0.0000000000000000     
  0.34375000000000000       0.37500000000000000        0.0000000000000000     
  0.37500000000000000       0.37500000000000000        0.0000000000000000     
  0.37500000000000000       0.25000000000000000        0.0000000000000000     
  0.40625000000000000       0.25000000000000000        0.0000000000000000     
  0.43750000000000000       0.25000000000000000        0.0000000000000000     
  0.46875000000000000       0.25000000000000000        0.0000000000000000     
  0.50000000000000000       0.25000000000000000        0.0000000000000000     
  0.37500000000000000       0.28125000000000000        0.0000000000000000     
  0.40625000000000000       0.28125000000000000        0.0000000000000000     
  0.43750000000000000       0.28125000000000000        0.0000000000000000     
  0.46875000000000000       0.28125000000000000        0.0000000000000000     
  0.50000000000000000       0.28125000000000000        0.0000000000000000     
  0.37500000000000000       0.31250000000000000        0.0000000000000000     
  0.40625000000000000       0.31250000000000000        0.0000000000000000     
  0.43750000000000000       0.31250000000000000        0.0000000000000000     
  0.46875000000000000       0.31250000000000000        0.0000000000000000     
  0.50000000000000000       0.31250000000000000        0.0000000000000000     
  0.37500000000000000       0.34375000000000000        0.0000000000000000     
  0.40625000000000000       0.34375000000000000        0.0000000000000000     
  0.43750000000000000       0.34375000000000000        0.0000000000000000     
  0.46875000000000000       0.34375000000000000        0.0000000000000000     
  0.50000000000000000       0.34375000000000000        0.0000000000000000     
  0.37500000000000000       0.37500000000000000        0.0000000000000000     
  0.40625000000000000       0.37500000000000000        0.0000000000000000     
  0.43750000000000000       0.37500000000000000        0.0000000000000000     
  0.46875000000000000       0.37500000000000000        0.0000000000000000     
  0.50000000000000000       0.37500000000000000        0.0000000000000000     
  0.50000000000000000       0.25000000000000000        0.0000000000000000     
  0.53125000000000000       0.25000000000000000        0.0000000000000000     
  0.56250000000000000       0.25000000000000000        0.0000000000000000     
  0.59375000000000000       0.25000000000000000        0.0000000000000000     
  0.62500000000000000       0.25000000000000000        0.0000000000000000     
  0.50000000000000000       0.28125000000000000        0.0000000000000000     
  0.53125000000000000       0.28125000000000000        0.0000000000000000     
  0.56250000000000000       0.28125000000000000        0.0000000000000000     
  0.59375000000000000       0.28125000000000000        0.0000000000000000     
  0.62500000000000000       0.28125000000000000        0.0000000000000000     
  0.50000000000000000       0.31250000000000000        0.0000000000000000     
  0.53125000000000000       0.31250000000000000        0.0000000000000000     
  0.56250000000000000       0.31250000000000000        0.0000000000000000     
  0.59375000000000000       0.31250000000000000        0.0000000000000000     
  0.62500000000000000       0.31250000000000000        0.0000000000000000     
  0.50000000000000000       0.34375000000000000        0.0000000000000000     
  0.53125000000000000       0.34375000000000000        0.0000000000000000     
  0.56250000000000000       0.34375000000000000        0.0000000000000000     
  0.59375000000000000       0.34375000000000000        0.0000000000000000     
  0.62500000000000000       0.34375000000000000        0.0000000000000000     
  0.50000000000000000       0.37500000000000000        0.0000000000000000     
  0.53125000000000000       0.37500000000000000        0.0000000000000000     
  0.56250000000000000       0.37500000000000000        0.0000000000000000     
  0.59375000000000000       0.37500000000000000        0.0000000000000000     
  0.62500000000000000       0.37500000000000000        0.0000000000000000     
  0.62500000000000000       0.25000000000000000        0.0000000000000000     
  0.65625000000000000       0.25000000000000000        0.0000000000000000     
  0.68750000000000000       0.25000000000000000        0.0000000000000000     
  0.71875000000000000       0.25000000000000000        0.0000000000000000     
  0.75000000000000000       0.25000000000000000        0.0000000000000000     
  0.62500000000000000       0.28125000000000000        0.0000000000000000     
  0.65625000000000000       0.28125000000000000        0.0000000000000000     
  0.68750000000000000       0.28125000000000000        0.0000000000000000     
  0.71875000000000000       0.28125000000000000        0.0000000000000000     
  0.75000000000000000       0.28125000000000000        0.0000000000000000     
  0.62500000000000000       0.31250000000000000        0.0000000000000000     
  0.65625000000000000       0.31250000000000000        0.0000000000000000     
  0.68750000000000000       0.31250000000000000        0.0000000000000000     
  0.71875000000000000       0.31250000000000000        0.0000000000000000     
  0.75000000000000000       0.31250000000000000        0.0000000000000000     
  0.62500000000000000       0.34375000000000000        0.0000000000000000     
  0.65625000000000000       0.34375000000000000        0.0000000000000000     
  0.68750000000000000       0.34375000000000000        0.0000000000000000     
  0.71875000000000000       0.34375000000000000        0.0000000000000000     
  0.75000000000000000       0.34375000000000000        0.0000000000000000     
  0.62500000000000000       0.37500000000000000        0.0000000000000000     
  0.65625000000000000       0.37500000000000000        0.0000000000000000     
  0.68750000000000000       0.37500000000000000        0.0000000000000000     
  0.71875000000000000       0.37500000000000000        0.0000000000000000     
  0.75000000000000000       0.37500000000000000        0.0000000000000000     
  0.75000000000000000       0.25000000000000000        0.0000000000000000     
  0.78125000000000000       0.25000000000000000        0.0000000000000000     
  0.81250000000000000       0.25000000000000000        0.0000000000000000     
  0.84375000000000000       0.25000000000000000        0.0000000000000000     
  0.87500000000000000       0.25000000000000000        0.0000000000000000     
  0.75000000000000000       0.28125000000000000        0.0000000000000000     
  0.78125000000000000       0.28125000000000000        0.0000000000000000     
  0.81250000000000000       0.28125000000000000        0.0000000000000000     
  0.84375000000000000       0.28125000000000000        0.0000000000000000     
  0.87500000000000000       0.28125000000000000        0.0000000000000000     
  0.75000000000000000       0.31250000000000000        0.0000000000000000     
  0.78125000000000000       0.31250000000000000        0.0000000000000000     
  0.81250000000000000       0.31250000000000000        0.0000000000000000     
  0.84375000000000000       0.31250000000000000        0.0000000000000000     
  0.87500000000000000       0.31250000000000000        0.0000000000000000     
  0.75000000000000000       0.34375000000000000        0.0000000000000000     
  0.78125000000000000       0.34375000000000000        0.0000000000000000     
  0.81250000000000000       0.34375000000000000        0.0000000000000000     
  0.84375000000000000       0.34375000000000000        0.0000000000000000     
  0.87500000000000000       0.34375000000000000        0.0000000000000000     
  0.75000000000000000       0.37500000000000000        0.0000000000000000     
  0.78125000000000000       0.37500000000000000        0.0000000000000000     
  0.81250000000000000       0.37500000000000000        0.0000000000000000     
  0.84375000000000000       0.37500000000000000        0.0000000000000000     
  0.87500000000000000       0.37500000000000000        0.0000000000000000     
  0.87500000000000000       0.25000000000000000        0.0000000000000000     
  0.90625000000000000       0.25000000000000000        0.0000000000000000     
  0.93750000000000000       0.25000000000000000        0.0000000000000000     
  0.96875000000000000       0.25000000000000000        0.0000000000000000     
   1.0000000000000000       0.25000000000000000        0.0000000000000000     
  0.87500000000000000       0.28125000000000000        0.0000000000000000     
  0.90625000000000000       0.28125000000000000        0.0000000000000000     
  0.93750000000000000       0.28125000000000000        0.0000000000000000     
  0.96875000000000000       0.28125000000000000        0.0000000000000000     
   1.0000000000000000       0.28125000000000000        0.0000000000000000     
  0.87500000000000000       0.31250000000000000        0.0000000000000000     
  0.90625000000000000       0.31250000000000000        0.0000000000000000     
  0.93750000000000000       0.31250000000000000        0.0000000000000000     
  0.96875000000000000       0.31250000000000000        0.0000000000000000     
   1.0000000000000000       0.31250000000000000        0.0000000000000000     
  0.87500000000000000       0.34375000000000000        0.0000000000000000     
  0.90625000000000000       0.34375000000000000        0.0000000000000000     
  0.93750000000000000       0.34375000000000000        0.0000000000000000     
  0.96875000000000000       0.34375000000000000        0.0000000000000000     
   1.0000000000000000       0.34375000000000000        0.0000000000000000     
  0.87500000000000000       0.37500000000000000        0.0000000000000000     
  0.90625000000000000       0.37500000000000000        0.0000000000000000     
  0.93750000000000000       0.37500000000000000        0.0000000000000000     
  0.96875000000000000       0.37500000000000000        0.0000000000000000     
   1.0000000000000000       0.37500000000000000        0.0000000000000000     
   0.0000000000000000       0.37500000000000000        0.0000000000000000     
   3.1250000000000000E-002  0.37500000000000000        0.0000000000000000     
   6.2500000000000000E-002  0.37500000000000000        0.0000000000000000     
   9.3750000000000000E-002  0.37500000000000000        0.0000000000000000     
  0.12500000000000000       0.37500000000000000        0.0000000000000000     
   0.0000000000000000       0.40625000000000000        0.0000000000000000     
   3.1250000000000000E-002  0.40625000000000000        0.0000000000000000     
   6.2500000000000000E-002  0.40625000000000000        0.0000000000000000     
   9.3750000000000000E-002  0.40625000000000000        0.0000000000000000     
  0.12500000000000000       0.40625000000000000        0.0000000000000000     
   0.0000000000000000       0.43750000000000000        0.0000000000000000     
   3.1250000000000000E-002  0.43750000000000000        0.0000000000000000     
   6.2500000000000000E-002  0.43750000000000000        0.0000000000000000     
   9.3750000000000000E-002  0.43750000000000000        0.0000000000000000     
  0.12500000000000000       0.43750000000000000        0.0000000000000000     
   0.0000000000000000       0.46875000000000000        0.0000000000000000     
   3.1250000000000000E-002  0.46875000000000000        0.0000000000000000     
   6.2500000000000000E-002  0.46875000000000000        0.0000000000000000     
   9.3750000000000000E-002  0.46875000000000000        0.0000000000000000     
  0.12500000000000000       0.46875000000000000        0.0000000000000000     
   0.0000000000000000       0.50000000000000000        0.0000000000000000     
   3.1250000000000000E-002  0.50000000000000000        0.0000000000000000     
   6.2500000000000000E-002  0.50000000000000000        0.0000000000000000     
   9.3750000000000000E-002  0.50000000000000000        0.0000000000000000     
  0.12500000000000000       0.50000000000000000        0.0000000000000000     
  0.12500000000000000       0.37500000000000000        0.0000000000000000     
  0.15625000000000000       0.37500000000000000        0.0000000000000000     
  0.18750000000000000       0.37500000000000000        0.0000000000000000     
  0.21875000000000000       0.37500000000000000        0.0000000000000000     
  0.25000000000000000       0.37500000000000000        0.0000000000000000     
  0.12500000000000000       0.40625000000000000        0.0000000000000000     
  0.15625000000000000       0.40625000000000000        0.0000000000000000     
  0.18750000000000000       0.40625000000000000        0.0000000000000000     
  0.21875000000000000       0.40625000000000000        0.0000000000000000     
  0.25000000000000000       0.40625000000000000        0.0000000000000000     
  0.12500000000000000       0.43750000000000000        0.0000000000000000     
  0.15625000000000000       0.43750000000000000        0.0000000000000000     
  0.18750000000000000       0.43750000000000000        0.0000000000000000     
  0.21875000000000000       0.43750000000000000        0.0000000000000000     
  0.25000000000000000       0.43750000000000000        0.0000000000000000     
  0.12500000000000000       0.46875000000000000        0.0000000000000000     
  0.15625000000000000       0.46875000000000000        0.0000000000000000     
  0.18750000000000000       0.46875000000000000        0.0000000000000000     
  0.21875000000000000       0.46875000000000000        0.0000000000000000     
  0.25000000000000000       0.46875000000000000        0.0000000000000000     
  0.12500000000000000       0.50000000000000000        0.0000000000000000     
  0.15625000000000000       0.50000000000000000        0.0000000000000000     
  0.18750000000000000       0.50000000000000000        0.0000000000000000     
  0.21875000000000000       0.50000000000000000        0.0000000000000000     
  0.25000000000000000       0.50000000000000000        0.0000000000000000     
  0.25000000000000000       0.37500000000000000        0.0000000000000000     
  0.28125000000000000       0.37500000000000000        0.0000000000000000     
  0.31250000000000000       0.37500000000000000        0.0000000000000000     
  0.34375000000000000       0.37500000000000000        0.0000000000000000     
  0.37500000000000000       0.37500000000000000        0.0000000000000000     
  0.25000000000000000       0.40625000000000000        0.0000000000000000     
  0.28125000000000000       0.40625000000000000        0.0000000000000000     
  0.31250000000000000       0.40625000000000000        0.0000000000000000     
  0.34375000000000000       0.40625000000000000        0.0000000000000000     
  0.37500000000000000       0.40625000000000000        0.0000000000000000     
  0.25000000000000000       0.43750000000000000        0.0000000000000000     
  0.28125000000000000       0.43750000000000000        0.0000000000000000     
  0.31250000000000000       0.43750000000000000        0.0000000000000000     
  0.34375000000000000       0.43750000000000000        0.0000000000000000     
  0.37500000000000000       0.43750000000000000        0.0000000000000000     
  0.25000000000000000       0.46875000000000000        0.0000000000000000     
  0.28125000000000000       0.46875000000000000        0.0000000000000000     
  0.31250000000000000       0.46875000000000000        0.0000000000000000     
  0.34375000000000000       0.46875000000000000        0.0000000000000000     
  0.37500000000000000       0.46875000000000000        0.0000000000000000     
  0.25000000000000000       0.50000000000000000        0.0000000000000000     
  0.28125000000000000       0.50000000000000000        0.0000000000000000     
  0.31250000000000000       0.50000000000000000        0.0000000000000000     
  0.34375000000000000       0.50000000000000000        0.0000000000000000     
  0.37500000000000000       0.50000000000000000        0.0000000000000000     
  0.37500000000000000       0.37500000000000000        0.0000000000000000     
  0.40625000000000000       0.37500000000000000        0.0000000000000000     
  0.43750000000000000       0.37500000000000000        0.0000000000000000     
  0.46875000000000000       0.37500000000000000        0.0000000000000000     
  0.50000000000000000       0.37500000000000000        0.0000000000000000     
  0.37500000000000000       0.40625000000000000        0.0000000000000000     
  0.40625000000000000       0.40625000000000000        0.0000000000000000     
  0.43750000000000000       0.40625000000000000        0.0000000000000000     
  0.46875000000000000       0.40625000000000000        0.0000000000000000     
  0.50000000000000000       0.40625000000000000        0.0000000000000000     
  0.37500000000000000       0.43750000000000000        0.0000000000000000     
  0.40625000000000000       0.43750000000000000        0.0000000000000000     
  0.43750000000000000       0.43750000000000000        0.0000000000000000     
  0.46875000000000000       0.43750000000000000        0.0000000000000000     
  0.50000000000000000       0.43750000000000000        0.0000000000000000     
  0.37500000000000000       0.46875000000000000        0.0000000000000000     
  0.40625000000000000       0.46875000000000000        0.0000000000000000     
  0.43750000000000000       0.46875000000000000        0.0000000000000000     
  0.46875000000000000       0.46875000000000000        0.0000000000000000     
  0.50000000000000000       0.46875000000000000        0.0000000000000000     
  0.37500000000000000       0.50000000000000000        0.0000000000000000     
  0.40625000000000000       0.50000000000000000        0.0000000000000000     
  0.43750000000000000       0.50000000000000000        0.0000000000000000     
  0.46875000000000000       0.50000000000000000        0.0000000000000000     
  0.50000000000000000       0.50000000000000000        0.0000000000000000     
  0.50000000000000000       0.37500000000000000        0.0000000000000000     
  0.53125000000000000       0.37500000000000000        0.0000000000000000     
  0.56250000000000000       0.37500000000000000        0.0000000000000000     
  0.59375000000000000       0.37500000000000000        0.0000000000000000     
  0.62500000000000000       0.37500000000000000        0.0000000000000000     
  0.50000000000000000       0.40625000000000000        0.0000000000000000     
  0.53125000000000000       0.40625000000000000        0.0000000000000000     
  0.56250000000000000       0.40625000000000000        0.0000000000000000     
  0.59375000000000000       0.40625000000000000        0.0000000000000000     
  0.62500000000000000       0.40625000000000000        0.0000000000000000     
  0.50000000000000000       0.43750000000000000        0.0000000000000000     
  0.53125000000000000       0.43750000000000000        0.0000000000000000     
  0.56250000000000000       0.43750000000000000        0.0000000000000000     
  0.59375000000000000       0.43750000000000000        0.0000000000000000     
  0.62500000000000000       0.43750000000000000        0.0000000000000000     
  0.50000000000000000       0.46875000000000000        0.0000000000000000     
  0.53125000000000000       0.46875000000000000        0.0000000000000000     
  0.56250000000000000       0.46875000000000000        0.0000000000000000     
  0.59375000000000000       0.46875000000000000        0.0000000000000000     
  0.62500000000000000       0.46875000000000000        0.0000000000000000     
  0.50000000000000000       0.50000000000000000        0.0000000000000000     
  0.53125000000000000       0.50000000000000000        0.0000000000000000     
  0.56250000000000000       0.50000000000000000        0.0000000000000000     
  0.59375000000000000       0.50000000000000000        0.0000000000000000     
  0.62500000000000000       0.50000000000000000        0.0000000000000000     
  0.62500000000000000       0.37500000000000000        0.0000000000000000     
  0.65625000000000000       0.37500000000000000        0.0000000000000000     
  0.68750000000000000       0.37500000000000000        0.0000000000000000     
  0.71875000000000000       0.37500000000000000        0.0000000000000000     
  0.75000000000000000       0.37500000000000000        0.0000000000000000     
  0.62500000000000000       0.40625000000000000        0.0000000000000000     
  0.65625000000000000       0.40625000000000000        0.0000000000000000     
  0.68750000000000000       0.40625000000000000        0.0000000000000000     
  0.71875000000000000       0.40625000000000000        0.0000000000000000     
  0.75000000000000000       0.40625000000000000        0.0000000000000000     
  0.62500000000000000       0.43750000000000000        0.0000000000000000     
  0.65625000000000000       0.43750000000000000        0.0000000000000000     
  0.68750000000000000       0.43750000000000000        0.0000000000000000     
  0.71875000000000000       0.43750000000000000        0.0000000000000000     
  0.75000000000000000       0.43750000000000000        0.0000000000000000     
  0.62500000000000000       0.46875000000000000        0.0000000000000000     
  0.65625000000000000       0.46875000000000000        0.0000000000000000     
  0.68750000000000000       0.46875000000000000        0.0000000000000000     
  0.71875000000000000       0.46875000000000000        0.0000000000000000     
  0.75000000000000000       0.46875000000000000        0.0000000000000000     
  0.62500000000000000       0.50000000000000000        0.0000000000000000     
  0.65625000000000000       0.50000000000000000        0.0000000000000000     
  0.68750000000000000       0.50000000000000000        0.0000000000000000     
  0.71875000000000000       0.50000000000000000        0.0000000000000000     
  0.75000000000000000       0.50000000000000000        0.0000000000000000     
  0.75000000000000000       0.37500000000000000        0.0000000000000000     
  0.78125000000000000       0.37500000000000000        0.0000000000000000     
  0.81250000000000000       0.37500000000000000        0.0000000000000000     
  0.84375000000000000       0.37500000000000000        0.0000000000000000     
  0.87500000000000000       0.37500000000000000        0.0000000000000000     
  0.75000000000000000       0.40625000000000000        0.0000000000000000     
  0.78125000000000000       0.40625000000000000        0.0000000000000000     
  0.81250000000000000       0.40625000000000000        0.0000000000000000     
  0.84375000000000000       0.40625000000000000        0.0000000000000000     
  0.87500000000000000       0.40625000000000000        0.0000000000000000     
  0.75000000000000000       0.43750000000000000        0.0000000000000000     
  0.78125000000000000       0.43750000000000000        0.0000000000000000     
  0.81250000000000000       0.43750000000000000        0.0000000000000000     
  0.84375000000000000       0.43750000000000000        0.0000000000000000     
  0.87500000000000000       0.43750000000000000        0.0000000000000000     
  0.75000000000000000       0.46875000000000000        0.0000000000000000     
  0.78125000000000000       0.46875000000000000        0.0000000000000000     
  0.81250000000000000       0.46875000000000000        0.0000000000000000     
  0.84375000000000000       0.46875000000000000        0.0000000000000000     
  0.87500000000000000       0.46875000000000000        0.0000000000000000     
  0.75000000000000000       0.50000000000000000        0.0000000000000000     
  0.78125000000000000       0.50000000000000000        0.0000000000000000     
  0.81250000000000000       0.50000000000000000        0.0000000000000000     
  0.84375000000000000       0.50000000000000000        0.0000000000000000     
  0.87500000000000000       0.50000000000000000        0.0000000000000000     
  0.87500000000000000       0.37500000000000000        0.0000000000000000     
  0.90625000000000000       0.37500000000000000        0.0000000000000000     
  0.93750000000000000       0.37500000000000000        0.0000000000000000     
  0.96875000000000000       0.37500000000000000        0.0000000000000000     
   1.0000000000000000       0.37500000000000000        0.0000000000000000     
  0.87500000000000000       0.40625000000000000        0.0000000000000000     
  0.90625000000000000       0.40625000000000000        0.0000000000000000     
  0.93750000000000000       0.40625000000000000        0.0000000000000000     
  0.96875000000000000       0.40625000000000000        0.0000000000000000     
   1.0000000000000000       0.40625000000000000        0.0000000000000000     
  0.87500000000000000       0.43750000000000000        0.0000000000000000     
  0.90625000000000000       0.43750000000000000        0.0000000000000000     
  0.93750000000000000       0.43750000000000000        0.0000000000000000     
  0.96875000000000000       0.43750000000000000        0.0000000000000000     
   1.0000000000000000       0.43750000000000000        0.0000000000000000     
  0.87500000000000000       0.46875000000000000        0.0000000000000000     
  0.90625000000000000       0.46875000000000000        0.0000000000000000     
  0.93750000000000000       0.46875000000000000        0.0000000000000000     
  0.96875000000000000       0.46875000000000000        0.0000000000000000     
   1.0000000000000000       0.46875000000000000        0.0000000000000000     
  0.87500000000000000       0.50000000000000000        0.0000000000000000     
  0.90625000000000000       0.50000000000000000        0.0000000000000000     
  0.93750000000000000       0.50000000000000000        0.0000000000000000     
  0.96875000000000000       0.50000000000000000        0.0000000000000000     
   1.0000000000000000       0.50000000000000000        0.0000000000000000     
   0.0000000000000000       0.50000000000000000        0.0000000000000000     
   3.1250000000000000E-002  0.50000000000000000        0.0000000000000000     
   6.2500000000000000E-002  0.50000000000000000        0.0000000000000000     
   9.3750000000000000E-002  0.50000000000000000        0.0000000000000000     
  0.12500000000000000       0.50000000000000000        0.0000000000000000     
   0.0000000000000000       0.53125000000000000        0.0000000000000000     
   3.1250000000000000E-002  0.53125000000000000        0.0000000000000000     
   6.2500000000000000E-002  0.53125000000000000        0.0000000000000000     
   9.3750000000000000E-002  0.53125000000000000        0.0000000000000000     
  0.12500000000000000       0.53125000000000000        0.0000000000000000     
   0.0000000000000000       0.56250000000000000        0.0000000000000000     
   3.1250000000000000E-002  0.56250000000000000        0.0000000000000000     
   6.2500000000000000E-002  0.56250000000000000        0.0000000000000000     
   9.3750000000000000E-002  0.56250000000000000        0.0000000000000000     
  0.12500000000000000       0.56250000000000000        0.0000000000000000     
   0.0000000000000000       0.59375000000000000        0.0000000000000000     
   3.1250000000000000E-002  0.59375000000000000        0.0000000000000000     
   6.2500000000000000E-002  0.59375000000000000        0.0000000000000000     
   9.3750000000000000E-002  0.59375000000000000        0.0000000000000000     
  0.12500000000000000       0.59375000000000000        0.0000000000000000     
   0.0000000000000000       0.62500000000000000        0.0000000000000000     
   3.1250000000000000E-002  0.62500000000000000        0.0000000000000000     
   6.2500000000000000E-002  0.62500000000000000        0.0000000000000000     
   9.3750000000000000E-002  0.62500000000000000        0.0000000000000000     
  0.12500000000000000       0.62500000000000000        0.0000000000000000     
  0.12500000000000000       0.50000000000000000        0.0000000000000000     
  0.15625000000000000       0.50000000000000000        0.0000000000000000     
  0.18750000000000000       0.50000000000000000        0.0000000000000000     
  0.21875000000000000       0.50000000000000000        0.0000000000000000     
  0.25000000000000000       0.50000000000000000        0.0000000000000000     
  0.12500000000000000       0.53125000000000000        0.0000000000000000     
  0.15625000000000000       0.53125000000000000        0.0000000000000000     
  0.18750000000000000       0.53125000000000000        0.0000000000000000     
  0.21875000000000000       0.53125000000000000        0.0000000000000000     
  0.25000000000000000       0.53125000000000000        0.0000000000000000     
  0.12500000000000000       0.56250000000000000        0.0000000000000000     
  0.15625000000000000       0.56250000000000000        0.0000000000000000     
  0.18750000000000000       0.56250000000000000        0.0000000000000000     
  0.21875000000000000       0.56250000000000000        0.0000000000000000     
  0.25000000000000000       0.56250000000000000        0.0000000000000000     
  0.12500000000000000       0.59375000000000000        0.0000000000000000     
  0.15625000000000000       0.59375000000000000        0.0000000000000000     
  0.18750000000000000       0.59375000000000000        0.0000000000000000     
  0.21875000000000000       0.59375000000000000        0.0000000000000000     
  0.25000000000000000       0.59375000000000000        0.0000000000000000     
  0.12500000000000000       0.62500000000000000        0.0000000000000000     
  0.15625000000000000       0.62500000000000000        0.0000000000000000     
  0.18750000000000000       0.62500000000000000        0.0000000000000000     
  0.21875000000000000       0.62500000000000000        0.0000000000000000     
  0.25000000000000000       0.62500000000000000        0.0000000000000000     
  0.25000000000000000       0.50000000000000000        0.0000000000000000     
  0.28125000000000000       0.50000000000000000        0.0000000000000000     
  0.31250000000000000       0.50000000000000000        0.0000000000000000     
  0.34375000000000000       0.50000000000000000        0.0000000000000000     
  0.37500000000000000       0.50000000000000000        0.0000000000000000     
  0.25000000000000000       0.53125000000000000        0.0000000000000000     
  0.28125000000000000       0.53125000000000000        0.0000000000000000     
  0.31250000000000000       0.53125000000000000        0.0000000000000000     
  0.34375000000000000       0.53125000000000000        0.0000000000000000     
  0.37500000000000000       0.53125000000000000        0.0000000000000000     
  0.25000000000000000       0.56250000000000000        0.0000000000000000     
  0.28125000000000000       0.56250000000000000        0.0000000000000000     
  0.31250000000000000       0.56250000000000000        0.0000000000000000     
  0.34375000000000000       0.56250000000000000        0.0000000000000000     
  0.37500000000000000       0.56250000000000000        0.0000000000000000     
  0.25000000000000000       0.59375000000000000        0.0000000000000000     
  0.28125000000000000       0.59375000000000000        0.0000000000000000     
  0.31250000000000000       0.59375000000000000        0.0000000000000000     
  0.34375000000000000       0.59375000000000000        0.0000000000000000     
  0.37500000000000000       0.59375000000000000        0.0000000000000000     
  0.25000000000000000       0.62500000000000000        0.0000000000000000     
  0.28125000000000000       0.62500000000000000        0.0000000000000000     
  0.31250000000000000       0.62500000000000000        0.0000000000000000     
  0.34375000000000000       0.62500000000000000        0.0000000000000000     
  0.37500000000000000       0.62500000000000000        0.0000000000000000     
  0.37500000000000000       0.50000000000000000        0.0000000000000000     
  0.40625000000000000       0.50000000000000000        0.0000000000000000     
  0.43750000000000000       0.50000000000000000        0.0000000000000000     
  0.46875000000000000       0.50000000000000000        0.0000000000000000     
  0.50000000000000000       0.50000000000000000        0.0000000000000000     
  0.37500000000000000       0.53125000000000000        0.0000000000000000     
  0.40625000000000000       0.53125000000000000        0.0000000000000000     
  0.43750000000000000       0.53125000000000000        0.0000000000000000     
  0.46875000000000000       0.53125000000000000        0.0000000000000000     
  0.50000000000000000       0.53125000000000000        0.0000000000000000     
  0.37500000000000000       0.56250000000000000        0.0000000000000000     
  0.40625000000000000       0.56250000000000000        0.0000000000000000     
  0.43750000000000000       0.56250000000000000        0.0000000000000000     
  0.46875000000000000       0.56250000000000000        0.0000000000000000     
  0.50000000000000000       0.56250000000000000        0.0000000000000000     
  0.37500000000000000       0.59375000000000000        0.0000000000000000     
  0.40625000000000000       0.59375000000000000        0.0000000000000000     
  0.43750000000000000       0.59375000000000000        0.0000000000000000     
  0.46875000000000000       0.59375000000000000        0.0000000000000000     
  0.50000000000000000       0.59375000000000000        0.0000000000000000     
  0.37500000000000000       0.62500000000000000        0.0000000000000000     
  0.40625000000000000       0.62500000000000000        0.0000000000000000     
  0.43750000000000000       0.62500000000000000        0.0000000000000000     
  0.46875000000000000       0.62500000000000000        0.0000000000000000     
  0.50000000000000000       0.62500000000000000        0.0000000000000000     
  0.50000000000000000       0.50000000000000000        0.0000000000000000     
  0.53125000000000000       0.50000000000000000        0.0000000000000000     
  0.56250000000000000       0.50000000000000000        0.0000000000000000     
  0.59375000000000000       0.50000000000000000        0.0000000000000000     
  0.62500000000000000       0.50000000000000000        0.0000000000000000     
  0.50000000000000000       0.53125000000000000        0.0000000000000000     
  0.53125000000000000       0.53125000000000000        0.0000000000000000     
  0.56250000000000000       0.53125000000000000        0.0000000000000000     
  0.59375000000000000       0.53125000000000000        0.0000000000000000     
  0.62500000000000000       0.53125000000000000        0.0000000000000000     
  0.50000000000000000       0.56250000000000000        0.0000000000000000     
  0.53125000000000000       0.56250000000000000        0.0000000000000000     
  0.56250000000000000       0.56250000000000000        0.0000000000000000     
  0.59375000000000000       0.56250000000000000        0.0000000000000000     
  0.62500000000000000       0.56250000000000000        0.0000000000000000     
  0.50000000000000000       0.59375000000000000        0.0000000000000000     
  0.53125000000000000       0.59375000000000000        0.0000000000000000     
  0.56250000000000000       0.59375000000000000        0.0000000000000000     
  0.59375000000000000       0.59375000000000000        0.0000000000000000     
  0.62500000000000000       0.59375000000000000        0.0000000000000000     
  0.50000000000000000       0.62500000000000000        0.0000000000000000     
  0.53125000000000000       0.62500000000000000        0.0000000000000000     
  0.56250000000000000       0.62500000000000000        0.0000000000000000     
  0.59375000000000000       0.62500000000000000        0.0000000000000000     
  0.62500000000000000       0.62500000000000000        0.0000000000000000     
  0.62500000000000000       0.50000000000000000        0.0000000000000000     
  0.65625000000000000       0.50000000000000000        0.0000000000000000     
  0.68750000000000000       0.50000000000000000        0.0000000000000000     
  0.71875000000000000       0.50000000000000000        0.0000000000000000     
  0.75000000000000000       0.50000000000000000        0.0000000000000000     
  0.62500000000000000       0.53125000000000000        0.0000000000000000     
  0.65625000000000000       0.53125000000000000        0.0000000000000000     
  0.68750000000000000       0.53125000000000000        0.0000000000000000     
  0.71875000000000000       0.53125000000000000        0.0000000000000000     
  0.75000000000000000       0.53125000000000000        0.0000000000000000     
  0.62500000000000000       0.56250000000000000        0.0000000000000000     
  0.65625000000000000       0.56250000000000000        0.0000000000000000     
  0.68750000000000000       0.56250000000000000        0.0000000000000000     
  0.71875000000000000       0.56250000000000000        0.0000000000000000     
  0.75000000000000000       0.56250000000000000        0.0000000000000000     
  0.62500000000000000       0.59375000000000000        0.0000000000000000     
  0.65625000000000000       0.59375000000000000        0.0000000000000000     
  0.68750000000000000       0.59375000000000000        0.0000000000000000     
  0.71875000000000000       0.59375000000000000        0.0000000000000000     
  0.75000000000000000       0.59375000000000000        0.0000000000000000     
  0.62500000000000000       0.62500000000000000        0.0000000000000000     
  0.65625000000000000       0.62500000000000000        0.0000000000000000     
  0.68750000000000000       0.62500000000000000        0.0000000000000000     
  0.71875000000000000       0.62500000000000000        0.0000000000000000     
  0.75000000000000000       0.62500000000000000        0.0000000000000000     
  0.75000000000000000       0.50000000000000000        0.0000000000000000     
  0.78125000000000000       0.50000000000000000        0.0000000000000000     
  0.81250000000000000       0.50000000000000000        0.0000000000000000     
  0.84375000000000000       0.50000000000000000        0.0000000000000000     
  0.87500000000000000       0.50000000000000000        0.0000000000000000     
  0.75000000000000000       0.53125000000000000        0.0000000000000000     
  0.78125000000000000       0.53125000000000000        0.0000000000000000     
  0.81250000000000000       0.53125000000000000        0.0000000000000000     
  0.84375000000000000       0.53125000000000000        0.0000000000000000     
  0.87500000000000000       0.53125000000000000        0.0000000000000000     
  0.75000000000000000       0.56250000000000000        0.0000000000000000     
  0.78125000000000000       0.56250000000000000        0.0000000000000000     
  0.81250000000000000       0.56250000000000000        0.0000000000000000     
  0.84375000000000000       0.56250000000000000        0.0000000000000000     
  0.87500000000000000       0.56250000000000000        0.0000000000000000     
  0.75000000000000000       0.59375000000000000        0.0000000000000000     
  0.78125000000000000       0.59375000000000000        0.0000000000000000     
  0.81250000000000000       0.59375000000000000        0.0000000000000000     
  0.84375000000000000       0.59375000000000000        0.0000000000000000     
  0.87500000000000000       0.59375000000000000        0.0000000000000000     
  0.75000000000000000       0.62500000000000000        0.0000000000000000     
  0.78125000000000000       0.62500000000000000        0.0000000000000000     
  0.81250000000000000       0.62500000000000000        0.0000000000000000     
  0.84375000000000000       0.62500000000000000        0.0000000000000000     
  0.87500000000000000       0.62500000000000000        0.0000000000000000     
  0.87500000000000000       0.50000000000000000        0.0000000000000000     
  0.90625000000000000       0.50000000000000000        0.0000000000000000     
  0.93750000000000000       0.50000000000000000        0.0000000000000000     
  0.96875000000000000       0.50000000000000000        0.0000000000000000     
   1.0000000000000000       0.50000000000000000        0.0000000000000000     
  0.87500000000000000       0.53125000000000000        0.0000000000000000     
  0.90625000000000000       0.53125000000000000        0.0000000000000000     
  0.93750000000000000       0.53125000000000000        0.0000000000000000     
  0.96875000000000000       0.53125000000000000        0.0000000000000000     
   1.0000000000000000       0.53125000000000000        0.0000000000000000     
  0.87500000000000000       0.56250000000000000        0.0000000000000000     
  0.90625000000000000       0.56250000000000000        0.0000000000000000     
  0.93750000000000000       0.56250000000000000        0.0000000000000000     
  0.96875000000000000       0.56250000000000000        0.0000000000000000     
   1.0000000000000000       0.56250000000000000        0.0000000000000000     
  0.87500000000000000       0.59375000000000000        0.0000000000000000     
  0.90625000000000000       0.59375000000000000        0.0000000000000000     
  0.93750000000000000       0.59375000000000000        0.0000000000000000     
  0.96875000000000000       0.59375000000000000        0.0000000000000000     
   1.0000000000000000       0.59375000000000000        0.0000000000000000     
  0.87500000000000000       0.62500000000000000        0.0000000000000000     
  0.90625000000000000       0.62500000000000000        0.0000000000000000     
  0.93750000000000000       0.62500000000000000        0.0000000000000000     
  0.96875000000000000       0.62500000000000000        0.0000000000000000     
   1.0000000000000000       0.62500000000000000        0.0000000000000000     
   0.0000000000000000       0.62500000000000000        0.0000000000000000     
   3.1250000000000000E-002  0.62500000000000000        0.0000000000000000     
   6.2500000000000000E-002  0.62500000000000000        0.0000000000000000     
   9.3750000000000000E-002  0.62500000000000000        0.0000000000000000     
  0.12500000000000000       0.62500000000000000        0.0000000000000000     
   0.0000000000000000       0.65625000000000000        0.0000000000000000     
   3.1250000000000000E-002  0.65625000000000000        0.0000000000000000     
   6.2500000000000000E-002  0.65625000000000000        0.0000000000000000     
   9.3750000000000000E-002  0.65625000000000000        0.0000000000000000     
  0.12500000000000000       0.65625000000000000        0.0000000000000000     
   0.0000000000000000       0.68750000000000000        0.0000000000000000     
   3.1250000000000000E-002  0.68750000000000000        0.0000000000000000     
   6.2500000000000000E-002  0.68750000000000000        0.0000000000000000     
   9.3750000000000000E-002  0.68750000000000000        0.0000000000000000     
  0.12500000000000000       0.68750000000000000        0.0000000000000000     
   0.0000000000000000       0.71875000000000000        0.0000000000000000     
   3.1250000000000000E-002  0.71875000000000000        0.0000000000000000     
   6.2500000000000000E-002  0.71875000000000000        0.0000000000000000     
   9.3750000000000000E-002  0.71875000000000000        0.0000000000000000     
  0.12500000000000000       0.71875000000000000        0.0000000000000000     
   0.0000000000000000       0.75000000000000000        0.0000000000000000     
   3.1250000000000000E-002  0.75000000000000000        0.0000000000000000     
   6.2500000000000000E-002  0.75000000000000000        0.0000000000000000     
   9.3750000000000000E-002  0.75000000000000000        0.0000000000000000     
  0.12500000000000000       0.75000000000000000        0.0000000000000000     
  0.12500000000000000       0.62500000000000000        0.0000000000000000     
  0.15625000000000000       0.62500000000000000        0.0000000000000000     
  0.18750000000000000       0.62500000000000000        0.0000000000000000     
  0.21875000000000000       0.62500000000000000        0.0000000000000000     
  0.25000000000000000       0.62500000000000000        0.0000000000000000     
  0.12500000000000000       0.65625000000000000        0.0000000000000000     
  0.15625000000000000       0.65625000000000000        0.0000000000000000     
  0.18750000000000000       0.65625000000000000        0.0000000000000000     
  0.21875000000000000       0.65625000000000000        0.0000000000000000     
  0.25000000000000000       0.65625000000000000        0.0000000000000000     
  0.12500000000000000       0.68750000000000000        0.0000000000000000     
  0.15625000000000000       0.68750000000000000        0.0000000000000000     
  0.18750000000000000       0.68750000000000000        0.0000000000000000     
  0.21875000000000000       0.68750000000000000        0.0000000000000000     
  0.25000000000000000       0.68750000000000000        0.0000000000000000     
  0.12500000000000000       0.71875000000000000        0.0000000000000000     
  0.15625000000000000       0.71875000000000000        0.0000000000000000     
  0.18750000000000000       0.71875000000000000        0.0000000000000000     
  0.21875000000000000       0.71875000000000000        0.0000000000000000     
  0.25000000000000000       0.71875000000000000        0.0000000000000000     
  0.12500000000000000       0.75000000000000000        0.0000000000000000     
  0.15625000000000000       0.75000000000000000        0.0000000000000000     
  0.18750000000000000       0.75000000000000000        0.0000000000000000     
  0.21875000000000000       0.75000000000000000        0.0000000000000000     
  0.25000000000000000       0.75000000000000000        0.0000000000000000     
  0.25000000000000000       0.62500000000000000        0.0000000000000000     
  0.28125000000000000       0.62500000000000000        0.0000000000000000     
  0.31250000000000000       0.62500000000000000        0.0000000000000000     
  0.34375000000000000       0.62500000000000000        0.0000000000000000     
  0.37500000000000000       0.62500000000000000        0.0000000000000000     
  0.25000000000000000       0.65625000000000000        0.0000000000000000     
  0.28125000000000000       0.65625000000000000        0.0000000000000000     
  0.31250000000000000       0.65625000000000000        0.0000000000000000     
  0.34375000000000000       0.65625000000000000        0.0000000000000000     
  0.37500000000000000       0.65625000000000000        0.0000000000000000     
  0.25000000000000000       0.68750000000000000        0.0000000000000000     
  0.28125000000000000       0.68750000000000000        0.0000000000000000     
  0.31250000000000000       0.68750000000000000        0.0000000000000000     
  0.34375000000000000       0.68750000000000000        0.0000000000000000     
  0.37500000000000000       0.68750000000000000        0.0000000000000000     
  0.25000000000000000       0.71875000000000000        0.0000000000000000     
  0.28125000000000000       0.71875000000000000        0.0000000000000000     
  0.31250000000000000       0.71875000000000000        0.0000000000000000     
  0.34375000000000000       0.71875000000000000        0.0000000000000000     
  0.37500000000000000       0.71875000000000000        0.0000000000000000     
  0.25000000000000000       0.75000000000000000        0.0000000000000000     
  0.28125000000000000       0.75000000000000000        0.0000000000000000     
  0.31250000000000000       0.75000000000000000        0.0000000000000000     
  0.34375000000000000       0.75000000000000000        0.0000000000000000     
  0.37500000000000000       0.75000000000000000        0.0000000000000000     
  0.37500000000000000       0.62500000000000000        0.0000000000000000     
  0.40625000000000000       0.62500000000000000        0.0000000000000000     
  0.43750000000000000       0.62500000000000000        0.0000000000000000     
  0.46875000000000000       0.62500000000000000        0.0000000000000000     
  0.50000000000000000       0.62500000000000000        0.0000000000000000     
  0.37500000000000000       0.65625000000000000        0.0000000000000000     
  0.40625000000000000       0.65625000000000000        0.0000000000000000     
  0.43750000000000000       0.65625000000000000        0.0000000000000000     
  0.46875000000000000       0.65625000000000000        0.0000000000000000     
  0.50000000000000000       0.65625000000000000        0.0000000000000000     
  0.37500000000000000       0.68750000000000000        0.0000000000000000     
  0.40625000000000000       0.68750000000000000        0.0000000000000000     
  0.43750000000000000       0.68750000000000000        0.0000000000000000     
  0.46875000000000000       0.68750000000000000        0.0000000000000000     
  0.50000000000000000       0.68750000000000000        0.0000000000000000     
  0.37500000000000000       0.71875000000000000        0.0000000000000000     
  0.40625000000000000       0.71875000000000000        0.0000000000000000     
  0.43750000000000000       0.71875000000000000        0.0000000000000000     
  0.46875000000000000       0.71875000000000000        0.0000000000000000     
  0.50000000000000000       0.71875000000000000        0.0000000000000000     
  0.37500000000000000       0.75000000000000000        0.0000000000000000     
  0.40625000000000000       0.75000000000000000        0.0000000000000000     
  0.43750000000000000       0.75000000000000000        0.0000000000000000     
  0.46875000000000000       0.75000000000000000        0.0000000000000000     
  0.50000000000000000       0.75000000000000000        0.0000000000000000     
  0.50000000000000000       0.62500000000000000        0.0000000000000000     
  0.53125000000000000       0.62500000000000000        0.0000000000000000     
  0.56250000000000000       0.62500000000000000        0.0000000000000000     
  0.59375000000000000       0.62500000000000000        0.0000000000000000     
  0.62500000000000000       0.62500000000000000        0.0000000000000000     
  0.50000000000000000       0.65625000000000000        0.0000000000000000     
  0.53125000000000000       0.65625000000000000        0.0000000000000000     
  0.56250000000000000       0.65625000000000000        0.0000000000000000     
  0.59375000000000000       0.65625000000000000        0.0000000000000000     
  0.62500000000000000       0.65625000000000000        0.0000000000000000     
  0.50000000000000000       0.68750000000000000        0.0000000000000000     
  0.53125000000000000       0.68750000000000000        0.0000000000000000     
  0.56250000000000000       0.68750000000000000        0.0000000000000000     
  0.59375000000000000       0.68750000000000000        0.0000000000000000     
  0.62500000000000000       0.68750000000000000        0.0000000000000000     
  0.50000000000000000       0.71875000000000000        0.0000000000000000     
  0.53125000000000000       0.71875000000000000        0.0000000000000000     
  0.56250000000000000       0.71875000000000000        0.0000000000000000     
  0.59375000000000000       0.71875000000000000        0.0000000000000000     
  0.62500000000000000       0.71875000000000000        0.0000000000000000     
  0.50000000000000000       0.75000000000000000        0.0000000000000000     
  0.53125000000000000       0.75000000000000000        0.0000000000000000     
  0.56250000000000000       0.75000000000000000        0.0000000000000000     
  0.59375000000000000       0.75000000000000000        0.0000000000000000     
  0.62500000000000000       0.75000000000000000        0.0000000000000000     
  0.62500000000000000       0.62500000000000000        0.0000000000000000     
  0.65625000000000000       0.62500000000000000        0.0000000000000000     
  0.68750000000000000       0.62500000000000000        0.0000000000000000     
  0.71875000000000000       0.62500000000000000        0.0000000000000000     
  0.75000000000000000       0.62500000000000000        0.0000000000000000     
  0.62500000000000000       0.65625000000000000        0.0000000000000000     
  0.65625000000000000       0.65625000000000000        0.0000000000000000     
  0.68750000000000000       0.65625000000000000        0.0000000000000000     
  0.71875000000000000       0.65625000000000000        0.0000000000000000     
  0.75000000000000000       0.65625000000000000        0.0000000000000000     
  0.62500000000000000       0.68750000000000000        0.0000000000000000     
  0.65625000000000000       0.68750000000000000        0.0000000000000000     
  0.68750000000000000       0.68750000000000000        0.0000000000000000     
  0.71875000000000000       0.68750000000000000        0.0000000000000000     
  0.75000000000000000       0.68750000000000000        0.0000000000000000     
  0.62500000000000000       0.71875000000000000        0.0000000000000000     
  0.65625000000000000       0.71875000000000000        0.0000000000000000     
  0.68750000000000000       0.71875000000000000        0.0000000000000000     
  0.71875000000000000       0.71875000000000000        0.0000000000000000     
  0.75000000000000000       0.71875000000000000        0.0000000000000000     
  0.62500000000000000       0.75000000000000000        0.0000000000000000     
  0.65625000000000000       0.75000000000000000        0.0000000000000000     
  0.68750000000000000       0.75000000000000000        0.0000000000000000     
  0.71875000000000000       0.75000000000000000        0.0000000000000000     
  0.75000000000000000       0.75000000000000000        0.0000000000000000     
  0.75000000000000000       0.62500000000000000        0.0000000000000000     
  0.78125000000000000       0.62500000000000000        0.0000000000000000     
  0.81250000000000000       0.62500000000000000        0.0000000000000000     
  0.84375000000000000       0.62500000000000000        0.0000000000000000     
  0.87500000000000000       0.62500000000000000        0.0000000000000000     
  0.75000000000000000       0.65625000000000000        0.0000000000000000     
  0.78125000000000000       0.65625000000000000        0.0000000000000000     
  0.81250000000000000       0.65625000000000000        0.0000000000000000     
  0.84375000000000000       0.65625000000000000        0.0000000000000000     
  0.87500000000000000       0.65625000000000000        0.0000000000000000     
  0.75000000000000000       0.68750000000000000        0.0000000000000000     
  0.78125000000000000       0.68750000000000000        0.0000000000000000     
  0.81250000000000000       0.68750000000000000        0.0000000000000000     
  0.84375000000000000       0.68750000000000000        0.0000000000000000     
  0.87500000000000000       0.68750000000000000        0.0000000000000000     
  0.75000000000000000       0.71875000000000000        0.0000000000000000     
  0.78125000000000000       0.71875000000000000        0.0000000000000000     
  0.81250000000000000       0.71875000000000000        0.0000000000000000     
  0.84375000000000000       0.71875000000000000        0.0000000000000000     
  0.87500000000000000       0.71875000000000000        0.0000000000000000     
  0.75000000000000000       0.75000000000000000        0.0000000000000000     
  0.78125000000000000       0.75000000000000000        0.0000000000000000     
  0.81250000000000000       0.75000000000000000        0.0000000000000000     
  0.84375000000000000       0.75000000000000000        0.0000000000000000     
  0.87500000000000000       0.75000000000000000        0.0000000000000000     
  0.87500000000000000       0.62500000000000000        0.0000000000000000     
  0.90625000000000000       0.62500000000000000        0.0000000000000000     
  0.93750000000000000       0.62500000000000000        0.0000000000000000     
  0.96875000000000000       0.62500000000000000        0.0000000000000000     
   1.0000000000000000       0.62500000000000000        0.0000000000000000     
  0.87500000000000000       0.65625000000000000        0.0000000000000000     
  0.90625000000000000       0.65625000000000000        0.0000000000000000     
  0.93750000000000000       0.65625000000000000        0.0000000000000000     
  0.96875000000000000       0.65625000000000000        0.0000000000000000     
   1.0000000000000000       0.65625000000000000        0.0000000000000000     
  0.87500000000000000       0.68750000000000000        0.0000000000000000     
  0.90625000000000000       0.68750000000000000        0.0000000000000000     
  0.93750000000000000       0.68750000000000000        0.0000000000000000     
  0.96875000000000000       0.68750000000000000        0.0000000000000000     
   1.0000000000000000       0.68750000000000000        0.0000000000000000     
  0.87500000000000000       0.71875000000000000        0.0000000000000000     
  0.90625000000000000       0.71875000000000000        0.0000000000000000     
  0.93750000000000000       0.71875000000000000        0.0000000000000000     
  0.96875000000000000       0.71875000000000000        0.0000000000000000     
   1.0000000000000000       0.71875000000000000        0.0000000000000000     
  0.87500000000000000       0.75000000000000000        0.0000000000000000     
  0.90625000000000000       0.75000000000000000        0.0000000000000000     
  0.93750000000000000       0.75000000000000000        0.0000000000000000     
  0.96875000000000000       0.75000000000000000        0.0000000000000000     
   1.0000000000000000       0.75000000000000000        0.0000000000000000     
   0.0000000000000000       0.75000000000000000        0.0000000000000000     
   3.1250000000000000E-002  0.75000000000000000        0.0000000000000000     
   6.2500000000000000E-002  0.75000000000000000        0.0000000000000000     
   9.3750000000000000E-002  0.75000000000000000        0.0000000000000000     
  0.12500000000000000       0.75000000000000000        0.0000000000000000     
   0.0000000000000000       0.78125000000000000        0.0000000000000000     
   3.1250000000000000E-002  0.78125000000000000        0.0000000000000000     
   6.2500000000000000E-002  0.78125000000000000        0.0000000000000000     
   9.3750000000000000E-002  0.78125000000000000        0.0000000000000000     
  0.12500000000000000       0.78125000000000000        0.0000000000000000     
   0.0000000000000000       0.81250000000000000        0.0000000000000000     
   3.1250000000000000E-002  0.81250000000000000        0.0000000000000000     
   6.2500000000000000E-002  0.81250000000000000        0.0000000000000000     
   9.3750000000000000E-002  0.81250000000000000        0.0000000000000000     
  0.12500000000000000       0.81250000000000000        0.0000000000000000     
   0.0000000000000000       0.84375000000000000        0.0000000000000000     
   3.1250000000000000E-002  0.84375000000000000        0.0000000000000000     
   6.2500000000000000E-002  0.84375000000000000        0.0000000000000000     
   9.3750000000000000E-002  0.84375000000000000        0.0000000000000000     
  0.12500000000000000       0.84375000000000000        0.0000000000000000     
   0.0000000000000000       0.87500000000000000        0.0000000000000000     
   3.1250000000000000E-002  0.87500000000000000        0.0000000000000000     
   6.2500000000000000E-002  0.87500000000000000        0.0000000000000000     
   9.3750000000000000E-002  0.87500000000000000        0.0000000000000000     
  0.12500000000000000       0.87500000000000000        0.0000000000000000     
  0.12500000000000000       0.75000000000000000        0.0000000000000000     
  0.15625000000000000       0.75000000000000000        0.0000000000000000     
  0.18750000000000000       0.75000000000000000        0.0000000000000000     
  0.21875000000000000       0.75000000000000000        0.0000000000000000     
  0.25000000000000000       0.75000000000000000        0.0000000000000000     
  0.12500000000000000       0.78125000000000000        0.0000000000000000     
  0.15625000000000000       0.78125000000000000        0.0000000000000000     
  0.18750000000000000       0.78125000000000000        0.0000000000000000     
  0.21875000000000000       0.78125000000000000        0.0000000000000000     
  0.25000000000000000       0.78125000000000000        0.0000000000000000     
  0.12500000000000000       0.81250000000000000        0.0000000000000000     
  0.15625000000000000       0.81250000000000000        0.0000000000000000     
  0.18750000000000000       0.81250000000000000        0.0000000000000000     
  0.21875000000000000       0.81250000000000000        0.0000000000000000     
  0.25000000000000000       0.81250000000000000        0.0000000000000000     
  0.12500000000000000       0.84375000000000000        0.0000000000000000     
  0.15625000000000000       0.84375000000000000        0.0000000000000000     
  0.18750000000000000       0.84375000000000000        0.0000000000000000     
  0.21875000000000000       0.84375000000000000        0.0000000000000000     
  0.25000000000000000       0.84375000000000000        0.0000000000000000     
  0.12500000000000000       0.87500000000000000        0.0000000000000000     
  0.15625000000000000       0.87500000000000000        0.0000000000000000     
  0.18750000000000000       0.87500000000000000        0.0000000000000000     
  0.21875000000000000       0.87500000000000000        0.0000000000000000     
  0.25000000000000000       0.87500000000000000        0.0000000000000000     
  0.25000000000000000       0.75000000000000000        0.0000000000000000     
  0.28125000000000000       0.75000000000000000        0.0000000000000000     
  0.31250000000000000       0.75000000000000000        0.0000000000000000     
  0.34375000000000000       0.75000000000000000        0.0000000000000000     
  0.37500000000000000       0.75000000000000000        0.0000000000000000     
  0.25000000000000000       0.78125000000000000        0.0000000000000000     
  0.28125000000000000       0.78125000000000000        0.0000000000000000     
  0.31250000000000000       0.78125000000000000        0.0000000000000000     
  0.34375000000000000       0.78125000000000000        0.0000000000000000     
  0.37500000000000000       0.78125000000000000        0.0000000000000000     
  0.25000000000000000       0.81250000000000000        0.0000000000000000     
  0.28125000000000000       0.81250000000000000        0.0000000000000000     
  0.31250000000000000       0.81250000000000000        0.0000000000000000     
  0.34375000000000000       0.81250000000000000        0.0000000000000000     
  0.37500000000000000       0.81250000000000000        0.0000000000000000     
  0.25000000000000000       0.84375000000000000        0.0000000000000000     
  0.28125000000000000       0.84375000000000000        0.0000000000000000     
  0.31250000000000000       0.84375000000000000        0.0000000000000000     
  0.34375000000000000       0.84375000000000000        0.0000000000000000     
  0.37500000000000000       0.84375000000000000        0.0000000000000000     
  0.25000000000000000       0.87500000000000000        0.0000000000000000     
  0.28125000000000000       0.87500000000000000        0.0000000000000000     
  0.31250000000000000       0.87500000000000000        0.0000000000000000     
  0.34375000000000000       0.87500000000000000        0.0000000000000000     
  0.37500000000000000       0.87500000000000000        0.0000000000000000     
  0.37500000000000000       0.75000000000000000        0.0000000000000000     
  0.40625000000000000       0.75000000000000000        0.0000000000000000     
  0.43750000000000000       0.75000000000000000        0.0000000000000000     
  0.46875000000000000       0.75000000000000000        0.0000000000000000     
  0.50000000000000000       0.75000000000000000        0.0000000000000000     
  0.37500000000000000       0.78125000000000000        0.0000000000000000     
  0.40625000000000000       0.78125000000000000        0.0000000000000000     
  0.43750000000000000       0.78125000000000000        0.0000000000000000     
  0.46875000000000000       0.78125000000000000        0.0000000000000000     
  0.50000000000000000       0.78125000000000000        0.0000000000000000     
  0.37500000000000000       0.81250000000000000        0.0000000000000000     
  0.40625000000000000       0.81250000000000000        0.0000000000000000     
  0.43750000000000000       0.81250000000000000        0.0000000000000000     
  0.46875000000000000       0.81250000000000000        0.0000000000000000     
  0.50000000000000000       0.81250000000000000        0.0000000000000000     
  0.37500000000000000       0.84375000000000000        0.0000000000000000     
  0.40625000000000000       0.84375000000000000        0.0000000000000000     
  0.43750000000000000       0.84375000000000000        0.0000000000000000     
  0.46875000000000000       0.84375000000000000        0.0000000000000000     
  0.50000000000000000       0.84375000000000000        0.0000000000000000     
  0.37500000000000000       0.87500000000000000        0.0000000000000000     
  0.40625000000000000       0.87500000000000000        0.0000000000000000     
  0.43750000000000000       0.87500000000000000        0.0000000000000000     
  0.46875000000000000       0.87500000000000000        0.0000000000000000     
  0.50000000000000000       0.87500000000000000        0.0000000000000000     
  0.50000000000000000       0.75000000000000000        0.0000000000000000     
  0.53125000000000000       0.75000000000000000        0.0000000000000000     
  0.56250000000000000       0.75000000000000000        0.0000000000000000     
  0.59375000000000000       0.75000000000000000        0.0000000000000000     
  0.62500000000000000       0.75000000000000000        0.0000000000000000     
  0.50000000000000000       0.78125000000000000        0.0000000000000000     
  0.53125000000000000       0.78125000000000000        0.0000000000000000     
  0.56250000000000000       0.78125000000000000        0.0000000000000000     
  0.59375000000000000       0.78125000000000000        0.0000000000000000     
  0.62500000000000000       0.78125000000000000        0.0000000000000000     
  0.50000000000000000       0.81250000000000000        0.0000000000000000     
  0.53125000000000000       0.81250000000000000        0.0000000000000000     
  0.56250000000000000       0.81250000000000000        0.0000000000000000     
  0.59375000000000000       0.81250000000000000        0.0000000000000000     
  0.62500000000000000       0.81250000000000000        0.0000000000000000     
  0.50000000000000000       0.84375000000000000        0.0000000000000000     
  0.53125000000000000       0.84375000000000000        0.0000000000000000     
  0.56250000000000000       0.84375000000000000        0.0000000000000000     
  0.59375000000000000       0.84375000000000000        0.0000000000000000     
  0.62500000000000000       0.84375000000000000        0.0000000000000000     
  0.50000000000000000       0.87500000000000000        0.0000000000000000     
  0.53125000000000000       0.87500000000000000        0.0000000000000000     
  0.56250000000000000       0.87500000000000000        0.0000000000000000     
  0.59375000000000000       0.87500000000000000        0.0000000000000000     
  0.62500000000000000       0.87500000000000000        0.0000000000000000     
  0.62500000000000000       0.75000000000000000        0.0000000000000000     
  0.65625000000000000       0.75000000000000000        0.0000000000000000     
  0.68750000000000000       0.75000000000000000        0.0000000000000000     
  0.71875000000000000       0.75000000000000000        0.0000000000000000     
  0.75000000000000000       0.75000000000000000        0.0000000000000000     
  0.62500000000000000       0.78125000000000000        0.0000000000000000     
  0.65625000000000000       0.78125000000000000        0.0000000000000000     
  0.68750000000000000       0.78125000000000000        0.0000000000000000     
  0.71875000000000000       0.78125000000000000        0.0000000000000000     
  0.75000000000000000       0.78125000000000000        0.0000000000000000     
  0.62500000000000000       0.81250000000000000        0.0000000000000000     
  0.65625000000000000       0.81250000000000000        0.0000000000000000     
  0.68750000000000000       0.81250000000000000        0.0000000000000000     
  0.71875000000000000       0.81250000000000000        0.0000000000000000     
  0.75000000000000000       0.81250000000000000        0.0000000000000000     
  0.62500000000000000       0.84375000000000000        0.0000000000000000     
  0.65625000000000000       0.84375000000000000        0.0000000000000000     
  0.68750000000000000       0.84375000000000000        0.0000000000000000     
  0.71875000000000000       0.84375000000000000        0.0000000000000000     
  0.75000000000000000       0.84375000000000000        0.0000000000000000     
  0.62500000000000000       0.87500000000000000        0.0000000000000000     
  0.65625000000000000       0.87500000000000000        0.0000000000000000     
  0.68750000000000000       0.87500000000000000        0.0000000000000000     
  0.71875000000000000       0.87500000000000000        0.0000000000000000     
  0.75000000000000000       0.87500000000000000        0.0000000000000000     
  0.75000000000000000       0.75000000000000000        0.0000000000000000     
  0.78125000000000000       0.75000000000000000        0.0000000000000000     
  0.81250000000000000       0.75000000000000000        0.0000000000000000     
  0.84375000000000000       0.75000000000000000        0.0000000000000000     
  0.87500000000000000       0.75000000000000000        0.0000000000000000     
  0.75000000000000000       0.78125000000000000        0.0000000000000000     
  0.78125000000000000       0.78125000000000000        0.0000000000000000     
  0.81250000000000000       0.78125000000000000        0.0000000000000000     
  0.84375000000000000       0.78125000000000000        0.0000000000000000     
  0.87500000000000000       0.78125000000000000        0.0000000000000000     
  0.75000000000000000       0.81250000000000000        0.0000000000000000     
  0.78125000000000000       0.81250000000000000        0.0000000000000000     
  0.81250000000000000       0.81250000000000000        0.0000000000000000     
  0.84375000000000000       0.81250000000000000        0.0000000000000000     
  0.87500000000000000       0.81250000000000000        0.0000000000000000     
  0.75000000000000000       0.84375000000000000        0.0000000000000000     
  0.78125000000000000       0.84375000000000000        0.0000000000000000     
  0.81250000000000000       0.84375000000000000        0.0000000000000000     
  0.84375000000000000       0.84375000000000000        0.0000000000000000     
  0.87500000000000000       0.84375000000000000        0.0000000000000000     
  0.75000000000000000       0.87500000000000000        0.0000000000000000     
  0.78125000000000000       0.87500000000000000        0.0000000000000000     
  0.81250000000000000       0.87500000000000000        0.0000000000000000     
  0.84375000000000000       0.87500000000000000        0.0000000000000000     
  0.87500000000000000       0.87500000000000000        0.0000000000000000     
  0.87500000000000000       0.75000000000000000        0.0000000000000000     
  0.90625000000000000       0.75000000000000000        0.0000000000000000     
  0.93750000000000000       0.75000000000000000        0.0000000000000000     
  0.96875000000000000       0.75000000000000000        0.0000000000000000     
   1.0000000000000000       0.75000000000000000        0.0000000000000000     
  0.87500000000000000       0.78125000000000000        0.0000000000000000     
  0.90625000000000000       0.78125000000000000        0.0000000000000000     
  0.93750000000000000       0.78125000000000000        0.0000000000000000     
  0.96875000000000000       0.78125000000000000        0.0000000000000000     
   1.0000000000000000       0.78125000000000000        0.0000000000000000     
  0.87500000000000000       0.81250000000000000        0.0000000000000000     
  0.90625000000000000       0.81250000000000000        0.0000000000000000     
  0.93750000000000000       0.81250000000000000        0.0000000000000000     
  0.96875000000000000       0.81250000000000000        0.0000000000000000     
   1.0000000000000000       0.81250000000000000        0.0000000000000000     
  0.87500000000000000       0.84375000000000000        0.0000000000000000     
  0.90625000000000000       0.84375000000000000        0.0000000000000000     
  0.93750000000000000       0.84375000000000000        0.0000000000000000     
  0.96875000000000000       0.84375000000000000        0.0000000000000000     
   1.0000000000000000       0.84375000000000000        0.0000000000000000     
  0.87500000000000000       0.87500000000000000        0.0000000000000000     
  0.90625000000000000       0.87500000000000000        0.0000000000000000     
  0.93750000000000000       0.87500000000000000        0.0000000000000000     
  0.96875000000000000       0.87500000000000000        0.0000000000000000     
   1.0000000000000000       0.87500000000000000        0.0000000000000000     
   0.0000000000000000       0.87500000000000000        0.0000000000000000     
   3.1250000000000000E-002  0.87500000000000000        0.0000000000000000     
   6.2500000000000000E-002  0.87500000000000000        0.0000000000000000     
   9.3750000000000000E-002  0.87500000000000000        0.0000000000000000     
  0.12500000000000000       0.87500000000000000        0.0000000000000000     
   0.0000000000000000       0.90625000000000000        0.0000000000000000     
   3.1250000000000000E-002  0.90625000000000000        0.0000000000000000     
   6.2500000000000000E-002  0.90625000000000000        0.0000000000000000     
   9.3750000000000000E-002  0.90625000000000000        0.0000000000000000     
  0.12500000000000000       0.90625000000000000        0.0000000000000000     
   0.0000000000000000       0.93750000000000000        0.0000000000000000     
   3.1250000000000000E-002  0.93750000000000000        0.0000000000000000     
   6.2500000000000000E-002  0.93750000000000000        0.0000000000000000     
   9.3750000000000000E-002  0.93750000000000000        0.0000000000000000     
  0.12500000000000000       0.93750000000000000        0.0000000000000000     
   0.0000000000000000       0.96875000000000000        0.0000000000000000     
   3.1250000000000000E-002  0.96875000000000000        0.0000000000000000     
   6.2500000000000000E-002  0.96875000000000000        0.0000000000000000     
   9.3750000000000000E-002  0.96875000000000000        0.0000000000000000     
  0.12500000000000000       0.96875000000000000        0.0000000000000000     
   0.0000000000000000        1.0000000000000000        0.0000000000000000     
   3.1250000000000000E-002   1.0000000000000000        0.0000000000000000     
   6.2500000000000000E-002   1.0000000000000000        0.0000000000000000     
   9.3750000000000000E-002   1.0000000000000000        0.0000000000000000     
  0.12500000000000000        1.0000000000000000        0.0000000000000000     
  0.12500000000000000       0.87500000000000000        0.0000000000000000     
  0.15625000000000000       0.87500000000000000        0.0000000000000000     
  0.18750000000000000       0.87500000000000000        0.0000000000000000     
  0.21875000000000000       0.87500000000000000        0.0000000000000000     
  0.25000000000000000       0.87500000000000000        0.0000000000000000     
  0.12500000000000000       0.90625000000000000        0.0000000000000000     
  0.15625000000000000       0.90625000000000000        0.0000000000000000     
  0.18750000000000000       0.90625000000000000        0.0000000000000000     
  0.21875000000000000       0.90625000000000000        0.0000000000000000     
  0.25000000000000000       0.90625000000000000        0.0000000000000000     
  0.12500000000000000       0.93750000000000000        0.0000000000000000     
  0.15625000000000000       0.93750000000000000        0.0000000000000000     
  0.18750000000000000       0.93750000000000000        0.0000000000000000     
  0.21875000000000000       0.93750000000000000        0.0000000000000000     
  0.25000000000000000       0.93750000000000000        0.0000000000000000     
  0.12500000000000000       0.96875000000000000        0.0000000000000000     
  0.15625000000000000       0.96875000000000000        0.0000000000000000     
  0.18750000000000000       0.96875000000000000        0.0000000000000000     
  0.21875000000000000       0.96875000000000000        0.0000000000000000     
  0.25000000000000000       0.96875000000000000        0.0000000000000000     
  0.12500000000000000        1.0000000000000000        0.0000000000000000     
  0.15625000000000000        1.0000000000000000        0.0000000000000000     
  0.18750000000000000        1.0000000000000000        0.0000000000000000     
  0.21875000000000000        1.0000000000000000        0.0000000000000000     
  0.25000000000000000        1.0000000000000000        0.0000000000000000     
  0.25000000000000000       0.87500000000000000        0.0000000000000000     
  0.28125000000000000       0.87500000000000000        0.0000000000000000     
  0.31250000000000000       0.87500000000000000        0.0000000000000000     
  0.34375000000000000       0.87500000000000000        0.0000000000000000     
  0.37500000000000000       0.87500000000000000        0.0000000000000000     
  0.25000000000000000       0.90625000000000000        0.0000000000000000     
  0.28125000000000000       0.90625000000000000        0.0000000000000000     
  0.31250000000000000       0.90625000000000000        0.0000000000000000     
  0.34375000000000000       0.90625000000000000        0.0000000000000000     
  0.37500000000000000       0.90625000000000000        0.0000000000000000     
  0.25000000000000000       0.93750000000000000        0.0000000000000000     
  0.28125000000000000       0.93750000000000000        0.0000000000000000     
  0.31250000000000000       0.93750000000000000        0.0000000000000000     
  0.34375000000000000       0.93750000000000000        0.0000000000000000     
  0.37500000000000000       0.93750000000000000        0.0000000000000000     
  0.25000000000000000       0.96875000000000000        0.0000000000000000     
  0.28125000000000000       0.96875000000000000        0.0000000000000000     
  0.31250000000000000       0.96875000000000000        0.0000000000000000     
  0.34375000000000000       0.96875000000000000        0.0000000000000000     
  0.37500000000000000       0.96875000000000000        0.0000000000000000     
  0.25000000000000000        1.0000000000000000        0.0000000000000000     
  0.28125000000000000        1.0000000000000000        0.0000000000000000     
  0.31250000000000000        1.0000000000000000        0.0000000000000000     
  0.34375000000000000        1.0000000000000000        0.0000000000000000     
  0.37500000000000000        1.0000000000000000        0.0000000000000000     
  0.37500000000000000       0.87500000000000000        0.0000000000000000     
  0.40625000000000000       0.87500000000000000        0.0000000000000000     
  0.43750000000000000       0.87500000000000000        0.0000000000000000     
  0.46875000000000000       0.87500000000000000        0.0000000000000000     
  0.50000000000000000       0.87500000000000000        0.0000000000000000     
  0.37500000000000000       0.90625000000000000        0.0000000000000000     
  0.40625000000000000       0.90625000000000000        0.0000000000000000     
  0.43750000000000000       0.90625000000000000        0.0000000000000000     
  0.46875000000000000       0.90625000000000000        0.0000000000000000     
  0.50000000000000000       0.90625000000000000        0.0000000000000000     
  0.37500000000000000       0.93750000000000000        0.0000000000000000     
  0.40625000000000000       0.93750000000000000        0.0000000000000000     
  0.43750000000000000       0.93750000000000000        0.0000000000000000     
  0.46875000000000000       0.93750000000000000        0.0000000000000000     
  0.50000000000000000       0.93750000000000000        0.0000000000000000     
  0.37500000000000000       0.96875000000000000        0.0000000000000000     
  0.40625000000000000       0.96875000000000000        0.0000000000000000     
  0.43750000000000000       0.96875000000000000        0.0000000000000000     
  0.46875000000000000       0.96875000000000000        0.0000000000000000     
  0.50000000000000000       0.96875000000000000        0.0000000000000000     
  0.37500000000000000        1.0000000000000000        0.0000000000000000     
  0.40625000000000000        1.0000000000000000        0.0000000000000000     
  0.43750000000000000        1.0000000000000000        0.0000000000000000     
  0.46875000000000000        1.0000000000000000        0.0000000000000000     
  0.50000000000000000        1.0000000000000000        0.0000000000000000     
  0.50000000000000000       0.87500000000000000        0.0000000000000000     
  0.53125000000000000       0.87500000000000000        0.0000000000000000     
  0.56250000000000000       0.87500000000000000        0.0000000000000000     
  0.59375000000000000       0.87500000000000000        0.0000000000000000     
  0.62500000000000000       0.87500000000000000        0.0000000000000000     
  0.50000000000000000       0.90625000000000000        0.0000000000000000     
  0.53125000000000000       0.90625000000000000        0.0000000000000000     
  0.56250000000000000       0.90625000000000000        0.0000000000000000     
  0.59375000000000000       0.90625000000000000        0.0000000000000000     
  0.62500000000000000       0.90625000000000000        0.0000000000000000     
  0.50000000000000000       0.93750000000000000        0.0000000000000000     
  0.53125000000000000       0.93750000000000000        0.0000000000000000     
  0.56250000000000000       0.93750000000000000        0.0000000000000000     
  0.59375000000000000       0.93750000000000000        0.0000000000000000     
  0.62500000000000000       0.93750000000000000        0.0000000000000000     
  0.50000000000000000       0.96875000000000000        0.0000000000000000     
  0.53125000000000000       0.96875000000000000        0.0000000000000000     
  0.56250000000000000       0.96875000000000000        0.0000000000000000     
  0.59375000000000000       0.96875000000000000        0.0000000000000000     
  0.62500000000000000       0.96875000000000000        0.0000000000000000     
  0.50000000000000000        1.0000000000000000        0.0000000000000000     
  0.53125000000000000        1.0000000000000000        0.0000000000000000     
  0.56250000000000000        1.0000000000000000        0.0000000000000000     
  0.59375000000000000        1.0000000000000000        0.0000000000000000     
  0.62500000000000000        1.0000000000000000        0.0000000000000000     
  0.62500000000000000       0.87500000000000000        0.0000000000000000     
  0.65625000000000000       0.87500000000000000        0.0000000000000000     
  0.68750000000000000       0.87500000000000000        0.0000000000000000     
  0.71875000000000000       0.87500000000000000        0.0000000000000000     
  0.75000000000000000       0.87500000000000000        0.0000000000000000     
  0.62500000000000000       0.90625000000000000        0.0000000000000000     
  0.65625000000000000       0.90625000000000000        0.0000000000000000     
  0.68750000000000000       0.90625000000000000        0.0000000000000000     
  0.71875000000000000       0.90625000000000000        0.0000000000000000     
  0.75000000000000000       0.90625000000000000        0.0000000000000000     
  0.62500000000000000       0.93750000000000000        0.0000000000000000     
  0.65625000000000000       0.93750000000000000        0.0000000000000000     
  0.68750000000000000       0.93750000000000000        0.0000000000000000     
  0.71875000000000000       0.93750000000000000        0.0000000000000000     
  0.75000000000000000       0.93750000000000000        0.0000000000000000     
  0.62500000000000000       0.96875000000000000        0.0000000000000000     
  0.65625000000000000       0.96875000000000000        0.0000000000000000     
  0.68750000000000000       0.96875000000000000        0.0000000000000000     
  0.71875000000000000       0.96875000000000000        0.0000000000000000     
  0.75000000000000000       0.96875000000000000        0.0000000000000000     
  0.62500000000000000        1.0000000000000000        0.0000000000000000     
  0.65625000000000000        1.0000000000000000        0.0000000000000000     
  0.68750000000000000        1.0000000000000000        0.0000000000000000     
  0.71875000000000000        1.0000000000000000        0.0000000000000000     
  0.75000000000000000        1.0000000000000000        0.0000000000000000     
  0.75000000000000000       0.87500000000000000        0.0000000000000000     
  0.78125000000000000       0.87500000000000000        0.0000000000000000     
  0.81250000000000000       0.87500000000000000        0.0000000000000000     
  0.84375000000000000       0.87500000000000000        0.0000000000000000     
  0.87500000000000000       0.87500000000000000        0.0000000000000000     
  0.75000000000000000       0.90625000000000000        0.0000000000000000     
  0.78125000000000000       0.90625000000000000        0.0000000000000000     
  0.81250000000000000       0.90625000000000000        0.0000000000000000     
  0.84375000000000000       0.90625000000000000        0.0000000000000000     
  0.87500000000000000       0.90625000000000000        0.0000000000000000     
  0.75000000000000000       0.93750000000000000        0.0000000000000000     
  0.78125000000000000       0.93750000000000000        0.0000000000000000     
  0.81250000000000000       0.93750000000000000        0.0000000000000000     
  0.84375000000000000       0.93750000000000000        0.0000000000000000     
  0.87500000000000000       0.93750000000000000        0.0000000000000000     
  0.75000000000000000       0.96875000000000000        0.0000000000000000     
  0.78125000000000000       0.96875000000000000        0.0000000000000000     
  0.81250000000000000       0.96875000000000000        0.0000000000000000     
  0.84375000000000000       0.96875000000000000        0.0000000000000000     
  0.87500000000000000       0.96875000000000000        0.0000000000000000     
  0.75000000000000000        1.0000000000000000        0.0000000000000000     
  0.78125000000000000        1.0000000000000000        0.0000000000000000     
  0.81250000000000000        1.0000000000000000        0.0000000000000000     
  0.84375000000000000        1.0000000000000000        0.0000000000000000     
  0.87500000000000000        1.0000000000000000        0.0000000000000000     
  0.87500000000000000       0.87500000000000000        0.0000000000000000     
  0.90625000000000000       0.87500000000000000        0.0000000000000000     
  0.93750000000000000       0.87500000000000000        0.0000000000000000     
  0.96875000000000000       0.87500000000000000        0.0000000000000000     
   1.0000000000000000       0.87500000000000000        0.0000000000000000     
  0.87500000000000000       0.90625000000000000        0.0000000000000000     
  0.90625000000000000       0.90625000000000000        0.0000000000000000     
  0.93750000000000000       0.90625000000000000        0.0000000000000000     
  0.96875000000000000       0.90625000000000000        0.0000000000000000     
   1.0000000000000000       0.90625000000000000        0.0000000000000000     
  0.87500000000000000       0.93750000000000000        0.0000000000000000     
  0.90625000000000000       0.93750000000000000        0.0000000000000000     
  0.93750000000000000       0.93750000000000000        0.0000000000000000     
  0.96875000000000000       0.93750000000000000        0.0000000000000000     
   1.0000000000000000       0.93750000000000000        0.0000000000000000     
  0.87500000000000000       0.96875000000000000        0.0000000000000000     
  0.90625000000000000       0.96875000000000000        0.0000000000000000     
  0.93750000000000000       0.96875000000000000        0.0000000000000000     
  0.96875000000000000       0.96875000000000000        0.0000000000000000     
   1.0000000000000000       0.96875000000000000        0.0000000000000000     
  0.87500000000000000        1.0000000000000000        0.0000000000000000     
  0.90625000000000000        1.0000000000000000        0.0000000000000000     
  0.93750000000000000        1.0000000000000000        0.0000000000000000     
  0.96875000000000000        1.0000000000000000        0.0000000000000000     
   1.0000000000000000        1.0000000000000000        0.0000000000000000     
 </DataArray>
 </Points>
 <Cells>
 <DataArray  type="Int32"  Name="connectivity"  format="ascii">
           0           1           6           5
           1           2           7           6
           2           3           8           7
           3           4           9           8
           5           6          11          10
           6           7          12          11
           7           8          13          12
           8           9          14          13
          10          11          16          15
          11          12          17          16
          12          13          18          17
          13          14          19          18
          15          16          21          20
          16          17          22          21
          17          18          23          22
          18          19          24          23
          25          26          31          30
          26          27          32          31
          27          28          33          32
          28          29          34          33
          30          31          36          35
          31          32          37          36
          32          33          38          37
          33          34          39          38
          35          36          41          40
          36          37          42          41
          37          38          43          42
          38          39          44          43
          40          41          46          45
          41          42          47          46
          42          43          48          47
          43          44          49          48
          50          51          56          55
          51          52          57          56
          52          53          58          57
          53          54          59          58
          55          56          61          60
          56          57          62          61
          57          58          63          62
          58          59          64          63
          60          61          66          65
          61          62          67          66
          62          63          68          67
          63          64          69          68
          65          66          71          70
          66          67          72          71
          67          68          73          72
          68          69          74          73
          75          76          81          80
          76          77          82          81
          77          78          83          82
          78          79          84          83
          80          81          86          85
          81          82          87          86
          82          83          88          87
          83          84          89          88
          85          86          91          90
          86          87          92          91
          87          88          93          92
          88          89          94          93
          90          91          96          95
          91          92          97          96
          92          93          98          97
          93          94          99          98
         100         101         106         105
         101         102         107         106
         102         103         108         107
         103         104         109         108
         105         106         111         110
         106         107         112         111
         107         108         113         112
         108         109         114         113
         110         111         116         115
         111         112         117         116
         112         113         118         117
         113         114         119         118
         115         116         121         120
         116         117         122         121
         117         118         123         122
         118         119         124         123
         125         126         131         130
         126         127         132         131
         127         128         133         132
         128         129         134         133
         130         131         136         135
         131         132         137         136
         132         133         138         137
         133         134         139         138
         135         136         141         140
         136         137         142         141
         137         138         143         142
         138         139         144         143
         140         141         146         145
         141         142         147         146
         142         143         148         147
         143         144         149         148
         150         151         156         155
         151         152         157         156
         152         153         158         157
         153         154         159         158
         155         156         161         160
         156         157         162         161
         157         158         163         162
         158         159         164         163
         160         161         166         165
         161         162         167         166
         162         163         168         167
         163         164         169         168
         165         166         171         170
         166         167         172         171
         167         168         173         172
         168         169         174         173
         175         176         181         180
         176         177         182         181
         177         178         183         182
         178         179         184         183
         180         181         186         185
         181         182         187         186
         182         183         188         187
         183         184         189         188
         185         186         191         190
         186         187         192         191
         187         188         193         192
         188         189         194         193
         190         191         196         195
         191         192         197         196
         192         193         198         197
         193         194         199         198
         200         201         206         205
         201         202         207         206
         202         203         208         207
         203         204         209         208
         205         206         211         210
         206         207         212         211
         207         208         213         212
         208         209         214         213
         210         211         216         215
         211         212         217         216
         212         213         218         217
         213         214         219         218
         215         216         221         220
         216         217         222         221
         217         218         223         222
         218         219         224         223
         225         226         231         230
         226         227         232         231
         227         228         233         232
         228         229         234         233
         230         231         236         235
         231         232         237         236
         232         233         238         237
         233         234         239         238
         235         236         241         240
         236         237         242         241
         237         238         243         242
         238         239         244         243
         240         241         246         245
         241         242         247         246
         242         243         248         247
         243         244         249         248
         250         251         256         255
         251         252         257         256
         252         253         258         257
         253         254         259         258
         255         256         261         260
         256         257         262         261
         257         258         263         262
         258         259         264         263
         260         261         266         265
         261         262         267         266
         262         263         268         267
         263         264         269         268
         265         266         271         270
         266         267         272         271
         267         268         273         272
         268         269         274         273
         275         276         281         280
         276         277         282         281
         277         278         283         282
         278         279         284         283
         280         281         286         285
         281         282         287         286
         282         283         288         287
         283         284         289         288
         285         286         291         290
         286         287         292         291
         287         288         293         292
         288         289         294         293
         290         291         296         295
         291         292         297         296
         292         293         298         297
         293         294         299         298
         300         301         306         305
         301         302         307         306
         302         303         308         307
         303         304         309         308
         305         306         311         310
         306         307         312         311
         307         308         313         312
         308         309         314         313
         310         311         316         315
         311         312         317         316
         312         313         318         317
         313         314         319         318
         315         316         321         320
         316         317         322         321
         317         318         323         322
         318         319         324         323
         325         326         331         330
         326         327         332         331
         327         328         333         332
         328         329         334         333
         330         331         336         335
         331         332         337         336
         332         333         338         337
         333         334         339         338
         335         336         341         340
         336         337         342         341
         337         338         343         342
         338         339         344         343
         340         341         346         345
         341         342         347         346
         342         343         348         347
         343         344         349         348
         350         351         356         355
         351         352         357         356
         352         353         358         357
         353         354         359         358
         355         356         361         360
         356         357         362         361
         357         358         363         362
         358         359         364         363
         360         361         366         365
         361         362         367         366
         362         363         368         367
         363         364         369         368
         365         366         371         370
         366         367         372         371
         367         368         373         372
         368         369         374         373
         375         376         381         380
         376         377         382         381
         377         378         383         382
         378         379         384         383
         380         381         386         385
         381         382         387         386
         382         383         388         387
         383         384         389         388
         385         386         391         390
         386         387         392         391
         387         388         393         392
         388         389         394         393
         390         391         396         395
         391         392         397         396
         392         393         398         397
         393         394         399         398
         400         401         406         405
         401         402         407         406
         402         403         408         407
         403         404         409         408
         405         406         411         410
         406         407         412         411
         407         408         413         412
         408         409         414         413
         410         411         416         415
         411         412         417         416
         412         413         418         417
         413         414         419         418
         415         416         421         420
         416         417         422         421
         417         418         423         422
         418         419         424         423
         425         426         431         430
         426         427         432         431
         427         428         433         432
         428         429         434         433
         430         431         436         435
         431         432         437         436
         432         433         438         437
         433         434         439         438
         435         436         441         440
         436         437         442         441
         437         438         443         442
         438         439         444         443
         440         441         446         445
         441         442         447         446
         442         443         448         447
         443         444         449         448
         450         451         456         455
         451         452         457         456
         452         453         458         457
         453         454         459         458
         455         456         461         460
         456         457         462         461
         457         458         463         462
         458         459         464         463
         460         461         466         465
         461         462         467         466
         462         463         468         467
         463         464         469         468
         465         466         471         470
         466         467         472         471
         467         468         473         472
         468         469         474         473
         475         476         481         480
         476         477         482         481
         477         478         483         482
         478         479         484         483
         480         481         486         485
         481         482         487         486
         482         483         488         487
         483         484         489         488
         485         486         491         490
         486         487         492         491
         487         488         493         492
         488         489         494         493
         490         491         496         495
         491         492         497         496
         492         493         498         497
         493         494         499         498
         500         501         506         505
         501         502         507         506
         502         503         508         507
         503         504         509         508
         505         506         511         510
         506         507         512         511
         507         508         513         512
         508         509         514         513
         510         511         516         515
         511         512         517         516
         512         513         518         517
         513         514         519         518
         515         516         521         520
         516         517         522         521
         517         518         523         522
         518         519         524         523
         525         526         531         530
         526         527         532         531
         527         528         533         532
         528         529         534         533
         530         531         536         535
         531         532         537         536
         532         533         538         537
         533         534         539         538
         535         536         541         540
         536         537         542         541
         537         538         543         542
         538         539         544         543
         540         541         546         545
         541         542         547         546
         542         543         548         547
         543         544         549         548
         550         551         556         555
         551         552         557         556
         552         553         558         557
         553         554         559         558
         555         556         561         560
         556         557         562         561
         557         558         563         562
         558         559         564         563
         560         561         566         565
         561         562         567         566
         562         563         568         567
         563         564         569         568
         565         566         571         570
         566         567         572         571
         567         568         573         572
         568         569         574         573
         575         576         581         580
         576         577         582         581
         577         578         583         582
         578         579         584         583
         580         581         586         585
         581         582         587         586
         582         583         588         587
         583         584         589         588
         585         586         591         590
         586         587         592         591
         587         588         593         592
         588         589         594         593
         590         591         596         595
         591         592         597         596
         592         593         598         597
         593         594         599         598
         600         601         606         605
         601         602         607         606
         602         603         608         607
         603         604         609         608
         605         606         611         610
         606         607         612         611
         607         608         613         612
         608         609         614         613
         610         611         616         615
         611         612         617         616
         612         613         618         617
         613         614         619         618
         615         616         621         620
         616         617         622         621
         617         618         623         622
         618         619         624         623
         625         626         631         630
         626         627         632         631
         627         628         633         632
         628         629         634         633
         630         631         636         635
         631         632         637         636
         632         633         638         637
         633         634         639         638
         635         636         641         640
         636         637         642         641
         637         638         643         642
         638         639         644         643
         640         641         646         645
         641         642         647         646
         642         643         648         647
         643         644         649         648
         650         651         656         655
         651         652         657         656
         652         653         658         657
         653         654         659         658
         655         656         661         660
         656         657         662         661
         657         658         663         662
         658         659         664         663
         660         661         666         665
         661         662         667         666
         662         663         668         667
         663         664         669         668
         665         666         671         670
         666         667         672         671
         667         668         673         672
         668         669         674         673
         675         676         681         680
         676         677         682         681
         677         678         683         682
         678         679         684         683
         680         681         686         685
         681         682         687         686
         682         683         688         687
         683         684         689         688
         685         686         691         690
         686         687         692         691
         687         688         693         692
         688         689         694         693
         690         691         696         695
         691         692         697         696
         692         693         698         697
         693         694         699         698
         700         701         706         705
         701         702         707         706
         702         703         708         707
         703         704         709         708
         705         706         711         710
         706         707         712         711
         707         708         713         712
         708         709         714         713
         710         711         716         715
         711         712         717         716
         712         713         718         717
         713         714         719         718
         715         716         721         720
         716         717         722         721
         717         718         723         722
         718         719         724         723
         725         726         731         730
         726         727         732         731
         727         728         733         732
         728         729         734         733
         730         731         736         735
         731         732         737         736
         732         733         738         737
         733         734         739         738
         735         736         741         740
         736         737         742         741
         737         738         743         742
         738         739         744         743
         740         741         746         745
         741         742         747         746
         742         743         748         747
         743         744         749         748
         750         751         756         755
         751         752         757         756
         752         753         758         757
         753         754         759         758
         755         756         761         760
         756         757         762         761
         757         758         763         762
         758         759         764         763
         760         761         766         765
         761         762         767         766
         762         763         768         767
         763         764         769         768
         765         766         771         770
         766         767         772         771
         767         768         773         772
         768         769         774         773
         775         776         781         780
         776         777         782         781
         777         778         783         782
         778         779         784         783
         780         781         786         785
         781         782         787         786
         782         783         788         787
         783         784         789         788
         785         786         791         790
         786         787         792         791
         787         788         793         792
         788         789         794         793
         790         791         796         795
         791         792         797         796
         792         793         798         797
         793         794         799         798
         800         801         806         805
         801         802         807         806
         802         803         808         807
         803         804         809         808
         805         806         811         810
         806         807         812         811
         807         808         813         812
         808         809         814         813
         810         811         816         815
         811         812         817         816
         812         813         818         817
         813         814         819         818
         815         816         821         820
         816         817         822         821
         817         818         823         822
         818         819         824         823
         825         826         831         830
         826         827         832         831
         827         828         833         832
         828         829         834         833
         830         831         836         835
         831         832         837         836
         832         833         838         837
         833         834         839         838
         835         836         841         840
         836         837         842         841
         837         838         843         842
         838         839         844         843
         840         841         846         845
         841         842         847         846
         842         843         848         847
         843         844         849         848
         850         851         856         855
         851         852         857         856
         852         853         858         857
         853         854         859         858
         855         856         861         860
         856         857         862         861
         857         858         863         862
         858         859         864         863
         860         861         866         865
         861         862         867         866
         862         863         868         867
         863         864         869         868
         865         866         871         870
         866         867         872         871
         867         868         873         872
         868         869         874         873
         875         876         881         880
         876         877         882         881
         877         878         883         882
         878         879         884         883
         880         881         886         885
         881         882         887         886
         882         883         888         887
         883         884         889         888
         885         886         891         890
         886         887         892         891
         887         888         893         892
         888         889         894         893
         890         891         896         895
         891         892         897         896
         892         893         898         897
         893         894         899         898
         900         901         906         905
         901         902         907         906
         902         903         908         907
         903         904         909         908
         905         906         911         910
         906         907         912         911
         907         908         913         912
         908         909         914         913
         910         911         916         915
         911         912         917         916
         912         913         918         917
         913         914         919         918
         915         916         921         920
         916         917         922         921
         917         918         923         922
         918         919         924         923
         925         926         931         930
         926         927         932         931
         927         928         933         932
         928         929         934         933
         930         931         936         935
         931         932         937         936
         932         933         938         937
         933         934         939         938
         935         936         941         940
         936         937         942         941
         937         938         943         942
         938         939         944         943
         940         941         946         945
         941         942         947         946
         942         943         948         947
         943         944         949         948
         950         951         956         955
         951         952         957         956
         952         953         958         957
         953         954         959         958
         955         956         961         960
         956         957         962         961
         957         958         963         962
         958         959         964         963
         960         961         966         965
         961         962         967         966
         962         963         968         967
         963         964         969         968
         965         966         971         970
         966         967         972         971
         967         968         973         972
         968         969         974         973
         975         976         981         980
         976         977         982         981
         977         978         983         982
         978         979         984         983
         980         981         986         985
         981         982         987         986
         982         983         988         987
         983         984         989         988
         985         986         991         990
         986         987         992         991
         987         988         993         992
         988         989         994         993
         990         991         996         995
         991         992         997         996
         992         993         998         997
         993         994         999         998
        1000        1001        1006        1005
        1001        1002        1007        1006
        1002        1003        1008        1007
        1003        1004        1009        1008
        1005        1006        1011        1010
        1006        1007        1012        1011
        1007        1008        1013        1012
        1008        1009        1014        1013
        1010        1011        1016        1015
        1011        1012        1017        1016
        1012        1013        1018        1017
        1013        1014        1019        1018
        1015        1016        1021        1020
        1016        1017        1022        1021
        1017        1018        1023        1022
        1018        1019        1024        1023
        1025        1026        1031        1030
        1026        1027        1032        1031
        1027        1028        1033        1032
        1028        1029        1034        1033
        1030        1031        1036        1035
        1031        1032        1037        1036
        1032        1033        1038        1037
        1033        1034        1039        1038
        1035        1036        1041        1040
        1036        1037        1042        1041
        1037        1038        1043        1042
        1038        1039        1044        1043
        1040        1041        1046        1045
        1041        1042        1047        1046
        1042        1043        1048        1047
        1043        1044        1049        1048
        1050        1051        1056        1055
        1051        1052        1057        1056
        1052        1053        1058        1057
        1053        1054        1059        1058
        1055        1056        1061        1060
        1056        1057        1062        1061
        1057        1058        1063        1062
        1058        1059        1064        1063
        1060        1061        1066        1065
        1061        1062        1067        1066
        1062        1063        1068        1067
        1063        1064        1069        1068
        1065        1066        1071        1070
        1066        1067        1072        1071
        1067        1068        1073        1072
        1068        1069        1074        1073
        1075        1076        1081        1080
        1076        1077        1082        1081
        1077        1078        1083        1082
        1078        1079        1084        1083
        1080        1081        1086        1085
        1081        1082        1087        1086
        1082        1083        1088        1087
        1083        1084        1089        1088
        1085        1086        1091        1090
        1086        1087        1092        1091
        1087        1088        1093        1092
        1088        1089        1094        1093
        1090        1091        1096        1095
        1091        1092        1097        1096
        1092        1093        1098        1097
        1093        1094        1099        1098
        1100        1101        1106        1105
        1101        1102        1107        1106
        1102        1103        1108        1107
        1103        1104        1109        1108
        1105        1106        1111        1110
        1106        1107        1112        1111
        1107        1108        1113        1112
        1108        1109        1114        1113
        1110        1111        1116        1115
        1111        1112        1117        1116
        1112        1113        1118        1117
        1113        1114        1119        1118
        1115        1116        1121        1120
        1116        1117        1122        1121
        1117        1118        1123        1122
        1118        1119        1124        1123
        1125        1126        1131        1130
        1126        1127        1132        1131
        1127        1128        1133        1132
        1128        1129        1134        1133
        1130        1131        1136        1135
        1131        1132        1137        1136
        1132        1133        1138        1137
        1133        1134        1139        1138
        1135        1136        1141        1140
        1136        1137        1142        1141
        1137        1138        1143        1142
        1138        1139        1144        1143
        1140        1141        1146        1145
        1141        1142        1147        1146
        1142        1143        1148        1147
        1143        1144        1149        1148
        1150        1151        1156        1155
        1151        1152        1157        1156
        1152        1153        1158        1157
        1153        1154        1159        1158
        1155        1156        1161        1160
        1156        1157        1162        1161
        1157        1158        1163        1162
        1158        1159        1164        1163
        1160        1161        1166        1165
        1161        1162        1167        1166
        1162        1163        1168        1167
        1163        1164        1169        1168
        1165        1166        1171        1170
        1166        1167        1172        1171
        1167        1168        1173        1172
        1168        1169        1174        1173
        1175        1176        1181        1180
        1176        1177        1182        1181
        1177        1178        1183        1182
        1178        1179        1184        1183
        1180        1181        1186        1185
        1181        1182        1187        1186
        1182        1183        1188        1187
        1183        1184        1189        1188
        1185        1186        1191        1190
        1186        1187        1192        1191
        1187        1188        1193        1192
        1188        1189        1194        1193
        1190        1191        1196        1195
        1191        1192        1197        1196
        1192        1193        1198        1197
        1193        1194        1199        1198
        1200        1201        1206        1205
        1201        1202        1207        1206
        1202        1203        1208        1207
        1203        1204        1209        1208
        1205        1206        1211        1210
        1206        1207        1212        1211
        1207        1208        1213        1212
        1208        1209        1214        1213
        1210        1211        1216        1215
        1211        1212        1217        1216
        1212        1213        1218        1217
        1213        1214        1219        1218
        1215        1216        1221        1220
        1216        1217        1222        1221
        1217        1218        1223        1222
        1218        1219        1224        1223
        1225        1226        1231        1230
        1226        1227        1232        1231
        1227        1228        1233        1232
        1228        1229        1234        1233
        1230        1231        1236        1235
        1231        1232        1237        1236
        1232        1233        1238        1237
        1233        1234        1239        1238
        1235        1236        1241        1240
        1236        1237        1242        1241
        1237        1238        1243        1242
        1238        1239        1244        1243
        1240        1241        1246        1245
        1241        1242        1247        1246
        1242        1243        1248        1247
        1243        1244        1249        1248
        1250        1251        1256        1255
        1251        1252        1257        1256
        1252        1253        1258        1257
        1253        1254        1259        1258
        1255        1256        1261        1260
        1256        1257        1262        1261
        1257        1258        1263        1262
        1258        1259        1264        1263
        1260        1261        1266        1265
        1261        1262        1267        1266
        1262        1263        1268        1267
        1263        1264        1269        1268
        1265        1266        1271        1270
        1266        1267        1272        1271
        1267        1268        1273        1272
        1268        1269        1274        1273
        1275        1276        1281        1280
        1276        1277        1282        1281
        1277        1278        1283        1282
        1278        1279        1284        1283
        1280        1281        1286        1285
        1281        1282        1287        1286
        1282        1283        1288        1287
        1283        1284        1289        1288
        1285        1286        1291        1290
        1286        1287        1292        1291
        1287        1288        1293        1292
        1288        1289        1294        1293
        1290        1291        1296        1295
        1291        1292        1297        1296
        1292        1293        1298        1297
        1293        1294        1299        1298
        1300        1301        1306        1305
        1301        1302        1307        1306
        1302        1303        1308        1307
        1303        1304        1309        1308
        1305        1306        1311        1310
        1306        1307        1312        1311
        1307        1308        1313        1312
        1308        1309        1314        1313
        1310        1311        1316        1315
        1311        1312        1317        1316
        1312        1313        1318        1317
        1313        1314        1319        1318
        1315        1316        1321        1320
        1316        1317        1322        1321
        1317        1318        1323        1322
        1318        1319        1324        1323
        1325        1326        1331        1330
        1326        1327        1332        1331
        1327        1328        1333        1332
        1328        1329        1334        1333
        1330        1331        1336        1335
        1331        1332        1337        1336
        1332        1333        1338        1337
        1333        1334        1339        1338
        1335        1336        1341        1340
        1336        1337        1342        1341
        1337        1338        1343        1342
        1338        1339        1344        1343
        1340        1341        1346        1345
        1341        1342        1347        1346
        1342        1343        1348        1347
        1343        1344        1349        1348
        1350        1351        1356        1355
        1351        1352        1357        1356
        1352        1353        1358        1357
        1353        1354        1359        1358
        1355        1356        1361        1360
        1356        1357        1362        1361
        1357        1358        1363        1362
        1358        1359        1364        1363
        1360        1361        1366        1365
        1361        1362        1367        1366
        1362        1363        1368        1367
        1363        1364        1369        1368
        1365        1366        1371        1370
        1366        1367        1372        1371
        1367        1368        1373        1372
        1368        1369        1374        1373
        1375        1376        1381        1380
        1376        1377        1382        1381
        1377        1378        1383        1382
        1378        1379        1384        1383
        1380        1381        1386        1385
        1381        1382        1387        1386
        1382        1383        1388        1387
        1383        1384        1389        1388
        1385        1386        1391        1390
        1386        1387        1392        1391
        1387        1388        1393        1392
        1388        1389        1394        1393
        1390        1391        1396        1395
        1391        1392        1397        1396
        1392        1393        1398        1397
        1393        1394        1399        1398
        1400        1401        1406        1405
        1401        1402        1407        1406
        1402        1403        1408        1407
        1403        1404        1409        1408
        1405        1406        1411        1410
        1406        1407        1412        1411
        1407        1408        1413        1412
        1408        1409        1414        1413
        1410        1411        1416        1415
        1411        1412        1417        1416
        1412        1413        1418        1417
        1413        1414        1419        1418
        1415        1416        1421        1420
        1416        1417        1422        1421
        1417        1418        1423        1422
        1418        1419        1424        1423
        1425        1426        1431        1430
        1426        1427        1432        1431
        1427        1428        1433        1432
        1428        1429        1434        1433
        1430        1431        1436        1435
        1431        1432        1437        1436
        1432        1433        1438        1437
        1433        1434        1439        1438
        1435        1436        1441        1440
        1436        1437        1442        1441
        1437        1438        1443        1442
        1438        1439        1444        1443
        1440        1441        1446        1445
        1441        1442        1447        1446
        1442        1443        1448        1447
        1443        1444        1449        1448
        1450        1451        1456        1455
        1451        1452        1457        1456
        1452        1453        1458        1457
        1453        1454        1459        1458
        1455        1456        1461        1460
        1456        1457        1462        1461
        1457        1458        1463        1462
        1458        1459        1464        1463
        1460        1461        1466        1465
        1461        1462        1467        1466
        1462        1463        1468        1467
        1463        1464        1469        1468
        1465        1466        1471        1470
        1466        1467        1472        1471
        1467        1468        1473        1472
        1468        1469        1474        1473
        1475        1476        1481        1480
        1476        1477        1482        1481
        1477        1478        1483        1482
        1478        1479        1484        1483
        1480        1481        1486        1485
        1481        1482        1487        1486
        1482        1483        1488        1487
        1483        1484        1489        1488
        1485        1486        1491        1490
        1486        1487        1492        1491
        1487        1488        1493        1492
        1488        1489        1494        1493
        1490        1491        1496        1495
        1491        1492        1497        1496
        1492        1493        1498        1497
        1493        1494        1499        1498
        1500        1501        1506        1505
        1501        1502        1507        1506
        1502        1503        1508        1507
        1503        1504        1509        1508
        1505        1506        1511        1510
        1506        1507        1512        1511
        1507        1508        1513        1512
        1508        1509        1514        1513
        1510        1511        1516        1515
        1511        1512        1517        1516
        1512        1513        1518        1517
        1513        1514        1519        1518
        1515        1516        1521        1520
        1516        1517        1522        1521
        1517        1518        1523        1522
        1518        1519        1524        1523
        1525        1526        1531        1530
        1526        1527        1532        1531
        1527        1528        1533        1532
        1528        1529        1534        1533
        1530        1531        1536        1535
        1531        1532        1537        1536
        1532        1533        1538        1537
        1533        1534        1539        1538
        1535        1536        1541        1540
        1536        1537        1542        1541
        1537        1538        1543        1542
        1538        1539        1544        1543
        1540        1541        1546        1545
        1541        1542        1547        1546
        1542        1543        1548        1547
        1543        1544        1549        1548
        1550        1551        1556        1555
        1551        1552        1557        1556
        1552        1553        1558        1557
        1553        1554        1559        1558
        1555        1556        1561        1560
        1556        1557        1562        1561
        1557        1558        1563        1562
        1558        1559        1564        1563
        1560        1561        1566        1565
        1561        1562        1567        1566
        1562        1563        1568        1567
        1563        1564        1569        1568
        1565        1566        1571        1570
        1566        1567        1572        1571
        1567        1568        1573        1572
        1568        1569        1574        1573
        1575        1576        1581        1580
        1576        1577        1582        1581
        1577        1578        1583        1582
        1578        1579        1584        1583
        1580        1581        1586        1585
        1581        1582        1587        1586
        1582        1583        1588        1587
        1583        1584        1589        1588
        1585        1586        1591        1590
        1586        1587        1592        1591
        1587        1588        1593        1592
        1588        1589        1594        1593
        1590        1591        1596        1595
        1591        1592        1597        1596
        1592        1593        1598        1597
        1593        1594        1599        1598
 </DataArray>
 <DataArray  type="Int32"  Name="offsets"  format="ascii"> 
           4
           8
          12
          16
          20
          24
          28
          32
          36
          40
          44
          48
          52
          56
          60
          64
          68
          72
          76
          80
          84
          88
          92
          96
         100
         104
         108
         112
         116
         120
         124
         128
         132
         136
         140
         144
         148
         152
         156
         160
         164
         168
         172
         176
         180
         184
         188
         192
         196
         200
         204
         208
         212
         216
         220
         224
         228
         232
         236
         240
         244
         248
         252
         256
         260
         264
         268
         272
         276
         280
         284
         288
         292
         296
         300
         304
         308
         312
         316
         320
         324
         328
         332
         336
         340
         344
         348
         352
         356
         360
         364
         368
         372
         376
         380
         384
         388
         392
         396
         400
         404
         408
         412
         416
         420
         424
         428
         432
         436
         440
         444
         448
         452
         456
         460
         464
         468
         472
         476
         480
         484
         488
         492
         496
         500
         504
         508
         512
         516
         520
         524
         528
         532
         536
         540
         544
         548
         552
         556
         560
         564
         568
         572
         576
         580
         584
         588
         592
         596
         600
         604
         608
         612
         616
         620
         624
         628
         632
         636
         640
         644
         648
         652
         656
         660
         664
         668
         672
         676
         680
         684
         688
         692
         696
         700
         704
         708
         712
         716
         720
         724
         728
         732
         736
         740
         744
         748
         752
         756
         760
         764
         768
         772
         776
         780
         784
         788
         792
         796
         800
         804
         808
         812
         816
         820
         824
         828
         832
         836
         840
         844
         848
         852
         856
         860
         864
         868
         872
         876
         880
         884
         888
         892
         896
         900
         904
         908
         912
         916
         920
         924
         928
         932
         936
         940
         944
         948
         952
         956
         960
         964
         968
         972
         976
         980
         984
         988
         992
         996
        1000
        1004
        1008
        1012
        1016
        1020
        1024
        1028
        1032
        1036
        1040
        1044
        1048
        1052
        1056
        1060
        1064
        1068
        1072
        1076
        1080
        1084
        1088
        1092
        1096
        1100
        1104
        1108
        1112
        1116
        1120
        1124
        1128
        1132
        1136
        1140
        1144
        1148
        1152
        1156
        1160
        1164
        1168
        1172
        1176
        1180
        1184
        1188
        1192
        1196
        1200
        1204
        1208
        1212
        1216
        1220
        1224
        1228
        1232
        1236
        1240
        1244
        1248
        1252
        1256
        1260
        1264
        1268
        1272
        1276
        1280
        1284
        1288
        1292
        1296
        1300
        1304
        1308
        1312
        1316
        1320
        1324
        1328
        1332
        1336
        1340
        1344
        1348
        1352
        1356
        1360
        1364
        1368
        1372
        1376
        1380
        1384
        1388
        1392
        1396
        1400
        1404
        1408
        1412
        1416
        1420
        1424
        1428
        1432
        1436
        1440
        1444
        1448
        1452
        1456
        1460
        1464
        1468
        1472
        1476
        1480
        1484
        1488
        1492
        1496
        1500
        1504
        1508
        1512
        1516
        1520
        1524
        1528
        1532
        1536
        1540
        1544
        1548
        1552
        1556
        1560
        1564
        1568
        1572
        1576
        1580
        1584
        1588
        1592
        1596
        1600
        1604
        1608
        1612
        1616
        1620
        1624
        1628
        1632
        1636
        1640
        1644
        1648
        1652
        1656
        1660
        1664
        1668
        1672
        1676
        1680
        1684
        1688
        1692
        1696
        1700
        1704
        1708
        1712
        1716
        1720
        1724
        1728
        1732
        1736
        1740
        1744
        1748
        1752
        1756
        1760
        1764
        1768
        1772
        1776
        1780
        1784
        1788
        1792
        1796
        1800
        1804
        1808
        1812
        1816
        1820
        1824
        1828
        1832
        1836
        1840
        1844
        1848
        1852
        1856
        1860
        1864
        1868
        1872
        1876
        1880
        1884
        1888
        1892
        1896
        1900
        1904
        1908
        1912
        1916
        1920
        1924
        1928
        1932
        1936
        1940
        1944
        1948
        1952
        1956
        1960
        1964
        1968
        1972
        1976
        1980
        1984
        1988
        1992
        1996
        2000
        2004
        2008
        2012
        2016
        2020
        2024
        2028
        2032
        2036
        2040
        2044
        2048
        2052
        2056
        2060
        2064
        2068
        2072
        2076
        2080
        2084
        2088
        2092
        2096
        2100
        2104
        2108
        2112
        2116
        2120
        2124
        2128
        2132
        2136
        2140
        2144
        2148
        2152
        2156
        2160
        2164
        2168
        2172
        2176
        2180
        2184
        2188
        2192
        2196
        2200
        2204
        2208
        2212
        2216
        2220
        2224
        2228
        2232
        2236
        2240
        2244
        2248
        2252
        2256
        2260
        2264
        2268
        2272
        2276
        2280
        2284
        2288
        2292
        2296
        2300
        2304
        2308
        2312
        2316
        2320
        2324
        2328
        2332
        2336
        2340
        2344
        2348
        2352
        2356
        2360
        2364
        2368
        2372
        2376
        2380
        2384
        2388
        2392
        2396
        2400
        2404
        2408
        2412
        2416
        2420
        2424
        2428
        2432
        2436
        2440
        2444
        2448
        2452
        2456
        2460
        2464
        2468
        2472
        2476
        2480
        2484
        2488
        2492
        2496
        2500
        2504
        2508
        2512
        2516
        2520
        2524
        2528
        2532
        2536
        2540
        2544
        2548
        2552
        2556
        2560
        2564
        2568
        2572
        2576
        2580
        2584
        2588
        2592
        2596
        2600
        2604
        2608
        2612
        2616
        2620
        2624
        2628
        2632
        2636
        2640
        2644
        2648
        2652
        2656
        2660
        2664
        2668
        2672
        2676
        2680
        2684
        2688
        2692
        2696
        2700
        2704
        2708
        2712
        2716
        2720
        2724
        2728
        2732
        2736
        2740
        2744
        2748
        2752
        2756
        2760
        2764
        2768
        2772
        2776
        2780
        2784
        2788
        2792
        2796
        2800
        2804
        2808
        2812
        2816
        2820
        2824
        2828
        2832
        2836
        2840
        2844
        2848
        2852
        2856
        2860
        2864
        2868
        2872
        2876
        2880
        2884
        2888
        2892
        2896
        2900
        2904
        2908
        2912
        2916
        2920
        2924
        2928
        2932
        2936
        2940
        2944
        2948
        2952
        2956
        2960
        2964
        2968
        2972
        2976
        2980
        2984
        2988
        2992
        2996
        3000
        3004
        3008
        3012
        3016
        3020
        3024
        3028
        3032
        3036
        3040
        3044
        3048
        3052
        3056
        3060
        3064
        3068
        3072
        3076
        3080
        3084
        3088
        3092
        3096
        3100
        3104
        3108
        3112
        3116
        3120
        3124
        3128
        3132
        3136
        3140
        3144
        3148
        3152
        3156
        3160
        3164
        3168
        3172
        3176
        3180
        3184
        3188
        3192
        3196
        3200
        3204
        3208
        3212
        3216
        3220
        3224
        3228
        3232
        3236
        3240
        3244
        3248
        3252
        3256
        3260
        3264
        3268
        3272
        3276
        3280
        3284
        3288
        3292
        3296
        3300
        3304
        3308
        3312
        3316
        3320
        3324
        3328
        3332
        3336
        3340
        3344
        3348
        3352
        3356
        3360
        3364
        3368
        3372
        3376
        3380
        3384
        3388
        3392
        3396
        3400
        3404
        3408
        3412
        3416
        3420
        3424
        3428
        3432
        3436
        3440
        3444
        3448
        3452
        3456
        3460
        3464
        3468
        3472
        3476
        3480
        3484
        3488
        3492
        3496
        3500
        3504
        3508
        3512
        3516
        3520
        3524
        3528
        3532
        3536
        3540
        3544
        3548
        3552
        3556
        3560
        3564
        3568
        3572
        3576
        3580
        3584
        3588
        3592
        3596
        3600
        3604
        3608
        3612
        3616
        3620
        3624
        3628
        3632
        3636
        3640
        3644
        3648
        3652
        3656
        3660
        3664
        3668
        3672
        3676
        3680
        3684
        3688
        3692
        3696
        3700
        3704
        3708
        3712
        3716
        3720
        3724
        3728
        3732
        3736
        3740
        3744
        3748
        3752
        3756
        3760
        3764
        3768
        3772
        3776
        3780
        3784
        3788
        3792
        3796
        3800
        3804
        3808
        3812
        3816
        3820
        3824
        3828
        3832
        3836
        3840
        3844
        3848
        3852
        3856
        3860
        3864
        3868
        3872
        3876
        3880
        3884
        3888
        3892
        3896
        3900
        3904
        3908
        3912
        3916
        3920
        3924
        3928
        3932
        3936
        3940
        3944
        3948
        3952
        3956
        3960
        3964
        3968
        3972
        3976
        3980
        3984
        3988
        3992
        3996
        4000
        4004
        4008
        4012
        4016
        4020
        4024
        4028
        4032
        4036
        4040
        4044
        4048
        4052
        4056
        4060
        4064
        4068
        4072
        4076
        4080
        4084
        4088
        4092
        4096
 </DataArray>
 <DataArray  type="UInt8"  Name="types"  format="ascii">
 9
 9
 9
 9
 9
 9
 9
 9
 9
 9
 9
 9
 9
 9
 9
 9
 9
 9
 9
 9
 9
 9
 9
 9
 9
 9
 9
 9
 9
 9
 9
 9
 9
 9
 9
 9
 9
 9
 9
 9
 9
 9
 9
 9
 9
 9
 9
 9
 9
 9
 9
 9
 9
 9
 9
 9
 9
 9
 9
 9
 9
 9
 9
 9
 9
 9
 9
 9
 9
 9
 9
 9
 9
 9
 9
 9
 9
 9
 9
 9
 9
 9
 9
 9
 9
 9
 9
 9
 9
 9
 9
 9
 9
 9
 9
 9
 9
 9
 9
 9
 9
 9
 9
 9
 9
 9
 9
 9
 9
 9
 9
 9
 9
 9
 9
 9
 9
 9
 9
 9
 9
 9
 9
 9
 9
 9
 9
 9
 9
 9
 9
 9
 9
 9
 9
 9
 9
 9
 9
 9
 9
 9
 9
 9
 9
 9
 9
 9
 9
 9
 9
 9
 9
 9
 9
 9
 9
 9
 9
 9
 9
 9
 9
 9
 9
 9
 9
 9
 9
 9
 9
 9
 9
 9
 9
 9
 9
 9
 9
 9
 9
 9
 9
 9
 9
 9
 9
 9
 9
 9
 9
 9
 9
 9
 9
 9
 9
 9
 9
 9
 9
 9
 9
 9
 9
 9
 9
 9
 9
 9
 9
 9
 9
 9
 9
 9
 9
 9
 9
 9
 9
 9
 9
 9
 9
 9
 9
 9
 9
 9
 9
 9
 9
 9
 9
 9
 9
 9
 9
 9
 9
 9
 9
 9
 9
 9
 9
 9
 9
 9
 9
 9
 9
 9
 9
 9
 9
 9
 9
 9
 9
 9
 9
 9
 9
 9
 9
 9
 9
 9
 9
 9
 9
 9
 9
 9
 9
 9
 9
 9
 9
 9
 9
 9
 9
 9
 9
 9
 9
 9
 9
 9
 9
 9
 9
 9
 9
 9
 9
 9
 9
 9
 9
 9
 9
 9
 9
 9
 9
 9
 9
 9
 9
 9
 9
 9
 9
 9
 9
 9
 9
 9
 9
 9
 9
 9
 9
 9
 9
 9
 9
 9
 9
 9
 9
 9
 9
 9
 9
 9
 9
 9
 9
 9
 9
 9
 9
 9
 9
 9
 9
 9
 9
 9
 9
 9
 9
 9
 9
 9
 9
 9
 9
 9
 9
 9
 9
 9
 9
 9
 9
 9
 9
 9
 9
 9
 9
 9
 9
 9
 9
 9
 9
 9
 9
 9
 9
 9
 9
 9
 9
 9
 9
 9
 9
 9
 9
 9
 9
 9
 9
 9
 9
 9
 9
 9
 9
 9
 9
 9
 9
 9
 9
 9
 9
 9
 9
 9
 9
 9
 9
 9
 9
 9
 9
 9
 9
 9
 9
 9
 9
 9
 9
 9
 9
 9
 9
 9
 9
 9
 9
 9
 9
 9
 9
 9
 9
 9
 9
 9
 9
 9
 9
 9
 9
 9
 9
 9
 9
 9
 9
 9
 9
 9
 9
 9
 9
 9
 9
 9
 9
 9
 9
 9
 9
 9
 9
 9
 9
 9
 9
 9
 9
 9
 9
 9
 9
 9
 9
 9
 9
 9
 9
 9
 9
 9
 9
 9
 9
 9
 9
 9
 9
 9
 9
 9
 9
 9
 9
 9
 9
 9
 9
 9
 9
 9
 9
 9
 9
 9
 9
 9
 9
 9
 9
 9
 9
 9
 9
 9
 9
 9
 9
 9
 9
 9
 9
 9
 9
 9
 9
 9
 9
 9
 9
 9
 9
 9
 9
 9
 9
 9
 9
 9
 9
 9
 9
 9
 9
 9
 9
 9
 9
 9
 9
 9
 9
 9
 9
 9
 9
 9
 9
 9
 9
 9
 9
 9
 9
 9
 9
 9
 9
 9
 9
 9
 9
 9
 9
 9
 9
 9
 9
 9
 9
 9
 9
 9
 9
 9
 9
 9
 9
 9
 9
 9
 9
 9
 9
 9
 9
 9
 9
 9
 9
 9
 9
 9
 9
 9
 9
 9
 9
 9
 9
 9
 9
 9
 9
 9
 9
 9
 9
 9
 9
 9
 9
 9
 9
 9
 9
 9
 9
 9
 9
 9
 9
 9
 9
 9
 9
 9
 9
 9
 9
 9
 9
 9
 9
 9
 9
 9
 9
 9
 9
 9
 9
 9
 9
 9
 9
 9
 9
 9
 9
 9
 9
 9
 9
 9
 9
 9
 9
 9
 9
 9
 9
 9
 9
 9
 9
 9
 9
 9
 9
 9
 9
 9
 9
 9
 9
 9
 9
 9
 9
 9
 9
 9
 9
 9
 9
 9
 9
 9
 9
 9
 9
 9
 9
 9
 9
 9
 9
 9
 9
 9
 9
 9
 9
 9
 9
 9
 9
 9
 9
 9
 9
 9
 9
 9
 9
 9
 9
 9
 9
 9
 9
 9
 9
 9
 9
 9
 9
 9
 9
 9
 9
 9
 9
 9
 9
 9
 9
 9
 9
 9
 9
 9
 9
 9
 9
 9
 9
 9
 9
 9
 9
 9
 9
 9
 9
 9
 9
 9
 9
 9
 9
 9
 9
 9
 9
 9
 9
 9
 9
 9
 9
 9
 9
 9
 9
 9
 9
 9
 9
 9
 9
 9
 9
 9
 9
 9
 9
 9
 9
 9
 9
 9
 9
 9
 9
 9
 9
 9
 9
 9
 9
 9
 9
 9
 9
 9
 9
 9
 9
 9
 9
 9
 9
 9
 9
 9
 9
 9
 9
 9
 9
 9
 9
 9
 9
 9
 9
 9
 9
 9
 9
 9
 9
 9
 9
 9
 9
 9
 9
 9
 9
 9
 9
 9
 9
 9
 9
 9
 9
 9
 9
 9
 9
 9
 9
 9
 9
 9
 9
 9
 9
 9
 9
 9
 9
 9
 9
 9
 9
 9
 9
 9
 9
 9
 9
 9
 9
 9
 9
 9
 9
 9
 9
 9
 9
 9
 9
 9
 9
 9
 9
 9
 9
 9
 9
 9
 9
 9
 9
 9
 9
 9
 9
 9
 9
 9
 9
 9
 9
 9
 9
 9
 9
 9
 9
 9
 9
 9
 9
 9
 9
 9
 9
 9
 9
 9
 9
 9
 9
 9
 9
 9
 9
 9
 9
 9
 9
 9
 9
 9
 9
 9
 9
 9
 9
 9
 9
 9
 9
 9
 9
 9
 9
 9
 9
 9
 9
 9
 9
 9
 9
 9
 9
 9
 9
 9
 9
 9
 9
 9
 9
 9
 9
 9
 9
 9
 9
 9
 9
 9
 9
 9
 9
 9
 9
 9
 9
 9
 9
 9
 9
 9
 9
 9
 9
 9
 9
 9
 </DataArray>
 </Cells> 
 <PointData>
 <DataArray  type="Float64" Name="disp" NumberOfComponents="3" format="ascii">
   0.0000000000000000        0.0000000000000000        0.0000000000000000     
   6.0960066400178514E-003   3.7905029923028925E-003   0.0000000000000000     
   1.1666031114864611E-002   7.3239552119989653E-003   0.0000000000000000     
   1.6710073424540277E-002   1.0600356659088218E-002   0.0000000000000000     
   2.1228133569044853E-002   1.3619707333570652E-002   0.0000000000000000     
   0.0000000000000000        0.0000000000000000        0.0000000000000000     
   4.8911566456066088E-003   3.0222122880818394E-003   0.0000000000000000     
   9.5736247922331291E-003   6.0606418766397368E-003   0.0000000000000000     
   1.4047404439879556E-002   9.1152887656736920E-003   0.0000000000000000     
   1.8312495588545894E-002   1.2186152955183705E-002   0.0000000000000000     
   0.0000000000000000        0.0000000000000000        0.0000000000000000     
   3.9535521861080907E-003   2.4251786224244701E-003   0.0000000000000000     
   7.9105941955261456E-003   5.0629960702601937E-003   0.0000000000000000     
   1.1871126028254166E-002   7.9134523435071685E-003   0.0000000000000000     
   1.5835147684292148E-002   1.0976547442165398E-002   0.0000000000000000     
   0.0000000000000000        0.0000000000000000        0.0000000000000000     
   3.2831932615222945E-003   1.9994019953307848E-003   0.0000000000000000     
   6.6769393247436623E-003   4.3310177928603359E-003   0.0000000000000000     
   1.0181238189664104E-002   6.9948473925886519E-003   0.0000000000000000     
   1.3796089856283618E-002   9.9908907945157333E-003   0.0000000000000000     
   0.0000000000000000        0.0000000000000000        0.0000000000000000     
   2.8800798718492220E-003   1.7448824068007828E-003   0.0000000000000000     
   5.8726601798856793E-003   3.8647070444401627E-003   0.0000000000000000     
   8.9777409241093738E-003   6.3594739129181396E-003   0.0000000000000000     
   1.2195322104520300E-002   9.2291830122347134E-003   0.0000000000000000     
   2.1228133569044853E-002   1.3619707333570652E-002   0.0000000000000000     
   2.5433160514618424E-002   1.6612654173063755E-002   0.0000000000000000     
   2.9538103227501094E-002   1.9809844115185021E-002   0.0000000000000000     
   3.3542961707692845E-002   2.3211277159934447E-002   0.0000000000000000     
   3.7447735955193698E-002   2.6816953307312034E-002   0.0000000000000000     
   1.8312495588545894E-002   1.2186152955183705E-002   0.0000000000000000     
   2.2407126486716687E-002   1.5341622291504660E-002   0.0000000000000000     
   2.6369525382876485E-002   1.8650084620971456E-002   0.0000000000000000     
   3.0199692277025288E-002   2.2111539943584082E-002   0.0000000000000000     
   3.3897627169163093E-002   2.5725988259342546E-002   0.0000000000000000     
   1.5835147684292148E-002   1.0976547442165398E-002   0.0000000000000000     
   1.9730869240484401E-002   1.4211131676207737E-002   0.0000000000000000     
   2.3486500773675242E-002   1.7576055355607058E-002   0.0000000000000000     
   2.7102042283864650E-002   2.1071318480363352E-002   0.0000000000000000     
   3.0577493771052646E-002   2.4696921050476616E-002   0.0000000000000000     
   1.3796089856283618E-002   9.9908907945157333E-003   0.0000000000000000     
   1.7404388775921580E-002   1.3221182327172990E-002   0.0000000000000000     
   2.0889029399897351E-002   1.6587756319091828E-002   0.0000000000000000     
   2.4250011728210945E-002   2.0090612770272239E-002   0.0000000000000000     
   2.7487335760862347E-002   2.3729751680714246E-002   0.0000000000000000     
   1.2195322104520300E-002   9.2291830122347134E-003   0.0000000000000000     
   1.5427685093028205E-002   1.2371774244400413E-002   0.0000000000000000     
   1.8577111261542826E-002   1.5685187511425766E-002   0.0000000000000000     
   2.1643600610064154E-002   1.9169422813310771E-002   0.0000000000000000     
   2.4627153138592199E-002   2.2824480150055428E-002   0.0000000000000000     
   3.7447735955193698E-002   2.6816953307312034E-002   0.0000000000000000     
   4.1256471246638469E-002   3.0622161760418664E-002   0.0000000000000000     
   4.4973212858661994E-002   3.4622191722355221E-002   0.0000000000000000     
   4.8597960791264279E-002   3.8817043193121716E-002   0.0000000000000000     
   5.2130715044445317E-002   4.3206716172718124E-002   0.0000000000000000     
   3.3897627169163093E-002   2.5725988259342546E-002   0.0000000000000000     
   3.7486366179481298E-002   2.9522224655910787E-002   0.0000000000000000     
   4.0988945428171303E-002   3.3529044220952736E-002   0.0000000000000000     
   4.4405364915233073E-002   3.7746446954468417E-002   0.0000000000000000     
   4.7735624640666642E-002   4.2174432856457805E-002   0.0000000000000000     
   3.0577493771052646E-002   2.4696921050476616E-002   0.0000000000000000     
   3.3942240985340114E-002   2.8497398139115539E-002   0.0000000000000000     
   3.7225669676827972E-002   3.2517284819448801E-002   0.0000000000000000     
   4.0427779845516196E-002   3.6756581091476392E-002   0.0000000000000000     
   4.3548571491404800E-002   4.1215286955198320E-002   0.0000000000000000     
   2.7487335760862347E-002   2.3729751680714246E-002   0.0000000000000000     
   3.0624095664214923E-002   2.7547682210032925E-002   0.0000000000000000     
   3.3683385604632021E-002   3.1586913517843394E-002   0.0000000000000000     
   3.6665205582113648E-002   3.5847445604145642E-002   0.0000000000000000     
   3.9569555596659804E-002   4.0329278468939675E-002   0.0000000000000000     
   2.4627153138592199E-002   2.2824480150055428E-002   0.0000000000000000     
   2.7531930216105713E-002   2.6673076868662944E-002   0.0000000000000000     
   3.0362093211583459E-002   3.0737930316136523E-002   0.0000000000000000     
   3.3117642125025437E-002   3.5019040492476165E-002   0.0000000000000000     
   3.5798576956431627E-002   3.9516407397681877E-002   0.0000000000000000     
   5.2130715044445317E-002   4.3206716172718124E-002   0.0000000000000000     
   5.5569774802393349E-002   4.7795673892077929E-002   0.0000000000000000     
   5.8913439249296644E-002   5.2588379582134560E-002   0.0000000000000000     
   6.2161708385155182E-002   5.7584833242888031E-002   0.0000000000000000     
   6.5314582209968997E-002   6.2785034874338341E-002   0.0000000000000000     
   4.7735624640666642E-002   4.2174432856457805E-002   0.0000000000000000     
   5.0975988690768796E-002   4.6806414580612785E-002   0.0000000000000000     
   5.4122721151836334E-002   5.1635804780625273E-002   0.0000000000000000     
   5.7175822023869262E-002   5.6662603456495250E-002   0.0000000000000000     
   6.0135291306867573E-002   6.1886810608222709E-002   0.0000000000000000     
   4.3548571491404800E-002   4.1215286955198320E-002   0.0000000000000000     
   4.6583909094723548E-002   4.5880808867622136E-002   0.0000000000000000     
   4.9529657135702204E-002   5.0740553285755399E-002   0.0000000000000000     
   5.2385815614340768E-002   5.5794520209598103E-002   0.0000000000000000     
   5.5152384530639226E-002   6.1042709639150261E-002   0.0000000000000000     
   3.9569555596659804E-002   4.0329278468939675E-002   0.0000000000000000     
   4.2393536014257625E-002   4.5018856753105956E-002   0.0000000000000000     
   4.5134247200894248E-002   4.9902625097524932E-002   0.0000000000000000     
   4.7791689156569700E-002   5.4980583502196617E-002   0.0000000000000000     
   5.0365861881283946E-002   6.0252731967120998E-002   0.0000000000000000     
   3.5798576956431627E-002   3.9516407397681877E-002   0.0000000000000000     
   3.8404869449371000E-002   4.4220558237064236E-002   0.0000000000000000     
   4.0936491347412472E-002   4.9122020215933877E-002   0.0000000000000000     
   4.3393442650556044E-002   5.4220793334290772E-002   0.0000000000000000     
   4.5775723358801729E-002   5.9516877592134927E-002   0.0000000000000000     
   6.5314582209968997E-002   6.2785034874338341E-002   0.0000000000000000     
   6.8373483716706845E-002   6.8176250431205537E-002   0.0000000000000000     
   7.1339835898337534E-002   7.3745745868209645E-002   0.0000000000000000     
   7.4213638754861061E-002   7.9493521185350677E-002   0.0000000000000000     
   7.6994892286277455E-002   8.5419576382628620E-002   0.0000000000000000     
   6.0135291306867573E-002   6.1886810608222709E-002   0.0000000000000000     
   6.3004552194900379E-002   6.7300070638573892E-002   0.0000000000000000     
   6.5787027882036817E-002   7.2894027950315035E-002   0.0000000000000000     
   6.8482718368276851E-002   7.8668682543446125E-002   0.0000000000000000     
   7.1091623653620512E-002   8.4624034417967176E-002   0.0000000000000000     
   5.5152384530639226E-002   6.1042709639150261E-002   0.0000000000000000     
   5.7833421092258544E-002   6.6479052165801994E-002   0.0000000000000000     
   6.0432982506859662E-002   7.2097478380943408E-002   0.0000000000000000     
   6.2951068774442592E-002   7.7897988284574532E-002   0.0000000000000000     
   6.5387679895007322E-002   8.3880581876695351E-002   0.0000000000000000     
   5.0365861881283946E-002   6.0252731967120998E-002   0.0000000000000000     
   5.2860090408781306E-002   6.5713195012889802E-002   0.0000000000000000     
   5.5277699772806090E-002   7.1356097160094792E-002   0.0000000000000000     
   5.7618689973358277E-002   7.7181438408735883E-002   0.0000000000000000     
   5.9883061010437881E-002   8.3189218758813160E-002   0.0000000000000000     
   4.5775723358801729E-002   5.9516877592134927E-002   0.0000000000000000     
   4.8084560144468685E-002   6.5002499179837386E-002   0.0000000000000000     
   5.0321179679876080E-002   7.0669884287769130E-002   0.0000000000000000     
   5.2485581965023911E-002   7.6519032915930180E-002   0.0000000000000000     
   5.4577766999912188E-002   8.2549945064320548E-002   0.0000000000000000     
   7.6994892286277455E-002   8.5419576382628620E-002   0.0000000000000000     
   7.9677903772101072E-002   9.1512624973025897E-002   0.0000000000000000     
   8.2256980491846349E-002   9.7761380469524914E-002   0.0000000000000000     
   8.4732122445513300E-002  0.10416584287212566        0.0000000000000000     
   8.7103329633101884E-002  0.11072601218082814        0.0000000000000000     
   7.1091623653620512E-002   8.4624034417967176E-002   0.0000000000000000     
   7.3608200691525780E-002   9.0747290732012847E-002   0.0000000000000000     
   7.6026906435450667E-002   9.7025658643717747E-002   0.0000000000000000     
   7.8347740885395173E-002  0.10345913815308193        0.0000000000000000     
   8.0570704041359284E-002  0.11004772926010534        0.0000000000000000     
   6.5387679895007322E-002   8.3880581876695351E-002   0.0000000000000000     
   6.7737693310293196E-002   9.0031514772739685E-002   0.0000000000000000     
   6.9995986462039542E-002   9.6337042588141408E-002   0.0000000000000000     
   7.2162559350246375E-002  0.10279716532290041        0.0000000000000000     
   7.4237411974913667E-002  0.10941188297701680        0.0000000000000000     
   5.9883061010437881E-002   8.3189218758813160E-002   0.0000000000000000     
   6.2066381628403305E-002   8.9365297095206492E-002   0.0000000000000000     
   6.4164220571612987E-002   9.5695532302795830E-002   0.0000000000000000     
   6.6176577840066864E-002  0.10217992438158117        0.0000000000000000     
   6.8103453433765018E-002  0.10881847333156255        0.0000000000000000     
   5.4577766999912188E-002   8.2549945064320548E-002   0.0000000000000000     
   5.6594265645856137E-002   8.8748637699413213E-002   0.0000000000000000     
   5.8531608764170975E-002   9.5101127787681081E-002   0.0000000000000000     
   6.0389796354856716E-002  0.10160741532912419        0.0000000000000000     
   6.2168828417913359E-002  0.10826750032374255        0.0000000000000000     
   8.7103329633101884E-002  0.11072601218082814        0.0000000000000000     
   8.9383491576142227E-002  0.11743397374178136        0.0000000000000000     
   9.1585497796164400E-002  0.12428181290113437        0.0000000000000000     
   9.3709348293168446E-002  0.13126952965888711        0.0000000000000000     
   9.5755043067154322E-002  0.13839712401503962        0.0000000000000000     
   8.0570704041359284E-002  0.11004772926010534        0.0000000000000000     
   8.2707299197695816E-002  0.11678360910895225        0.0000000000000000     
   8.4769029648757571E-002  0.12365895484378686        0.0000000000000000     
   8.6755895394544522E-002  0.13067376646460921        0.0000000000000000     
   8.8667896435056695E-002  0.13782804397141923        0.0000000000000000     
   7.4237411974913667E-002  0.10941188297701680        0.0000000000000000     
   7.6230975688790809E-002  0.11617367692121240        0.0000000000000000     
   7.8153681844627190E-002  0.12307502852620902        0.0000000000000000     
   8.0005530442422770E-002  0.13011593779200670        0.0000000000000000     
   8.1786521482177577E-002  0.13729640471860544        0.0000000000000000     
   6.8103453433765018E-002  0.10881847333156255        0.0000000000000000     
   6.9954521049427218E-002  0.11560417717856181        0.0000000000000000     
   7.1739454383773285E-002  0.12253003394840080        0.0000000000000000     
   7.3458253436803206E-002  0.12959604364107957        0.0000000000000000     
   7.5110918208516966E-002  0.13680220625659809        0.0000000000000000     
   6.2168828417913359E-002  0.10826750032374255        0.0000000000000000     
   6.3877935279605030E-002  0.11507510988100042        0.0000000000000000     
   6.5526347266195828E-002  0.12202397111036217        0.0000000000000000     
   6.7114064377685773E-002  0.12911408401182781        0.0000000000000000     
   6.8641086614074864E-002  0.13634544858539729        0.0000000000000000     
   9.5755043067154322E-002  0.13839712401503962        0.0000000000000000     
   9.7700446114592027E-002  0.14564564978172584        0.0000000000000000     
   9.9523421431951559E-002  0.15299616077107966        0.0000000000000000     
  0.10122396901923288       0.16044865698310112        0.0000000000000000     
  0.10280208887643601       0.16800313841779022        0.0000000000000000     
   8.8667896435056695E-002  0.13782804397141923        0.0000000000000000     
   9.0488981900038193E-002  0.14510281517633464        0.0000000000000000     
   9.2203100919233116E-002  0.15247910789147295        0.0000000000000000     
   9.3810253492641493E-002  0.15995692211683418        0.0000000000000000     
   9.5310439620263282E-002  0.16753625785241838        0.0000000000000000     
   8.1786521482177577E-002  0.13729640471860544        0.0000000000000000     
   8.3483975338217664E-002  0.14459716861131283        0.0000000000000000     
   8.5085212384869130E-002  0.15199896877543667        0.0000000000000000     
   8.6590232622131988E-002  0.15950180521097684        0.0000000000000000     
   8.7999036050006196E-002  0.16710567791793340        0.0000000000000000     
   7.5110918208516966E-002  0.13680220625659809        0.0000000000000000     
   7.6685426429130482E-002  0.14412871008666045        0.0000000000000000     
   7.8169755828859600E-002  0.15155574342297079        0.0000000000000000     
   7.9563906407704360E-002  0.15908330626552911        0.0000000000000000     
   8.0867878165664736E-002  0.16671139861433532        0.0000000000000000     
   6.8641086614074864E-002  0.13634544858539729        0.0000000000000000     
   7.0093335172776605E-002  0.14369743960237755        0.0000000000000000     
   7.1456731251204525E-002  0.15114943183407542        0.0000000000000000     
   7.2731274849358610E-002  0.15870142528049092        0.0000000000000000     
   7.3916965967238901E-002  0.16635341994162411        0.0000000000000000     
   0.0000000000000000        0.0000000000000000        0.0000000000000000     
   2.8800798718492220E-003   1.7448824068007828E-003   0.0000000000000000     
   5.8726601798856793E-003   3.8647070444401627E-003   0.0000000000000000     
   8.9777409241093738E-003   6.3594739129181396E-003   0.0000000000000000     
   1.2195322104520300E-002   9.2291830122347134E-003   0.0000000000000000     
   0.0000000000000000        0.0000000000000000        0.0000000000000000     
   2.6103537726685886E-003   1.5889622125182799E-003   0.0000000000000000     
   5.2897617591345439E-003   3.5567537867718692E-003   0.0000000000000000     
   8.0382239593978656E-003   5.9033747227607691E-003   0.0000000000000000     
   1.0855740373458553E-002   8.6288250204849797E-003   0.0000000000000000     
   0.0000000000000000        0.0000000000000000        0.0000000000000000     
   2.3401567195601089E-003   1.4589837681670897E-003   0.0000000000000000     
   4.7202490606726008E-003   3.2998479816276484E-003   0.0000000000000000     
   7.1402770233374756E-003   5.5225926403816754E-003   0.0000000000000000     
   9.6002406075547334E-003   8.1272177444291719E-003   0.0000000000000000     
   0.0000000000000000        0.0000000000000000        0.0000000000000000     
   2.0694887125237834E-003   1.3549470737472134E-003   0.0000000000000000     
   4.1641220844998500E-003   3.0939896290074998E-003   0.0000000000000000     
   6.2839001159282004E-003   5.2171276657808595E-003   0.0000000000000000     
   8.4288228068088340E-003   7.7243611840672943E-003   0.0000000000000000     
   0.0000000000000000        0.0000000000000000        0.0000000000000000     
   1.7983497515596113E-003   1.2768521292586500E-003   0.0000000000000000     
   3.6213808306162919E-003   2.9391787289114236E-003   0.0000000000000000     
   5.4690932371700418E-003   4.9869797989583204E-003   0.0000000000000000     
   7.3414869712208619E-003   7.4202553393993426E-003   0.0000000000000000     
   1.2195322104520300E-002   9.2291830122347134E-003   0.0000000000000000     
   1.5427685093028205E-002   1.2371774244400413E-002   0.0000000000000000     
   1.8577111261542826E-002   1.5685187511425766E-002   0.0000000000000000     
   2.1643600610064154E-002   1.9169422813310771E-002   0.0000000000000000     
   2.4627153138592199E-002   2.2824480150055428E-002   0.0000000000000000     
   1.0855740373458553E-002   8.6288250204849797E-003   0.0000000000000000     
   1.3689025183469358E-002   1.1650847573004533E-002   0.0000000000000000     
   1.6484792571583029E-002   1.4887185273379467E-002   0.0000000000000000     
   1.9243042537799564E-002   1.8337838121609787E-002   0.0000000000000000     
   2.1963775082118955E-002   2.2002806117695482E-002   0.0000000000000000     
   9.6002406075547334E-003   8.1272177444291719E-003   0.0000000000000000     
   1.2076676038910109E-002   1.1046342458099880E-002   0.0000000000000000     
   1.4546119542989344E-002   1.4212585945723541E-002   0.0000000000000000     
   1.7008571119792436E-002   1.7625948207300159E-002   0.0000000000000000     
   1.9464030769319386E-002   2.1286429242829724E-002   0.0000000000000000     
   8.4288228068088340E-003   7.7243611840672943E-003   0.0000000000000000     
   1.0590637659350456E-002   1.0558258899686450E-002   0.0000000000000000     
   1.2761092175761768E-002   1.3661389528457980E-002   0.0000000000000000     
   1.4940186356042775E-002   1.7033753070381880E-002   0.0000000000000000     
   1.7127920200193467E-002   2.0675349525458155E-002   0.0000000000000000     
   7.3414869712208619E-003   7.4202553393993426E-003   0.0000000000000000     
   9.2309100447904007E-003   1.0186596897764246E-002   0.0000000000000000     
   1.1129710469900309E-002   1.3233596021582784E-002   0.0000000000000000     
   1.3037888246550583E-002   1.6561252710854960E-002   0.0000000000000000     
   1.4955443374741221E-002   2.0169566965580775E-002   0.0000000000000000     
   2.4627153138592199E-002   2.2824480150055428E-002   0.0000000000000000     
   2.7531930216105713E-002   2.6673076868662944E-002   0.0000000000000000     
   3.0362093211583459E-002   3.0737930316136523E-002   0.0000000000000000     
   3.3117642125025437E-002   3.5019040492476165E-002   0.0000000000000000     
   3.5798576956431627E-002   3.9516407397681877E-002   0.0000000000000000     
   2.1963775082118955E-002   2.2002806117695482E-002   0.0000000000000000     
   2.4630366769547649E-002   2.5880094016663243E-002   0.0000000000000000     
   2.7226194165092053E-002   2.9967706573539747E-002   0.0000000000000000     
   2.9751257268752180E-002   3.4265643788324987E-002   0.0000000000000000     
   3.2205556080528018E-002   3.8773905661018973E-002   0.0000000000000000     
   1.9464030769319386E-002   2.1286429242829724E-002   0.0000000000000000     
   2.1884027453075872E-002   2.5175245555691471E-002   0.0000000000000000     
   2.4240090132567588E-002   2.9273613649264611E-002   0.0000000000000000     
   2.6532218807794529E-002   3.3581533523549145E-002   0.0000000000000000     
   2.8760413478756696E-002   3.8099005178545059E-002   0.0000000000000000     
   1.7127920200193467E-002   2.0675349525458155E-002   0.0000000000000000     
   1.9292912266690391E-002   2.4558531485747628E-002   0.0000000000000000     
   2.1403781114010062E-002   2.8655651543311105E-002   0.0000000000000000     
   2.3460526742152481E-002   3.2966709698148612E-002   0.0000000000000000     
   2.5463149151117654E-002   3.7491705950260114E-002   0.0000000000000000     
   1.4955443374741221E-002   2.0169566965580775E-002   0.0000000000000000     
   1.6857021210391194E-002   2.4029951806831710E-002   0.0000000000000000     
   1.8717267109419466E-002   2.8113820255679253E-002   0.0000000000000000     
   2.0536181071826035E-002   3.2421172312123395E-002   0.0000000000000000     
   2.2313763097610906E-002   3.6952007976164145E-002   0.0000000000000000     
   3.5798576956431627E-002   3.9516407397681877E-002   0.0000000000000000     
   3.8404869449371000E-002   4.4220558237064236E-002   0.0000000000000000     
   4.0936491347412472E-002   4.9122020215933877E-002   0.0000000000000000     
   4.3393442650556044E-002   5.4220793334290772E-002   0.0000000000000000     
   4.5775723358801729E-002   5.9516877592134927E-002   0.0000000000000000     
   3.2205556080528018E-002   3.8773905661018973E-002   0.0000000000000000     
   3.4591658077779142E-002   4.3488019613312501E-002   0.0000000000000000     
   3.6912130737865111E-002   4.8403513066896324E-002   0.0000000000000000     
   3.9166974060785932E-002   5.3520386021770484E-002   0.0000000000000000     
   4.1356188046541585E-002   5.8838638477934947E-002   0.0000000000000000     
   2.8760413478756696E-002   3.8099005178545059E-002   0.0000000000000000     
   3.0927650577197520E-002   4.2823347175666202E-002   0.0000000000000000     
   3.3036906534860432E-002   4.7751878076326408E-002   0.0000000000000000     
   3.5088181351745434E-002   5.2884597880525665E-002   0.0000000000000000     
   3.7081475027852528E-002   5.8221506588263985E-002   0.0000000000000000     
   2.5463149151117654E-002   3.7491705950260114E-002   0.0000000000000000     
   2.7412846947626131E-002   4.2226540924125366E-002   0.0000000000000000     
   2.9310818738398432E-002   4.7167115244224095E-002   0.0000000000000000     
   3.1157064523434575E-002   5.2313428910556313E-002   0.0000000000000000     
   3.2951584302734552E-002   5.7665481923122007E-002   0.0000000000000000     
   2.2313763097610906E-002   3.6952007976164145E-002   0.0000000000000000     
   2.4047247189064962E-002   4.1697600858689989E-002   0.0000000000000000     
   2.5733867348479107E-002   4.6649224570589419E-002   0.0000000000000000     
   2.7373623575853340E-002   5.1806879111862436E-002   0.0000000000000000     
   2.8966515871187662E-002   5.7170564482509047E-002   0.0000000000000000     
   4.5775723358801729E-002   5.9516877592134927E-002   0.0000000000000000     
   4.8084560144468685E-002   6.5002499179837386E-002   0.0000000000000000     
   5.0321179679876080E-002   7.0669884287769130E-002   0.0000000000000000     
   5.2485581965023911E-002   7.6519032915930180E-002   0.0000000000000000     
   5.4577766999912188E-002   8.2549945064320548E-002   0.0000000000000000     
   4.1356188046541585E-002   5.8838638477934947E-002   0.0000000000000000     
   4.3478788793850774E-002   6.4348038776314537E-002   0.0000000000000000     
   4.5533792401432141E-002   7.0038355257834056E-002   0.0000000000000000     
   4.7521198869285707E-002   7.5909587922493499E-002   0.0000000000000000     
   4.9441008197411471E-002   8.1961736770292865E-002   0.0000000000000000     
   3.7081475027852528E-002   5.8221506588263985E-002   0.0000000000000000     
   3.9014734851457657E-002   6.3750887911991197E-002   0.0000000000000000     
   4.0885908110836762E-002   6.9461025564157161E-002   0.0000000000000000     
   4.2694994805989858E-002   7.5351919544761850E-002   0.0000000000000000     
   4.4441994936916938E-002   8.1423569853805319E-002   0.0000000000000000     
   3.2951584302734552E-002   5.7665481923122007E-002   0.0000000000000000     
   3.4692398317289347E-002   6.3211046586867325E-002   0.0000000000000000     
   3.6377526808089970E-002   6.8937895206738417E-002   0.0000000000000000     
   3.8006969775136380E-002   7.4846027782735303E-002   0.0000000000000000     
   3.9580727218428612E-002   8.0935444314857927E-002   0.0000000000000000     
   2.8966515871187662E-002   5.7170564482509047E-002   0.0000000000000000     
   3.0511779191345859E-002   6.2728514800942950E-002   0.0000000000000000     
   3.2008648493191731E-002   6.8468964185577866E-002   0.0000000000000000     
   3.3457123776725273E-002   7.4391912636413801E-002   0.0000000000000000     
   3.4857205041946476E-002   8.0497360153450714E-002   0.0000000000000000     
   5.4577766999912188E-002   8.2549945064320548E-002   0.0000000000000000     
   5.6594265645856137E-002   8.8748637699413213E-002   0.0000000000000000     
   5.8531608764170975E-002   9.5101127787681081E-002   0.0000000000000000     
   6.0389796354856716E-002  0.10160741532912419        0.0000000000000000     
   6.2168828417913359E-002  0.10826750032374255        0.0000000000000000     
   4.9441008197411471E-002   8.1961736770292865E-002   0.0000000000000000     
   5.1290607934379347E-002   8.8181122041122689E-002   0.0000000000000000     
   5.3067385628759275E-002   9.4554063974873481E-002   0.0000000000000000     
   5.4771341280551278E-002  0.10108056257154525        0.0000000000000000     
   5.6402474889755326E-002  0.10776061783113799        0.0000000000000000     
   4.4441994936916938E-002   8.1423569853805319E-002   0.0000000000000000     
   4.6124671065700659E-002   8.7662335576097761E-002   0.0000000000000000     
   4.7740785754423663E-002   9.4054575796449352E-002   0.0000000000000000     
   4.9290339003085978E-002  0.10060029051486015        0.0000000000000000     
   5.0773330811687584E-002  0.10729947973133011        0.0000000000000000     
   3.9580727218428612E-002   8.0935444314857927E-002   0.0000000000000000     
   4.1096455039820054E-002   8.7192278304338400E-002   0.0000000000000000     
   4.2551809141164118E-002   9.3602663252408722E-002   0.0000000000000000     
   4.3946789522460811E-002  0.10016659915906889        0.0000000000000000     
   4.5281396183710118E-002  0.10688408602431890        0.0000000000000000     
   3.4857205041946476E-002   8.0497360153450714E-002   0.0000000000000000     
   3.6205959856737545E-002   8.6770950225844648E-002   0.0000000000000000     
   3.7500455788980647E-002   9.3198326342751561E-002   0.0000000000000000     
   3.8740692838675782E-002   9.9779488504171454E-002   0.0000000000000000     
   3.9926671005822950E-002  0.10651443671010433        0.0000000000000000     
   6.2168828417913359E-002  0.10826750032374255        0.0000000000000000     
   6.3877935279605030E-002  0.11507510988100042        0.0000000000000000     
   6.5526347266195828E-002  0.12202397111036217        0.0000000000000000     
   6.7114064377685773E-002  0.12911408401182781        0.0000000000000000     
   6.8641086614074864E-002  0.13634544858539729        0.0000000000000000     
   5.6402474889755326E-002  0.10776061783113799        0.0000000000000000     
   5.7969559495540564E-002  0.11458864537697382        0.0000000000000000     
   5.9481368137076107E-002  0.12155906083237479        0.0000000000000000     
   6.0937900814361970E-002  0.12867186419734095        0.0000000000000000     
   6.2339157527398145E-002  0.13592705547187223        0.0000000000000000     
   5.0773330811687584E-002  0.10729947973133011        0.0000000000000000     
   5.2197734813450150E-002  0.11414695401492742        0.0000000000000000     
   5.3571524641595369E-002  0.12113752393472021        0.0000000000000000     
   5.4894700296123228E-002  0.12827118949070843        0.0000000000000000     
   5.6167261777033725E-002  0.13554795068289216        0.0000000000000000     
   4.5281396183710118E-002  0.10688408602431890        0.0000000000000000     
   4.6562461233333803E-002  0.11375003579486122        0.0000000000000000     
   4.7796816779753608E-002  0.12075936041739838        0.0000000000000000     
   4.8984462822969539E-002  0.12791205989193030        0.0000000000000000     
   5.0125399362981590E-002  0.13520813421845704        0.0000000000000000     
   3.9926671005822950E-002  0.10651443671010433        0.0000000000000000     
   4.1063738755191509E-002  0.11339789071677527        0.0000000000000000     
   4.2157244551550836E-002  0.12042457028040937        0.0000000000000000     
   4.3207188394900911E-002  0.12759447540100657        0.0000000000000000     
   4.4213570285241734E-002  0.13490760607856694        0.0000000000000000     
   6.8641086614074864E-002  0.13634544858539729        0.0000000000000000     
   7.0093335172776605E-002  0.14369743960237755        0.0000000000000000     
   7.1456731251204525E-002  0.15114943183407542        0.0000000000000000     
   7.2731274849358610E-002  0.15870142528049092        0.0000000000000000     
   7.3916965967238901E-002  0.16635341994162411        0.0000000000000000     
   6.2339157527398145E-002  0.13592705547187223        0.0000000000000000     
   6.3668899730782630E-002  0.14330325322766815        0.0000000000000000     
   6.4910888879113379E-002  0.15077907603642807        0.0000000000000000     
   6.6065124972390407E-002  0.15835452389815205        0.0000000000000000     
   6.7131608010613714E-002  0.16602959681284002        0.0000000000000000     
   5.6167261777033725E-002  0.13554795068289216        0.0000000000000000     
   5.7373318264775118E-002  0.14294604703173647        0.0000000000000000     
   5.8496978939795670E-002  0.15044371805770643        0.0000000000000000     
   5.9538243802095381E-002  0.15804096376080204        0.0000000000000000     
   6.0497112851674230E-002  0.16573778414102339        0.0000000000000000     
   5.0125399362981590E-002  0.13520813421845704        0.0000000000000000     
   5.1206590774754090E-002  0.14262582101458249        0.0000000000000000     
   5.2215001433251411E-002  0.15014335789791050        0.0000000000000000     
   5.3150631338473531E-002  0.15776074486844105        0.0000000000000000     
   5.4013480490420436E-002  0.16547798192617419        0.0000000000000000     
   4.4213570285241734E-002  0.13490760607856694        0.0000000000000000     
   4.5168717260719554E-002  0.14234257517620624        0.0000000000000000     
   4.6064956359480588E-002  0.14987799555704023        0.0000000000000000     
   4.6902287581524857E-002  0.15751386722106897        0.0000000000000000     
   4.7680710926852346E-002  0.16525019016829240        0.0000000000000000     
   0.0000000000000000        0.0000000000000000        0.0000000000000000     
   1.7983497515596113E-003   1.2768521292586500E-003   0.0000000000000000     
   3.6213808306162919E-003   2.9391787289114236E-003   0.0000000000000000     
   5.4690932371700418E-003   4.9869797989583204E-003   0.0000000000000000     
   7.3414869712208619E-003   7.4202553393993426E-003   0.0000000000000000     
   0.0000000000000000        0.0000000000000000        0.0000000000000000     
   1.5350272291708208E-003   1.2175792083853648E-003   0.0000000000000000     
   3.0993925054315515E-003   2.8208966031322757E-003   0.0000000000000000     
   4.6930958287821917E-003   4.8099521842407322E-003   0.0000000000000000     
   6.3161371992227428E-003   7.1847459517107347E-003   0.0000000000000000     
   0.0000000000000000        0.0000000000000000        0.0000000000000000     
   1.2878085378606385E-003   1.1700085848113234E-003   0.0000000000000000     
   2.6055243153552520E-003   2.7246245734629118E-003   0.0000000000000000     
   3.9531473324838397E-003   4.6638479659547654E-003   0.0000000000000000     
   5.3306775892464024E-003   6.9876787622868844E-003   0.0000000000000000     
   0.0000000000000000        0.0000000000000000        0.0000000000000000     
   1.0566936776290651E-003   1.1341402585365251E-003   0.0000000000000000     
   2.1397762603873934E-003   2.6503626399033320E-003   0.0000000000000000     
   3.2492477482749848E-003   4.5486671441004201E-003   0.0000000000000000     
   4.3851081412918389E-003   6.8290537711277900E-003   0.0000000000000000     
   0.0000000000000000        0.0000000000000000        0.0000000000000000     
   8.4168264847610014E-004   1.1099742295609704E-003   0.0000000000000000     
   1.7021483405279764E-003   2.5981108024535357E-003   0.0000000000000000     
   2.5813970761556287E-003   4.4644097186776963E-003   0.0000000000000000     
   3.4794288553590571E-003   6.7088709782334513E-003   0.0000000000000000     
   7.3414869712208619E-003   7.4202553393993426E-003   0.0000000000000000     
   9.2309100447904007E-003   1.0186596897764246E-002   0.0000000000000000     
   1.1129710469900309E-002   1.3233596021582784E-002   0.0000000000000000     
   1.3037888246550583E-002   1.6561252710854960E-002   0.0000000000000000     
   1.4955443374741221E-002   2.0169566965580775E-002   0.0000000000000000     
   6.3161371992227428E-003   7.1847459517107347E-003   0.0000000000000000     
   7.9557981068181342E-003   9.8957304176577419E-003   0.0000000000000000     
   9.5993600416332918E-003   1.2893358094197213E-002   0.0000000000000000     
   1.1246823003668222E-002   1.6177628981329142E-002   0.0000000000000000     
   1.2898186992922922E-002   1.9748543079053538E-002   0.0000000000000000     
   5.3306775892464024E-003   6.9876787622868844E-003   0.0000000000000000     
   6.7236067570218411E-003   9.6500334246914145E-003   0.0000000000000000     
   8.1174265071890621E-003   1.2604828415400515E-002   0.0000000000000000     
   9.5121368397480654E-003   1.5852063734414168E-002   0.0000000000000000     
   1.0907737754698851E-002   1.9391739381732394E-002   0.0000000000000000     
   4.3851081412918389E-003   6.8290537711277900E-003   0.0000000000000000     
   5.5343359954015282E-003   9.4495059188652690E-003   0.0000000000000000     
   6.6839098665676189E-003   1.2368006985192685E-002   0.0000000000000000     
   7.8338297547901128E-003   1.5584556970110040E-002   0.0000000000000000     
   8.9840956600690108E-003   1.9099155873617334E-002   0.0000000000000000     
   3.4794288553590571E-003   6.7088709782334513E-003   0.0000000000000000     
   4.3879858219571912E-003   9.2941479001792983E-003   0.0000000000000000     
   5.2988101197689597E-003   1.2182893803573736E-002   0.0000000000000000     
   6.2119017487943630E-003   1.5375108688416758E-002   0.0000000000000000     
   7.1272607090334004E-003   1.8870792554708370E-002   0.0000000000000000     
   1.4955443374741221E-002   2.0169566965580775E-002   0.0000000000000000     
   1.6857021210391194E-002   2.4029951806831710E-002   0.0000000000000000     
   1.8717267109419466E-002   2.8113820255679253E-002   0.0000000000000000     
   2.0536181071826035E-002   3.2421172312123395E-002   0.0000000000000000     
   2.2313763097610906E-002   3.6952007976164145E-002   0.0000000000000000     
   1.2898186992922922E-002   1.9748543079053538E-002   0.0000000000000000     
   1.4537145024041716E-002   2.3579952627744923E-002   0.0000000000000000     
   1.6147390111668939E-002   2.7645709867777833E-002   0.0000000000000000     
   1.7728922255804580E-002   3.1945814799152268E-002   0.0000000000000000     
   1.9281741456448648E-002   3.6480267421868218E-002   0.0000000000000000     
   1.0907737754698851E-002   1.9391739381732394E-002   0.0000000000000000     
   1.2294074447505373E-002   2.3198980057288453E-002   0.0000000000000000     
   1.3660992113631591E-002   2.7248910461015640E-002   0.0000000000000000     
   1.5008490753077501E-002   3.1541530592913959E-002   0.0000000000000000     
   1.6336570365843107E-002   3.6076840452983414E-002   0.0000000000000000     
   8.9840956600690108E-003   1.9099155873617334E-002   0.0000000000000000     
   1.0127809480782162E-002   2.2887034095462305E-002   0.0000000000000000     
   1.1258073115307425E-002   2.6923422035392695E-002   0.0000000000000000     
   1.2374886563644796E-002   3.1208319693408502E-002   0.0000000000000000     
   1.3478249825794278E-002   3.5741727069509718E-002   0.0000000000000000     
   7.1272607090334004E-003   1.8870792554708370E-002   0.0000000000000000     
   8.0383501238720893E-003   2.2644114742266477E-002   0.0000000000000000     
   8.9386331166964456E-003   2.6669244590908969E-002   0.0000000000000000     
   9.8281096875064717E-003   3.0946182100635867E-002   0.0000000000000000     
   1.0706779836302163E-002   3.5474927271447160E-002   0.0000000000000000     
   2.2313763097610906E-002   3.6952007976164145E-002   0.0000000000000000     
   2.4047247189064962E-002   4.1697600858689989E-002   0.0000000000000000     
   2.5733867348479107E-002   4.6649224570589419E-002   0.0000000000000000     
   2.7373623575853340E-002   5.1806879111862436E-002   0.0000000000000000     
   2.8966515871187662E-002   5.7170564482509047E-002   0.0000000000000000     
   1.9281741456448648E-002   3.6480267421868218E-002   0.0000000000000000     
   2.0799090190055023E-002   4.1234935836539456E-002   0.0000000000000000     
   2.2274210933077566E-002   4.6195688143779751E-002   0.0000000000000000     
   2.3707103685516286E-002   5.1362524343589087E-002   0.0000000000000000     
   2.5097768447371188E-002   5.6735444435967487E-002   0.0000000000000000     
   1.6336570365843107E-002   3.6076840452983414E-002   0.0000000000000000     
   1.7636614839137282E-002   4.0836954714853185E-002   0.0000000000000000     
   1.8900008060168897E-002   4.5803988052152494E-002   0.0000000000000000     
   2.0126750028937962E-002   5.0977940464881348E-002   0.0000000000000000     
   2.1316840745444463E-002   5.6358811953039718E-002   0.0000000000000000     
   1.3478249825794278E-002   3.5741727069509718E-002   0.0000000000000000     
   1.4559821136311756E-002   4.0503657493631176E-002   0.0000000000000000     
   1.5611258729753117E-002   4.5474124295707664E-002   0.0000000000000000     
   1.6632562606118364E-002   5.0653127475739197E-002   0.0000000000000000     
   1.7623732765407490E-002   5.6040667033725754E-002   0.0000000000000000     
   1.0706779836302163E-002   3.5474927271447160E-002   0.0000000000000000     
   1.1568709081578437E-002   4.0235044172873415E-002   0.0000000000000000     
   1.2407962941830214E-002   4.5206096874445247E-002   0.0000000000000000     
   1.3224541417057492E-002   5.0388085376162635E-002   0.0000000000000000     
   1.4018444507260273E-002   5.5781009678025593E-002   0.0000000000000000     
   2.8966515871187662E-002   5.7170564482509047E-002   0.0000000000000000     
   3.0511779191345859E-002   6.2728514800942950E-002   0.0000000000000000     
   3.2008648493191731E-002   6.8468964185577866E-002   0.0000000000000000     
   3.3457123776725273E-002   7.4391912636413801E-002   0.0000000000000000     
   3.4857205041946476E-002   8.0497360153450714E-002   0.0000000000000000     
   2.5097768447371188E-002   5.6735444435967487E-002   0.0000000000000000     
   2.6446812385485723E-002   6.2303350245305103E-002   0.0000000000000000     
   2.7754842666703347E-002   6.8055143595992143E-002   0.0000000000000000     
   2.9021859291024077E-002   7.3990824488028586E-002   0.0000000000000000     
   3.0247862258447892E-002   8.0110392921414475E-002   0.0000000000000000     
   2.1316840745444463E-002   5.6358811953039718E-002   0.0000000000000000     
   2.2471432811567490E-002   6.1935610611040845E-002   0.0000000000000000     
   2.3591678829186124E-002   6.7697344533297940E-002   0.0000000000000000     
   2.4677578798300362E-002   7.3644013719810983E-002   0.0000000000000000     
   2.5729132718910211E-002   7.9775618170580015E-002   0.0000000000000000     
   1.7623732765407490E-002   5.6040667033725754E-002   0.0000000000000000     
   1.8585640469591172E-002   6.1625295898150169E-002   0.0000000000000000     
   1.9519156980640051E-002   6.7395566997495229E-002   0.0000000000000000     
   2.0424282298554135E-002   7.3351480331760976E-002   0.0000000000000000     
   2.1301016423333426E-002   7.9493035900947334E-002   0.0000000000000000     
   1.4018444507260273E-002   5.5781009678025593E-002   0.0000000000000000     
   1.4789435359556749E-002   6.1372406106633082E-002   0.0000000000000000     
   1.5537277121065120E-002   6.7149810988584038E-002   0.0000000000000000     
   1.6261969791785388E-002   7.3113224323878512E-002   0.0000000000000000     
   1.6963513371717545E-002   7.9262646112516474E-002   0.0000000000000000     
   3.4857205041946476E-002   8.0497360153450714E-002   0.0000000000000000     
   3.6205959856737545E-002   8.6770950225844648E-002   0.0000000000000000     
   3.7500455788980647E-002   9.3198326342751561E-002   0.0000000000000000     
   3.8740692838675782E-002   9.9779488504171454E-002   0.0000000000000000     
   3.9926671005822950E-002  0.10651443671010433        0.0000000000000000     
   3.0247862258447892E-002   8.0110392921414475E-002   0.0000000000000000     
   3.1429322375608956E-002   8.6398968523666464E-002   0.0000000000000000     
   3.2562710449141427E-002   9.2841670922301237E-002   0.0000000000000000     
   3.3648026479045287E-002   9.9438500117318848E-002   0.0000000000000000     
   3.4685270465320550E-002  0.10618945610871927        0.0000000000000000     
   2.5729132718910211E-002   7.9775618170580015E-002   0.0000000000000000     
   2.6742679455590144E-002   8.6076950380853792E-002   0.0000000000000000     
   2.7714557872914658E-002   9.2532802845881154E-002   0.0000000000000000     
   2.8644767970883746E-002   9.9143175565662059E-002   0.0000000000000000     
   2.9533309749497406E-002  0.10590806854019655        0.0000000000000000     
   2.1301016423333426E-002   7.9493035900947334E-002   0.0000000000000000     
   2.2146031096681101E-002   8.5804895797406688E-002   0.0000000000000000     
   2.2955998060300343E-002   9.2271722113491259E-002   0.0000000000000000     
   2.3730917314191143E-002   9.8893514849201100E-002   0.0000000000000000     
   2.4470788858353517E-002  0.10567027400453614        0.0000000000000000     
   1.6963513371717545E-002   7.9262646112516474E-002   0.0000000000000000     
   1.7639377298881830E-002   8.5582804773325125E-002   0.0000000000000000     
   1.8287031011298485E-002   9.2058428725131591E-002   0.0000000000000000     
   1.8906474508967500E-002   9.8689517967935930E-002   0.0000000000000000     
   1.9497707791888880E-002  0.10547607250173811        0.0000000000000000     
   3.9926671005822950E-002  0.10651443671010433        0.0000000000000000     
   4.1063738755191509E-002  0.11339789071677527        0.0000000000000000     
   4.2157244551550836E-002  0.12042457028040937        0.0000000000000000     
   4.3207188394900911E-002  0.12759447540100657        0.0000000000000000     
   4.4213570285241734E-002  0.13490760607856694        0.0000000000000000     
   3.4685270465320550E-002  0.10618945610871927        0.0000000000000000     
   3.5678382413214693E-002  0.11308892330803631        0.0000000000000000     
   3.6631302327975186E-002  0.12013128612680385        0.0000000000000000     
   3.7544030209602043E-002  0.12731654456502181        0.0000000000000000     
   3.8416566058095257E-002  0.13464469862269030        0.0000000000000000     
   2.9533309749497406E-002  0.10590806854019655        0.0000000000000000     
   3.0383207241594726E-002  0.11282153809601117        0.0000000000000000     
   3.1197484480014814E-002  0.11987764055963257        0.0000000000000000     
   3.1976141464757649E-002  0.12707637593106066        0.0000000000000000     
   3.2719178195823248E-002  0.13441774421029556        0.0000000000000000     
   2.4470788858353517E-002  0.10567027400453614        0.0000000000000000     
   2.5178213240331634E-002  0.11259573508069985        0.0000000000000000     
   2.5855791007669701E-002  0.11966363357889552        0.0000000000000000     
   2.6503522160367724E-002  0.12687396949912316        0.0000000000000000     
   2.7121406698425689E-002  0.13422674284138278        0.0000000000000000     
   1.9497707791888880E-002  0.10547607250173811        0.0000000000000000     
   2.0063400409425405E-002  0.11241151426210233        0.0000000000000000     
   2.0606221910939877E-002  0.11948926518459269        0.0000000000000000     
   2.1126172296432273E-002  0.12670932526920922        0.0000000000000000     
   2.1623251565902606E-002  0.13407169451595197        0.0000000000000000     
   4.4213570285241734E-002  0.13490760607856694        0.0000000000000000     
   4.5168717260719554E-002  0.14234257517620624        0.0000000000000000     
   4.6064956359480588E-002  0.14987799555704023        0.0000000000000000     
   4.6902287581524857E-002  0.15751386722106897        0.0000000000000000     
   4.7680710926852346E-002  0.16525019016829240        0.0000000000000000     
   3.8416566058095257E-002  0.13464469862269030        0.0000000000000000     
   3.9246507624685824E-002  0.14209491475560249        0.0000000000000000     
   4.0031452660604747E-002  0.14964635941955168        0.0000000000000000     
   4.0771401165852018E-002  0.15729903261453793        0.0000000000000000     
   4.1466353140427646E-002  0.16505293434056112        0.0000000000000000     
   3.2719178195823248E-002  0.13441774421029556        0.0000000000000000     
   3.3426771768667270E-002  0.14188144499176597        0.0000000000000000     
   3.4099099278745416E-002  0.14944717786990075        0.0000000000000000     
   3.4736160726057667E-002  0.15711494284469990        0.0000000000000000     
   3.5337956110604050E-002  0.16488473991616340        0.0000000000000000     
   2.7121406698425689E-002  0.13422674284138278        0.0000000000000000     
   2.7709509692663892E-002  0.14170216588469678        0.0000000000000000     
   2.8267896213902598E-002  0.14928045090808750        0.0000000000000000     
   2.8796566262141814E-002  0.15696159791155501        0.0000000000000000     
   2.9295519837381545E-002  0.16474560689509923        0.0000000000000000     
   2.1623251565902606E-002  0.13407169451595197        0.0000000000000000     
   2.2094721396675683E-002  0.14155707743439486        0.0000000000000000     
   2.2537843466076297E-002  0.14914617853411194        0.0000000000000000     
   2.2952617774104449E-002  0.15683899781510316        0.0000000000000000     
   2.3339044320760144E-002  0.16463553527736863        0.0000000000000000     
   0.0000000000000000        0.0000000000000000        0.0000000000000000     
   8.4168264847610014E-004   1.1099742295609704E-003   0.0000000000000000     
   1.7021483405279764E-003   2.5981108024535357E-003   0.0000000000000000     
   2.5813970761556287E-003   4.4644097186776963E-003   0.0000000000000000     
   3.4794288553590571E-003   6.7088709782334513E-003   0.0000000000000000     
   0.0000000000000000        0.0000000000000000        0.0000000000000000     
   6.3385814773610021E-004   1.0939487092757748E-003   0.0000000000000000     
   1.2780881800160833E-003   2.5620198617329888E-003   0.0000000000000000     
   1.9326900968399494E-003   4.4042134573716411E-003   0.0000000000000000     
   2.5976638982076984E-003   6.6205294961917327E-003   0.0000000000000000     
   0.0000000000000000        0.0000000000000000        0.0000000000000000     
   4.2430287274342136E-004   1.0825019090720549E-003   0.0000000000000000     
   8.5304340309079669E-004   2.5362406183611556E-003   0.0000000000000000     
   1.2862215910421260E-003   4.3612161278673029E-003   0.0000000000000000     
   1.7238374365974092E-003   6.5574284375904965E-003   0.0000000000000000     
   0.0000000000000000        0.0000000000000000        0.0000000000000000     
   2.1301682349806391E-004   1.0756338289498102E-003   0.0000000000000000     
   4.2701400975211662E-004   2.5207730723380371E-003   0.0000000000000000     
   6.4199155876215836E-004   4.3354177301646799E-003   0.0000000000000000     
   8.5794947052818889E-004   6.5195678024297403E-003   0.0000000000000000     
   0.0000000000000000        0.0000000000000000        0.0000000000000000     
   2.7755575615628914E-017   1.0733444689090409E-003   0.0000000000000000     
   4.3313876790795902E-017   2.5156172236636323E-003   0.0000000000000000     
   4.6566483308252415E-017   4.3268182642637737E-003   0.0000000000000000     
   3.7703130548183417E-017   6.5069475907094665E-003   0.0000000000000000     
   3.4794288553590571E-003   6.7088709782334513E-003   0.0000000000000000     
   4.3879858219571912E-003   9.2941479001792983E-003   0.0000000000000000     
   5.2988101197689597E-003   1.2182893803573736E-002   0.0000000000000000     
   6.2119017487943630E-003   1.5375108688416758E-002   0.0000000000000000     
   7.1272607090334004E-003   1.8870792554708370E-002   0.0000000000000000     
   2.5976638982076984E-003   6.6205294961917327E-003   0.0000000000000000     
   3.2700692985676068E-003   9.1779712844529005E-003   0.0000000000000000     
   3.9469660123679501E-003   1.2043542128414781E-002   0.0000000000000000     
   4.6283540396087281E-003   1.5217242028077381E-002   0.0000000000000000     
   5.3142333802899417E-003   1.8699070983440695E-002   0.0000000000000000     
   1.7238374365974092E-003   6.5574284375904965E-003   0.0000000000000000     
   2.1660994871115506E-003   9.0949879875054703E-003   0.0000000000000000     
   2.6132162899394551E-003   1.1944005217586961E-002   0.0000000000000000     
   3.0651878450811223E-003   1.5104480127834967E-002   0.0000000000000000     
   3.5220141525365519E-003   1.8576412718249488E-002   0.0000000000000000     
   8.5794947052818889E-004   6.5195678024297403E-003   0.0000000000000000     
   1.0760763875890228E-003   9.0451980093370059E-003   0.0000000000000000     
   1.2975609524834750E-003   1.1884283071090265E-002   0.0000000000000000     
   1.5224031652115450E-003   1.5036822987689522E-002   0.0000000000000000     
   1.7506030257732333E-003   1.8502817759134770E-002   0.0000000000000000     
   3.7703130548183417E-017   6.5069475907094665E-003   0.0000000000000000     
   2.3161268909721588E-017   9.0286013499475092E-003   0.0000000000000000     
   9.4257826370458542E-018   1.1864375688924700E-002   0.0000000000000000     
  -3.2814056376631595E-018   1.5014270607641038E-002   0.0000000000000000     
  -1.4961989980299961E-017   1.8478286106096527E-002   0.0000000000000000     
   7.1272607090334004E-003   1.8870792554708370E-002   0.0000000000000000     
   8.0383501238720893E-003   2.2644114742266477E-002   0.0000000000000000     
   8.9386331166964456E-003   2.6669244590908969E-002   0.0000000000000000     
   9.8281096875064717E-003   3.0946182100635867E-002   0.0000000000000000     
   1.0706779836302163E-002   3.5474927271447160E-002   0.0000000000000000     
   5.3142333802899417E-003   1.8699070983440695E-002   0.0000000000000000     
   5.9976608271274517E-003   2.2461759449495890E-002   0.0000000000000000     
   6.6716931728371259E-003   2.6478037881234127E-002   0.0000000000000000     
   7.3363304174189599E-003   3.0747906278655424E-002   0.0000000000000000     
   7.9915725608729563E-003   3.5271364641759770E-002   0.0000000000000000     
   3.5220141525365519E-003   1.8576412718249488E-002   0.0000000000000000     
   3.9777060409005548E-003   2.2331505668945463E-002   0.0000000000000000     
   4.4262743387679417E-003   2.6341461660037813E-002   0.0000000000000000     
   4.8677190461387122E-003   3.0606280691526537E-002   0.0000000000000000     
   5.3020401630128671E-003   3.5125962763411636E-002   0.0000000000000000     
   1.7506030257732333E-003   1.8502817759134770E-002   0.0000000000000000     
   1.9784857651913971E-003   2.2253353400615208E-002   0.0000000000000000     
   2.2023766144888949E-003   2.6259515927320010E-002   0.0000000000000000     
   2.4222755736657249E-003   3.0521305339249200E-002   0.0000000000000000     
   2.6381826427218885E-003   3.5038721636402752E-002   0.0000000000000000     
  -1.4961989980299961E-017   1.8478286106096527E-002   0.0000000000000000     
  -2.1250362580715887E-017   2.2227302644505110E-002   0.0000000000000000     
  -1.6479873021779667E-017   2.6232200683080742E-002   0.0000000000000000     
  -1.3010426069826053E-018   3.0492980221823413E-002   0.0000000000000000     
   2.4719809532669501E-017   3.5009641260733131E-002   0.0000000000000000     
   1.0706779836302163E-002   3.5474927271447160E-002   0.0000000000000000     
   1.1568709081578437E-002   4.0235044172873415E-002   0.0000000000000000     
   1.2407962941830214E-002   4.5206096874445247E-002   0.0000000000000000     
   1.3224541417057492E-002   5.0388085376162635E-002   0.0000000000000000     
   1.4018444507260273E-002   5.5781009678025593E-002   0.0000000000000000     
   7.9915725608729563E-003   3.5271364641759770E-002   0.0000000000000000     
   8.6344613409643778E-003   4.0028306723663497E-002   0.0000000000000000     
   9.2620384954584835E-003   4.4998626277482946E-002   0.0000000000000000     
   9.8743040243552734E-003   5.0182323303218111E-002   0.0000000000000000     
   1.0471257927654751E-002   5.5579397800868992E-002   0.0000000000000000     
   5.3020401630128671E-003   3.5125962763411636E-002   0.0000000000000000     
   5.7282605804966271E-003   3.9880637117084984E-002   0.0000000000000000     
   6.1454031896962143E-003   4.4850432993938448E-002   0.0000000000000000     
   6.5534679906116295E-003   5.0035350393972014E-002   0.0000000000000000     
   6.9524549832428737E-003   5.5435389317185703E-002   0.0000000000000000     
   2.6381826427218885E-003   3.5038721636402752E-002   0.0000000000000000     
   2.8501068001751837E-003   3.9792035353137876E-002   0.0000000000000000     
   3.0580570245434071E-003   4.4761517023811752E-002   0.0000000000000000     
   3.2620333158265599E-003   4.9947166648424371E-002   0.0000000000000000     
   3.4620356740246408E-003   5.5348984226975741E-002   0.0000000000000000     
   2.4719809532669501E-017   3.5009641260733131E-002   0.0000000000000000     
   4.9439619065339002E-017   3.9762501431822174E-002   0.0000000000000000     
   6.2937936112783532E-017   4.4731878367102851E-002   0.0000000000000000     
   6.4089900921049381E-017   4.9917772066575161E-002   0.0000000000000000     
   5.3559587320783919E-017   5.5320182530239098E-002   0.0000000000000000     
   1.4018444507260273E-002   5.5781009678025593E-002   0.0000000000000000     
   1.4789435359556749E-002   6.1372406106633082E-002   0.0000000000000000     
   1.5537277121065120E-002   6.7149810988584038E-002   0.0000000000000000     
   1.6261969791785388E-002   7.3113224323878512E-002   0.0000000000000000     
   1.6963513371717545E-002   7.9262646112516474E-002   0.0000000000000000     
   1.0471257927654751E-002   5.5579397800868992E-002   0.0000000000000000     
   1.1051537029036858E-002   6.1176250942156563E-002   0.0000000000000000     
   1.1613778152181538E-002   6.6959283898801791E-002   0.0000000000000000     
   1.2157981297088795E-002   7.2928496670804685E-002   0.0000000000000000     
   1.2684146463758624E-002   7.9083889258165244E-002   0.0000000000000000     
   6.9524549832428737E-003   5.5435389317185703E-002   0.0000000000000000     
   7.3406650256041071E-003   6.1036140110387632E-002   0.0000000000000000     
   7.7163989757094943E-003   6.6823193120385899E-002   0.0000000000000000     
   8.0796568335590336E-003   7.2796548347180537E-002   0.0000000000000000     
   8.4304385991527259E-003   7.8956205790771505E-002   0.0000000000000000     
   3.4620356740246408E-003   5.5348984226975741E-002   0.0000000000000000     
   3.6568193492585014E-003   6.0952073611326277E-002   0.0000000000000000     
   3.8451395916489898E-003   6.6741538653336374E-002   0.0000000000000000     
   4.0269964011961073E-003   7.2717379353006054E-002   0.0000000000000000     
   4.2023897778998530E-003   7.8879595710335287E-002   0.0000000000000000     
   5.3559587320783919E-017   5.5320182530239098E-002   0.0000000000000000     
   3.7947076036992655E-017   6.0924051444972496E-002   0.0000000000000000     
   2.4340338772299575E-017   6.6714320497653204E-002   0.0000000000000000     
   1.1831356207248067E-017   7.2690989688281207E-002   0.0000000000000000     
   2.6020852139652106E-018   7.8854059016856520E-002   0.0000000000000000     
   1.6963513371717545E-002   7.9262646112516474E-002   0.0000000000000000     
   1.7639377298881830E-002   8.5582804773325125E-002   0.0000000000000000     
   1.8287031011298485E-002   9.2058428725131591E-002   0.0000000000000000     
   1.8906474508967500E-002   9.8689517967935930E-002   0.0000000000000000     
   1.9497707791888880E-002  0.10547607250173811        0.0000000000000000     
   1.2684146463758624E-002   7.9083889258165244E-002   0.0000000000000000     
   1.3190673829768426E-002   8.5410334184476133E-002   0.0000000000000000     
   1.3675963572695602E-002   9.1892703973330089E-002   0.0000000000000000     
   1.4140015692540146E-002   9.8530998624727084E-002   0.0000000000000000     
   1.4582830189302063E-002  0.10532521813866710        0.0000000000000000     
   8.4304385991527259E-003   7.8956205790771505E-002   0.0000000000000000     
   8.7678764569169860E-003   8.5287140906726899E-002   0.0000000000000000     
   9.0911025912782228E-003   9.1774329150614745E-002   0.0000000000000000     
   9.4001170022364397E-003   9.8417770522435055E-002   0.0000000000000000     
   9.6949196897916368E-003  0.10521746502218783        0.0000000000000000     
   4.2023897778998530E-003   7.8879595710335287E-002   0.0000000000000000     
   4.3709851803275072E-003   8.5213224940077353E-002   0.0000000000000000     
   4.5324480670463482E-003   9.1703304256985543E-002   0.0000000000000000     
   4.6867784380563776E-003   9.8349833661059857E-002   0.0000000000000000     
   4.8339762933575954E-003  0.10515281315230027        0.0000000000000000     
   2.6020852139652106E-018   7.8854059016856520E-002   0.0000000000000000     
  -7.5894152073985310E-018   8.5188586284527495E-002   0.0000000000000000     
  -2.1792463666958639E-017   9.1679629292442472E-002   0.0000000000000000     
  -3.9817324784530150E-017   9.8327188040601449E-002   0.0000000000000000     
  -6.1582683397176652E-017  0.10513126252900443        0.0000000000000000     
   1.9497707791888880E-002  0.10547607250173811        0.0000000000000000     
   2.0063400409425405E-002  0.11241151426210233        0.0000000000000000     
   2.0606221910939877E-002  0.11948926518459269        0.0000000000000000     
   2.1126172296432273E-002  0.12670932526920922        0.0000000000000000     
   2.1623251565902606E-002  0.13407169451595197        0.0000000000000000     
   1.4582830189302063E-002  0.10532521813866710        0.0000000000000000     
   1.5007146199540470E-002  0.11226851325689179        0.0000000000000000     
   1.5415702859814475E-002  0.11935403472114273        0.0000000000000000     
   1.5808500170124085E-002  0.12658178253141991        0.0000000000000000     
   1.6185538130469294E-002  0.13395175668772333        0.0000000000000000     
   9.6949196897916368E-003  0.10521746502218783        0.0000000000000000     
   9.9778280613412387E-003  0.11216636968174140        0.0000000000000000     
   1.0251159524282679E-002  0.11925744153296418        0.0000000000000000     
   1.0514914078615956E-002  0.12649068057585611        0.0000000000000000     
   1.0769091724341064E-002  0.13386608681041723        0.0000000000000000     
   4.8339762933575954E-003  0.10515281315230027        0.0000000000000000     
   4.9754459948277222E-003  0.11210508353665122        0.0000000000000000     
   5.1125919043444852E-003  0.11919948562005708        0.0000000000000000     
   5.2454140219078847E-003  0.12643601940251789        0.0000000000000000     
   5.3739123475179187E-003  0.13381468488403356        0.0000000000000000     
  -6.1582683397176652E-017  0.10513126252900443        0.0000000000000000     
  -8.4567769453869346E-017  0.11208465482162115        0.0000000000000000     
  -1.0614339268633088E-016  0.11918016698242140        0.0000000000000000     
  -1.2606560760575203E-016  0.12641779901140518        0.0000000000000000     
  -1.4484941024406339E-016  0.13379755090857243        0.0000000000000000     
   2.1623251565902606E-002  0.13407169451595197        0.0000000000000000     
   2.2094721396675683E-002  0.14155707743439486        0.0000000000000000     
   2.2537843466076297E-002  0.14914617853411194        0.0000000000000000     
   2.2952617774104449E-002  0.15683899781510316        0.0000000000000000     
   2.3339044320760144E-002  0.16463553527736863        0.0000000000000000     
   1.6185538130469294E-002  0.13395175668772333        0.0000000000000000     
   1.6541137754897971E-002  0.14144508345271639        0.0000000000000000     
   1.6869620057457974E-002  0.14904288908906227        0.0000000000000000     
   1.7170985038149317E-002  0.15674517359676110        0.0000000000000000     
   1.7445232696971985E-002  0.16455193697581277        0.0000000000000000     
   1.0769091724341064E-002  0.13386608681041723        0.0000000000000000     
   1.1007489641526093E-002  0.14136508775151746        0.0000000000000000     
   1.1223905010239128E-002  0.14896911091402681        0.0000000000000000     
   1.1418337830480168E-002  0.15667815629794529        0.0000000000000000     
   1.1590788102249214E-002  0.16449222390327287        0.0000000000000000     
   5.3739123475179187E-003  0.13381468488403356        0.0000000000000000     
   5.4937770565600492E-003  0.14131709033079820        0.0000000000000000     
   5.6006983244197440E-003  0.14892484400900563        0.0000000000000000     
   5.6946761510970030E-003  0.15663794591865582        0.0000000000000000     
   5.7757105365918247E-003  0.16445639605974888        0.0000000000000000     
  -1.4484941024406339E-016  0.13379755090857243        0.0000000000000000     
  -1.6089560239684886E-016  0.14130109119055848        0.0000000000000000     
  -1.7162920390445535E-016  0.14891008837399858        0.0000000000000000     
  -1.7767363101606204E-016  0.15662454245889271        0.0000000000000000     
  -1.7867651802561113E-016  0.16444445344524083        0.0000000000000000     
   0.0000000000000000        0.0000000000000000        0.0000000000000000     
   2.7755575615628914E-017   1.0733444689090409E-003   0.0000000000000000     
   4.3313876790795902E-017   2.5156172236636323E-003   0.0000000000000000     
   4.6566483308252415E-017   4.3268182642637737E-003   0.0000000000000000     
   3.7703130548183417E-017   6.5069475907094665E-003   0.0000000000000000     
   0.0000000000000000        0.0000000000000000        0.0000000000000000     
  -2.1301682349801127E-004   1.0756338289497588E-003   0.0000000000000000     
  -4.2701400975203515E-004   2.5207730723379594E-003   0.0000000000000000     
  -6.4199155876207184E-004   4.3354177301646027E-003   0.0000000000000000     
  -8.5794947052812080E-004   6.5195678024296874E-003   0.0000000000000000     
   0.0000000000000000        0.0000000000000000        0.0000000000000000     
  -4.2430287274337734E-004   1.0825019090719759E-003   0.0000000000000000     
  -8.5304340309073023E-004   2.5362406183610368E-003   0.0000000000000000     
  -1.2862215910420588E-003   4.3612161278671823E-003   0.0000000000000000     
  -1.7238374365973628E-003   6.5574284375904115E-003   0.0000000000000000     
   0.0000000000000000        0.0000000000000000        0.0000000000000000     
  -6.3385814773607061E-004   1.0939487092756920E-003   0.0000000000000000     
  -1.2780881800160421E-003   2.5620198617328630E-003   0.0000000000000000     
  -1.9326900968399149E-003   4.4042134573715136E-003   0.0000000000000000     
  -2.5976638982076884E-003   6.6205294961916442E-003   0.0000000000000000     
   0.0000000000000000        0.0000000000000000        0.0000000000000000     
  -8.4168264847609071E-004   1.1099742295609071E-003   0.0000000000000000     
  -1.7021483405279705E-003   2.5981108024534395E-003   0.0000000000000000     
  -2.5813970761556400E-003   4.4644097186775965E-003   0.0000000000000000     
  -3.4794288553590979E-003   6.7088709782333793E-003   0.0000000000000000     
   3.7703130548183417E-017   6.5069475907094665E-003   0.0000000000000000     
   2.3161268909721588E-017   9.0286013499475092E-003   0.0000000000000000     
   9.4257826370458542E-018   1.1864375688924700E-002   0.0000000000000000     
  -3.2814056376631595E-018   1.5014270607641038E-002   0.0000000000000000     
  -1.4961989980299961E-017   1.8478286106096527E-002   0.0000000000000000     
  -8.5794947052812080E-004   6.5195678024296874E-003   0.0000000000000000     
  -1.0760763875889842E-003   9.0451980093369834E-003   0.0000000000000000     
  -1.2975609524834635E-003   1.1884283071090261E-002   0.0000000000000000     
  -1.5224031652115585E-003   1.5036822987689519E-002   0.0000000000000000     
  -1.7506030257732690E-003   1.8502817759134760E-002   0.0000000000000000     
  -1.7238374365973628E-003   6.5574284375904115E-003   0.0000000000000000     
  -2.1660994871115337E-003   9.0949879875054339E-003   0.0000000000000000     
  -2.6132162899394650E-003   1.1944005217586949E-002   0.0000000000000000     
  -3.0651878450811557E-003   1.5104480127834963E-002   0.0000000000000000     
  -3.5220141525366048E-003   1.8576412718249474E-002   0.0000000000000000     
  -2.5976638982076884E-003   6.6205294961916442E-003   0.0000000000000000     
  -3.2700692985676277E-003   9.1779712844528606E-003   0.0000000000000000     
  -3.9469660123679969E-003   1.2043542128414767E-002   0.0000000000000000     
  -4.6283540396087931E-003   1.5217242028077369E-002   0.0000000000000000     
  -5.3142333802900224E-003   1.8699070983440664E-002   0.0000000000000000     
  -3.4794288553590979E-003   6.7088709782333793E-003   0.0000000000000000     
  -4.3879858219572640E-003   9.2941479001792619E-003   0.0000000000000000     
  -5.2988101197690559E-003   1.2182893803573713E-002   0.0000000000000000     
  -6.2119017487944740E-003   1.5375108688416739E-002   0.0000000000000000     
  -7.1272607090335201E-003   1.8870792554708336E-002   0.0000000000000000     
  -1.4961989980299961E-017   1.8478286106096527E-002   0.0000000000000000     
  -2.1250362580715887E-017   2.2227302644505110E-002   0.0000000000000000     
  -1.6479873021779667E-017   2.6232200683080742E-002   0.0000000000000000     
  -1.3010426069826053E-018   3.0492980221823413E-002   0.0000000000000000     
   2.4719809532669501E-017   3.5009641260733131E-002   0.0000000000000000     
  -1.7506030257732690E-003   1.8502817759134760E-002   0.0000000000000000     
  -1.9784857651914439E-003   2.2253353400615183E-002   0.0000000000000000     
  -2.2023766144889322E-003   2.6259515927319985E-002   0.0000000000000000     
  -2.4222755736657336E-003   3.0521305339249176E-002   0.0000000000000000     
  -2.6381826427218482E-003   3.5038721636402745E-002   0.0000000000000000     
  -3.5220141525366048E-003   1.8576412718249474E-002   0.0000000000000000     
  -3.9777060409006155E-003   2.2331505668945428E-002   0.0000000000000000     
  -4.4262743387679946E-003   2.6341461660037768E-002   0.0000000000000000     
  -4.8677190461387390E-003   3.0606280691526492E-002   0.0000000000000000     
  -5.3020401630128481E-003   3.5125962763411608E-002   0.0000000000000000     
  -5.3142333802900224E-003   1.8699070983440664E-002   0.0000000000000000     
  -5.9976608271275385E-003   2.2461759449495838E-002   0.0000000000000000     
  -6.6716931728372023E-003   2.6478037881234068E-002   0.0000000000000000     
  -7.3363304174190172E-003   3.0747906278655361E-002   0.0000000000000000     
  -7.9915725608729806E-003   3.5271364641759714E-002   0.0000000000000000     
  -7.1272607090335201E-003   1.8870792554708336E-002   0.0000000000000000     
  -8.0383501238722073E-003   2.2644114742266418E-002   0.0000000000000000     
  -8.9386331166965583E-003   2.6669244590908903E-002   0.0000000000000000     
  -9.8281096875065671E-003   3.0946182100635787E-002   0.0000000000000000     
  -1.0706779836302239E-002   3.5474927271447070E-002   0.0000000000000000     
   2.4719809532669501E-017   3.5009641260733131E-002   0.0000000000000000     
   4.9439619065339002E-017   3.9762501431822174E-002   0.0000000000000000     
   6.2937936112783532E-017   4.4731878367102851E-002   0.0000000000000000     
   6.4089900921049381E-017   4.9917772066575161E-002   0.0000000000000000     
   5.3559587320783919E-017   5.5320182530239098E-002   0.0000000000000000     
  -2.6381826427218482E-003   3.5038721636402745E-002   0.0000000000000000     
  -2.8501068001750940E-003   3.9792035353137883E-002   0.0000000000000000     
  -3.0580570245432922E-003   4.4761517023811759E-002   0.0000000000000000     
  -3.2620333158264424E-003   4.9947166648424399E-002   0.0000000000000000     
  -3.4620356740245450E-003   5.5348984226975761E-002   0.0000000000000000     
  -5.3020401630128481E-003   3.5125962763411608E-002   0.0000000000000000     
  -5.7282605804965673E-003   3.9880637117084970E-002   0.0000000000000000     
  -6.1454031896961319E-003   4.4850432993938448E-002   0.0000000000000000     
  -6.5534679906115454E-003   5.0035350393972028E-002   0.0000000000000000     
  -6.9524549832428078E-003   5.5435389317185724E-002   0.0000000000000000     
  -7.9915725608729806E-003   3.5271364641759714E-002   0.0000000000000000     
  -8.6344613409643674E-003   4.0028306723663462E-002   0.0000000000000000     
  -9.2620384954584575E-003   4.4998626277482918E-002   0.0000000000000000     
  -9.8743040243552439E-003   5.0182323303218097E-002   0.0000000000000000     
  -1.0471257927654735E-002   5.5579397800868978E-002   0.0000000000000000     
  -1.0706779836302239E-002   3.5474927271447070E-002   0.0000000000000000     
  -1.1568709081578497E-002   4.0235044172873324E-002   0.0000000000000000     
  -1.2407962941830265E-002   4.5206096874445163E-002   0.0000000000000000     
  -1.3224541417057542E-002   5.0388085376162572E-002   0.0000000000000000     
  -1.4018444507260331E-002   5.5781009678025545E-002   0.0000000000000000     
   5.3559587320783919E-017   5.5320182530239098E-002   0.0000000000000000     
   3.7947076036992655E-017   6.0924051444972496E-002   0.0000000000000000     
   2.4340338772299575E-017   6.6714320497653204E-002   0.0000000000000000     
   1.1831356207248067E-017   7.2690989688281207E-002   0.0000000000000000     
   2.6020852139652106E-018   7.8854059016856520E-002   0.0000000000000000     
  -3.4620356740245450E-003   5.5348984226975761E-002   0.0000000000000000     
  -3.6568193492584346E-003   6.0952073611326298E-002   0.0000000000000000     
  -3.8451395916489503E-003   6.6741538653336388E-002   0.0000000000000000     
  -4.0269964011960925E-003   7.2717379353006054E-002   0.0000000000000000     
  -4.2023897778998591E-003   7.8879595710335287E-002   0.0000000000000000     
  -6.9524549832428078E-003   5.5435389317185724E-002   0.0000000000000000     
  -7.3406650256040698E-003   6.1036140110387646E-002   0.0000000000000000     
  -7.7163989757094856E-003   6.6823193120385913E-002   0.0000000000000000     
  -8.0796568335590527E-003   7.2796548347180551E-002   0.0000000000000000     
  -8.4304385991527710E-003   7.8956205790771533E-002   0.0000000000000000     
  -1.0471257927654735E-002   5.5579397800868978E-002   0.0000000000000000     
  -1.1051537029036867E-002   6.1176250942156570E-002   0.0000000000000000     
  -1.1613778152181576E-002   6.6959283898801805E-002   0.0000000000000000     
  -1.2157981297088864E-002   7.2928496670804699E-002   0.0000000000000000     
  -1.2684146463758726E-002   7.9083889258165257E-002   0.0000000000000000     
  -1.4018444507260331E-002   5.5781009678025545E-002   0.0000000000000000     
  -1.4789435359556825E-002   6.1372406106633047E-002   0.0000000000000000     
  -1.5537277121065224E-002   6.7149810988584024E-002   0.0000000000000000     
  -1.6261969791785527E-002   7.3113224323878498E-002   0.0000000000000000     
  -1.6963513371717732E-002   7.9262646112516461E-002   0.0000000000000000     
   2.6020852139652106E-018   7.8854059016856520E-002   0.0000000000000000     
  -7.5894152073985310E-018   8.5188586284527495E-002   0.0000000000000000     
  -2.1792463666958639E-017   9.1679629292442472E-002   0.0000000000000000     
  -3.9817324784530150E-017   9.8327188040601449E-002   0.0000000000000000     
  -6.1582683397176652E-017  0.10513126252900443        0.0000000000000000     
  -4.2023897778998591E-003   7.8879595710335287E-002   0.0000000000000000     
  -4.3709851803275359E-003   8.5213224940077353E-002   0.0000000000000000     
  -4.5324480670464063E-003   9.1703304256985557E-002   0.0000000000000000     
  -4.6867784380564704E-003   9.8349833661059871E-002   0.0000000000000000     
  -4.8339762933577281E-003  0.10515281315230031        0.0000000000000000     
  -8.4304385991527710E-003   7.8956205790771533E-002   0.0000000000000000     
  -8.7678764569170571E-003   8.5287140906726913E-002   0.0000000000000000     
  -9.0911025912783217E-003   9.1774329150614758E-002   0.0000000000000000     
  -9.4001170022365715E-003   9.8417770522435097E-002   0.0000000000000000     
  -9.6949196897918016E-003  0.10521746502218790        0.0000000000000000     
  -1.2684146463758726E-002   7.9083889258165257E-002   0.0000000000000000     
  -1.3190673829768566E-002   8.5410334184476147E-002   0.0000000000000000     
  -1.3675963572695770E-002   9.1892703973330117E-002   0.0000000000000000     
  -1.4140015692540343E-002   9.8530998624727154E-002   0.0000000000000000     
  -1.4582830189302280E-002  0.10532521813866720        0.0000000000000000     
  -1.6963513371717732E-002   7.9262646112516461E-002   0.0000000000000000     
  -1.7639377298882070E-002   8.5582804773325097E-002   0.0000000000000000     
  -1.8287031011298749E-002   9.2058428725131605E-002   0.0000000000000000     
  -1.8906474508967784E-002   9.8689517967935986E-002   0.0000000000000000     
  -1.9497707791889165E-002  0.10547607250173822        0.0000000000000000     
  -6.1582683397176652E-017  0.10513126252900443        0.0000000000000000     
  -8.4567769453869346E-017  0.11208465482162115        0.0000000000000000     
  -1.0614339268633088E-016  0.11918016698242140        0.0000000000000000     
  -1.2606560760575203E-016  0.12641779901140518        0.0000000000000000     
  -1.4484941024406339E-016  0.13379755090857243        0.0000000000000000     
  -4.8339762933577281E-003  0.10515281315230031        0.0000000000000000     
  -4.9754459948279000E-003  0.11210508353665127        0.0000000000000000     
  -5.1125919043447038E-003  0.11919948562005715        0.0000000000000000     
  -5.2454140219081406E-003  0.12643601940251800        0.0000000000000000     
  -5.3739123475182119E-003  0.13381468488403375        0.0000000000000000     
  -9.6949196897918016E-003  0.10521746502218790        0.0000000000000000     
  -9.9778280613414382E-003  0.11216636968174151        0.0000000000000000     
  -1.0251159524282911E-002  0.11925744153296432        0.0000000000000000     
  -1.0514914078616221E-002  0.12649068057585630        0.0000000000000000     
  -1.0769091724341370E-002  0.13386608681041748        0.0000000000000000     
  -1.4582830189302280E-002  0.10532521813866720        0.0000000000000000     
  -1.5007146199540706E-002  0.11226851325689192        0.0000000000000000     
  -1.5415702859814737E-002  0.11935403472114291        0.0000000000000000     
  -1.5808500170124373E-002  0.12658178253142013        0.0000000000000000     
  -1.6185538130469621E-002  0.13395175668772361        0.0000000000000000     
  -1.9497707791889165E-002  0.10547607250173822        0.0000000000000000     
  -2.0063400409425693E-002  0.11241151426210250        0.0000000000000000     
  -2.0606221910940168E-002  0.11948926518459289        0.0000000000000000     
  -2.1126172296432596E-002  0.12670932526920947        0.0000000000000000     
  -2.1623251565902959E-002  0.13407169451595216        0.0000000000000000     
  -1.4484941024406339E-016  0.13379755090857243        0.0000000000000000     
  -1.6089560239684886E-016  0.14130109119055848        0.0000000000000000     
  -1.7162920390445535E-016  0.14891008837399858        0.0000000000000000     
  -1.7767363101606204E-016  0.15662454245889271        0.0000000000000000     
  -1.7867651802561113E-016  0.16444445344524083        0.0000000000000000     
  -5.3739123475182119E-003  0.13381468488403375        0.0000000000000000     
  -5.4937770565603753E-003  0.14131709033079837        0.0000000000000000     
  -5.6006983244200909E-003  0.14892484400900574        0.0000000000000000     
  -5.6946761510973569E-003  0.15663794591865590        0.0000000000000000     
  -5.7757105365921751E-003  0.16445639605974882        0.0000000000000000     
  -1.0769091724341370E-002  0.13386608681041748        0.0000000000000000     
  -1.1007489641526428E-002  0.14136508775151774        0.0000000000000000     
  -1.1223905010239479E-002  0.14896911091402706        0.0000000000000000     
  -1.1418337830480522E-002  0.15667815629794543        0.0000000000000000     
  -1.1590788102249549E-002  0.16449222390327284        0.0000000000000000     
  -1.6185538130469621E-002  0.13395175668772361        0.0000000000000000     
  -1.6541137754898325E-002  0.14144508345271664        0.0000000000000000     
  -1.6869620057458339E-002  0.14904288908906252        0.0000000000000000     
  -1.7170985038149660E-002  0.15674517359676132        0.0000000000000000     
  -1.7445232696972290E-002  0.16455193697581297        0.0000000000000000     
  -2.1623251565902959E-002  0.13407169451595216        0.0000000000000000     
  -2.2094721396676058E-002  0.14155707743439505        0.0000000000000000     
  -2.2537843466076665E-002  0.14914617853411216        0.0000000000000000     
  -2.2952617774104789E-002  0.15683899781510355        0.0000000000000000     
  -2.3339044320760415E-002  0.16463553527736913        0.0000000000000000     
   0.0000000000000000        0.0000000000000000        0.0000000000000000     
  -8.4168264847609071E-004   1.1099742295609071E-003   0.0000000000000000     
  -1.7021483405279705E-003   2.5981108024534395E-003   0.0000000000000000     
  -2.5813970761556400E-003   4.4644097186775965E-003   0.0000000000000000     
  -3.4794288553590979E-003   6.7088709782333793E-003   0.0000000000000000     
   0.0000000000000000        0.0000000000000000        0.0000000000000000     
  -1.0566936776290738E-003   1.1341402585364902E-003   0.0000000000000000     
  -2.1397762603874199E-003   2.6503626399032778E-003   0.0000000000000000     
  -3.2492477482750385E-003   4.5486671441003629E-003   0.0000000000000000     
  -4.3851081412919282E-003   6.8290537711277457E-003   0.0000000000000000     
   0.0000000000000000        0.0000000000000000        0.0000000000000000     
  -1.2878085378606556E-003   1.1700085848113098E-003   0.0000000000000000     
  -2.6055243153552941E-003   2.7246245734628910E-003   0.0000000000000000     
  -3.9531473324839151E-003   4.6638479659547438E-003   0.0000000000000000     
  -5.3306775892465194E-003   6.9876787622868662E-003   0.0000000000000000     
   0.0000000000000000        0.0000000000000000        0.0000000000000000     
  -1.5350272291708360E-003   1.2175792083853655E-003   0.0000000000000000     
  -3.0993925054315923E-003   2.8208966031322783E-003   0.0000000000000000     
  -4.6930958287822698E-003   4.8099521842407374E-003   0.0000000000000000     
  -6.3161371992228677E-003   7.1847459517107451E-003   0.0000000000000000     
   0.0000000000000000        0.0000000000000000        0.0000000000000000     
  -1.7983497515596154E-003   1.2768521292586582E-003   0.0000000000000000     
  -3.6213808306163166E-003   2.9391787289114405E-003   0.0000000000000000     
  -5.4690932371701043E-003   4.9869797989583464E-003   0.0000000000000000     
  -7.3414869712209764E-003   7.4202553393993764E-003   0.0000000000000000     
  -3.4794288553590979E-003   6.7088709782333793E-003   0.0000000000000000     
  -4.3879858219572640E-003   9.2941479001792619E-003   0.0000000000000000     
  -5.2988101197690559E-003   1.2182893803573713E-002   0.0000000000000000     
  -6.2119017487944740E-003   1.5375108688416739E-002   0.0000000000000000     
  -7.1272607090335201E-003   1.8870792554708336E-002   0.0000000000000000     
  -4.3851081412919282E-003   6.8290537711277457E-003   0.0000000000000000     
  -5.5343359954016513E-003   9.4495059188652412E-003   0.0000000000000000     
  -6.6839098665677655E-003   1.2368006985192663E-002   0.0000000000000000     
  -7.8338297547902724E-003   1.5584556970110016E-002   0.0000000000000000     
  -8.9840956600691704E-003   1.9099155873617289E-002   0.0000000000000000     
  -5.3306775892465194E-003   6.9876787622868662E-003   0.0000000000000000     
  -6.7236067570219981E-003   9.6500334246914059E-003   0.0000000000000000     
  -8.1174265071892460E-003   1.2604828415400495E-002   0.0000000000000000     
  -9.5121368397482631E-003   1.5852063734414137E-002   0.0000000000000000     
  -1.0907737754699047E-002   1.9391739381732338E-002   0.0000000000000000     
  -6.3161371992228677E-003   7.1847459517107451E-003   0.0000000000000000     
  -7.9557981068183042E-003   9.8957304176577488E-003   0.0000000000000000     
  -9.5993600416334965E-003   1.2893358094197206E-002   0.0000000000000000     
  -1.1246823003668444E-002   1.6177628981329115E-002   0.0000000000000000     
  -1.2898186992923142E-002   1.9748543079053476E-002   0.0000000000000000     
  -7.3414869712209764E-003   7.4202553393993764E-003   0.0000000000000000     
  -9.2309100447905707E-003   1.0186596897764279E-002   0.0000000000000000     
  -1.1129710469900517E-002   1.3233596021582800E-002   0.0000000000000000     
  -1.3037888246550814E-002   1.6561252710854943E-002   0.0000000000000000     
  -1.4955443374741466E-002   2.0169566965580706E-002   0.0000000000000000     
  -7.1272607090335201E-003   1.8870792554708336E-002   0.0000000000000000     
  -8.0383501238722073E-003   2.2644114742266418E-002   0.0000000000000000     
  -8.9386331166965583E-003   2.6669244590908903E-002   0.0000000000000000     
  -9.8281096875065671E-003   3.0946182100635787E-002   0.0000000000000000     
  -1.0706779836302239E-002   3.5474927271447070E-002   0.0000000000000000     
  -8.9840956600691704E-003   1.9099155873617289E-002   0.0000000000000000     
  -1.0127809480782317E-002   2.2887034095462243E-002   0.0000000000000000     
  -1.1258073115307576E-002   2.6923422035392608E-002   0.0000000000000000     
  -1.2374886563644941E-002   3.1208319693408398E-002   0.0000000000000000     
  -1.3478249825794418E-002   3.5741727069509593E-002   0.0000000000000000     
  -1.0907737754699047E-002   1.9391739381732338E-002   0.0000000000000000     
  -1.2294074447505562E-002   2.3198980057288376E-002   0.0000000000000000     
  -1.3660992113631778E-002   2.7248910461015543E-002   0.0000000000000000     
  -1.5008490753077688E-002   3.1541530592913834E-002   0.0000000000000000     
  -1.6336570365843298E-002   3.6076840452983247E-002   0.0000000000000000     
  -1.2898186992923142E-002   1.9748543079053476E-002   0.0000000000000000     
  -1.4537145024041935E-002   2.3579952627744830E-002   0.0000000000000000     
  -1.6147390111669161E-002   2.7645709867777698E-002   0.0000000000000000     
  -1.7728922255804809E-002   3.1945814799152102E-002   0.0000000000000000     
  -1.9281741456448891E-002   3.6480267421868030E-002   0.0000000000000000     
  -1.4955443374741466E-002   2.0169566965580706E-002   0.0000000000000000     
  -1.6857021210391444E-002   2.4029951806831581E-002   0.0000000000000000     
  -1.8717267109419726E-002   2.8113820255679083E-002   0.0000000000000000     
  -2.0536181071826299E-002   3.2421172312123187E-002   0.0000000000000000     
  -2.2313763097611183E-002   3.6952007976163923E-002   0.0000000000000000     
  -1.0706779836302239E-002   3.5474927271447070E-002   0.0000000000000000     
  -1.1568709081578497E-002   4.0235044172873324E-002   0.0000000000000000     
  -1.2407962941830265E-002   4.5206096874445163E-002   0.0000000000000000     
  -1.3224541417057542E-002   5.0388085376162572E-002   0.0000000000000000     
  -1.4018444507260331E-002   5.5781009678025545E-002   0.0000000000000000     
  -1.3478249825794418E-002   3.5741727069509593E-002   0.0000000000000000     
  -1.4559821136311889E-002   4.0503657493631044E-002   0.0000000000000000     
  -1.5611258729753250E-002   4.5474124295707533E-002   0.0000000000000000     
  -1.6632562606118496E-002   5.0653127475739058E-002   0.0000000000000000     
  -1.7623732765407633E-002   5.6040667033725657E-002   0.0000000000000000     
  -1.6336570365843298E-002   3.6076840452983247E-002   0.0000000000000000     
  -1.7636614839137480E-002   4.0836954714853012E-002   0.0000000000000000     
  -1.8900008060169105E-002   4.5803988052152314E-002   0.0000000000000000     
  -2.0126750028938174E-002   5.0977940464881175E-002   0.0000000000000000     
  -2.1316840745444689E-002   5.6358811953039580E-002   0.0000000000000000     
  -1.9281741456448891E-002   3.6480267421868030E-002   0.0000000000000000     
  -2.0799090190055273E-002   4.1234935836539248E-002   0.0000000000000000     
  -2.2274210933077833E-002   4.6195688143779536E-002   0.0000000000000000     
  -2.3707103685516571E-002   5.1362524343588886E-002   0.0000000000000000     
  -2.5097768447371497E-002   5.6735444435967307E-002   0.0000000000000000     
  -2.2313763097611183E-002   3.6952007976163923E-002   0.0000000000000000     
  -2.4047247189065261E-002   4.1697600858689760E-002   0.0000000000000000     
  -2.5733867348479426E-002   4.6649224570589197E-002   0.0000000000000000     
  -2.7373623575853701E-002   5.1806879111862221E-002   0.0000000000000000     
  -2.8966515871188054E-002   5.7170564482508859E-002   0.0000000000000000     
  -1.4018444507260331E-002   5.5781009678025545E-002   0.0000000000000000     
  -1.4789435359556825E-002   6.1372406106633047E-002   0.0000000000000000     
  -1.5537277121065224E-002   6.7149810988584024E-002   0.0000000000000000     
  -1.6261969791785527E-002   7.3113224323878498E-002   0.0000000000000000     
  -1.6963513371717732E-002   7.9262646112516461E-002   0.0000000000000000     
  -1.7623732765407633E-002   5.6040667033725657E-002   0.0000000000000000     
  -1.8585640469591325E-002   6.1625295898150100E-002   0.0000000000000000     
  -1.9519156980640232E-002   6.7395566997495188E-002   0.0000000000000000     
  -2.0424282298554360E-002   7.3351480331760935E-002   0.0000000000000000     
  -2.1301016423333711E-002   7.9493035900947320E-002   0.0000000000000000     
  -2.1316840745444689E-002   5.6358811953039580E-002   0.0000000000000000     
  -2.2471432811567733E-002   6.1935610611040741E-002   0.0000000000000000     
  -2.3591678829186398E-002   6.7697344533297843E-002   0.0000000000000000     
  -2.4677578798300674E-002   7.3644013719810913E-002   0.0000000000000000     
  -2.5729132718910572E-002   7.9775618170579932E-002   0.0000000000000000     
  -2.5097768447371497E-002   5.6735444435967307E-002   0.0000000000000000     
  -2.6446812385486056E-002   6.2303350245304964E-002   0.0000000000000000     
  -2.7754842666703715E-002   6.8055143595992032E-002   0.0000000000000000     
  -2.9021859291024476E-002   7.3990824488028489E-002   0.0000000000000000     
  -3.0247862258448336E-002   8.0110392921414364E-002   0.0000000000000000     
  -2.8966515871188054E-002   5.7170564482508859E-002   0.0000000000000000     
  -3.0511779191346296E-002   6.2728514800942783E-002   0.0000000000000000     
  -3.2008648493192189E-002   6.8468964185577713E-002   0.0000000000000000     
  -3.3457123776725751E-002   7.4391912636413635E-002   0.0000000000000000     
  -3.4857205041946976E-002   8.0497360153450562E-002   0.0000000000000000     
  -1.6963513371717732E-002   7.9262646112516461E-002   0.0000000000000000     
  -1.7639377298882070E-002   8.5582804773325097E-002   0.0000000000000000     
  -1.8287031011298749E-002   9.2058428725131605E-002   0.0000000000000000     
  -1.8906474508967784E-002   9.8689517967935986E-002   0.0000000000000000     
  -1.9497707791889165E-002  0.10547607250173822        0.0000000000000000     
  -2.1301016423333711E-002   7.9493035900947320E-002   0.0000000000000000     
  -2.2146031096681441E-002   8.5804895797406647E-002   0.0000000000000000     
  -2.2955998060300711E-002   9.2271722113491259E-002   0.0000000000000000     
  -2.3730917314191521E-002   9.8893514849201142E-002   0.0000000000000000     
  -2.4470788858353878E-002  0.10567027400453630        0.0000000000000000     
  -2.5729132718910572E-002   7.9775618170579932E-002   0.0000000000000000     
  -2.6742679455590560E-002   8.6076950380853737E-002   0.0000000000000000     
  -2.7714557872915102E-002   9.2532802845881112E-002   0.0000000000000000     
  -2.8644767970884194E-002   9.9143175565662101E-002   0.0000000000000000     
  -2.9533309749497836E-002  0.10590806854019666        0.0000000000000000     
  -3.0247862258448336E-002   8.0110392921414364E-002   0.0000000000000000     
  -3.1429322375609435E-002   8.6398968523666353E-002   0.0000000000000000     
  -3.2562710449141920E-002   9.2841670922301209E-002   0.0000000000000000     
  -3.3648026479045780E-002   9.9438500117318862E-002   0.0000000000000000     
  -3.4685270465321043E-002  0.10618945610871938        0.0000000000000000     
  -3.4857205041946976E-002   8.0497360153450562E-002   0.0000000000000000     
  -3.6205959856738058E-002   8.6770950225844509E-002   0.0000000000000000     
  -3.7500455788981167E-002   9.3198326342751464E-002   0.0000000000000000     
  -3.8740692838676309E-002   9.9779488504171454E-002   0.0000000000000000     
  -3.9926671005823498E-002  0.10651443671010444        0.0000000000000000     
  -1.9497707791889165E-002  0.10547607250173822        0.0000000000000000     
  -2.0063400409425693E-002  0.11241151426210250        0.0000000000000000     
  -2.0606221910940168E-002  0.11948926518459289        0.0000000000000000     
  -2.1126172296432596E-002  0.12670932526920947        0.0000000000000000     
  -2.1623251565902959E-002  0.13407169451595216        0.0000000000000000     
  -2.4470788858353878E-002  0.10567027400453630        0.0000000000000000     
  -2.5178213240331981E-002  0.11259573508070003        0.0000000000000000     
  -2.5855791007670055E-002  0.11966363357889571        0.0000000000000000     
  -2.6503522160368085E-002  0.12687396949912336        0.0000000000000000     
  -2.7121406698426082E-002  0.13422674284138292        0.0000000000000000     
  -2.9533309749497836E-002  0.10590806854019666        0.0000000000000000     
  -3.0383207241595139E-002  0.11282153809601139        0.0000000000000000     
  -3.1197484480015209E-002  0.11987764055963278        0.0000000000000000     
  -3.1976141464758051E-002  0.12707637593106091        0.0000000000000000     
  -3.2719178195823657E-002  0.13441774421029568        0.0000000000000000     
  -3.4685270465321043E-002  0.10618945610871938        0.0000000000000000     
  -3.5678382413215165E-002  0.11308892330803652        0.0000000000000000     
  -3.6631302327975651E-002  0.12013128612680410        0.0000000000000000     
  -3.7544030209602487E-002  0.12731654456502209        0.0000000000000000     
  -3.8416566058095680E-002  0.13464469862269049        0.0000000000000000     
  -3.9926671005823498E-002  0.10651443671010444        0.0000000000000000     
  -4.1063738755192064E-002  0.11339789071677547        0.0000000000000000     
  -4.2157244551551364E-002  0.12042457028040965        0.0000000000000000     
  -4.3207188394901404E-002  0.12759447540100691        0.0000000000000000     
  -4.4213570285242171E-002  0.13490760607856728        0.0000000000000000     
  -2.1623251565902959E-002  0.13407169451595216        0.0000000000000000     
  -2.2094721396676058E-002  0.14155707743439505        0.0000000000000000     
  -2.2537843466076665E-002  0.14914617853411216        0.0000000000000000     
  -2.2952617774104789E-002  0.15683899781510355        0.0000000000000000     
  -2.3339044320760415E-002  0.16463553527736913        0.0000000000000000     
  -2.7121406698426082E-002  0.13422674284138292        0.0000000000000000     
  -2.7709509692664291E-002  0.14170216588469689        0.0000000000000000     
  -2.8267896213902983E-002  0.14928045090808775        0.0000000000000000     
  -2.8796566262142144E-002  0.15696159791155542        0.0000000000000000     
  -2.9295519837381788E-002  0.16474560689510001        0.0000000000000000     
  -3.2719178195823657E-002  0.13441774421029568        0.0000000000000000     
  -3.3426771768667679E-002  0.14188144499176611        0.0000000000000000     
  -3.4099099278745798E-002  0.14944717786990100        0.0000000000000000     
  -3.4736160726058000E-002  0.15711494284470032        0.0000000000000000     
  -3.5337956110604293E-002  0.16488473991616417        0.0000000000000000     
  -3.8416566058095680E-002  0.13464469862269049        0.0000000000000000     
  -3.9246507624686226E-002  0.14209491475560265        0.0000000000000000     
  -4.0031452660605121E-002  0.14964635941955193        0.0000000000000000     
  -4.0771401165852351E-002  0.15729903261453826        0.0000000000000000     
  -4.1466353140427917E-002  0.16505293434056170        0.0000000000000000     
  -4.4213570285242171E-002  0.13490760607856728        0.0000000000000000     
  -4.5168717260719936E-002  0.14234257517620655        0.0000000000000000     
  -4.6064956359480935E-002  0.14987799555704051        0.0000000000000000     
  -4.6902287581525190E-002  0.15751386722106919        0.0000000000000000     
  -4.7680710926852686E-002  0.16525019016829254        0.0000000000000000     
   0.0000000000000000        0.0000000000000000        0.0000000000000000     
  -1.7983497515596154E-003   1.2768521292586582E-003   0.0000000000000000     
  -3.6213808306163166E-003   2.9391787289114405E-003   0.0000000000000000     
  -5.4690932371701043E-003   4.9869797989583464E-003   0.0000000000000000     
  -7.3414869712209764E-003   7.4202553393993764E-003   0.0000000000000000     
   0.0000000000000000        0.0000000000000000        0.0000000000000000     
  -2.0694887125237765E-003   1.3549470737472223E-003   0.0000000000000000     
  -4.1641220844998578E-003   3.0939896290075202E-003   0.0000000000000000     
  -6.2839001159282438E-003   5.2171276657808933E-003   0.0000000000000000     
  -8.4288228068089329E-003   7.7243611840673429E-003   0.0000000000000000     
   0.0000000000000000        0.0000000000000000        0.0000000000000000     
  -2.3401567195601033E-003   1.4589837681670925E-003   0.0000000000000000     
  -4.7202490606726086E-003   3.2998479816276601E-003   0.0000000000000000     
  -7.1402770233375146E-003   5.5225926403817014E-003   0.0000000000000000     
  -9.6002406075548236E-003   8.1272177444292187E-003   0.0000000000000000     
   0.0000000000000000        0.0000000000000000        0.0000000000000000     
  -2.6103537726685942E-003   1.5889622125182692E-003   0.0000000000000000     
  -5.2897617591345664E-003   3.5567537867718601E-003   0.0000000000000000     
  -8.0382239593979193E-003   5.9033747227607725E-003   0.0000000000000000     
  -1.0855740373458649E-002   8.6288250204850075E-003   0.0000000000000000     
   0.0000000000000000        0.0000000000000000        0.0000000000000000     
  -2.8800798718492510E-003   1.7448824068007525E-003   0.0000000000000000     
  -5.8726601798857365E-003   3.8647070444401206E-003   0.0000000000000000     
  -8.9777409241094553E-003   6.3594739129181049E-003   0.0000000000000000     
  -1.2195322104520409E-002   9.2291830122347047E-003   0.0000000000000000     
  -7.3414869712209764E-003   7.4202553393993764E-003   0.0000000000000000     
  -9.2309100447905707E-003   1.0186596897764279E-002   0.0000000000000000     
  -1.1129710469900517E-002   1.3233596021582800E-002   0.0000000000000000     
  -1.3037888246550814E-002   1.6561252710854943E-002   0.0000000000000000     
  -1.4955443374741466E-002   2.0169566965580706E-002   0.0000000000000000     
  -8.4288228068089329E-003   7.7243611840673429E-003   0.0000000000000000     
  -1.0590637659350614E-002   1.0558258899686502E-002   0.0000000000000000     
  -1.2761092175761973E-002   1.3661389528458011E-002   0.0000000000000000     
  -1.4940186356043012E-002   1.7033753070381869E-002   0.0000000000000000     
  -1.7127920200193728E-002   2.0675349525458069E-002   0.0000000000000000     
  -9.6002406075548236E-003   8.1272177444292187E-003   0.0000000000000000     
  -1.2076676038910257E-002   1.1046342458099935E-002   0.0000000000000000     
  -1.4546119542989537E-002   1.4212585945723577E-002   0.0000000000000000     
  -1.7008571119792662E-002   1.7625948207300141E-002   0.0000000000000000     
  -1.9464030769319643E-002   2.1286429242829634E-002   0.0000000000000000     
  -1.0855740373458649E-002   8.6288250204850075E-003   0.0000000000000000     
  -1.3689025183469499E-002   1.1650847573004577E-002   0.0000000000000000     
  -1.6484792571583209E-002   1.4887185273379493E-002   0.0000000000000000     
  -1.9243042537799782E-002   1.8337838121609763E-002   0.0000000000000000     
  -2.1963775082119209E-002   2.2002806117695378E-002   0.0000000000000000     
  -1.2195322104520409E-002   9.2291830122347047E-003   0.0000000000000000     
  -1.5427685093028337E-002   1.2371774244400426E-002   0.0000000000000000     
  -1.8577111261542982E-002   1.5685187511425766E-002   0.0000000000000000     
  -2.1643600610064345E-002   1.9169422813310730E-002   0.0000000000000000     
  -2.4627153138592425E-002   2.2824480150055317E-002   0.0000000000000000     
  -1.4955443374741466E-002   2.0169566965580706E-002   0.0000000000000000     
  -1.6857021210391444E-002   2.4029951806831581E-002   0.0000000000000000     
  -1.8717267109419726E-002   2.8113820255679083E-002   0.0000000000000000     
  -2.0536181071826299E-002   3.2421172312123187E-002   0.0000000000000000     
  -2.2313763097611183E-002   3.6952007976163923E-002   0.0000000000000000     
  -1.7127920200193728E-002   2.0675349525458069E-002   0.0000000000000000     
  -1.9292912266690658E-002   2.4558531485747472E-002   0.0000000000000000     
  -2.1403781114010346E-002   2.8655651543310900E-002   0.0000000000000000     
  -2.3460526742152779E-002   3.2966709698148362E-002   0.0000000000000000     
  -2.5463149151117973E-002   3.7491705950259871E-002   0.0000000000000000     
  -1.9464030769319643E-002   2.1286429242829634E-002   0.0000000000000000     
  -2.1884027453076153E-002   2.5175245555691294E-002   0.0000000000000000     
  -2.4240090132567893E-002   2.9273613649264375E-002   0.0000000000000000     
  -2.6532218807794859E-002   3.3581533523548875E-002   0.0000000000000000     
  -2.8760413478757046E-002   3.8099005178544788E-002   0.0000000000000000     
  -2.1963775082119209E-002   2.2002806117695378E-002   0.0000000000000000     
  -2.4630366769547926E-002   2.5880094016663056E-002   0.0000000000000000     
  -2.7226194165092373E-002   2.9967706573539497E-002   0.0000000000000000     
  -2.9751257268752527E-002   3.4265643788324703E-002   0.0000000000000000     
  -3.2205556080528407E-002   3.8773905661018689E-002   0.0000000000000000     
  -2.4627153138592425E-002   2.2824480150055317E-002   0.0000000000000000     
  -2.7531930216105983E-002   2.6673076868662760E-002   0.0000000000000000     
  -3.0362093211583775E-002   3.0737930316136280E-002   0.0000000000000000     
  -3.3117642125025798E-002   3.5019040492475874E-002   0.0000000000000000     
  -3.5798576956432057E-002   3.9516407397681565E-002   0.0000000000000000     
  -2.2313763097611183E-002   3.6952007976163923E-002   0.0000000000000000     
  -2.4047247189065261E-002   4.1697600858689760E-002   0.0000000000000000     
  -2.5733867348479426E-002   4.6649224570589197E-002   0.0000000000000000     
  -2.7373623575853701E-002   5.1806879111862221E-002   0.0000000000000000     
  -2.8966515871188054E-002   5.7170564482508859E-002   0.0000000000000000     
  -2.5463149151117973E-002   3.7491705950259871E-002   0.0000000000000000     
  -2.7412846947626461E-002   4.2226540924125124E-002   0.0000000000000000     
  -2.9310818738398803E-002   4.7167115244223859E-002   0.0000000000000000     
  -3.1157064523434988E-002   5.2313428910556084E-002   0.0000000000000000     
  -3.2951584302735024E-002   5.7665481923121785E-002   0.0000000000000000     
  -2.8760413478757046E-002   3.8099005178544788E-002   0.0000000000000000     
  -3.0927650577197898E-002   4.2823347175665938E-002   0.0000000000000000     
  -3.3036906534860848E-002   4.7751878076326144E-002   0.0000000000000000     
  -3.5088181351745906E-002   5.2884597880525401E-002   0.0000000000000000     
  -3.7081475027853049E-002   5.8221506588263708E-002   0.0000000000000000     
  -3.2205556080528407E-002   3.8773905661018689E-002   0.0000000000000000     
  -3.4591658077779572E-002   4.3488019613312202E-002   0.0000000000000000     
  -3.6912130737865589E-002   4.8403513066896026E-002   0.0000000000000000     
  -3.9166974060786439E-002   5.3520386021770172E-002   0.0000000000000000     
  -4.1356188046542133E-002   5.8838638477934614E-002   0.0000000000000000     
  -3.5798576956432057E-002   3.9516407397681565E-002   0.0000000000000000     
  -3.8404869449371479E-002   4.4220558237063910E-002   0.0000000000000000     
  -4.0936491347412993E-002   4.9122020215933523E-002   0.0000000000000000     
  -4.3393442650556585E-002   5.4220793334290383E-002   0.0000000000000000     
  -4.5775723358802277E-002   5.9516877592134504E-002   0.0000000000000000     
  -2.8966515871188054E-002   5.7170564482508859E-002   0.0000000000000000     
  -3.0511779191346296E-002   6.2728514800942783E-002   0.0000000000000000     
  -3.2008648493192189E-002   6.8468964185577713E-002   0.0000000000000000     
  -3.3457123776725751E-002   7.4391912636413635E-002   0.0000000000000000     
  -3.4857205041946976E-002   8.0497360153450562E-002   0.0000000000000000     
  -3.2951584302735024E-002   5.7665481923121785E-002   0.0000000000000000     
  -3.4692398317289874E-002   6.3211046586867103E-002   0.0000000000000000     
  -3.6377526808090511E-002   6.8937895206738237E-002   0.0000000000000000     
  -3.8006969775136942E-002   7.4846027782735108E-002   0.0000000000000000     
  -3.9580727218429160E-002   8.0935444314857760E-002   0.0000000000000000     
  -3.7081475027853049E-002   5.8221506588263708E-002   0.0000000000000000     
  -3.9014734851458226E-002   6.3750887911990919E-002   0.0000000000000000     
  -4.0885908110837359E-002   6.9461025564156897E-002   0.0000000000000000     
  -4.2694994805990448E-002   7.5351919544761642E-002   0.0000000000000000     
  -4.4441994936917507E-002   8.1423569853805111E-002   0.0000000000000000     
  -4.1356188046542133E-002   5.8838638477934614E-002   0.0000000000000000     
  -4.3478788793851343E-002   6.4348038776314204E-002   0.0000000000000000     
  -4.5533792401432724E-002   7.0038355257833723E-002   0.0000000000000000     
  -4.7521198869286289E-002   7.5909587922493207E-002   0.0000000000000000     
  -4.9441008197412040E-002   8.1961736770292656E-002   0.0000000000000000     
  -4.5775723358802277E-002   5.9516877592134504E-002   0.0000000000000000     
  -4.8084560144469227E-002   6.5002499179836928E-002   0.0000000000000000     
  -5.0321179679876621E-002   7.0669884287768700E-002   0.0000000000000000     
  -5.2485581965024453E-002   7.6519032915929847E-002   0.0000000000000000     
  -5.4577766999912715E-002   8.2549945064320354E-002   0.0000000000000000     
  -3.4857205041946976E-002   8.0497360153450562E-002   0.0000000000000000     
  -3.6205959856738058E-002   8.6770950225844509E-002   0.0000000000000000     
  -3.7500455788981167E-002   9.3198326342751464E-002   0.0000000000000000     
  -3.8740692838676309E-002   9.9779488504171454E-002   0.0000000000000000     
  -3.9926671005823498E-002  0.10651443671010444        0.0000000000000000     
  -3.9580727218429160E-002   8.0935444314857760E-002   0.0000000000000000     
  -4.1096455039820588E-002   8.7192278304338247E-002   0.0000000000000000     
  -4.2551809141164652E-002   9.3602663252408611E-002   0.0000000000000000     
  -4.3946789522461366E-002  0.10016659915906885        0.0000000000000000     
  -4.5281396183710715E-002  0.10688408602431897        0.0000000000000000     
  -4.4441994936917507E-002   8.1423569853805111E-002   0.0000000000000000     
  -4.6124671065701200E-002   8.7662335576097594E-002   0.0000000000000000     
  -4.7740785754424218E-002   9.4054575796449269E-002   0.0000000000000000     
  -4.9290339003086561E-002  0.10060029051486015        0.0000000000000000     
  -5.0773330811688215E-002  0.10729947973133022        0.0000000000000000     
  -4.9441008197412040E-002   8.1961736770292656E-002   0.0000000000000000     
  -5.1290607934379895E-002   8.8181122041122564E-002   0.0000000000000000     
  -5.3067385628759844E-002   9.4554063974873440E-002   0.0000000000000000     
  -5.4771341280551875E-002  0.10108056257154528        0.0000000000000000     
  -5.6402474889756006E-002  0.10776061783113812        0.0000000000000000     
  -5.4577766999912715E-002   8.2549945064320354E-002   0.0000000000000000     
  -5.6594265645856671E-002   8.8748637699413130E-002   0.0000000000000000     
  -5.8531608764171551E-002   9.5101127787681122E-002   0.0000000000000000     
  -6.0389796354857347E-002  0.10160741532912429        0.0000000000000000     
  -6.2168828417914067E-002  0.10826750032374269        0.0000000000000000     
  -3.9926671005823498E-002  0.10651443671010444        0.0000000000000000     
  -4.1063738755192064E-002  0.11339789071677547        0.0000000000000000     
  -4.2157244551551364E-002  0.12042457028040965        0.0000000000000000     
  -4.3207188394901404E-002  0.12759447540100691        0.0000000000000000     
  -4.4213570285242171E-002  0.13490760607856728        0.0000000000000000     
  -4.5281396183710715E-002  0.10688408602431897        0.0000000000000000     
  -4.6562461233334421E-002  0.11375003579486147        0.0000000000000000     
  -4.7796816779754212E-002  0.12075936041739870        0.0000000000000000     
  -4.8984462822970080E-002  0.12791205989193072        0.0000000000000000     
  -5.0125399362982034E-002  0.13520813421845754        0.0000000000000000     
  -5.0773330811688215E-002  0.10729947973133022        0.0000000000000000     
  -5.2197734813450830E-002  0.11414695401492762        0.0000000000000000     
  -5.3571524641596029E-002  0.12113752393472051        0.0000000000000000     
  -5.4894700296123818E-002  0.12827118949070887        0.0000000000000000     
  -5.6167261777034197E-002  0.13554795068289269        0.0000000000000000     
  -5.6402474889756006E-002  0.10776061783113812        0.0000000000000000     
  -5.7969559495541299E-002  0.11458864537697402        0.0000000000000000     
  -5.9481368137076829E-002  0.12155906083237510        0.0000000000000000     
  -6.0937900814362622E-002  0.12867186419734136        0.0000000000000000     
  -6.2339157527398645E-002  0.13592705547187275        0.0000000000000000     
  -6.2168828417914067E-002  0.10826750032374269        0.0000000000000000     
  -6.3877935279605808E-002  0.11507510988100063        0.0000000000000000     
  -6.5526347266196591E-002  0.12202397111036245        0.0000000000000000     
  -6.7114064377686453E-002  0.12911408401182817        0.0000000000000000     
  -6.8641086614075406E-002  0.13634544858539774        0.0000000000000000     
  -4.4213570285242171E-002  0.13490760607856728        0.0000000000000000     
  -4.5168717260719936E-002  0.14234257517620655        0.0000000000000000     
  -4.6064956359480935E-002  0.14987799555704051        0.0000000000000000     
  -4.6902287581525190E-002  0.15751386722106919        0.0000000000000000     
  -4.7680710926852686E-002  0.16525019016829254        0.0000000000000000     
  -5.0125399362982034E-002  0.13520813421845754        0.0000000000000000     
  -5.1206590774754458E-002  0.14262582101458296        0.0000000000000000     
  -5.2215001433251730E-002  0.15014335789791083        0.0000000000000000     
  -5.3150631338473857E-002  0.15776074486844116        0.0000000000000000     
  -5.4013480490420838E-002  0.16547798192617391        0.0000000000000000     
  -5.6167261777034197E-002  0.13554795068289269        0.0000000000000000     
  -5.7373318264775472E-002  0.14294604703173702        0.0000000000000000     
  -5.8496978939795968E-002  0.15044371805770682        0.0000000000000000     
  -5.9538243802095686E-002  0.15804096376080218        0.0000000000000000     
  -6.0497112851674625E-002  0.16573778414102303        0.0000000000000000     
  -6.2339157527398645E-002  0.13592705547187275        0.0000000000000000     
  -6.3668899730782991E-002  0.14330325322766871        0.0000000000000000     
  -6.4910888879113671E-002  0.15077907603642854        0.0000000000000000     
  -6.6065124972390685E-002  0.15835452389815224        0.0000000000000000     
  -6.7131608010614061E-002  0.16602959681283985        0.0000000000000000     
  -6.8641086614075406E-002  0.13634544858539774        0.0000000000000000     
  -7.0093335172776980E-002  0.14369743960237807        0.0000000000000000     
  -7.1456731251204803E-002  0.15114943183407595        0.0000000000000000     
  -7.2731274849358860E-002  0.15870142528049139        0.0000000000000000     
  -7.3916965967239137E-002  0.16635341994162445        0.0000000000000000     
   0.0000000000000000        0.0000000000000000        0.0000000000000000     
  -2.8800798718492510E-003   1.7448824068007525E-003   0.0000000000000000     
  -5.8726601798857365E-003   3.8647070444401206E-003   0.0000000000000000     
  -8.9777409241094553E-003   6.3594739129181049E-003   0.0000000000000000     
  -1.2195322104520409E-002   9.2291830122347047E-003   0.0000000000000000     
   0.0000000000000000        0.0000000000000000        0.0000000000000000     
  -3.2831932615223448E-003   1.9994019953307397E-003   0.0000000000000000     
  -6.6769393247437508E-003   4.3310177928602683E-003   0.0000000000000000     
  -1.0181238189664219E-002   6.9948473925885851E-003   0.0000000000000000     
  -1.3796089856283743E-002   9.9908907945156899E-003   0.0000000000000000     
   0.0000000000000000        0.0000000000000000        0.0000000000000000     
  -3.9535521861081497E-003   2.4251786224244285E-003   0.0000000000000000     
  -7.9105941955262514E-003   5.0629960702601277E-003   0.0000000000000000     
  -1.1871126028254303E-002   7.9134523435070974E-003   0.0000000000000000     
  -1.5835147684292304E-002   1.0976547442165335E-002   0.0000000000000000     
   0.0000000000000000        0.0000000000000000        0.0000000000000000     
  -4.8911566456066643E-003   3.0222122880818191E-003   0.0000000000000000     
  -9.5736247922332349E-003   6.0606418766397004E-003   0.0000000000000000     
  -1.4047404439879708E-002   9.1152887656736417E-003   0.0000000000000000     
  -1.8312495588546085E-002   1.2186152955183644E-002   0.0000000000000000     
   0.0000000000000000        0.0000000000000000        0.0000000000000000     
  -6.0960066400178887E-003   3.7905029923029116E-003   0.0000000000000000     
  -1.1666031114864700E-002   7.3239552119989844E-003   0.0000000000000000     
  -1.6710073424540436E-002   1.0600356659088220E-002   0.0000000000000000     
  -2.1228133569045092E-002   1.3619707333570614E-002   0.0000000000000000     
  -1.2195322104520409E-002   9.2291830122347047E-003   0.0000000000000000     
  -1.5427685093028337E-002   1.2371774244400426E-002   0.0000000000000000     
  -1.8577111261542982E-002   1.5685187511425766E-002   0.0000000000000000     
  -2.1643600610064345E-002   1.9169422813310730E-002   0.0000000000000000     
  -2.4627153138592425E-002   2.2824480150055317E-002   0.0000000000000000     
  -1.3796089856283743E-002   9.9908907945156899E-003   0.0000000000000000     
  -1.7404388775921712E-002   1.3221182327172967E-002   0.0000000000000000     
  -2.0889029399897507E-002   1.6587756319091797E-002   0.0000000000000000     
  -2.4250011728211122E-002   2.0090612770272187E-002   0.0000000000000000     
  -2.7487335760862562E-002   2.3729751680714128E-002   0.0000000000000000     
  -1.5835147684292304E-002   1.0976547442165335E-002   0.0000000000000000     
  -1.9730869240484575E-002   1.4211131676207691E-002   0.0000000000000000     
  -2.3486500773675426E-002   1.7576055355606999E-002   0.0000000000000000     
  -2.7102042283864859E-002   2.1071318480363279E-002   0.0000000000000000     
  -3.0577493771052879E-002   2.4696921050476509E-002   0.0000000000000000     
  -1.8312495588546085E-002   1.2186152955183644E-002   0.0000000000000000     
  -2.2407126486716916E-002   1.5341622291504594E-002   0.0000000000000000     
  -2.6369525382876745E-002   1.8650084620971379E-002   0.0000000000000000     
  -3.0199692277025555E-002   2.2111539943583995E-002   0.0000000000000000     
  -3.3897627169163363E-002   2.5725988259342442E-002   0.0000000000000000     
  -2.1228133569045092E-002   1.3619707333570614E-002   0.0000000000000000     
  -2.5433160514618740E-002   1.6612654173063679E-002   0.0000000000000000     
  -2.9538103227501448E-002   1.9809844115184924E-002   0.0000000000000000     
  -3.3542961707693213E-002   2.3211277159934342E-002   0.0000000000000000     
  -3.7447735955194038E-002   2.6816953307311944E-002   0.0000000000000000     
  -2.4627153138592425E-002   2.2824480150055317E-002   0.0000000000000000     
  -2.7531930216105983E-002   2.6673076868662760E-002   0.0000000000000000     
  -3.0362093211583775E-002   3.0737930316136280E-002   0.0000000000000000     
  -3.3117642125025798E-002   3.5019040492475874E-002   0.0000000000000000     
  -3.5798576956432057E-002   3.9516407397681565E-002   0.0000000000000000     
  -2.7487335760862562E-002   2.3729751680714128E-002   0.0000000000000000     
  -3.0624095664215176E-002   2.7547682210032749E-002   0.0000000000000000     
  -3.3683385604632333E-002   3.1586913517843158E-002   0.0000000000000000     
  -3.6665205582114016E-002   3.5847445604145364E-002   0.0000000000000000     
  -3.9569555596660241E-002   4.0329278468939349E-002   0.0000000000000000     
  -3.0577493771052879E-002   2.4696921050476509E-002   0.0000000000000000     
  -3.3942240985340377E-002   2.8497398139115383E-002   0.0000000000000000     
  -3.7225669676828270E-002   3.2517284819448586E-002   0.0000000000000000     
  -4.0427779845516529E-002   3.6756581091476129E-002   0.0000000000000000     
  -4.3548571491405202E-002   4.1215286955197994E-002   0.0000000000000000     
  -3.3897627169163363E-002   2.5725988259342442E-002   0.0000000000000000     
  -3.7486366179481569E-002   2.9522224655910659E-002   0.0000000000000000     
  -4.0988945428171573E-002   3.3529044220952570E-002   0.0000000000000000     
  -4.4405364915233371E-002   3.7746446954468167E-002   0.0000000000000000     
  -4.7735624640666940E-002   4.2174432856457465E-002   0.0000000000000000     
  -3.7447735955194038E-002   2.6816953307311944E-002   0.0000000000000000     
  -4.1256471246638768E-002   3.0622161760418570E-002   0.0000000000000000     
  -4.4973212858662251E-002   3.4622191722355096E-002   0.0000000000000000     
  -4.8597960791264480E-002   3.8817043193121500E-002   0.0000000000000000     
  -5.2130715044445462E-002   4.3206716172717791E-002   0.0000000000000000     
  -3.5798576956432057E-002   3.9516407397681565E-002   0.0000000000000000     
  -3.8404869449371479E-002   4.4220558237063910E-002   0.0000000000000000     
  -4.0936491347412993E-002   4.9122020215933523E-002   0.0000000000000000     
  -4.3393442650556585E-002   5.4220793334290383E-002   0.0000000000000000     
  -4.5775723358802277E-002   5.9516877592134504E-002   0.0000000000000000     
  -3.9569555596660241E-002   4.0329278468939349E-002   0.0000000000000000     
  -4.2393536014258125E-002   4.5018856753105588E-002   0.0000000000000000     
  -4.5134247200894789E-002   4.9902625097524529E-002   0.0000000000000000     
  -4.7791689156570255E-002   5.4980583502196159E-002   0.0000000000000000     
  -5.0365861881284488E-002   6.0252731967120478E-002   0.0000000000000000     
  -4.3548571491405202E-002   4.1215286955197994E-002   0.0000000000000000     
  -4.6583909094724006E-002   4.5880808867621747E-002   0.0000000000000000     
  -4.9529657135702704E-002   5.0740553285754934E-002   0.0000000000000000     
  -5.2385815614341295E-002   5.5794520209597576E-002   0.0000000000000000     
  -5.5152384530639788E-002   6.1042709639149657E-002   0.0000000000000000     
  -4.7735624640666940E-002   4.2174432856457465E-002   0.0000000000000000     
  -5.0975988690769129E-002   4.6806414580612354E-002   0.0000000000000000     
  -5.4122721151836729E-002   5.1635804780624753E-002   0.0000000000000000     
  -5.7175822023869727E-002   5.6662603456494640E-002   0.0000000000000000     
  -6.0135291306868149E-002   6.1886810608222022E-002   0.0000000000000000     
  -5.2130715044445462E-002   4.3206716172717791E-002   0.0000000000000000     
  -5.5569774802393487E-002   4.7795673892077457E-002   0.0000000000000000     
  -5.8913439249296845E-002   5.2588379582133978E-002   0.0000000000000000     
  -6.2161708385155549E-002   5.7584833242887344E-002   0.0000000000000000     
  -6.5314582209969579E-002   6.2785034874337578E-002   0.0000000000000000     
  -4.5775723358802277E-002   5.9516877592134504E-002   0.0000000000000000     
  -4.8084560144469227E-002   6.5002499179836928E-002   0.0000000000000000     
  -5.0321179679876621E-002   7.0669884287768700E-002   0.0000000000000000     
  -5.2485581965024453E-002   7.6519032915929847E-002   0.0000000000000000     
  -5.4577766999912715E-002   8.2549945064320354E-002   0.0000000000000000     
  -5.0365861881284488E-002   6.0252731967120478E-002   0.0000000000000000     
  -5.2860090408781847E-002   6.5713195012889275E-002   0.0000000000000000     
  -5.5277699772806610E-002   7.1356097160094278E-002   0.0000000000000000     
  -5.7618689973358818E-002   7.7181438408735495E-002   0.0000000000000000     
  -5.9883061010438422E-002   8.3189218758812938E-002   0.0000000000000000     
  -5.5152384530639788E-002   6.1042709639149657E-002   0.0000000000000000     
  -5.7833421092259113E-002   6.6479052165801356E-002   0.0000000000000000     
  -6.0432982506860286E-002   7.2097478380942839E-002   0.0000000000000000     
  -6.2951068774443231E-002   7.7897988284574102E-002   0.0000000000000000     
  -6.5387679895008002E-002   8.3880581876695143E-002   0.0000000000000000     
  -6.0135291306868149E-002   6.1886810608222022E-002   0.0000000000000000     
  -6.3004552194901073E-002   6.7300070638573170E-002   0.0000000000000000     
  -6.5787027882037608E-002   7.2894027950314383E-002   0.0000000000000000     
  -6.8482718368277726E-002   7.8668682543445625E-002   0.0000000000000000     
  -7.1091623653621469E-002   8.4624034417966940E-002   0.0000000000000000     
  -6.5314582209969579E-002   6.2785034874337578E-002   0.0000000000000000     
  -6.8373483716707678E-002   6.8176250431204746E-002   0.0000000000000000     
  -7.1339835898338588E-002   7.3745745868208923E-002   0.0000000000000000     
  -7.4213638754862268E-002   7.9493521185350122E-002   0.0000000000000000     
  -7.6994892286278760E-002   8.5419576382628343E-002   0.0000000000000000     
  -5.4577766999912715E-002   8.2549945064320354E-002   0.0000000000000000     
  -5.6594265645856671E-002   8.8748637699413130E-002   0.0000000000000000     
  -5.8531608764171551E-002   9.5101127787681122E-002   0.0000000000000000     
  -6.0389796354857347E-002  0.10160741532912429        0.0000000000000000     
  -6.2168828417914067E-002  0.10826750032374269        0.0000000000000000     
  -5.9883061010438422E-002   8.3189218758812938E-002   0.0000000000000000     
  -6.2066381628403895E-002   8.9365297095206478E-002   0.0000000000000000     
  -6.4164220571613612E-002   9.5695532302795941E-002   0.0000000000000000     
  -6.6176577840067585E-002  0.10217992438158137        0.0000000000000000     
  -6.8103453433765809E-002  0.10881847333156276        0.0000000000000000     
  -6.5387679895008002E-002   8.3880581876695143E-002   0.0000000000000000     
  -6.7737693310293931E-002   9.0031514772739726E-002   0.0000000000000000     
  -6.9995986462040347E-002   9.6337042588141561E-002   0.0000000000000000     
  -7.2162559350247193E-002  0.10279716532290069        0.0000000000000000     
  -7.4237411974914583E-002  0.10941188297701708        0.0000000000000000     
  -7.1091623653621469E-002   8.4624034417966940E-002   0.0000000000000000     
  -7.3608200691526807E-002   9.0747290732012847E-002   0.0000000000000000     
  -7.6026906435451708E-002   9.7025658643717941E-002   0.0000000000000000     
  -7.8347740885396255E-002  0.10345913815308221        0.0000000000000000     
  -8.0570704041360380E-002  0.11004772926010567        0.0000000000000000     
  -7.6994892286278760E-002   8.5419576382628343E-002   0.0000000000000000     
  -7.9677903772102460E-002   9.1512624973025897E-002   0.0000000000000000     
  -8.2256980491847778E-002   9.7761380469525108E-002   0.0000000000000000     
  -8.4732122445514688E-002  0.10416584287212599        0.0000000000000000     
  -8.7103329633103216E-002  0.11072601218082855        0.0000000000000000     
  -6.2168828417914067E-002  0.10826750032374269        0.0000000000000000     
  -6.3877935279605808E-002  0.11507510988100063        0.0000000000000000     
  -6.5526347266196591E-002  0.12202397111036245        0.0000000000000000     
  -6.7114064377686453E-002  0.12911408401182817        0.0000000000000000     
  -6.8641086614075406E-002  0.13634544858539774        0.0000000000000000     
  -6.8103453433765809E-002  0.10881847333156276        0.0000000000000000     
  -6.9954521049428064E-002  0.11560417717856197        0.0000000000000000     
  -7.1739454383774090E-002  0.12253003394840101        0.0000000000000000     
  -7.3458253436803927E-002  0.12959604364107982        0.0000000000000000     
  -7.5110918208517521E-002  0.13680220625659842        0.0000000000000000     
  -7.4237411974914583E-002  0.10941188297701708        0.0000000000000000     
  -7.6230975688791738E-002  0.11617367692121262        0.0000000000000000     
  -7.8153681844628065E-002  0.12307502852620926        0.0000000000000000     
  -8.0005530442423520E-002  0.13011593779200692        0.0000000000000000     
  -8.1786521482178118E-002  0.13729640471860566        0.0000000000000000     
  -8.0570704041360380E-002  0.11004772926010567        0.0000000000000000     
  -8.2707299197696885E-002  0.11678360910895255        0.0000000000000000     
  -8.4769029648758501E-002  0.12365895484378714        0.0000000000000000     
  -8.6755895394545257E-002  0.13067376646460943        0.0000000000000000     
  -8.8667896435057153E-002  0.13782804397141943        0.0000000000000000     
  -8.7103329633103216E-002  0.11072601218082855        0.0000000000000000     
  -8.9383491576143448E-002  0.11743397374178179        0.0000000000000000     
  -9.1585497796165427E-002  0.12428181290113473        0.0000000000000000     
  -9.3709348293169153E-002  0.13126952965888736        0.0000000000000000     
  -9.5755043067154683E-002  0.13839712401503973        0.0000000000000000     
  -6.8641086614075406E-002  0.13634544858539774        0.0000000000000000     
  -7.0093335172776980E-002  0.14369743960237807        0.0000000000000000     
  -7.1456731251204803E-002  0.15114943183407595        0.0000000000000000     
  -7.2731274849358860E-002  0.15870142528049139        0.0000000000000000     
  -7.3916965967239137E-002  0.16635341994162445        0.0000000000000000     
  -7.5110918208517521E-002  0.13680220625659842        0.0000000000000000     
  -7.6685426429130871E-002  0.14412871008666089        0.0000000000000000     
  -7.8169755828859835E-002  0.15155574342297135        0.0000000000000000     
  -7.9563906407704499E-002  0.15908330626552974        0.0000000000000000     
  -8.0867878165664805E-002  0.16671139861433609        0.0000000000000000     
  -8.1786521482178118E-002  0.13729640471860566        0.0000000000000000     
  -8.3483975338217983E-002  0.14459716861131314        0.0000000000000000     
  -8.5085212384869255E-002  0.15199896877543703        0.0000000000000000     
  -8.6590232622131919E-002  0.15950180521097740        0.0000000000000000     
  -8.7999036050005988E-002  0.16710567791793415        0.0000000000000000     
  -8.8667896435057153E-002  0.13782804397141943        0.0000000000000000     
  -9.0488981900038346E-002  0.14510281517633478        0.0000000000000000     
  -9.2203100919233033E-002  0.15247910789147309        0.0000000000000000     
  -9.3810253492641119E-002  0.15995692211683438        0.0000000000000000     
  -9.5310439620262699E-002  0.16753625785241869        0.0000000000000000     
  -9.5755043067154683E-002  0.13839712401503973        0.0000000000000000     
  -9.7700446114591985E-002  0.14564564978172576        0.0000000000000000     
  -9.9523421431951128E-002  0.15299616077107941        0.0000000000000000     
 -0.10122396901923213       0.16044865698310071        0.0000000000000000     
 -0.10280208887643495       0.16800313841778958        0.0000000000000000     
 </DataArray>
 <DataArray  type="Float64" Name="stress" NumberOfComponents="3" format="ascii">
   13416786403.734642        4025035921.1203923        2894051725.7400384     
   11766519118.167427        1890430826.3246701        1715818961.8204646     
   10313542179.811499        413460222.23323250        810707186.06690240     
   9057855588.6668549       -405875891.15392065        178716398.47935301     
   7999459344.7334957       -567577513.83678961       -180153400.94218445     
   10539957932.511623        3161987379.7534871        2225799609.4846601     
   9667545474.7459545        1589552247.3405008        1446715356.0849140     
   8943782032.6167717        512613833.71581030        863128452.27817321     
   8368667606.1240807       -68827861.120583057        475038898.06443834     
   7942202195.2678738       -154772837.16868258        282446693.44370908     
   8337879084.5604029        2501363725.3681207        1712388339.4846849     
   8021539630.1019735        1424564007.9895797        1275704376.4341705     
   7805207859.7052345        681123237.48334503        956894124.40365517     
   7688883773.3701897        271041413.84941912        755957583.39313912     
   7672567371.0968351        194318537.08780003        672894753.40262115     
   6810549859.8809834        2043164957.9642951        1353817915.7401121     
   6828501584.2354870        1395466108.2719064        1202786022.8682339     
   6897819661.0768881        918988433.53583694        1092004202.4433482     
   7018504090.4051838        613731933.75608683        1021472454.4654545     
   7190554872.2203751        479696608.93265605        991190778.93455422     
   5957970258.4733629        1787391077.5420089        1150088338.2509425     
   6088431337.1464968        1502258548.1874821        1227960295.3871045     
   6221617436.7317295        1226209421.8732858        1268458686.3972521     
   6357528557.2290640        959243698.59942138        1271583511.2813854     
   6496164698.6384945        701361378.36588597        1237334770.0395041     
   7999459344.7334957       -567577513.83678961       -180153400.94218445     
   7917561124.8971901       -200032490.73598909       -78169128.317006648     
   7794172934.9185400        29212631.890315056       -8893269.3422340006     
   7629294774.7975368        120157854.04211807        27674175.982144263     
   7422926644.5341873        72803175.719429493        31533207.656115420     
   7942202195.2678738       -154772837.16868258        282446693.44370908     
   7739681454.3547649        16442839.324654102        281221067.68753159     
   7513771424.1074762        109694218.03739691        265224073.20131919     
   7264472104.5260134        124981298.96955109        234455709.98507062     
   6991783495.6103678        62304082.121110439        188915978.03878358     
   7672567371.0968351        194318537.08780003        672894753.40262115     
   7400672808.8793907        184579476.90541267        589576690.20795763     
   7123489638.1359406        157211721.63633966        509424303.20362169     
   6841017858.8664837        112215271.28058100        432437592.38961774     
   6553257471.0710230        49590125.838136435        358616557.76594251     
   7190554872.2203751        479696608.93265605        991190778.93455422     
   6900535188.4710693        304377422.00628662        846897739.24426758     
   6623327577.0039310        171765142.68713832        723707420.66467869     
   6358932037.8189573        81859770.975210428        621619823.19578457     
   6107348570.9161539        34661306.870503902        540634946.83758891     
   6496164698.6384945        701361378.36588597        1237334770.0395041     
   6239268593.1298027        375836674.62727809        1053184214.7964652     
   6013285240.7114496        153354481.18979597        908073425.58448911     
   5818214641.3834362        33914798.053442955        802002402.40357375     
   5654056795.1457567        17517625.218213320        734971145.25372088     
   7422926644.5341873        72803175.719429493        31533207.656115420     
   7218969457.0019684       -18294567.758663654        14417873.617053386     
   7027183768.4199638       -68820648.069372654        1977191.1043428355     
   6847569578.7881746       -78775065.212697029       -5788839.8820336862     
   6680126888.1065960       -48157819.188652515       -8880219.3420616072     
   6991783495.6103678        62304082.121110439        188915978.03878358     
   6808498467.8160067        2776463.8938016891        180489489.34591007     
   6632995162.9501677       -30812077.905116558        176004596.94409743     
   6465273581.0128403       -38461543.275650740        175461300.83334467     
   6305333722.0040274       -20171932.217806578        178859601.01365402     
   6553257471.0710230        49590125.838136435        358616557.76594251     
   6388550159.4851475        21004299.802798271        353757509.06060308     
   6227234794.8060904        3724963.4568505287        352107001.41104561     
   6069311377.0338507       -2247883.1997058392        353665034.81726617     
   5914779906.1684303        3085759.8331305981        358431609.27926677     
   6107348570.9161539        34661306.870503902        540634946.83758891     
   5959124532.0093861        36388939.968323946        534221932.76113653     
   5809902663.9877386        34790476.016537905        530284404.50518471     
   5659682966.8512106        29865915.015151739        528822362.06972784     
   5508465440.5997972        21615256.964153767        529835805.45477170     
   5654056795.1457567        17517625.218213320        734971145.25372088     
   5520221585.3887234        48930384.390376806        721882760.44750869     
   5380998770.4951096        62384459.773940802        710536806.22651374     
   5236388350.4649162        57879851.368907928        700933282.59073508     
   5086390325.2981415        35416559.175268412        693072189.54017448     
   6680126888.1065960       -48157819.188652515       -8880219.3420616072     
   6509087513.0689173       -7759078.6278765202       -2811813.9367301939     
   6333037408.2086430        15937229.190927029        3717812.1464555184     
   6151976573.5257759        22931104.267755747        10708658.907512184     
   5965905009.0203199        13222546.602607250        18160726.346425712     
   6305333722.0040274       -20171932.217806578        178859601.01365402     
   6132012663.3842220        1333375.5377099514        175571526.09144777     
   5955676952.1090670        12789841.108730555        174427112.22941697     
   5776326588.1785603        14197464.495238066        175426359.42757541     
   5593961571.5927019        5556245.6972537041        178569267.68590486     
   5914779906.1684303        3085759.8331305981        358431609.27926677     
   5743984136.4874029        7139726.5396492481        348115810.72463959     
   5572169791.3182688        7798441.6191542149        341626113.61250871     
   5399336870.6610270        5061905.0716223717        338962517.94287699     
   5225485374.5156775       -1069883.1029369831        340125023.71573663     
   5508465440.5997972        21615256.964153767        529835805.45477170     
   5345001932.3784590        9659974.3779594898        514821039.96284330     
   5182515925.8362560        963030.72221827507        505314816.29572582     
   5021007420.9731836       -4475574.0030884743        501317134.45342308     
   4860476417.7892437       -6655839.7979435921        502827994.43593073     
   5086390325.2981415        35416559.175268412        693072189.54017448     
   4935066051.0573940        8894119.0526342392        675687213.80605423     
   4786715355.6630211       -7716391.5820887089        665493220.27906907     
   4641338239.1150217       -14414972.728892565        662490208.95920873     
   4498934701.4133997       -11201624.387773991        666678179.84647918     
   5965905009.0203199        13222546.602607250        18160726.346425712     
   5784261011.1630430        58234.430812120438        9248319.1730958074     
   5604473441.2594976       -6917984.5618729591        4760152.7705150619     
   5426542299.3096838       -7706110.3754599094        4696227.1386863589     
   5250467585.3136072       -2306143.0099208355        9056542.2776112985     
   5593961571.5927019        5556245.6972537041        178569267.68590486     
   5425136276.6222496       -1769451.8007330894        172487895.74548870     
   5257514824.2953100       -5082340.4869904518        170495451.09946033     
   5091097214.6118889       -4382420.3615381718        172591933.74781948     
   4925883447.5719881        330308.57565784454        178777343.69056323     
   5225485374.5156775       -1069883.1029369831        340125023.71573663     
   5068520743.9281397       -2844377.4782691002        336113337.47965688     
   4912107370.6739025       -2781347.4092741013        335855265.06159639     
   4756245254.7529631       -880792.89594912529        339350806.46155477     
   4600934396.1653271        2857286.0617203712        346599961.67952424     
   4860476417.7892437       -6655839.7979435921        502827994.43593073     
   4714414413.0807142       -3166542.6018164158        500124644.37560105     
   4568251080.3952684       -15005.328732252121        500839594.65692103     
   4421986419.7329102        2798772.0213017464        504972845.27988714     
   4275620431.0936360        5274789.4482886791        512524396.24450797     
   4498934701.4133997       -11201624.387773991        666678179.84647918     
   4362817284.0799742       -2735947.1713426113        664521816.43331146     
   4225945953.4594164        3216685.7546565533        665448439.88542998     
   4088320709.5517268        6656274.3902115822        669458050.20282674     
   3949941552.3569055        7582818.7353355885        676550647.38550687     
   5250467585.3136072       -2306143.0099208355        9056542.2776112985     
   5051098208.1115780       -1688230.7819323540        1182360.5180273964     
   4851327135.1476173       -2409304.4270370007       -2246509.5419780342     
   4651154366.4217329       -4469363.9452297688       -1230067.9023998699     
   4450579901.9339256       -7868409.3364970684        4231685.4367490793     
   4925883447.5719881        330308.57565784454        178777343.69056323     
   4737705200.9610138       -554231.98645281792        170368158.99422187     
   4549175028.8748999       -2611857.4657154083        166468944.46606001     
   4360292931.3136330       -5842567.8621392250        167079700.10609019     
   4171058908.2772212       -10246363.175719976        172200425.91429541     
   4600934396.1653271        2857286.0617203712        346599961.67952424     
   4424132018.6271467        525714.25405263901        337713839.38100439     
   4247027485.9005885       -2813041.5148661137        333402345.71927410     
   4069620797.9856644       -7158981.2450029850        333665480.69432741     
   3891911954.8823729       -12512104.936372995        338503244.30615973     
   4275620431.0936360        5274789.4482886791        512524396.24450797     
   4110378661.1099563        1551607.9395556450        503219401.67838752     
   3944884506.2246838       -3012856.5744907856        498553694.21764684     
   3779137966.4378228       -8418604.0938353539        498527273.86229646     
   3613139041.7493663       -14665634.618486643        503140140.61233532     
   3949941552.3569055        7582818.7353355885        676550647.38550687     
   3796445128.4094529        2523449.0700619221        666884845.88635421     
   3642746089.8471837       -3211302.6445982456        661922989.96118808     
   3488844436.6701021       -9621436.4086387157        661665079.61001074     
   3334740168.8782063       -16706952.222049952        666111114.83282185     
   4450579901.9339256       -7868409.3364970684        4231685.4367490793     
   4303985564.6645555        3680427.0817773342        1309696.1988948805     
   4156971281.6036940        13829444.195079088        553579.94421544578     
   4009537052.7513599        22578642.003470659        1963336.6727069321     
   3861682878.1075377        29928020.506906271        5538966.3843757445     
   4171058908.2772212       -10246363.175719976        172200425.91429541     
   4030139668.9873476       -843047.05000495911        169369734.02958283     
   3889119174.7211661        8222752.4880304337        169233749.21344069     
   3747997425.4786911        16951035.438419342        171792471.46585938     
   3606774421.2599211        25341801.801147461        177045900.78685752     
   3891911954.8823729       -12512104.936372995        338503244.30615973     
   3758178768.1016722       -4801022.7443506718        336135655.72563899     
   3624663017.1598663        3634845.5773050785        336991608.29907984     
   3491364702.0569577        12795500.028622389        341071102.02648336     
   3358283822.7929344        22680940.609564543        348374136.90785301     
   3613139041.7493663       -14665634.618486643        503140140.61233532     
   3488102862.0075574       -8193500.0012099743        501607461.28705657     
   3363602808.9198284        65723.462997198105        503827157.20113724     
   3239638882.4861712        10112035.774116158        509799228.35457826     
   3116211082.7066016        21945436.932184458        519523674.74736953     
   3334740168.8782063       -16706952.222049952        666111114.83282185     
   3219911950.7049866       -11020478.820612550        665785150.71384561     
   3105938550.0010290       -2484613.8549671173        669740395.91961014     
   2992819966.7663341        8900642.6748974323        677976850.45012975     
   2880556201.0009122        23135290.768993855        690494514.30540168     
   3861682878.1075377        29928020.506906271        5538966.3843757445     
   3620066309.7512383        8076931.8196580410       -11205904.911121706     
   3378163039.4433527       -14729830.039520502       -14793527.045910457     
   3135973067.1839209       -38492265.070541859       -5223900.0199796241     
   2893496392.9729133       -63210373.273462176        17502976.166673999     
   3606774421.2599211        25341801.801147461        177045900.78685752     
   3397619481.0224547        12743920.710279703        160465160.74313313     
   3188164213.3560257       -855051.81047570705        153562299.10787120     
   2978408618.2606177       -15455115.761115789        156337315.88106209     
   2768352695.7362576       -31056271.141661644        168790211.06271160     
   3358283822.7929344        22680940.609564543        348374136.90785301     
   3171649451.3821421        16353949.327469110        331941631.72561169     
   2984701127.0649753        8980448.3574539423        321707634.19955456     
   2797438849.8414364        560437.69953060150        317672144.32970399     
   2609862619.7115326       -8906082.6462687254        319835162.11603504     
   3116211082.7066016        21945436.932184458        519523674.74736953     
   2942156220.8302913        18907017.671177268        503223508.03630018     
   2767773780.5702019        14776670.464252234        489642478.22916311     
   2593063761.9263563        9554395.3114289045        478780585.32595032     
   2418026164.8987083        3240192.2126744986        470637829.32667893     
   2880556201.0009122        23135290.768993855        690494514.30540168     
   2709139789.3669057        20403125.741428137        674310789.67521048     
   2537382173.8717227        16533614.509949923        657366831.19668591     
   2365283354.5153627        11526757.074539185        639662638.86981869     
   2192843331.2978287        5382553.4352146387        621198212.69462144     
   5957970258.4733629        1787391077.5420089        1150088338.2509425     
   6088431337.1464968        1502258548.1874821        1227960295.3871045     
   6221617436.7317295        1226209421.8732858        1268458686.3972521     
   6357528557.2290640        959243698.59942138        1271583511.2813854     
   6496164698.6384945        701361378.36588597        1237334770.0395041     
   5434711206.8991404        1630413362.0697422        1033512023.3727690     
   5489925803.1238012        1372515047.8487947        1113906695.8090177     
   5547336229.8572540        1121936168.6571622        1167508205.9185514     
   5606942487.0995035        878676724.49484563        1194316553.7013700     
   5668744574.8505468        642736715.36184406        1194331739.1574743     
   4895343631.7199135        1468603089.5159740        936401387.46118546     
   4905541470.6369553        1247007907.9708626        1018701386.3936652     
   4917405949.6594877        1030968193.4440515        1084788626.7987289     
   4930937068.7875080        820483945.93553936        1134663108.6763778     
   4946134828.0210209        615555165.44532847        1168324832.0266118     
   4339867532.9356823        1301960259.8807046        858756430.51619172     
   4335278339.6859617        1125737128.5536861        942344367.14104700     
   4331826596.1384258        953305496.23395205        1020299949.0377866     
   4329512302.2930765        784665362.92150319        1092623176.2064102     
   4328335458.1499109        619816728.61633801        1159314048.6469183     
   3768282910.5464468        1130484873.1639340        800577152.53778803     
   3779136410.2708197        1008702709.5972651        884835638.05116343     
   3790598169.2940731        888948077.02686548        974042172.63572264     
   3802668187.6162086        771220975.45273530        1068196756.2914658     
   3815346465.2372231        655521404.87487400        1167299389.0183933     
   6496164698.6384945        701361378.36588597        1237334770.0395041     
   6239268593.1298027        375836674.62727809        1053184214.7964652     
   6013285240.7114496        153354481.18979597        908073425.58448911     
   5818214641.3834362        33914798.053442955        802002402.40357375     
   5654056795.1457567        17517625.218213320        734971145.25372088     
   5668744574.8505468        642736715.36184406        1194331739.1574743     
   5518863467.8515825        383244525.50696325        1073483519.5482074     
   5393129021.1370907        204241203.26699257        980676491.09603894     
   5291541234.7070751        105726748.64193463        915910653.80097115     
   5214100108.5615311        87701161.631785870        879186007.66299915     
   4946134828.0210209        615555165.44532847        1168324832.0266118     
   4871844219.8918896        412668139.58220673        1102885173.1109419     
   4814934179.2413664        267716338.64778018        1054488130.4784076     
   4775404706.0694513        180699762.64204812        1023133704.1290088     
   4753255800.3761473        151618411.56501150        1008821894.0627463     
   4328335458.1499109        619816728.61633801        1159314048.6469183     
   4298210849.2507191        464107516.85300684        1141389175.4846692     
   4278700715.0242715        343779887.33215618        1129508343.7315915     
   4269805055.4705667        258833840.05378318        1123671553.3876891     
   4271523870.5896063        209269375.01789021        1123878804.4529581     
   3815346465.2372231        655521404.87487400        1167299389.0183933     
   3797963355.9280767        537562657.31936657        1188995526.6693885     
   3784428628.4858093        432431849.32012224        1205737130.8555946     
   3774742282.9104204        340128980.87714028        1217524201.5770113     
   3768904319.2019100        260654051.99042225        1224356738.8336375     
   5654056795.1457567        17517625.218213320        734971145.25372088     
   5520221585.3887234        48930384.390376806        721882760.44750869     
   5380998770.4951096        62384459.773940802        710536806.22651374     
   5236388350.4649162        57879851.368907928        700933282.59073508     
   5086390325.2981415        35416559.175268412        693072189.54017448     
   5214100108.5615311        87701161.631785870        879186007.66299915     
   5077524067.6026220        85339159.828172207        855506840.42378509     
   4938826021.0738878        75903806.125127077        835771086.51540077     
   4798005968.9753218        59395100.522648335        819978745.93784678     
   4655063911.3069286        35813043.020737410        808129818.69112110     
   4753255800.3761473        151618411.56501150        1008821894.0627463     
   4620227450.3456917        117368205.42471647        978361810.55173671     
   4488342694.3121567        86929979.274155617        954046123.11717045     
   4357601532.2755442        60303733.113334179        935874831.75904846     
   4228003964.2358522        37489466.942245007        923847936.47737026     
   4271523870.5896063        209269375.01789021        1123878804.4529581     
   4148331733.6179290        145017521.18001223        1090447670.8313630     
   4029548790.2099199        95462979.221033096        1065361916.0318251     
   3915175040.3655844        60605749.140965223        1048621540.0543427     
   3805210484.0849175        40445830.939794540        1040226542.8989197     
   3768904319.2019100        260654051.99042225        1224356738.8336375     
   3661836917.4193330        168287107.09405744        1191764421.2626646     
   3562444308.7671752        101502805.96576107        1169718465.2593613     
   3470726493.2454414        60301148.605541706        1158218870.8237321     
   3386683470.8541269        44682135.013389111        1157265637.9557717     
   5086390325.2981415        35416559.175268412        693072189.54017448     
   4935066051.0573940        8894119.0526342392        675687213.80605423     
   4786715355.6630211       -7716391.5820887089        665493220.27906907     
   4641338239.1150217       -14414972.728892565        662490208.95920873     
   4498934701.4133997       -11201624.387773991        666678179.84647918     
   4655063911.3069286        35813043.020737410        808129818.69112110     
   4522983390.5065651        15572398.209855795        794728073.98296881     
   4393079568.6588602        2587416.5744926929        787488589.25758421     
   4265352445.7638083       -3141901.8853580952        786411364.51495731     
   4139802021.8214135       -1615557.1696867943        791496399.75509715     
   4228003964.2358522        37489466.942245007        923847936.47737026     
   4112227990.5205441        22648855.536521435        913499729.58584690     
   3997831835.8641748        12407640.993913651        908285060.45271885     
   3884815500.2667375        6765823.3144230843        908203929.07798934     
   3773178983.7282357        5723402.4980471134        913256335.46165502     
   3805210484.0849175        40445830.939794540        1040226542.8989197     
   3702799851.0993323        30123491.032628775        1032002180.6146822     
   3600972157.2789650        21744281.676182270        1027882633.8644754     
   3499727402.6238055        15308202.870438814        1027867902.6483005     
   3399065587.1338654        10815254.615420580        1031957986.9661537     
   3386683470.8541269        44682135.013389111        1157265637.9557717     
   3294698972.2429304        37996304.698179007        1150235427.0694804     
   3202500532.9032283        30597338.621284485        1146281309.4928534     
   3110088152.8350205        22485236.782705545        1145403285.2258916     
   3017461832.0383072        13659999.182440996        1147601354.2685919     
   4498934701.4133997       -11201624.387773991        666678179.84647918     
   4362817284.0799742       -2735947.1713426113        664521816.43331146     
   4225945953.4594164        3216685.7546565533        665448439.88542998     
   4088320709.5517268        6656274.3902115822        669458050.20282674     
   3949941552.3569055        7582818.7353355885        676550647.38550687     
   4139802021.8214135       -1615557.1696867943        791496399.75509715     
   4011028720.3903637        1761798.9847815037        786421472.08174956     
   3881936659.3596659        4076623.1404135227        785087105.40540671     
   3752525838.7293162        5328915.2972078323        787493299.72606528     
   3622796258.4993124        5518675.4551606178        793640055.04372144     
   3773178983.7282357        5723402.4980471134        913256335.46165502     
   3653628581.4330468        4576072.5605924129        905770522.83019078     
   3534194573.2256875        3816722.9159021378        902682845.32744408     
   3414876959.1061573        3445353.5639743805        903993302.95341837     
   3295675739.0744576        3461964.5048120022        909701895.70811296     
   3399065587.1338654        10815254.615420580        1031957986.9661537     
   3290616867.2080221        5706873.5560910702        1022568968.6786282     
   3182719695.0574856        2436985.0811234713        1018235659.6515412     
   3075374070.6822581        1005589.1905215979        1018958059.8848944     
   2968579994.0823393        1412685.8842803240        1024736169.3786837     
   3017461832.0383072        13659999.182440996        1147601354.2685919     
   2921993577.7152877        5154201.9712790251        1136816809.6270645     
   2827512024.8550572       -62590.363918423653        1131745548.3776991     
   2734017173.4576144       -1990377.8231559992        1132387570.5204868     
   2641509023.5229607       -629160.40642952919        1138742876.0554333     
   3949941552.3569055        7582818.7353355885        676550647.38550687     
   3796445128.4094529        2523449.0700619221        666884845.88635421     
   3642746089.8471837       -3211302.6445982456        661922989.96118808     
   3488844436.6701021       -9621436.4086387157        661665079.61001074     
   3334740168.8782063       -16706952.222049952        666111114.83282185     
   3622796258.4993124        5518675.4551606178        793640055.04372144     
   3481832222.6143460        1699628.4014596939        783778199.78774607     
   3340765976.7585878       -2460118.5548863411        778566469.17240655     
   3199597520.9320331       -6960565.4138824940        778004863.19770920     
   3058326855.1346869       -11801712.175521731        782093381.86364067     
   3295675739.0744576        3461964.5048120022        909701895.70811296     
   3167090317.1566901        837107.83409738541        899761125.44667017     
   3038503089.9121480       -1793766.5925303698        894416658.89251506     
   2909914057.3408346       -4430658.7750647068        893668496.04564667     
   2781323219.4427452       -7073568.7135183811        897516636.90606606     
   2968579994.0823393        1412685.8842803240        1024736169.3786837     
   2852219412.0364823       -64112.632032752037        1014833622.8631352     
   2735957429.3078680       -1212246.7575217485        1009473559.1215183     
   2619794045.8964982       -2031716.4922008514        1008655978.1538364     
   2503729261.8023801       -2522521.8360430002        1012380879.9600947     
   2641509023.5229607       -629160.40642952919        1138742876.0554333     
   2537219507.2537189       -1004032.9969278574        1128995692.0371325     
   2433128994.9457450       -715559.04987025261        1123737169.8594146     
   2329237486.5990367        236261.43474102020        1122967309.5222800     
   2225544982.2135940        1851428.4569060802        1126686111.0257304     
   3334740168.8782063       -16706952.222049952        666111114.83282185     
   3219911950.7049866       -11020478.820612550        665785150.71384561     
   3105938550.0010290       -2484613.8549671173        669740395.91961014     
   2992819966.7663341        8900642.6748974323        677976850.45012975     
   2880556201.0009122        23135290.768993855        690494514.30540168     
   3058326855.1346869       -11801712.175521731        782093381.86364067     
   2954317173.6251888       -4734479.3425364494        782120320.64563298     
   2850891076.3556719        4278034.2903903723        785869364.59076452     
   2748048563.3261323        15235828.723241448        793340513.69903743     
   2645789634.5365763        28138903.956044078        804533767.97044837     
   2781323219.4427452       -7073568.7135183811        897516636.90606606     
   2686534634.1352229        895191.41249251366        897580039.82153189     
   2592058399.8383975        9905121.5741602182        900806443.73853207     
   2497894516.5522714        19956221.771491170        907195848.65705574     
   2404042984.2768435        31048492.004483223        916748254.57711363     
   2503729261.8023801       -2522521.8360430002        1012380879.9600947     
   2416564332.2350883        5868533.4444675446        1012164308.2415446     
   2329440520.4492116        14396647.996362925        1014551633.3629111     
   2242357826.4447498        23061821.819641232        1019542855.3241949     
   2155316250.2217040        31864054.914303064        1027137974.1253958     
   2225544982.2135940        1851428.4569060802        1126686111.0257304     
   2144406267.9247897        10185546.753396511        1125873125.9056623     
   2063037438.1881146        17752613.556988835        1127104933.4639020     
   1981438493.0035679        24552628.867680550        1130381533.7004471     
   1899609432.3711605        30585592.685495138        1135702926.6153023     
   2880556201.0009122        23135290.768993855        690494514.30540168     
   2709139789.3669057        20403125.741428137        674310789.67521048     
   2537382173.8717227        16533614.509949923        657366831.19668591     
   2365283354.5153627        11526757.074539185        639662638.86981869     
   2192843331.2978287        5382553.4352146387        621198212.69462144     
   2645789634.5365763        28138903.956044078        804533767.97044837     
   2475231909.1230631        21232704.921484351        787201350.11237967     
   2304539191.5925312        13876532.163533926        772252932.58156192     
   2133711481.9449821        6070385.6821886301        759688515.37799037     
   1962748780.1804113       -2185734.5225486755        749508098.50167823     
   2404042984.2768435        31048492.004483223        916748254.57711363     
   2243327471.2997818        22663316.827710271        898507723.85934949     
   2082683177.9498627        14515540.408074498        885795427.64442801     
   1922110104.2270863        6605162.7455786467        878611365.93234634     
   1761608250.1314502       -1067816.1597748995        876955538.72309244     
   2155316250.2217040        31864054.914303064        1027137974.1253958     
   2013426475.8970644        24694961.460104704        1008229910.9161271     
   1871814132.9437213        18450639.243573189        997994316.38528764     
   1730479221.3616793        13131088.264711261        996431190.53286803     
   1589421741.1509488        8736308.5235334039        1003540533.3588814     
   1899609432.3711605        30585592.685495138        1135702926.6153023     
   1785528922.9149017        27327638.818665743        1116367911.2827127     
   1671932056.5741026        25681828.670032144        1108849598.8041389     
   1558818833.3487613        25648162.239598036        1113147989.1795762     
   1446189253.2388883        27226639.527380586        1129263082.4090292     
   3768282910.5464468        1130484873.1639340        800577152.53778803     
   3779136410.2708197        1008702709.5972651        884835638.05116343     
   3790598169.2940731        888948077.02686548        974042172.63572264     
   3802668187.6162086        771220975.45273530        1068196756.2914658     
   3815346465.2372231        655521404.87487400        1167299389.0183933     
   3207788741.5402880        962336622.46208632        756709008.15108323     
   3235874576.2785268        868192570.21412468        853054297.63691187     
   3263685998.7447748        773133810.39286113        951329154.68098223     
   3291223008.9390321        677160342.99829590        1051533579.2832946     
   3318485606.8612995        580272168.03042912        1153667571.4438486     
   2685584002.9052863        805675200.87158597        721997451.98118699     
   2722277939.7632704        736581990.07409501        829399761.94011939     
   2757814792.7783923        663631833.13373137        935713157.94435084     
   2792194561.9506521        586824730.05049539        1040937639.9938827     
   2825417247.2800508        506160680.82438725        1145073208.0887136     
   2201668694.6414423        660500608.39243281        696442484.02809930     
   2238346500.7250504        613870969.17717624        813872030.96078539     
   2272984551.3949261        560442145.24947667        927194182.42582893     
   2305582846.6510682        500214136.60933387        1036408938.4232293     
   2336141386.4934783        433186943.25674826        1141516298.9529881     
   1756042816.7487555        526812845.02462661        680044104.29181993     
   1784080259.1638680        500059507.52336878        806471104.69890976     
   1809195274.5943766        463564746.74009693        925772228.12541509     
   1831387863.0402806        417328562.67481124        1037947474.5713359     
   1850658024.5015807        361350955.32751137        1142996844.0366719     
   3815346465.2372231        655521404.87487400        1167299389.0183933     
   3797963355.9280767        537562657.31936657        1188995526.6693885     
   3784428628.4858093        432431849.32012224        1205737130.8555946     
   3774742282.9104204        340128980.87714028        1217524201.5770113     
   3768904319.2019100        260654051.99042225        1224356738.8336375     
   3318485606.8612995        580272168.03042912        1153667571.4438486     
   3293806207.1089606        473040927.98277259        1182021730.9727695     
   3272855857.5775728        378239855.33829010        1207242314.2006733     
   3255634558.2671375        295868950.09697938        1229329321.1275611     
   3242142309.1776543        225928212.25884318        1248282751.7534313     
   2825417247.2800508        506160680.82438725        1145073208.0887136     
   2798644291.8381572        411217768.71067268        1179946169.2419772     
   2775481054.9712882        328307251.84704208        1213506511.2579978     
   2755927536.6794438        257429130.23349512        1245754234.1367753     
   2739983736.9626265        198583403.87003291        1276689337.8783107     
   2336141386.4934783        433186943.25674826        1141516298.9529881     
   2312477610.1156678        352093179.50306654        1182768841.4770141     
   2292304220.6669559        282634038.84638077        1224529722.0275698     
   2275621218.1473417        224809521.28668690        1266798940.6046557     
   2262428602.5568275        178619626.82399023        1309576497.2082736     
   1850658024.5015807        361350955.32751137        1142996844.0366719     
   1835306161.9414926        295667160.35995501        1190489747.6778777     
   1823325354.6645765        241220216.33630520        1240311946.5093877     
   1814715602.6708314        198010123.25655913        1292463440.5312016     
   1809476905.9602575        166036881.12071806        1346944229.7433193     
   3768904319.2019100        260654051.99042225        1224356738.8336375     
   3661836917.4193330        168287107.09405744        1191764421.2626646     
   3562444308.7671752        101502805.96576107        1169718465.2593613     
   3470726493.2454414        60301148.605541706        1158218870.8237321     
   3386683470.8541269        44682135.013389111        1157265637.9557717     
   3242142309.1776543        225928212.25884318        1248282751.7534313     
   3164741901.2392483        151689690.81024480        1231096624.9249747     
   3093419913.8782749        97712571.286418080        1222001418.6902637     
   3028176347.0947342        63996853.687368155        1220997133.0492976     
   2969011200.8886232        50542538.013085246        1228083768.0020812     
   2739983736.9626265        198583403.87003291        1276689337.8783107     
   2685234777.2286105        140368642.17726886        1273046967.1472132     
   2634967865.5190358        97094040.565976858        1275040076.0359390     
   2589183001.8339043        68759599.036158085        1282668664.5444863     
   2547880186.1732135        55365317.587810397        1295932732.6728554     
   2262428602.5568275        178619626.82399023        1309576497.2082736     
   2223315545.3874164        134323961.19512486        1317615447.9293821     
   2187088163.6894579        99647213.804432034        1328834437.2963891     
   2153746457.4629507        74589384.651910186        1343233465.3092926     
   2123290426.7078948        59150473.737560987        1360812531.9680936     
   1809476905.9602575        166036881.12071806        1346944229.7433193     
   1778984205.7156677        133555647.86381400        1364802067.2714787     
   1749780808.3895402        105372091.00178468        1383384502.4716117     
   1721866713.9818745        81486210.534626603        1402691535.3437181     
   1695241922.4926708        61898006.462343335        1422723165.8877971     
   3386683470.8541269        44682135.013389111        1157265637.9557717     
   3294698972.2429304        37996304.698179007        1150235427.0694804     
   3202500532.9032283        30597338.621284485        1146281309.4928534     
   3110088152.8350205        22485236.782705545        1145403285.2258916     
   3017461832.0383072        13659999.182440996        1147601354.2685919     
   2969011200.8886232        50542538.013085246        1228083768.0020812     
   2884510558.3942423        39132869.434948802        1220229552.7324994     
   2800291031.1351471        28660251.641101122        1216146173.0730176     
   2716352619.1113443        19124684.631553292        1215833629.0236361     
   2632695322.3228240        10526168.406291962        1219291920.5843570     
   2547880186.1732135        55365317.587810397        1295932732.6728554     
   2472848377.7968955        39827304.147116423        1287832078.3110747     
   2398592740.6196599        26876528.036697745        1284197001.8598299     
   2325113274.6415057        16512989.256548166        1285027503.3191235     
   2252409979.8624344        8736687.8066735268        1290323582.6889551     
   2123290426.7078948        59150473.737560987        1360812531.9680936     
   2059712430.4508915        40079608.834690928        1353043003.8052049     
   1997405661.3567638        25246167.808072329        1350433795.8532906     
   1936370119.4255114        14650150.657700181        1352984908.1123517     
   1876605804.6571319        8291557.3835800886        1360696340.5823896     
   1695241922.4926708        61898006.462343335        1422723165.8877971     
   1645102716.3562310        39889783.497668266        1415862329.2148931     
   1596729793.3464594        23769170.955220461        1414856555.0534012     
   1550123153.4633563        13536168.835001945        1419705843.4033229     
   1505282796.7069230        9190777.1370147467        1430410194.2646563     
   3017461832.0383072        13659999.182440996        1147601354.2685919     
   2921993577.7152877        5154201.9712790251        1136816809.6270645     
   2827512024.8550572       -62590.363918423653        1131745548.3776991     
   2734017173.4576144       -1990377.8231559992        1132387570.5204868     
   2641509023.5229607       -629160.40642952919        1138742876.0554333     
   2632695322.3228240        10526168.406291962        1219291920.5843570     
   2552126202.0517292        4449838.3095004559        1210837949.6294012     
   2472328098.3079128        943563.30364120007        1207570921.3727596     
   2393301011.0913796        7343.3887290954590        1209490835.8144314     
   2315044940.4021316        1641178.5647612810        1216597692.9544218     
   2252409979.8624344        8736687.8066735268        1290323582.6889551     
   2185236163.0894208        4638675.6580848694        1283948552.9958119     
   2118617677.9081845        2391768.8154205084        1282234125.3071425     
   2052554524.3187275        1995967.2786854506        1285180299.6229444     
   1987046702.3210480        3451271.0478775501        1292787075.9432168     
   1876605804.6571319        8291557.3835800886        1360696340.5823896     
   1821323460.8283687        5720714.0170514584        1356148619.7263031     
   1766380763.6558788        4282026.1714307070        1355735160.1808474     
   1711777713.1396608        3975493.8467223644        1359455961.9460189     
   1657514309.2797155        4801117.0429149866        1367311025.0218205     
   1505282796.7069230        9190777.1370147467        1430410194.2646563     
   1460388095.2685735        7695953.3863967061        1427438149.8208706     
   1415617355.5509896        6614335.3716642857        1428074025.9938717     
   1370970577.5541747        5945923.0928272605        1432317822.7836578     
   1326447761.2781270        5690716.5498821735        1440169540.1902320     
   2641509023.5229607       -629160.40642952919        1138742876.0554333     
   2537219507.2537189       -1004032.9969278574        1128995692.0371325     
   2433128994.9457450       -715559.04987025261        1123737169.8594146     
   2329237486.5990367        236261.43474102020        1122967309.5222800     
   2225544982.2135940        1851428.4569060802        1126686111.0257304     
   2315044940.4021316        1641178.5647612810        1216597692.9544218     
   2222398140.3389306        479590.91047263145        1206645267.5960817     
   2129983705.7145026        92554.718761682510        1201341665.5703695     
   2037801636.5288544        480069.98965156078        1200686886.8772864     
   1945851932.7819815        1642136.7231205702        1204680931.5168366     
   1987046702.3210480        3451271.0478775501        1292787075.9432168     
   1906500222.7268753        1640249.6086854935        1282668330.9685969     
   1826219470.0489850        714984.55710780621        1277358570.8186538     
   1746204444.2873878        675475.89316689968        1276857795.4933891     
   1666455145.4420724        1521723.6168394089        1281166004.9927957     
   1657514309.2797155        4801117.0429149866        1367311025.0218205     
   1589525754.4175568        2477943.0977198482        1357064882.1546836     
   1521836287.9491949        1151730.4651771784        1351787885.6042717     
   1454445909.8746324        822479.14530050755        1351480035.3705802     
   1387354620.1938665        1490189.1380758286        1356141331.4536133     
   1326447761.2781270        5690716.5498821735        1440169540.1902320     
   1271474735.4109759        2992671.3775804043        1429834921.1543417     
   1216834159.4151301        1402792.4429640770        1424629609.9272208     
   1162526033.2905941        921079.74604767561        1424553606.5088670     
   1108550357.0373626        1547533.2868129015        1429606910.8992815     
   2225544982.2135940        1851428.4569060802        1126686111.0257304     
   2144406267.9247897        10185546.753396511        1125873125.9056623     
   2063037438.1881146        17752613.556988835        1127104933.4639020     
   1981438493.0035679        24552628.867680550        1130381533.7004471     
   1899609432.3711605        30585592.685495138        1135702926.6153023     
   1945851932.7819815        1642136.7231205702        1204680931.5168366     
   1870550586.1191139        7866659.9022029638        1204171755.5031831     
   1795061675.7671883        13465970.784430146        1206594899.2428851     
   1719385201.7262101        18440069.369812131        1211950362.7359393     
   1643521163.9961715        22788955.658330441        1220238145.9823549     
   1666455145.4420724        1521723.6168394089        1281166004.9927957     
   1599526958.0481403        6397389.1714264750        1281010281.8041718     
   1532453758.7239618        10789681.625194609        1284674405.4439449     
   1465235547.4695380        14698600.978139520        1292158375.9121280     
   1397872324.2848685        18124147.230274796        1303462193.2087076     
   1387354620.1938665        1490189.1380758286        1356141331.4536133     
   1331335383.7118633        5777734.5610623360        1356388704.8086271     
   1275213687.0584233        9723746.0792605281        1361343452.0670931     
   1218989530.2335513        13328223.692680836        1371005573.2290061     
   1162662913.2372432        16591167.401320934        1385375068.2943735     
   1108550357.0373626        1547533.2868129015        1429606910.8992815     
   1065975863.1102828        6007696.0710939169        1430307024.5165503     
   1023341460.7705787        10268164.146631122        1436602039.1123159     
   980647150.01825154        14328937.513421655        1448491954.6865783     
   937892930.85330272        18190016.171475887        1465976771.2393441     
   1899609432.3711605        30585592.685495138        1135702926.6153023     
   1785528922.9149017        27327638.818665743        1116367911.2827127     
   1671932056.5741026        25681828.670032144        1108849598.8041389     
   1558818833.3487613        25648162.239598036        1113147989.1795762     
   1446189253.2388883        27226639.527380586        1129263082.4090292     
   1643521163.9961715        22788955.658330441        1220238145.9823549     
   1557676533.2860641        24617982.923177481        1203587189.4679811     
   1472332203.9817336        28114681.540624440        1195665518.1047080     
   1387488176.0831819        33279051.510653198        1196473131.8925354     
   1303144449.5904019        40111092.833272517        1206010030.8314545     
   1397872324.2848685        18124147.230274796        1303462193.2087076     
   1331442378.8840086        22393797.595743835        1289514730.1845877     
   1265529393.1792407        28386646.948186159        1281209134.6086512     
   1200133367.1705637        36102695.287590146        1278545406.4809010     
   1135254300.8579776        45541942.613976300        1281523545.8013287     
   1162662913.2372432        16591167.401320934        1385375068.2943735     
   1106826459.7087276        20655082.836329222        1374150533.4325440     
   1051523624.1666189        26497724.892699301        1365480448.3159745     
   996754406.61091959        34119093.570425987        1359364812.9446774     
   942518807.04162371        43519188.869507998        1355803627.3186386     
   937892930.85330272        18190016.171475887        1465976771.2393441     
   883828775.76022792        19401838.644962430        1457494599.2118330     
   830314896.94387352        22447915.374181122        1448479459.2266693     
   777351294.40424120        27328246.359141350        1438931351.2838631     
   724937968.14133239        34042831.599851698        1428850275.3833976     
   1756042816.7487555        526812845.02462661        680044104.29181993     
   1784080259.1638680        500059507.52336878        806471104.69890976     
   1809195274.5943766        463564746.74009693        925772228.12541509     
   1831387863.0402806        417328562.67481124        1037947474.5713359     
   1850658024.5015807        361350955.32751137        1142996844.0366719     
   1326429268.6716313        397928780.60148942        669701529.36742556     
   1339618268.6973982        375512052.93986052        791867108.67703748     
   1350615448.4847140        345789257.81672949        908735930.08936095     
   1359420808.0335796        308760395.23209608        1020307993.6043963     
   1366034347.3439941        264425465.18596014        1126583299.2221441     
   890550949.85447598        267165284.95634282        662313975.84999275     
   894117562.01460111        250652983.49145415        781070508.59930563     
   896222960.68242896        229269970.38557512        896359402.53462696     
   896867145.85795975        203016245.63870540        1008180657.6559563     
   896050117.54119313        171891809.25084525        1116534273.9632945     
   448407860.29728937        134522358.08918682        657881443.73952138     
   447578139.11547685        125482299.17814969        774081304.46571445     
   446017811.18752086        114006884.44663393        888642645.46121252     
   443726876.51342112        100096113.89463928        1001565466.7260149     
   440705335.09317774        83749987.522165835        1112849768.2601223     
   7.1485857526516780E-005   2.1445757257955034E-005   656403933.03601158     
   2.5672001154922702E-005  -5.3031068547471201E-005   770899496.27626383     
  -1.0171007808872806E-005  -9.4228368240002828E-005   885585658.86911714     
  -3.6239040614492417E-005  -1.0277736194159896E-004   1000462420.8145726     
  -5.2339085446614521E-005  -7.8099729064870106E-005   1115529782.1126285     
   1850658024.5015807        361350955.32751137        1142996844.0366719     
   1835306161.9414926        295667160.35995501        1190489747.6778777     
   1823325354.6645765        241220216.33630520        1240311946.5093877     
   1814715602.6708314        198010123.25655913        1292463440.5312016     
   1809476905.9602575        166036881.12071806        1346944229.7433193     
   1366034347.3439941        264425465.18596014        1126583299.2221441     
   1360408763.4547019        216929112.86953542        1181954325.1855054     
   1357311471.0277863        177860398.76103321        1238280706.6319907     
   1356742470.0632486        147219322.86045671        1295562443.5616007     
   1358701760.5610878        125005885.16780448        1353799535.9743347     
   896050117.54119313        171891809.25084525        1116534273.9632945     
   896225270.30218291        141405236.97939602        1178800197.7912176     
   898085950.70475566        116537090.17989030        1240647537.3950856     
   901632158.74891162        97287368.852328360        1302076292.7748985     
   906863894.43465102        83656072.996710688        1363086463.9306548     
   440705335.09317774        83749987.522165835        1112849768.2601223     
   442755682.48393601        69095532.689538300        1181027365.4950142     
   445648793.69548357        57250290.592873961        1247412438.7986717     
   449384668.72782028        48214261.232173964        1312004988.1710935     
   453963307.58094579        41987444.607436851        1374805013.6122804     
  -5.2339085446614521E-005  -7.8099729064870106E-005   1115529782.1126285     
  -3.7876066751849648E-005  -3.6134671262503702E-005   1188635828.2968962     
  -2.9513651138397717E-005  -1.3941171934821302E-005   1258575410.8427498     
  -2.5575137817974272E-005  -6.8626423225456097E-006   1325348529.7501881     
  -2.6924433378787275E-005  -1.7236669966793725E-005   1388955185.0192115     
   1809476905.9602575        166036881.12071806        1346944229.7433193     
   1778984205.7156677        133555647.86381400        1364802067.2714787     
   1749780808.3895402        105372091.00178468        1383384502.4716117     
   1721866713.9818745        81486210.534626603        1402691535.3437181     
   1695241922.4926708        61898006.462343335        1422723165.8877971     
   1358701760.5610878        125005885.16780448        1353799535.9743347     
   1333109876.6251061        99828252.599362373        1372919193.1650107     
   1308484969.8779712        77873877.327078760        1393398665.0699203     
   1284827040.3196826        59142759.350947976        1415237951.6890643     
   1262136087.9502406        43634898.670975447        1438437053.0224419     
   906863894.43465102        83656072.996710688        1363086463.9306548     
   887987732.64230561        66326512.867237657        1383091894.0992975     
   869756222.30919290        51145790.935206681        1405092356.0244341     
   852169363.43531227        38113907.200615793        1429087849.7060649     
   835227156.02066422        27230861.663466960        1455078375.1441896     
   453963307.58094579        41987444.607436851        1374805013.6122804     
   443617773.76726711        33050428.667441905        1395320170.0743384     
   433594565.68320668        25187831.826173514        1418465575.3351512     
   423893683.32876337        18399654.083629668        1444241229.3947191     
   414515126.70393777        12685895.439811021        1472647132.2530394     
  -2.6924433378787275E-005  -1.7236669966793725E-005   1388955185.0192115     
  -8.6354915892032274E-006  -2.4448163274068738E-005   1409604021.0901351     
   1.2844578880364534E-005  -2.0502143938605011E-005   1433518323.0020733     
   3.6697979819812652E-005  -8.8184953844711093E-006   1460698090.7550259     
   6.4005577394942061E-005   1.4205669607669414E-005   1491143324.3489947     
   1695241922.4926708        61898006.462343335        1422723165.8877971     
   1645102716.3562310        39889783.497668266        1415862329.2148931     
   1596729793.3464594        23769170.955220461        1414856555.0534012     
   1550123153.4633563        13536168.835001945        1419705843.4033229     
   1505282796.7069230        9190777.1370147467        1430410194.2646563     
   1262136087.9502406        43634898.670975447        1438437053.0224419     
   1228107763.8846529        28201555.608494282        1435131003.5598884     
   1195404152.1640666        17183920.362686098        1436845597.8168416     
   1164025252.7884817        10581992.933549523        1443580835.7932980     
   1133971065.7578969        8395773.3210791349        1455336717.4892607     
   835227156.02066422        27230861.663466960        1455078375.1441896     
   814925660.33476341        17657182.395831853        1454811946.9800422     
   795507306.21219635        11027308.339310169        1458731743.7434936     
   776972093.65296304        7341239.4939014614        1466837765.4345417     
   759320022.65706265        6598975.8596010208        1479130012.0531869     
   414515126.70393777        12685895.439811021        1472647132.2530394     
   405556405.70656115        8256663.8596780896        1474905159.4753535     
   397039255.49084949        5299334.8850946575        1480514992.8333573     
   388963676.05680341        3813908.5160630941        1489476632.3270512     
   381329667.40442222        3800384.7525811046        1501790077.9564357     
   6.4005577394942061E-005   1.4205669607669414E-005   1491143324.3489947     
   4.3920910864291903E-005   2.3584614115148413E-005   1495410641.0458241     
   2.2600968715583546E-005   2.8845973229100051E-005   1502195345.0864329     
   0.0000000000000000        2.9663771439203398E-005   1511497436.4708261     
  -2.6215293672124232E-005   1.8780764489366485E-005   1523316915.1990016     
   1505282796.7069230        9190777.1370147467        1430410194.2646563     
   1460388095.2685735        7695953.3863967061        1427438149.8208706     
   1415617355.5509896        6614335.3716642857        1428074025.9938717     
   1370970577.5541747        5945923.0928272605        1432317822.7836578     
   1326447761.2781270        5690716.5498821735        1440169540.1902320     
   1133971065.7578969        8395773.3210791349        1455336717.4892607     
   1098873416.0736573        6846668.4264723063        1451488897.4695966     
   1063868737.6799936        5607467.8337819576        1451581876.9079990     
   1028957030.5769054        4678171.5430102348        1455615655.8044655     
   994138294.76438928        4058779.5541498065        1463590234.1589966     
   759320022.65706265        6598975.8596010208        1479130012.0531869     
   734970507.13058639        5280914.5420998931        1474370260.9557571     
   710682972.46449304        4169456.0925449431        1473884188.1576684     
   686457418.65878212        3264600.5109320283        1477671793.6589234     
   662293845.71345568        2566347.7972653806        1485733077.4595218     
   381329667.40442222        3800384.7525811046        1501790077.9564357     
   368679368.43935883        2998691.7332796156        1496082240.2793446     
   356060059.90448868        2300300.1479567587        1494980959.7428777     
   343471741.79980981        1705209.9966032952        1498486236.3470306     
   330914414.12532175        1213421.2792208493        1506598070.0918071     
  -2.6215293672124232E-005   1.8780764489366485E-005   1523316915.1990016     
  -2.3195731050204161E-005   1.6355964202067040E-005   1516624835.4403656     
  -1.8529134270873145E-005   1.9421277772804076E-005   1514872191.6636291     
  -1.5749764130242176E-005   1.5675418838414602E-005   1518058983.8687904     
  -1.3039020412836660E-005   1.2741639245526349E-005   1526185212.0558524     
   1326447761.2781270        5690716.5498821735        1440169540.1902320     
   1271474735.4109759        2992671.3775804043        1429834921.1543417     
   1216834159.4151301        1402792.4429640770        1424629609.9272208     
   1162526033.2905941        921079.74604767561        1424553606.5088670     
   1108550357.0373626        1547533.2868129015        1429606910.8992815     
   994138294.76438928        4058779.5541498065        1463590234.1589966     
   952739814.28485096        1984632.3511756659        1453777430.1046171     
   911590671.20879304        741609.82647001743        1449133299.7774801     
   870690865.53621221        329711.98002409935        1449657843.1775858     
   830040397.26711261        748938.81184601784        1455351060.3049338     
   662293845.71345568        2566347.7972653806        1485733077.4595218     
   634582384.67430961        1149840.7794434130        1476345123.8408546     
   607037148.57081950        287416.88047504425        1472165209.8679035     
   579658137.40298009       -20923.899657934904        1473193335.5406682     
   552445351.17079723        224818.43906453252        1479429500.8591514     
   330914414.12532175        1213421.2792208493        1506598070.0918071     
   317002446.57935274        488296.66238941252        1497538002.3630562     
   303173591.50120974        40213.604979157448        1493725340.1984899     
   289427848.89089835       -130827.89299316704        1495160083.5981216     
   275765218.74841517       -24827.831539452076        1501842232.5619402     
  -1.3039020412836660E-005   1.2741639245526349E-005   1526185212.0558524     
  -2.0587926967636830E-005   1.0476967279086298E-005   1517356065.6712162     
  -2.3538863166331444E-005   2.4579697251917529E-005   1513813690.7692463     
  -3.2872056724993470E-005   1.6367401939271282E-005   1515558087.3499393     
  -3.5136728691433525E-005   3.2757679352951049E-005   1522589255.4132988     
   1108550357.0373626        1547533.2868129015        1429606910.8992815     
   1065975863.1102828        6007696.0710939169        1430307024.5165503     
   1023341460.7705787        10268164.146631122        1436602039.1123159     
   980647150.01825154        14328937.513421655        1448491954.6865783     
   937892930.85330272        18190016.171475887        1465976771.2393441     
   830040397.26711261        748938.81184601784        1455351060.3049338     
   801050686.31645167        4976408.7484573126        1455967101.9291461     
   772016044.05632305        9054107.6535100639        1461491773.9831107     
   742936470.48672545        12982035.527000606        1471925076.4668202     
   713811965.60766995        16760192.368962228        1487267009.3802772     
   552445351.17079723        224818.43906453252        1479429500.8591514     
   535079650.20012265        3631363.6290712953        1479978943.7773304     
   517683995.02313900        6938061.4647137821        1484750746.5765080     
   500258385.63984662        10144911.945993751        1493744909.2566803     
   482802822.05024517        13251915.072909355        1506961431.8178515     
   275765218.74841517       -24827.831539452076        1501842232.5619402     
   268062754.76129493        1972560.7129307091        1502342550.0610995     
   260345313.67102519        3920025.5802335441        1506378956.8925071     
   252612895.47760683        5817566.7703751773        1513951453.0561633     
   244865500.18102923        7665184.2833199203        1525060038.5520618     
  -3.5136728691433525E-005   3.2757679352951049E-005   1522589255.4132988     
  -2.7908078778352149E-005   4.9914285159315069E-005   1523057920.7804587     
  -1.5646824495403994E-005   8.1070681303672138E-005   1526376404.9311111     
   3.6600759053576716E-007   1.2646706026731136E-004   1532544707.8652611     
   2.5254523746967853E-005   2.0075516340886760E-004   1541562829.5829022     
   937892930.85330272        18190016.171475887        1465976771.2393441     
   883828775.76022792        19401838.644962430        1457494599.2118330     
   830314896.94387352        22447915.374181122        1448479459.2266693     
   777351294.40424120        27328246.359141350        1438931351.2838631     
   724937968.14133239        34042831.599851698        1428850275.3833976     
   713811965.60766995        16760192.368962228        1487267009.3802772     
   660907276.08840811        13962087.264237940        1478363315.5160637     
   608415293.77668726        12539672.851315260        1471809854.1074030     
   556336018.67250168        12492949.130175471        1467606625.1542974     
   504669450.77584946        13821916.100817174        1465753628.6567466     
   482802822.05024517        13251915.072909355        1506961431.8178515     
   439295313.57110590        8915197.0298787057        1497475718.8695450     
   396062943.23031735        5495606.1146846563        1493223438.7900000     
   353105711.02788115        2993142.3273321390        1494204591.5792160     
   310423616.96379173        1407805.6678035557        1500419177.2371979     
   244865500.18102923        7665184.2833199203        1525060038.5520618     
   218992888.20831683        4261167.9418751001        1514831809.2722774     
   193257845.30477208        1315715.1643229499        1512720213.2744648     
   167660371.47038499       -1171174.0493706241        1518725250.5586288     
   142200466.70516473       -3199499.6991775110        1532846921.1247499     
   2.5254523746967853E-005   2.0075516340886760E-004   1541562829.5829022     
   4.0169333061300315E-005   2.1855228249866921E-004   1530431586.7242644     
   3.8156291313353592E-005   1.8131101016165505E-004   1530300177.5608034     
   1.2604386399075439E-005   6.4566026517949950E-005   1541168602.0925164     
  -3.6783762848844474E-005  -1.3093921551417023E-004   1563036860.3193984     
   7.1485857526516780E-005   2.1445757257955034E-005   656403933.03601158     
   2.5672001154922702E-005  -5.3031068547471201E-005   770899496.27626383     
  -1.0171007808872806E-005  -9.4228368240002828E-005   885585658.86911714     
  -3.6239040614492417E-005  -1.0277736194159896E-004   1000462420.8145726     
  -5.2339085446614521E-005  -7.8099729064870106E-005   1115529782.1126285     
  -448407860.29715341       -134522358.08914602        657881443.73947418     
  -447578139.11541593       -125482299.17820723        774081304.46568167     
  -446017811.18752259       -114006884.44674881        888642645.46119487     
  -443726876.51347339       -100096113.89477062        1001565466.7260144     
  -440705335.09326828       -83749987.522272676        1112849768.2601395     
  -890550949.85436034       -267165284.95630813        662313975.84992015     
  -894117562.01454103       -250652983.49146646        781070508.59925330     
  -896222960.68241966       -229269970.38561845        896359402.53459668     
  -896867145.85799658       -203016245.63876414        1008180657.6559505     
  -896050117.54127169       -171891809.25090355        1116534273.9633150     
  -1326429268.6715498       -397928780.60146493        669701529.36734951     
  -1339618268.6973498       -375512052.93983084        791867108.67697835     
  -1350615448.4847016       -345789257.81670374        908735930.08932221     
  -1359420808.0336058       -308760395.23208338        1020307993.6043813     
  -1366034347.3440621       -264425465.18597052        1126583299.2221551     
  -1756042816.7487214       -526812845.02461636        680044104.29176223     
  -1784080259.1638417       -500059507.52330029        806471104.69885743     
  -1809195274.5943682       -463564746.74000436        925772228.12537217     
  -1831387863.0403013       -417328562.67472887        1037947474.5713063     
  -1850658024.5016394       -361350955.32747352        1142996844.0366600     
  -5.2339085446614521E-005  -7.8099729064870106E-005   1115529782.1126285     
  -3.7876066751849648E-005  -3.6134671262503702E-005   1188635828.2968962     
  -2.9513651138397717E-005  -1.3941171934821302E-005   1258575410.8427498     
  -2.5575137817974272E-005  -6.8626423225456097E-006   1325348529.7501881     
  -2.6924433378787275E-005  -1.7236669966793725E-005   1388955185.0192115     
  -440705335.09326828       -83749987.522272676        1112849768.2601395     
  -442755682.48400712       -69095532.689594045        1181027365.4950218     
  -445648793.69554162       -57250290.592901155        1247412438.7986693     
  -449384668.72787142       -48214261.232193142        1312004988.1710820     
  -453963307.58099687       -41987444.607470080        1374805013.6122615     
  -896050117.54127169       -171891809.25090355        1116534273.9633150     
  -896225270.30224812       -141405236.97943345        1178800197.7912228     
  -898085950.70481110       -116537090.17991725        1240647537.3950760     
  -901632158.74895918       -97287368.852351576        1302076292.7748752     
  -906863894.43469322       -83656072.996739626        1363086463.9306207     
  -1366034347.3440621       -264425465.18597052        1126583299.2221551     
  -1360408763.4547615       -216929112.86955434        1181954325.1854997     
  -1357311471.0278373       -177860398.76105872        1238280706.6319706     
  -1356742470.0632892       -147219322.86048269        1295562443.5615673     
  -1358701760.5611167       -125005885.16782749        1353799535.9742906     
  -1850658024.5016394       -361350955.32747352        1142996844.0366600     
  -1835306161.9415476       -295667160.35995716        1190489747.6778531     
  -1823325354.6646214       -241220216.33632940        1240311946.5093522     
  -1814715602.6708612       -198010123.25658631        1292463440.5311582     
  -1809476905.9602680       -166036881.12073451        1346944229.7432699     
  -2.6924433378787275E-005  -1.7236669966793725E-005   1388955185.0192115     
  -8.6354915892032274E-006  -2.4448163274068738E-005   1409604021.0901351     
   1.2844578880364534E-005  -2.0502143938605011E-005   1433518323.0020733     
   3.6697979819812652E-005  -8.8184953844711093E-006   1460698090.7550259     
   6.4005577394942061E-005   1.4205669607669414E-005   1491143324.3489947     
  -453963307.58099687       -41987444.607470080        1374805013.6122615     
  -443617773.76728117       -33050428.667481348        1395320170.0743265     
  -433594565.68317980       -25187831.826206446        1418465575.3351438     
  -423893683.32869303       -18399654.083647668        1444241229.3947146     
  -414515126.70382071       -12685895.439802513        1472647132.2530394     
  -906863894.43469322       -83656072.996739626        1363086463.9306207     
  -887987732.64231431       -66326512.867266327        1383091894.0992734     
  -869756222.30916655       -51145790.935230494        1405092356.0244164     
  -852169363.43525112       -38113907.200636655        1429087849.7060528     
  -835227156.02056694       -27230861.663478583        1455078375.1441789     
  -1358701760.5611167       -125005885.16782749        1353799535.9742906     
  -1333109876.6251082       -99828252.599379182        1372919193.1649768     
  -1308484969.8779478       -77873877.327092946        1393398665.0698934     
  -1284827040.3196378       -59142759.350973368        1415237951.6890399     
  -1262136087.9501758       -43634898.671014607        1438437053.0224147     
  -1809476905.9602680       -166036881.12073451        1346944229.7432699     
  -1778984205.7156620       -133555647.86382020        1364802067.2714374     
  -1749780808.3895226       -105372091.00179118        1383384502.4715724     
  -1721866713.9818518       -81486210.534659028        1402691535.3436756     
  -1695241922.4926443       -61898006.462404370        1422723165.8877468     
   6.4005577394942061E-005   1.4205669607669414E-005   1491143324.3489947     
   4.3920910864291903E-005   2.3584614115148413E-005   1495410641.0458241     
   2.2600968715583546E-005   2.8845973229100051E-005   1502195345.0864329     
   0.0000000000000000        2.9663771439203398E-005   1511497436.4708261     
  -2.6215293672124232E-005   1.8780764489366485E-005   1523316915.1990016     
  -414515126.70382071       -12685895.439802513        1472647132.2530394     
  -405556405.70648634       -8256663.8596635610        1474905159.4753466     
  -397039255.49081987       -5299334.8850851506        1480514992.8333464     
  -388963676.05681813       -3813908.5160552859        1489476632.3270361     
  -381329667.40448469       -3800384.7525848597        1501790077.9564176     
  -835227156.02056694       -27230861.663478583        1455078375.1441789     
  -814925660.33470953       -17657182.395860463        1454811946.9800236     
  -795507306.21218407       -11027308.339347512        1458731743.7434685     
  -776972093.65299106       -7341239.4939417541        1466837765.4345145     
  -759320022.65713024       -6598975.8596446216        1479130012.0531595     
  -1262136087.9501758       -43634898.671014607        1438437053.0224147     
  -1228107763.8846259       -28201555.608561099        1435131003.5598538     
  -1195404152.1640730       -17183920.362766325        1436845597.8168008     
  -1164025252.7885196       -10581992.933633983        1443580835.7932570     
  -1133971065.7579632       -8395773.3211606145        1455336717.4892235     
  -1695241922.4926443       -61898006.462404370        1422723165.8877468     
  -1645102716.3562360       -39889783.497776330        1415862329.2148364     
  -1596729793.3464894       -23769170.955352485        1414856555.0533442     
  -1550123153.4634056       -13536168.835139096        1419705843.4032705     
  -1505282796.7069840       -9190777.1371330023        1430410194.2646141     
  -2.6215293672124232E-005   1.8780764489366485E-005   1523316915.1990016     
  -2.3195731050204161E-005   1.6355964202067040E-005   1516624835.4403656     
  -1.8529134270873145E-005   1.9421277772804076E-005   1514872191.6636291     
  -1.5749764130242176E-005   1.5675418838414602E-005   1518058983.8687904     
  -1.3039020412836660E-005   1.2741639245526349E-005   1526185212.0558524     
  -381329667.40448469       -3800384.7525848597        1501790077.9564176     
  -368679368.43941432       -2998691.7332804650        1496082240.2793303     
  -356060059.90453589       -2300300.1479492784        1494980959.7428629     
  -343471741.79985052       -1705209.9965942651        1498486236.3470163     
  -330914414.12535799       -1213421.2792167366        1506598070.0917888     
  -759320022.65713024       -6598975.8596446216        1479130012.0531595     
  -734970507.13064945       -5280914.5421321392        1474370260.9557295     
  -710682972.46455252       -4169456.0925694406        1473884188.1576414     
  -686457418.65883994       -3264600.5109522939        1477671793.6588914     
  -662293845.71351337       -2566347.7972876728        1485733077.4594846     
  -1133971065.7579632       -8395773.3211606145        1455336717.4892235     
  -1098873416.0737262       -6846668.4265354276        1451488897.4695613     
  -1063868737.6800660       -5607467.8338328600        1451581876.9079604     
  -1028957030.5769835       -4678171.5430557132        1455615655.8044193     
  -994138294.76447868       -4058779.5542041659        1463590234.1589415     
  -1505282796.7069840       -9190777.1371330023        1430410194.2646141     
  -1460388095.2686470       -7695953.3864911795        1427438149.8208272     
  -1415617355.5510814       -6614335.3717558384        1428074025.9938216     
  -1370970577.5542810       -5945923.0929059386        1432317822.7835987     
  -1326447761.2782540       -5690716.5499635339        1440169540.1901550     
  -1.3039020412836660E-005   1.2741639245526349E-005   1526185212.0558524     
  -2.0587926967636830E-005   1.0476967279086298E-005   1517356065.6712162     
  -2.3538863166331444E-005   2.4579697251917529E-005   1513813690.7692463     
  -3.2872056724993470E-005   1.6367401939271282E-005   1515558087.3499393     
  -3.5136728691433525E-005   3.2757679352951049E-005   1522589255.4132988     
  -330914414.12535799       -1213421.2792167366        1506598070.0917888     
  -317002446.57940018       -488296.66238491237        1497538002.3630371     
  -303173591.50126874       -40213.604973152280        1493725340.1984763     
  -289427848.89096379        130827.89301608503        1495160083.5981088     
  -275765218.74848384        24827.831589624286        1501842232.5619347     
  -662293845.71351337       -2566347.7972876728        1485733077.4594846     
  -634582384.67437077       -1149840.7794675827        1476345123.8408172     
  -607037148.57087994       -287416.88048404455        1472165209.8678722     
  -579658137.40304005        20923.899662256241        1473193335.5406468     
  -552445351.17085123       -224818.43902742863        1479429500.8591435     
  -994138294.76447868       -4058779.5542041659        1463590234.1589415     
  -952739814.28492892       -1984632.3512265086        1453777430.1045640     
  -911590671.20885468       -741609.82649886608        1449133299.7774334     
  -870690865.53625917       -329711.98003447056        1449657843.1775544     
  -830040397.26713705       -748938.81181752682        1455351060.3049207     
  -1326447761.2782540       -5690716.5499635339        1440169540.1901550     
  -1271474735.4110727       -2992671.3776544929        1429834921.1542699     
  -1216834159.4151928       -1402792.4430203438        1424629609.9271612     
  -1162526033.2906168       -921079.74606382847        1424553606.5088282     
  -1108550357.0373461       -1547533.2867913246        1429606910.8992727     
  -3.5136728691433525E-005   3.2757679352951049E-005   1522589255.4132988     
  -2.7908078778352149E-005   4.9914285159315069E-005   1523057920.7804587     
  -1.5646824495403994E-005   8.1070681303672138E-005   1526376404.9311111     
   3.6600759053576716E-007   1.2646706026731136E-004   1532544707.8652611     
   2.5254523746967853E-005   2.0075516340886760E-004   1541562829.5829022     
  -275765218.74848384        24827.831589624286        1501842232.5619347     
  -268062754.76135209       -1972560.7128512561        1502342550.0611060     
  -260345313.67106816       -3920025.5801190436        1506378956.8925219     
  -252612895.47762445       -5817566.7701874822        1513951453.0561819     
  -244865500.18102890       -7665184.2830825150        1525060038.5520875     
  -552445351.17085123       -224818.43902742863        1479429500.8591435     
  -535079650.20016998       -3631363.6290063858        1479978943.7773345     
  -517683995.02318376       -6938061.4646343887        1484750746.5765238     
  -500258385.63988930       -10144911.945903361        1493744909.2567053     
  -482802822.05029196       -13251915.072825104        1506961431.8178818     
  -830040397.26713705       -748938.81181752682        1455351060.3049207     
  -801050686.31647933       -4976408.7484060526        1455967101.9291475     
  -772016044.05636549       -9054107.6534730196        1461491773.9831152     
  -742936470.48679030       -12982035.527005106        1471925076.4668298     
  -713811965.60776341       -16760192.369028568        1487267009.3802860     
  -1108550357.0373461       -1547533.2867913246        1429606910.8992727     
  -1065975863.1102823       -6007696.0710537434        1430307024.5165386     
  -1023341460.7706114       -10268164.146631002        1436602039.1122992     
  -980647150.01832938       -14328937.513499141        1448491954.6865520     
  -937892930.85344422       -18190016.171694875        1465976771.2393019     
   2.5254523746967853E-005   2.0075516340886760E-004   1541562829.5829022     
   4.0169333061300315E-005   2.1855228249866921E-004   1530431586.7242644     
   3.8156291313353592E-005   1.8131101016165505E-004   1530300177.5608034     
   1.2604386399075439E-005   6.4566026517949950E-005   1541168602.0925164     
  -3.6783762848844474E-005  -1.3093921551417023E-004   1563036860.3193984     
  -244865500.18102890       -7665184.2830825150        1525060038.5520875     
  -218992888.20828408       -4261167.9416021556        1514831809.2722681     
  -193257845.30472308       -1315715.1640678123        1512720213.2744219     
  -167660371.47034752        1171174.0495181605        1518725250.5585458     
  -142200466.70514664        3199499.6991796121        1532846921.1246445     
  -482802822.05029196       -13251915.072825104        1506961431.8178818     
  -439295313.57112193       -8915197.0297902822        1497475718.8695316     
  -396062943.23029172       -5495606.1145558208        1493223438.7899513     
  -353105711.02780890       -2993142.3271419555        1494204591.5791340     
  -310423616.96366489       -1407805.6675257087        1500419177.2370825     
  -713811965.60776341       -16760192.369028568        1487267009.3802860     
  -660907276.08846581       -13962087.264323503        1478363315.5160532     
  -608415293.77667320       -12539672.851299345        1471809854.1073813     
  -556336018.67237878       -12492949.129936308        1467606625.1542687     
  -504669450.77558774       -13821916.100255758        1465753628.6567228     
  -937892930.85344422       -18190016.171694875        1465976771.2393019     
  -883828775.76032221       -19401838.645220518        1457494599.2118316     
  -830314896.94385791       -22447915.374268800        1448479459.2267172     
  -777351294.40406096       -27328246.358875573        1438931351.2839596     
  -724937968.14092124       -34042831.599008948        1428850275.3835564     
  -1756042816.7487214       -526812845.02461636        680044104.29176223     
  -1784080259.1638417       -500059507.52330029        806471104.69885743     
  -1809195274.5943682       -463564746.74000436        925772228.12537217     
  -1831387863.0403013       -417328562.67472887        1037947474.5713063     
  -1850658024.5016394       -361350955.32747352        1142996844.0366600     
  -2201668694.6414509       -660500608.39243519        696442484.02806759     
  -2238346500.7250628       -613870969.17713249        813872030.96075559     
  -2272984551.3949490       -560442145.24941134        927194182.42580283     
  -2305582846.6511106       -500214136.60927248        1036408938.4232094     
  -2336141386.4935460       -433186943.25671518        1141516298.9529753     
  -2685584002.9053130       -805675200.87159395        721997451.98117471     
  -2722277939.7633033       -736581990.07407057        829399761.94010913     
  -2757814792.7784367       -663631833.13369060        935713157.94434226     
  -2792194561.9507117       -586824730.05045366        1040937639.9938750     
  -2825417247.2801313       -506160680.82436055        1145073208.0887060     
  -3207788741.5403094       -962336622.46209276        756709008.15108347     
  -3235874576.2785630       -868192570.21411443        853054297.63691747     
  -3263685998.7448287       -773133810.39284110        951329154.68099058     
  -3291223008.9391055       -677160342.99827242        1051533579.2833022     
  -3318485606.8613949       -580272168.03040934        1153667571.4438527     
  -3768282910.5464387       -1130484873.1639316        800577152.53779411     
  -3779136410.2708430       -1008702709.5972643        884835638.05118144     
  -3790598169.2941279       -888948077.02686369        974042172.63574731     
  -3802668187.6162930       -771220975.45272982        1068196756.2914917     
  -3815346465.2373381       -655521404.87486231        1167299389.0184150     
  -1850658024.5016394       -361350955.32747352        1142996844.0366600     
  -1835306161.9415476       -295667160.35995716        1190489747.6778531     
  -1823325354.6646214       -241220216.33632940        1240311946.5093522     
  -1814715602.6708612       -198010123.25658631        1292463440.5311582     
  -1809476905.9602680       -166036881.12073451        1346944229.7432699     
  -2336141386.4935460       -433186943.25671518        1141516298.9529753     
  -2312477610.1157217       -352093179.50305802        1182768841.4769907     
  -2292304220.6669927       -282634038.84638751        1224529722.0275383     
  -2275621218.1473594       -224809521.28670377        1266798940.6046185     
  -2262428602.5568218       -178619626.82400382        1309576497.2082305     
  -2825417247.2801313       -506160680.82436055        1145073208.0887060     
  -2798644291.8382139       -411217768.71065515        1179946169.2419596     
  -2775481054.9713235       -328307251.84703553        1213506511.2579713     
  -2755927536.6794562       -257429130.23349833        1245754234.1367409     
  -2739983736.9626179       -198583403.87004876        1276689337.8782694     
  -3318485606.8613949       -580272168.03040934        1153667571.4438527     
  -3293806207.1090269       -473040927.98274791        1182021730.9727600     
  -3272855857.5776134       -378239855.33827055        1207242314.2006509     
  -3255634558.2671542       -295868950.09697556        1229329321.1275263     
  -3242142309.1776514       -225928212.25886321        1248282751.7533844     
  -3815346465.2373381       -655521404.87486231        1167299389.0184150     
  -3797963355.9281569       -537562657.31933558        1188995526.6693909     
  -3784428628.4858637       -432431849.32009244        1205737130.8555765     
  -3774742282.9104519       -340128980.87712979        1217524201.5769727     
  -3768904319.2019262       -260654051.99045122        1224356738.8335781     
  -1809476905.9602680       -166036881.12073451        1346944229.7432699     
  -1778984205.7156620       -133555647.86382020        1364802067.2714374     
  -1749780808.3895226       -105372091.00179118        1383384502.4715724     
  -1721866713.9818518       -81486210.534659028        1402691535.3436756     
  -1695241922.4926443       -61898006.462404370        1422723165.8877468     
  -2262428602.5568218       -178619626.82400382        1309576497.2082305     
  -2223315545.3874125       -134323961.19514573        1317615447.9293406     
  -2187088163.6894560       -99647213.804461598        1328834437.2963450     
  -2153746457.4629536       -74589384.651958466        1343233465.3092442     
  -2123290426.7079046       -59150473.737630963        1360812531.9680369     
  -2739983736.9626179       -198583403.87004876        1276689337.8782694     
  -2685234777.2286143       -140368642.17730558        1273046967.1471703     
  -2634967865.5190501       -97094040.566030145        1275040076.0358920     
  -2589183001.8339272       -68759599.036222577        1282668664.5444341     
  -2547880186.1732445       -55365317.587883592        1295932732.6727958     
  -3242142309.1776514       -225928212.25886321        1248282751.7533844     
  -3164741901.2392650       -151689690.81030083        1231096624.9249251     
  -3093419913.8783059       -97712571.286497116        1222001418.6902137     
  -3028176347.0947733       -63996853.687448621        1220997133.0492487     
  -2969011200.8886690       -50542538.013159633        1228083768.0020304     
  -3768904319.2019262       -260654051.99045122        1224356738.8335781     
  -3661836917.4193673       -168287107.09413075        1191764421.2626073     
  -3562444308.7672219       -101502805.96586108        1169718465.2593105     
  -3470726493.2454886       -60301148.605631828        1158218870.8236852     
  -3386683470.8541737       -44682135.013459682        1157265637.9557338     
  -1695241922.4926443       -61898006.462404370        1422723165.8877468     
  -1645102716.3562360       -39889783.497776330        1415862329.2148364     
  -1596729793.3464894       -23769170.955352485        1414856555.0533442     
  -1550123153.4634056       -13536168.835139096        1419705843.4032705     
  -1505282796.7069840       -9190777.1371330023        1430410194.2646141     
  -2123290426.7079046       -59150473.737630963        1360812531.9680369     
  -2059712430.4509146       -40079608.834781766        1353043003.8051479     
  -1997405661.3567970       -25246167.808176041        1350433795.8532391     
  -1936370119.4255502       -14650150.657807827        1352984908.1123068     
  -1876605804.6571774       -8291557.3836799860        1360696340.5823543     
  -2547880186.1732445       -55365317.587883592        1295932732.6727958     
  -2472848377.7969327       -39827304.147195935        1287832078.3110213     
  -2398592740.6196985       -26876528.036776304        1284197001.8597836     
  -2325113274.6415491       -16512989.256632924        1285027503.3190851     
  -2252409979.8624797       -8736687.8067562580        1290323582.6889248     
  -2969011200.8886690       -50542538.013159633        1228083768.0020304     
  -2884510558.3942895       -39132869.435009122        1220229552.7324553     
  -2800291031.1352000       -28660251.641160488        1216146173.0729787     
  -2716352619.1114001       -19124684.631611824        1215833629.0236011     
  -2632695322.3228927       -10526168.406365871        1219291920.5843222     
  -3386683470.8541737       -44682135.013459682        1157265637.9557338     
  -3294698972.2429843       -37996304.698223710        1150235427.0694497     
  -3202500532.9032936       -30597338.621316314        1146281309.4928236     
  -3110088152.8351064       -22485236.782751679        1145403285.2258563     
  -3017461832.0384145       -13659999.182511330        1147601354.2685475     
  -1505282796.7069840       -9190777.1371330023        1430410194.2646141     
  -1460388095.2686470       -7695953.3864911795        1427438149.8208272     
  -1415617355.5510814       -6614335.3717558384        1428074025.9938216     
  -1370970577.5542810       -5945923.0929059386        1432317822.7835987     
  -1326447761.2782540       -5690716.5499635339        1440169540.1901550     
  -1876605804.6571774       -8291557.3836799860        1360696340.5823543     
  -1821323460.8284385       -5720714.0171421766        1356148619.7262611     
  -1766380763.6559753       -4282026.1715251207        1355735160.1807947     
  -1711777713.1397822       -3975493.8468086720        1359455961.9459584     
  -1657514309.2798672       -4801117.0430178642        1367311025.0217483     
  -2252409979.8624797       -8736687.8067562580        1290323582.6889248     
  -2185236163.0894909       -4638675.6581735611        1283948552.9957688     
  -2118617677.9082830       -2391768.8155205250        1282234125.3070886     
  -2052554524.3188512       -1995967.2787899971        1285180299.6228821     
  -1987046702.3211968       -3451271.0479853153        1292787075.9431543     
  -2632695322.3228927       -10526168.406365871        1219291920.5843222     
  -2552126202.0518074       -4449838.3095829487        1210837949.6293499     
  -2472328098.3080039       -943563.30373883247        1207570921.3726983     
  -2393301011.0914807       -7343.3888320922852        1209490835.8143718     
  -2315044940.4022412       -1641178.5648665428        1216597692.9543655     
  -3017461832.0384145       -13659999.182511330        1147601354.2685475     
  -2921993577.7153854       -5154201.9713716507        1136816809.6270049     
  -2827512024.8551388        62590.363816022873        1131745548.3776302     
  -2734017173.4576788        1990377.8230531216        1132387570.5204263     
  -2641509023.5230055        629160.40633618832        1138742876.0553896     
  -1326447761.2782540       -5690716.5499635339        1440169540.1901550     
  -1271474735.4110727       -2992671.3776544929        1429834921.1542699     
  -1216834159.4151928       -1402792.4430203438        1424629609.9271612     
  -1162526033.2906168       -921079.74606382847        1424553606.5088282     
  -1108550357.0373461       -1547533.2867913246        1429606910.8992727     
  -1657514309.2798672       -4801117.0430178642        1367311025.0217483     
  -1589525754.4176629       -2477943.0978045464        1357064882.1546314     
  -1521836287.9492509       -1151730.4652350545        1351787885.6042364     
  -1454445909.8746338       -822479.14531403780        1351480035.3705654     
  -1387354620.1938119       -1490189.1380428076        1356141331.4536219     
  -1987046702.3211968       -3451271.0479853153        1292787075.9431543     
  -1906500222.7269747       -1640249.6087727547        1282668330.9685612     
  -1826219470.0490367       -714984.55717420578        1277358570.8186417     
  -1746204444.2873852       -675475.89319467545        1276857795.4933960     
  -1666455145.4420199       -1521723.6168336868        1281166004.9928215     
  -2315044940.4022412       -1641178.5648665428        1216597692.9543655     
  -2222398140.3390102       -479590.91056406498        1206645267.5960631     
  -2129983705.7145505       -92554.718830227852        1201341665.5703809     
  -2037801636.5288675       -480069.98969268799        1200686886.8773189     
  -1945851932.7819612       -1642136.7231395245        1204680931.5168808     
  -2641509023.5230055        629160.40633618832        1138742876.0553896     
  -2537219507.2537622        1004032.9968465567        1128995692.0371351     
  -2433128994.9457870        715559.04980266094        1123737169.8594491     
  -2329237486.5990810       -236261.43480455875        1122967309.5223329     
  -2225544982.2136393       -1851428.4569629431        1126686111.0257893     
  -1108550357.0373461       -1547533.2867913246        1429606910.8992727     
  -1065975863.1102823       -6007696.0710537434        1430307024.5165386     
  -1023341460.7706114       -10268164.146631002        1436602039.1122992     
  -980647150.01832938       -14328937.513499141        1448491954.6865520     
  -937892930.85344422       -18190016.171694875        1465976771.2393019     
  -1387354620.1938119       -1490189.1380428076        1356141331.4536219     
  -1331335383.7118340       -5777734.5610185862        1356388704.8086143     
  -1275213687.0584254       -9723746.0792344809        1361343452.0670559     
  -1218989530.2335913       -13328223.692689955        1371005573.2289505     
  -1162662913.2373312       -16591167.401392341        1385375068.2942932     
  -1666455145.4420199       -1521723.6168336868        1281166004.9928215     
  -1599526958.0480986       -6397389.1713973284        1281010281.8041620     
  -1532453758.7239337       -10789681.625139534        1284674405.4439070     
  -1465235547.4695289       -14698600.978083491        1292158375.9120629     
  -1397872324.2848749       -18124147.230203509        1303462193.2086258     
  -1945851932.7819612       -1642136.7231395245        1204680931.5168808     
  -1870550586.1190798       -7866659.9021843672        1204171755.5031843     
  -1795061675.7671354       -13465970.784359336        1206594899.2428546     
  -1719385201.7261314       -18440069.369669914        1211950362.7358899     
  -1643521163.9960678       -22788955.658107817        1220238145.9822938     
  -2225544982.2136393       -1851428.4569629431        1126686111.0257893     
  -2144406267.9247775       -10185546.753401399        1125873125.9056802     
  -2063037438.1880291       -17752613.556881666        1127104933.4638944     
  -1981438493.0034139       -24552628.867472291        1130381533.7004335     
  -1899609432.3709085       -30585592.685096502        1135702926.6152935     
  -937892930.85344422       -18190016.171694875        1465976771.2393019     
  -883828775.76032221       -19401838.645220518        1457494599.2118316     
  -830314896.94385791       -22447915.374268800        1448479459.2267172     
  -777351294.40406096       -27328246.358875573        1438931351.2839596     
  -724937968.14092124       -34042831.599008948        1428850275.3835564     
  -1162662913.2373312       -16591167.401392341        1385375068.2942932     
  -1106826459.7087550       -20655082.836425722        1374150533.4325604     
  -1051523624.1665573       -26497724.892726541        1365480448.3160868     
  -996754406.61074114       -34119093.570298135        1359364812.9448745     
  -942518807.04130840       -43519188.869140297        1355803627.3189359     
  -1397872324.2848749       -18124147.230203509        1303462193.2086258     
  -1331442378.8839602       -22393797.595667720        1289514730.1846175     
  -1265529393.1791482       -28386646.948139250        1281209134.6087773     
  -1200133367.1704352       -36102695.287620127        1278545406.4811070     
  -1135254300.8578289       -45541942.614111483        1281523545.8016169     
  -1643521163.9960678       -22788955.658107817        1220238145.9822938     
  -1557676533.2859385       -24617982.922939181        1203587189.4680030     
  -1472332203.9816279       -28114681.540511549        1195665518.1047876     
  -1387488176.0831482       -33279051.510843515        1196473131.8926520     
  -1303144449.5904913       -40111092.833925426        1206010030.8316000     
  -1899609432.3709085       -30585592.685096502        1135702926.6152935     
  -1785528922.9146845       -27327638.818240762        1116367911.2827127     
  -1671932056.5740099       -25681828.669876933        1108849598.8041165     
  -1558818833.3488731       -25648162.239982784        1113147989.1795073     
  -1446189253.2392881       -27226639.528579652        1129263082.4088857     
  -3768282910.5464387       -1130484873.1639316        800577152.53779411     
  -3779136410.2708430       -1008702709.5972643        884835638.05118144     
  -3790598169.2941279       -888948077.02686369        974042172.63574731     
  -3802668187.6162930       -771220975.45272982        1068196756.2914917     
  -3815346465.2373381       -655521404.87486231        1167299389.0184150     
  -4339867532.9356470       -1301960259.8806942        858756430.51619768     
  -4335278339.6859722       -1125737128.5536947        942344367.14105797     
  -4331826596.1384792       -953305496.23397315        1020299949.0378020     
  -4329512302.2931719       -784665362.92153049        1092623176.2064292     
  -4328335458.1500463       -619816728.61636508        1159314048.6469395     
  -4895343631.7198811       -1468603089.5159643        936401387.46118522     
  -4905541470.6369705       -1247007907.9708858        1018701386.3936648     
  -4917405949.6595449       -1030968193.4440966        1084788626.7987323     
  -4930937068.7876062       -820483945.93559766        1134663108.6763875     
  -4946134828.0211554       -615555165.44538903        1168324832.0266314     
  -5434711206.8991413       -1630413362.0697424        1033512023.3727571     
  -5489925803.1238356       -1372515047.8488369        1113906695.8090014     
  -5547336229.8573217       -1121936168.6572337        1167508205.9185386     
  -5606942487.0995970       -878676724.49493253        1194316553.7013683     
  -5668744574.8506651       -642736715.36193275        1194331739.1574910     
  -5957970258.4734259       -1787391077.5420277        1150088338.2509129     
  -6088431337.1465712       -1502258548.1875498        1227960295.3870680     
  -6221617436.7318125       -1226209421.8733852        1268458686.3972206     
  -6357528557.2291451       -959243698.59953380        1271583511.2813709     
  -6496164698.6385727       -701361378.36599636        1237334770.0395181     
  -3815346465.2373381       -655521404.87486231        1167299389.0184150     
  -3797963355.9281569       -537562657.31933558        1188995526.6693909     
  -3784428628.4858637       -432431849.32009244        1205737130.8555765     
  -3774742282.9104519       -340128980.87712979        1217524201.5769727     
  -3768904319.2019262       -260654051.99045122        1224356738.8335781     
  -4328335458.1500463       -619816728.61636508        1159314048.6469395     
  -4298210849.2508240       -464107516.85301661        1141389175.4846706     
  -4278700715.0243492       -343779887.33216047        1129508343.7315726     
  -4269805055.4706230       -258833840.05379653        1123671553.3876469     
  -4271523870.5896420       -209269375.01792312        1123878804.4528921     
  -4946134828.0211554       -615555165.44538903        1168324832.0266314     
  -4871844219.8920002       -412668139.58225036        1102885173.1109443     
  -4814934179.2414551       -267716338.64781284        1054488130.4783905     
  -4775404706.0695229       -180699762.64207864        1023133704.1289685     
  -4753255800.3761988       -151618411.56504512        1008821894.0626798     
  -5668744574.8506651       -642736715.36193275        1194331739.1574910     
  -5518863467.8516874       -383244525.50703764        1073483519.5482125     
  -5393129021.1371851       -204241203.26705360        980676491.09602761     
  -5291541234.7071543       -105726748.64198065        915910653.80093753     
  -5214100108.5615969       -87701161.631819963        879186007.66294086     
  -6496164698.6385727       -701361378.36599636        1237334770.0395181     
  -6239268593.1298838       -375836674.62737727        1053184214.7964739     
  -6013285240.7115326       -153354481.18987894        908073425.58448672     
  -5818214641.3835173       -33914798.053503275        802002402.40355325     
  -5654056795.1458368       -17517625.218248367        734971145.25367618     
  -3768904319.2019262       -260654051.99045122        1224356738.8335781     
  -3661836917.4193673       -168287107.09413075        1191764421.2626073     
  -3562444308.7672219       -101502805.96586108        1169718465.2593105     
  -3470726493.2454886       -60301148.605631828        1158218870.8236852     
  -3386683470.8541737       -44682135.013459682        1157265637.9557338     
  -4271523870.5896420       -209269375.01792312        1123878804.4528921     
  -4148331733.6179724       -145017521.18006945        1090447670.8313048     
  -4029548790.2099705       -95462979.221110106        1065361916.0317763     
  -3915175040.3656373       -60605749.141042233        1048621540.0543054     
  -3805210484.0849676       -40445830.939859152        1040226542.8988931     
  -4753255800.3761988       -151618411.56504512        1008821894.0626798     
  -4620227450.3457489       -117368205.42476082        978361810.55168235     
  -4488342694.3122196       -86929979.274212599        954046123.11712670     
  -4357601532.2756100       -60303733.113392830        935874831.75901532     
  -4228003964.2359195       -37489466.942306757        923847936.47734606     
  -5214100108.5615969       -87701161.631819963        879186007.66294086     
  -5077524067.6026955       -85339159.828202963        855506840.42373741     
  -4938826021.0739670       -75903806.125161648        835771086.51536131     
  -4798005968.9754095       -59395100.522693634        819978745.93781447     
  -4655063911.3070240       -35813043.020801544        808129818.69109392     
  -5654056795.1458368       -17517625.218248367        734971145.25367618     
  -5520221585.3888121       -48930384.390396118        721882760.44747257     
  -5380998770.4952126       -62384459.773962259        710536806.22648001     
  -5236388350.4650354       -57879851.368943930        700933282.59070206     
  -5086390325.2982874       -35416559.175341368        693072189.54013515     
  -3386683470.8541737       -44682135.013459682        1157265637.9557338     
  -3294698972.2429843       -37996304.698223710        1150235427.0694497     
  -3202500532.9032936       -30597338.621316314        1146281309.4928236     
  -3110088152.8351064       -22485236.782751679        1145403285.2258563     
  -3017461832.0384145       -13659999.182511330        1147601354.2685475     
  -3805210484.0849676       -40445830.939859152        1040226542.8988931     
  -3702799851.0994029       -30123491.032688379        1032002180.6146536     
  -3600972157.2790561       -21744281.676241875        1027882633.8644445     
  -3499727402.6239271       -15308202.870527029        1027867902.6482654     
  -3399065587.1340179       -10815254.615540743        1031957986.9661154     
  -4228003964.2359195       -37489466.942306757        923847936.47734606     
  -4112227990.5206304       -22648855.536592722        913499729.58581281     
  -3997831835.8642807       -12407640.994004250        908285060.45268214     
  -3884815500.2668695       -6765823.3145432472        908203929.07795238     
  -3773178983.7283955       -5723402.4982061386        913256335.46162152     
  -4655063911.3070240       -35813043.020801544        808129818.69109392     
  -4522983390.5066671       -15572398.209942818        794728073.98292768     
  -4393079568.6589680       -2587416.5746023655        787488589.25753605     
  -4265352445.7639227        3141901.8852109909        786411364.51491702     
  -4139802021.8215389        1615557.1695024967        791496399.75506699     
  -5086390325.2982874       -35416559.175341368        693072189.54013515     
  -4935066051.0575161       -8894119.0527350903        675687213.80599809     
  -4786715355.6631193        7716391.5819532871        665493220.27900743     
  -4641338239.1150990        14414972.728723764        662490208.95915699     
  -4498934701.4134541        11201624.387576342        666678179.84645164     
  -3017461832.0384145       -13659999.182511330        1147601354.2685475     
  -2921993577.7153854       -5154201.9713716507        1136816809.6270049     
  -2827512024.8551388        62590.363816022873        1131745548.3776302     
  -2734017173.4576788        1990377.8230531216        1132387570.5204263     
  -2641509023.5230055        629160.40633618832        1138742876.0553896     
  -3399065587.1340179       -10815254.615540743        1031957986.9661154     
  -3290616867.2081375       -5706873.5562241077        1022568968.6785882     
  -3182719695.0575595       -2436985.0812476873        1018235659.6515032     
  -3075374070.6822853       -1005589.1906176805        1018958059.8848634     
  -2968579994.0823140       -1412685.8843301535        1024736169.3786680     
  -3773178983.7283955       -5723402.4982061386        913256335.46162152     
  -3653628581.4331636       -4576072.5607564449        905770522.83017218     
  -3534194573.2257538       -3816722.9160437584        902682845.32744324     
  -3414876959.1061611       -3445353.5640645027        903993302.95343220     
  -3295675739.0743947       -3461964.5048229694        909701895.70813596     
  -4139802021.8215389        1615557.1695024967        791496399.75506699     
  -4011028720.3904610       -1761798.9849731922        786421472.08176219     
  -3881936659.3597193       -4076623.1405692101        785087105.40544581     
  -3752525838.7293139       -5328915.2972950935        787493299.72612488     
  -3622796258.4992561       -5518675.4551560879        793640055.04379642     
  -4498934701.4134541        11201624.387576342        666678179.84645164     
  -4362817284.0800285        2735947.1711373329        664521816.43334925     
  -4225945953.4594603       -3216685.7548325062        665448439.88551486     
  -4088320709.5517473       -6656274.3903141022        669458050.20294893     
  -3949941552.3568878       -7582818.7353134155        676550647.38564909     
  -2641509023.5230055        629160.40633618832        1138742876.0553896     
  -2537219507.2537622        1004032.9968465567        1128995692.0371351     
  -2433128994.9457870        715559.04980266094        1123737169.8594491     
  -2329237486.5990810       -236261.43480455875        1122967309.5223329     
  -2225544982.2136393       -1851428.4569629431        1126686111.0257893     
  -2968579994.0823140       -1412685.8843301535        1024736169.3786680     
  -2852219412.0364790        64112.632009625435        1014833622.8631493     
  -2735957429.3078914        1212246.7575187683        1009473559.1215583     
  -2619794045.8965621        2031716.4921765327        1008655978.1538942     
  -2503729261.8024788        2522521.8360025883        1012380879.9601544     
  -3295675739.0743947       -3461964.5048229694        909701895.70813596     
  -3167090317.1566610       -837107.83405876160        899761125.44670856     
  -3038503089.9121680        1793766.5925800800        894416658.89256179     
  -2909914057.3409071        4430658.7750984430        893668496.04569721     
  -2781323219.4428873        7073568.7134990692        897516636.90611601     
  -3622796258.4992561       -5518675.4551560879        793640055.04379642     
  -3481832222.6143212       -1699628.4013748169        783778199.78780794     
  -3340765976.7586069        2460118.5549993515        778566469.17245638     
  -3199597520.9321213        6960565.4139631987        778004863.19774473     
  -3058326855.1348481        11801712.175529003        782093381.86366963     
  -3949941552.3568878       -7582818.7353134155        676550647.38564909     
  -3796445128.4094524       -2523449.0699317455        666884845.88645148     
  -3642746089.8472238        3211302.6447584629        661922989.96124697     
  -3488844436.6702008        9621436.4087622166        661665079.61003733     
  -3334740168.8783827        16706952.222083569        666111114.83282065     
  -2225544982.2136393       -1851428.4569629431        1126686111.0257893     
  -2144406267.9247775       -10185546.753401399        1125873125.9056802     
  -2063037438.1880291       -17752613.556881666        1127104933.4638944     
  -1981438493.0034139       -24552628.867472291        1130381533.7004335     
  -1899609432.3709085       -30585592.685096502        1135702926.6152935     
  -2503729261.8024788        2522521.8360025883        1012380879.9601544     
  -2416564332.2350993       -5868533.4444708824        1012164308.2415785     
  -2329440520.4491224       -14396647.996296525        1014551633.3629345     
  -2242357826.4445591       -23061821.819489121        1019542855.3242232     
  -2155316250.2213960       -31864054.914018393        1027137974.1254377     
  -2781323219.4428873        7073568.7134990692        897516636.90611601     
  -2686534634.1352568       -895191.41251027584        897580039.82157385     
  -2592058399.8383141       -9905121.5741502047        900806443.73857117     
  -2497894516.5520668       -19956221.771427870        907195848.65710568     
  -2404042984.2765064       -31048492.004338861        916748254.57717514     
  -3058326855.1348481        11801712.175529003        782093381.86366963     
  -2954317173.6252365        4734479.3425083160        782120320.64566338     
  -2850891076.3555970       -4278034.2904267311        785869364.59080398     
  -2748048563.3259358       -15235828.723274946        793340513.69908726     
  -2645789634.5362425       -28138903.956037879        804533767.97051752     
  -3334740168.8783827        16706952.222083569        666111114.83282065     
  -3219911950.7050467        11020478.820584536        665785150.71384943     
  -3105938550.0009747        2484613.8548719883        669740395.91963267     
  -2992819966.7661533       -8900642.6750158072        677976850.45016503     
  -2880556201.0006046       -23135290.769134879        690494514.30545294     
  -1899609432.3709085       -30585592.685096502        1135702926.6152935     
  -1785528922.9146845       -27327638.818240762        1116367911.2827127     
  -1671932056.5740099       -25681828.669876933        1108849598.8041165     
  -1558818833.3488731       -25648162.239982784        1113147989.1795073     
  -1446189253.2392881       -27226639.528579652        1129263082.4088857     
  -2155316250.2213960       -31864054.914018393        1027137974.1254377     
  -2013426475.8968480       -24694961.459805846        1008229910.9160943     
  -1871814132.9436524       -18450639.243423343        997994316.38515937     
  -1730479221.3617949       -13131088.264859438        996431190.53264415     
  -1589421741.1513011       -8736308.5241352320        1003540533.3585310     
  -2404042984.2765064       -31048492.004338861        916748254.57717514     
  -2243327471.2995725       -22663316.827552557        898507723.85930395     
  -2082683177.9497848       -14515540.407936811        885795427.64426529     
  -1922110104.2271485       -6605162.7454773188        878611365.93205941     
  -1761608250.1316617        1067816.1598113775        876955538.72269142     
  -2645789634.5362425       -28138903.956037879        804533767.97051752     
  -2475231909.1228528       -21232704.921466112        787201350.11234629     
  -2304539191.5924206       -13876532.163401246        772252932.58143580     
  -2133711481.9449260       -6070385.6818233728        759688515.37778175     
  -1962748780.1803923        2185734.5232472420        749508098.50138128     
  -2880556201.0006046       -23135290.769134879        690494514.30545294     
  -2709139789.3666921       -20403125.741547227        674310789.67521429     
  -2537382173.8715324       -16533614.509799600        657366831.19666147     
  -2365283354.5151191       -11526757.073884845        639662638.86978543     
  -2192843331.2974734       -5382553.4338288307        621198212.69459069     
  -5957970258.4734259       -1787391077.5420277        1150088338.2509129     
  -6088431337.1465712       -1502258548.1875498        1227960295.3870680     
  -6221617436.7318125       -1226209421.8733852        1268458686.3972206     
  -6357528557.2291451       -959243698.59953380        1271583511.2813709     
  -6496164698.6385727       -701361378.36599636        1237334770.0395181     
  -6810549859.8811035       -2043164957.9643309        1353817915.7400706     
  -6828501584.2355843       -1395466108.2719464        1202786022.8681979     
  -6897819661.0769615       -918988433.53588176        1092004202.4433219     
  -7018504090.4052372       -613731933.75613856        1021472454.4654428     
  -7190554872.2204056       -479696608.93271518        991190778.93456030     
  -8337879084.5605421       -2501363725.3681626        1712388339.4846470     
  -8021539630.1020775       -1424564007.9895868        1275704376.4341450     
  -7805207859.7053070       -681123237.48333764        956894124.40363824     
  -7688883773.3702374       -271041413.84941578        755957583.39312708     
  -7672567371.0968666       -194318537.08782339        672894753.40261209     
  -10539957932.511742       -3161987379.7535224        2225799609.4846439     
  -9667545474.7460461       -1589552247.3404701        1446715356.0849087     
  -8943782032.6168461       -512613833.71575165        863128452.27816856     
  -8368667606.1241503        68827861.120633125        475038898.06442249     
  -7942202195.2679529        154772837.16868162        282446693.44367296     
  -13416786403.734703       -4025035921.1204104        2894051725.7400599     
  -11766519118.167490       -1890430826.3245964        1715818961.8204899     
  -10313542179.811581       -413460222.23312378        810707186.06691325     
  -9057855588.6669750        405875891.15400839        178716398.47933108     
  -7999459344.7336712        567577513.83679533       -180153400.94225588     
  -6496164698.6385727       -701361378.36599636        1237334770.0395181     
  -6239268593.1298838       -375836674.62737727        1053184214.7964739     
  -6013285240.7115326       -153354481.18987894        908073425.58448672     
  -5818214641.3835173       -33914798.053503275        802002402.40355325     
  -5654056795.1458368       -17517625.218248367        734971145.25367618     
  -7190554872.2204056       -479696608.93271518        991190778.93456030     
  -6900535188.4711189       -304377422.00635982        846897739.24426043     
  -6623327577.0039949       -171765142.68721080        723707420.66465580     
  -6358932037.8190317       -81859770.975268841        621619823.19574785     
  -6107348570.9162292       -34661306.870527267        540634946.83753598     
  -7672567371.0968666       -194318537.08782339        672894753.40261209     
  -7400672808.8794355       -184579476.90546799        589576690.20792556     
  -7123489638.1359940       -157211721.63640213        509424303.20357585     
  -6841017858.8665380       -112215271.28062773        432437592.38956541     
  -6553257471.0710678       -49590125.838139772        358616557.76588857     
  -7942202195.2679529        154772837.16868162        282446693.44367296     
  -7739681454.3548336       -16442839.324698925        281221067.68747073     
  -7513771424.1075296       -109694218.03745842        265224073.20124584     
  -7264472104.5260391       -124981298.96958447        234455709.98500216     
  -6991783495.6103544       -62304082.121089458        188915978.03873283     
  -7999459344.7336712        567577513.83679533       -180153400.94225588     
  -7917561124.8973198        200032490.73593998       -78169128.317102239     
  -7794172934.9186058       -29212631.890370846       -8893269.3423311189     
  -7629294774.7975292       -120157854.04214382        27674175.982061315     
  -7422926644.5340891       -72803175.719368458        31533207.656068664     
  -5654056795.1458368       -17517625.218248367        734971145.25367618     
  -5520221585.3888121       -48930384.390396118        721882760.44747257     
  -5380998770.4952126       -62384459.773962259        710536806.22648001     
  -5236388350.4650354       -57879851.368943930        700933282.59070206     
  -5086390325.2982874       -35416559.175341368        693072189.54013515     
  -6107348570.9162292       -34661306.870527267        540634946.83753598     
  -5959124532.0094748       -36388939.968322992        534221932.76109576     
  -5809902663.9878464       -34790476.016535759        530284404.50515211     
  -5659682966.8513422       -29865915.015169144        528822362.06970781     
  -5508465440.5999660       -21615256.964221954        529835805.45475733     
  -6553257471.0710678       -49590125.838139772        358616557.76588857     
  -6388550159.4852028       -21004299.802770376        353757509.06056046     
  -6227234794.8061619       -3724963.4568154812        352107001.41101545     
  -6069311377.0339460        2247883.1997146606        353665034.81725127     
  -5914779906.1685600       -3085759.8331801891        358431609.27927130     
  -6991783495.6103544       -62304082.121089458        188915978.03873283     
  -6808498467.8159943       -2776463.8937349319        180489489.34586957     
  -6632995162.9501553        30812077.905201912        176004596.94407013     
  -6465273581.0128469        38461543.275706768        175461300.83333918     
  -6305333722.0040665        20171932.217791796        178859601.01367345     
  -7422926644.5340891       -72803175.719368458        31533207.656068664     
  -7218969457.0018492        18294567.758778095        14417873.617016878     
  -7027183768.4198294        68820648.069512367        1977191.1043175352     
  -6847569578.7880383        78775065.212817669       -5788839.8820342468     
  -6680126888.1064816        48157819.188690186       -8880219.3420359865     
  -5086390325.2982874       -35416559.175341368        693072189.54013515     
  -4935066051.0575161       -8894119.0527350903        675687213.80599809     
  -4786715355.6631193        7716391.5819532871        665493220.27900743     
  -4641338239.1150990        14414972.728723764        662490208.95915699     
  -4498934701.4134541        11201624.387576342        666678179.84645164     
  -5508465440.5999660       -21615256.964221954        529835805.45475733     
  -5345001932.3785896       -9659974.3780682087        514821039.96282268     
  -5182515925.8363447       -963030.72234964371        505314816.29570132     
  -5021007420.9732342        4475574.0029275417        501317134.45338738     
  -4860476417.7892532        6655839.7977664471        502827994.43588483     
  -5914779906.1685600       -3085759.8331801891        358431609.27927130     
  -5743984136.4875317       -7139726.5397577286        348115810.72465646     
  -5572169791.3183870       -7798441.6192989349        341626113.61251861     
  -5399336870.6611366       -5061905.0718019009        338962517.94286084     
  -5225485374.5157652        1069883.1027460098        340125023.71567768     
  -6305333722.0040665        20171932.217791796        178859601.01367345     
  -6132012663.3843336       -1333375.5378155708        175571526.09149623     
  -5955676952.1092434       -12789841.108890533        174427112.22946203     
  -5776326588.1788006       -14197464.495460272        175426359.42757726     
  -5593961571.5929995       -5556245.6974914074        178569267.68583569     
  -6680126888.1064816        48157819.188690186       -8880219.3420359865     
  -6509087513.0690002        7759078.6277790070       -2811813.9366552541     
  -6333037408.2089138       -15937229.191125870        3717812.1465317397     
  -6151976573.5262346       -22931104.268044472        10708658.907535242     
  -5965905009.0209484       -13222546.602949142        18160726.346351411     
  -4498934701.4134541        11201624.387576342        666678179.84645164     
  -4362817284.0800285        2735947.1711373329        664521816.43334925     
  -4225945953.4594603       -3216685.7548325062        665448439.88551486     
  -4088320709.5517473       -6656274.3903141022        669458050.20294893     
  -3949941552.3568878       -7582818.7353134155        676550647.38564909     
  -4860476417.7892532        6655839.7977664471        502827994.43588483     
  -4714414413.0807505        3166542.6016206741        500124644.37559462     
  -4568251080.3953238        15005.328556299210        500839594.65695256     
  -4421986419.7329683       -2798772.0214188099        504972845.27995592     
  -4275620431.0936918       -5274789.4483103752        512524396.24460965     
  -5225485374.5157652        1069883.1027460098        340125023.71567768     
  -5068520743.9282455        2844377.4780781269        336113337.47961384     
  -4912107370.6740198        2781347.4090950489        335855265.06157351     
  -4756245254.7530861        880792.89579916000        339350806.46156192     
  -4600934396.1654453       -2857286.0617990494        346599961.67957520     
  -5593961571.5929995       -5556245.6974914074        178569267.68583569     
  -5425136276.6225233        1769451.8005008698        172487895.74540490     
  -5257514824.2955542        5082340.4867842197        170495451.09937474     
  -5091097214.6120968        4382420.3613626957        172591933.74776188     
  -4925883447.5721617       -330308.57576990128        178777343.69054481     
  -5965905009.0209484       -13222546.602949142        18160726.346351411     
  -5784261011.1635685       -58234.431101560593        9248319.1729677040     
  -5604473441.2599258        6917984.5616130829        4760152.7703651823     
  -5426542299.3100090        7706110.3752462864        4696227.1385507304     
  -5250467585.3138256        2306143.0097682476        9056542.2775203455     
  -3949941552.3568878       -7582818.7353134155        676550647.38564909     
  -3796445128.4094524       -2523449.0699317455        666884845.88645148     
  -3642746089.8472238        3211302.6447584629        661922989.96124697     
  -3488844436.6702008        9621436.4087622166        661665079.61003733     
  -3334740168.8783827        16706952.222083569        666111114.83282065     
  -4275620431.0936918       -5274789.4483103752        512524396.24460965     
  -4110378661.1100159       -1551607.9394862652        503219401.67842847     
  -3944884506.2247620        3012856.5745880604        498553694.21763957     
  -3779137966.4379268        8418604.0939447880        498527273.86225051     
  -3613139041.7495184        14665634.618551016        503140140.61225557     
  -4600934396.1654453       -2857286.0617990494        346599961.67957520     
  -4424132018.6272430       -525714.25404810905        337713839.38099450     
  -4247027485.9006791        2813041.5149078369        333402345.71920717     
  -4069620797.9857478        7158981.2450892925        333665480.69421870     
  -3891911954.8824553        12512104.936473131        338503244.30602622     
  -4925883447.5721617       -330308.57576990128        178777343.69054481     
  -4737705200.9611425        554231.98638534546        170368158.99414724     
  -4549175028.8749685        2611857.4657156467        166468944.46593991     
  -4360292931.3136425        5842567.8622262478        167079700.10593843     
  -4171058908.2771769        10246363.175869226        172200425.91412672     
  -5250467585.3138256        2306143.0097682476        9056542.2775203455     
  -5051098208.1116924        1688230.7818415165        1182360.5178890456     
  -4851327135.1476336        2409304.4270191193       -2246509.5421525738     
  -4651154366.4216394        4469363.9453074932       -1230067.9025905025     
  -4450579901.9337091        7868409.3367085457        4231685.4365671733     
  -3334740168.8783827        16706952.222083569        666111114.83282065     
  -3219911950.7050467        11020478.820584536        665785150.71384943     
  -3105938550.0009747        2484613.8548719883        669740395.91963267     
  -2992819966.7661533       -8900642.6750158072        677976850.45016503     
  -2880556201.0006046       -23135290.769134879        690494514.30545294     
  -3613139041.7495184        14665634.618551016        503140140.61225557     
  -3488102862.0075769        8193500.0012521744        501607461.28701204     
  -3363602808.9197226       -65723.462987184525        503827157.20112270     
  -3239638882.4859500       -10112035.774165154        509799228.35459709     
  -3116211082.7062507       -21945436.932268977        519523674.74742240     
  -3891911954.8824553        12512104.936473131        338503244.30602622     
  -3758178768.1016049        4801022.7444756031        336135655.72554576     
  -3624663017.1596608       -3634845.5772035122        336991608.29903340     
  -3491364702.0566216       -12795500.028563261        341071102.02648109     
  -3358283822.7924809       -22680940.609583616        348374136.90789688     
  -4171058908.2771769        10246363.175869226        172200425.91412672     
  -4030139668.9871216        843047.05025148392        169369734.02945960     
  -3889119174.7207923       -8222752.4877908230        169233749.21336159     
  -3747997425.4781771       -16951035.438210011        171792471.46583179     
  -3606774421.2592926       -25341801.801066399        177045900.78687185     
  -4450579901.9337091        7868409.3367085457        4231685.4365671733     
  -4303985564.6641359       -3680427.0814213753        1309696.1987462812     
  -4156971281.6031089       -13829444.194705486        553579.94410591794     
  -4009537052.7506390       -22578642.003168106        1963336.6726456031     
  -3861682878.1066952       -29928020.506740093        5538966.3843526859     
  -2880556201.0006046       -23135290.769134879        690494514.30545294     
  -2709139789.3666921       -20403125.741547227        674310789.67521429     
  -2537382173.8715324       -16533614.509799600        657366831.19666147     
  -2365283354.5151191       -11526757.073884845        639662638.86978543     
  -2192843331.2974734       -5382553.4338288307        621198212.69459069     
  -3116211082.7062507       -21945436.932268977        519523674.74742240     
  -2942156220.8300247       -18907017.671321988        503223508.03639787     
  -2767773780.5699902       -14776670.464329481        489642478.22931379     
  -2593063761.9261403       -9554395.3112927675        478780585.32616478     
  -2418026164.8984742       -3240192.2122045755        470637829.32695180     
  -3358283822.7924809       -22680940.609583616        348374136.90789688     
  -3171649451.3817849       -16353949.327641726        331941631.72574329     
  -2984701127.0647068       -8980448.3577533960        321707634.19978625     
  -2797438849.8412371       -560437.69989979267        317672144.33002162     
  -2609862619.7114043        8906082.6458475590        319835162.11645651     
  -3606774421.2592926       -25341801.801066399        177045900.78687185     
  -3397619481.0219531       -12743920.710455656        160465160.74325475     
  -3188164213.3556690        855051.80997371674        153562299.10808742     
  -2978408618.2604294        15455115.760236144        156337315.88137344     
  -2768352695.7362499        31056271.140325069        168790211.06311449     
  -3861682878.1066952       -29928020.506740093        5538966.3843526859     
  -3620066309.7505488       -8076931.8198242188       -11205904.911078149     
  -3378163039.4428883        14729830.038815737       -14793527.045790041     
  -3135973067.1837173        38492265.069172740       -5223900.0198028423     
  -2893496392.9730272        63210373.271216393        17502976.166909706     
 </DataArray>
 <DataArray  type="Float64" Name="VM" NumberOfComponents="1" format="ascii">
   12935788747.598396     
   11340767810.735912     
   10210171430.150669     
   9272629991.8854370     
   8303684304.7404337     
   10130361057.131517     
   9322016905.2760792     
   8826339885.2079945     
   8443477845.7717552     
   8035614221.2455587     
   7982343096.0039368     
   7734956300.6270704     
   7669147882.7289534     
   7669602780.0158978     
   7666387006.8035917     
   6491648825.0780602     
   6586873284.3878212     
   6757429901.0073032     
   6961235837.9645452     
   7171630281.8271399     
   5657832017.8330173     
   5890928477.9744635     
   6116377152.5645370     
   6331719553.2166452     
   6536734394.7278051     
   8303684304.7404337     
   8020591491.5339279     
   7779623003.9225035     
   7570082863.6611013     
   7386996051.7947483     
   8035614221.2455587     
   7746801463.1849279     
   7473660949.0491495     
   7214233192.9603443     
   6968527056.3677959     
   7666387006.8035917     
   7381112200.2364988     
   7101229713.3710222     
   6826819006.7926903     
   6558085338.4658222     
   7171630281.8271399     
   6910960261.3121214     
   6658195847.4042149     
   6409478182.9109583     
   6161661928.9855690     
   6536734394.7278051     
   6328694240.8329268     
   6142861286.3617420     
   5965322439.9461260     
   5787068965.8145628     
   7386996051.7947483     
   7228177243.5002260     
   7061846434.5838699     
   6887302296.2088413     
   6704353163.0184212     
   6968527056.3677959     
   6814285355.9365129     
   6655440138.2633295     
   6491707492.7594500     
   6323037504.8520594     
   6558085338.4658222     
   6407437898.5412846     
   6255174567.0505915     
   6101264263.9051895     
   5945737878.9905367     
   6161661928.9855690     
   6012638550.4550476     
   5864951381.8895082     
   5718638904.4526806     
   5573757240.4855356     
   5787068965.8145628     
   5636353265.1625910     
   5489802960.6314020     
   5347331489.1237717     
   5208985084.4236393     
   6704353163.0184212     
   6512972339.6306028     
   6325087130.3703365     
   6140571146.6132669     
   5959387753.0605602     
   6323037504.8520594     
   6138882706.8477812     
   5956958437.6969099     
   5777236748.8613558     
   5599733606.2972689     
   5945737878.9905367     
   5771996891.2812843     
   5599625698.4434166     
   5428648091.4481916     
   5259120106.7960815     
   5573757240.4855356     
   5414113824.0789499     
   5255426768.3627348     
   5097741073.2993135     
   4941167254.4483490     
   5208985084.4236393     
   5067615080.2290802     
   4927299796.8083611     
   4788090750.6388140     
   4650195016.0279512     
   5959387753.0605602     
   5784254074.6173220     
   5607941694.6149445     
   5430405547.2771044     
   5251644463.8531322     
   5599733606.2972689     
   5434239826.3761244     
   5268340776.2652435     
   5102055008.4370394     
   4935441702.8745451     
   5259120106.7960815     
   5103258168.5880260     
   4947814175.0919237     
   4792863014.4962740     
   4638518502.3333187     
   4941167254.4483490     
   4794894749.5302048     
   4649893265.5056944     
   4506283204.7006531     
   4364223718.7032051     
   4650195016.0279512     
   4513411825.9725466     
   4378755632.2449274     
   4246377254.6306396     
   4116467710.4044194     
   5251644463.8531322     
   5051942950.1448107     
   4852533796.0004454     
   4653391145.8556910     
   4454525348.5979614     
   4935441702.8745451     
   4747162583.5806522     
   4559607196.9321337     
   4372803536.4483833     
   4186828698.2791424     
   4638518502.3333187     
   4462372740.7380219     
   4287501465.4485655     
   4114000120.1261435     
   3942027976.4768629     
   4364223718.7032051     
   4201014966.3750043     
   4039761821.4482245     
   3880638869.6934729     
   3723899541.6297927     
   4116467710.4044194     
   3967067939.6638579     
   3820436294.6698933     
   3676832577.4959497     
   3536608051.9006162     
   4454525348.5979614     
   4302147129.8951426     
   4150073951.9431920     
   3998296991.8228598     
   3846818146.6712236     
   4186828698.2791424     
   4041222881.7585130     
   3896056530.6590014     
   3751370091.2562575     
   3607228509.9789062     
   3942027976.4768629     
   3805382417.2772570     
   3669565388.6970997     
   3534700261.7418399     
   3400957106.6633148     
   3723899541.6297927     
   3598657890.9154725     
   3474928518.0947709     
   3352952245.0523510     
   3233045166.1354365     
   3536608051.9006162     
   3425383043.3159418     
   3316660082.2849150     
   3210820826.9910693     
   3108350814.5598283     
   3846818146.6712236     
   3616086698.6248684     
   3385648948.3846827     
   3155408263.0498972     
   2925770834.6734776     
   3607228509.9789062     
   3402635560.1952834     
   3199665914.9264717     
   2998418329.2066031     
   2799318891.7938142     
   3400957106.6633148     
   3215324935.4173884     
   3031864924.0572076     
   2850761901.0271811     
   2672375246.3004847     
   3233045166.1354365     
   3059528558.5446129     
   2887757060.2088366     
   2717901460.7397795     
   2550201180.8111858     
   3108350814.5598283     
   2940861249.5856791     
   2773629933.9018273     
   2606710386.9309788     
   2440174053.1072888     
   5657832017.8330173     
   5890928477.9744635     
   6116377152.5645370     
   6331719553.2166452     
   6536734394.7278051     
   5151499701.0832062     
   5311350250.6349154     
   5467828553.4854107     
   5618039077.1291656     
   5760516485.6446400     
   4643534235.9767370     
   4755562467.2417755     
   4868715092.8950405     
   4980357486.0742197     
   5088564414.0250015     
   4134199255.1844711     
   4224402596.1552105     
   4320531782.4719725     
   4420931392.9390574     
   4524147774.0560389     
   3625015399.3728766     
   3719694926.4559121     
   3825636244.2799726     
   3942778537.9811759     
   4071031721.5515227     
   6536734394.7278051     
   6328694240.8329268     
   6142861286.3617420     
   5965322439.9461260     
   5787068965.8145628     
   5760516485.6446400     
   5652146205.8467827     
   5559787323.9591818     
   5474377253.2747259     
   5390375952.3505287     
   5088564414.0250015     
   5054084815.3713245     
   5030115534.5646572     
   5011450463.0532789     
   4994888646.8209496     
   4524147774.0560389     
   4539106528.5362453     
   4558716975.8191957     
   4580499253.2876368     
   4602729779.0399055     
   4071031721.5515227     
   4112540221.9093118     
   4151360736.4507504     
   4186593283.8695164     
   4217504996.0297236     
   5787068965.8145628     
   5636353265.1625910     
   5489802960.6314020     
   5347331489.1237717     
   5208985084.4236393     
   5390375952.3505287     
   5248894898.2984209     
   5110619149.2417908     
   4975591064.4689007     
   4843904623.3236132     
   4994888646.8209496     
   4867194744.5227213     
   4742701491.8287611     
   4621377837.4702339     
   4503265747.8853369     
   4602729779.0399055     
   4493921877.0483437     
   4389384004.2820406     
   4288800291.4555311     
   4192084395.0420256     
   4217504996.0297236     
   4133042163.5968208     
   4055174230.9247432     
   3983051930.8185229     
   3916387167.6882420     
   5208985084.4236393     
   5067615080.2290802     
   4927299796.8083611     
   4788090750.6388140     
   4650195016.0279512     
   4843904623.3236132     
   4720377705.9320984     
   4598717527.6413898     
   4479059184.6655312     
   4361656924.7494593     
   4503265747.8853369     
   4395593250.8419676     
   4290472576.3434858     
   4188085051.9744678     
   4088695193.0103693     
   4192084395.0420256     
   4098192089.9688683     
   4007343367.5427022     
   3919730727.0480127     
   3835598250.1013355     
   3916387167.6882420     
   3834113100.0386972     
   3755108572.1472869     
   3679547376.1272779     
   3607632268.1482201     
   4650195016.0279512     
   4513411825.9725466     
   4378755632.2449274     
   4246377254.6306396     
   4116467710.4044194     
   4361656924.7494593     
   4235169898.4406977     
   4111290423.0354571     
   3990227909.1130333     
   3872245312.5407705     
   4088695193.0103693     
   3974111750.0758181     
   3862844258.4603615     
   3755162144.7212634     
   3651404341.7648177     
   3835598250.1013355     
   3734481849.9880877     
   3637631912.5973802     
   3545371730.3444018     
   3458110489.3267951     
   3607632268.1482201     
   3521373292.4671583     
   3440573380.7669811     
   3365590649.9637017     
   3296883113.3948116     
   4116467710.4044194     
   3967067939.6638579     
   3820436294.6698933     
   3676832577.4959497     
   3536608051.9006162     
   3872245312.5407705     
   3736330485.0648780     
   3603808996.7112274     
   3474999058.2366633     
   3350314328.5960479     
   3651404341.7648177     
   3529379666.4933314     
   3411436367.4926710     
   3297945183.0758624     
   3189371585.1030054     
   3458110489.3267951     
   3350373156.5427690     
   3247443884.0026031     
   3149731464.1652040     
   3057732399.9301620     
   3296883113.3948116     
   3203736116.8005090     
   3116121619.3071189     
   3034462679.0544567     
   2959256365.4854403     
   3536608051.9006162     
   3425383043.3159418     
   3316660082.2849150     
   3210820826.9910693     
   3108350814.5598283     
   3350314328.5960479     
   3252250931.1554790     
   3157241516.8380527     
   3065664977.0760136     
   2977980644.5202255     
   3189371585.1030054     
   3103548608.0775290     
   3021183038.6904821     
   2942624619.8142529     
   2868279424.4182806     
   3057732399.9301620     
   2983130182.1317539     
   2912200081.8729653     
   2845239974.8214831     
   2782582181.1371250     
   2959256365.4854403     
   2894738489.7236099     
   2833886185.6779165     
   2776929787.4434342     
   2724117142.5327997     
   3108350814.5598283     
   2940861249.5856791     
   2773629933.9018273     
   2606710386.9309788     
   2440174053.1072888     
   2977980644.5202255     
   2816687036.1857548     
   2658615844.2240300     
   2504234215.7489796     
   2354137797.2544069     
   2868279424.4182806     
   2721054743.6044464     
   2580978354.7541142     
   2449026097.8458204     
   2326434802.7852731     
   2782582181.1371250     
   2656003988.2382669     
   2541155322.6220546     
   2439391940.2276950     
   2352388769.2955666     
   2724117142.5327997     
   2622765331.6544604     
   2538054448.5497890     
   2471414267.6881986     
   2424569054.5895219     
   3625015399.3728766     
   3719694926.4559121     
   3825636244.2799726     
   3942778537.9811759     
   4071031721.5515227     
   3137969625.6065898     
   3255516126.7088451     
   3382483950.6903768     
   3518405594.6071992     
   3662824630.0455885     
   2694736814.0439978     
   2830526665.1873484     
   2973626287.3285685     
   3122953478.1338935     
   3277597305.0684071     
   2298803815.6918411     
   2449518266.2500958     
   2604946254.0947061     
   2763163363.8182354     
   2922738431.9488955     
   1955375203.6393335     
   2119443916.3530419     
   2284855208.0753379     
   2448644328.8970771     
   2608849928.1988997     
   4071031721.5515227     
   4112540221.9093118     
   4151360736.4507504     
   4186593283.8695164     
   4217504996.0297236     
   3662824630.0455885     
   3702208533.0523548     
   3740190949.9546590     
   3775871472.0330005     
   3808499491.8246188     
   3277597305.0684071     
   3320764452.8577433     
   3364173648.7591434     
   3407001783.2950988     
   3448570420.6865482     
   2922738431.9488955     
   2975590883.7019591     
   3030689122.9945049     
   3087353008.7136521     
   3145051002.1572361     
   2608849928.1988997     
   2676737853.1454611     
   2749181838.1456871     
   2825677600.6221652     
   2905875305.5295858     
   4217504996.0297236     
   4133042163.5968208     
   4055174230.9247432     
   3983051930.8185229     
   3916387167.6882420     
   3808499491.8246188     
   3755707528.9443536     
   3708960891.9689989     
   3667786229.3903022     
   3632091673.0390062     
   3448570420.6865482     
   3422749208.8416390     
   3402032453.5047898     
   3386189897.7199893     
   3375206587.5500541     
   3145051002.1572361     
   3141792767.7897205     
   3142093226.8708448     
   3145849516.9602437     
   3153046086.1767964     
   2905875305.5295858     
   2921144052.5269866     
   2937637849.9453483     
   2955298160.8684921     
   2974082726.4500160     
   3916387167.6882420     
   3834113100.0386972     
   3755108572.1472869     
   3679547376.1272779     
   3607632268.1482201     
   3632091673.0390062     
   3560327773.1099381     
   3492739435.7867384     
   3429539642.3020205     
   3370979327.8635573     
   3375206587.5500541     
   3315661746.1763515     
   3261439782.7996278     
   3212774019.6073017     
   3169945313.1593313     
   3153046086.1767964     
   3107031591.9076962     
   3067711560.3410010     
   3035305624.9872065     
   3010089982.8915300     
   2974082726.4500160     
   2942164128.1330199     
   2918495378.9844375     
   2903235494.3115115     
   2896609400.8861876     
   3607632268.1482201     
   3521373292.4671583     
   3440573380.7669811     
   3365590649.9637017     
   3296883113.3948116     
   3370979327.8635573     
   3301574930.8630862     
   3238017434.8452125     
   3180640878.9051542     
   3129850828.2220106     
   3169945313.1593313     
   3116201800.9443583     
   3068526095.4268961     
   3027202080.3268418     
   2992558093.4878664     
   3010089982.8915300     
   2970563892.8051047     
   2937108973.6260614     
   2909940741.5614424     
   2889296996.4043813     
   2896609400.8861876     
   2869545704.8957338     
   2848304609.7594724     
   2833027890.6666522     
   2823864820.2246118     
   3296883113.3948116     
   3203736116.8005090     
   3116121619.3071189     
   3034462679.0544567     
   2959256365.4854403     
   3129850828.2220106     
   3050568190.9568715     
   2977633094.8320312     
   2911460879.6708088     
   2852527918.5818033     
   2992558093.4878664     
   2927000648.3158517     
   2868572310.5059700     
   2817649443.8178005     
   2774652803.5611053     
   2889296996.4043813     
   2836817722.8929262     
   2792172224.5566459     
   2755669099.8394465     
   2727644693.6288457     
   2823864820.2246118     
   2783188020.6122856     
   2750943283.6805544     
   2727353255.5822330     
   2712655254.4402456     
   2959256365.4854403     
   2894738489.7236099     
   2833886185.6779165     
   2776929787.4434342     
   2724117142.5327997     
   2852527918.5818033     
   2798998971.8705802     
   2750612523.9175339     
   2707654145.3604279     
   2670425138.5883965     
   2774652803.5611053     
   2733359955.4274106     
   2698733265.0158420     
   2671069851.4092503     
   2650675639.0160794     
   2727644693.6288457     
   2698919439.1975303     
   2678363796.8481894     
   2666239861.0595436     
   2662811037.4533048     
   2712655254.4402456     
   2695787663.6124864     
   2688550092.2941256     
   2691135326.9445758     
   2703733977.3530936     
   2724117142.5327997     
   2622765331.6544604     
   2538054448.5497890     
   2471414267.6881986     
   2424569054.5895219     
   2670425138.5883965     
   2595088002.5716519     
   2532983714.2620335     
   2484894466.4874573     
   2451714582.0164557     
   2650675639.0160794     
   2594603815.1141753     
   2547731706.9214320     
   2510444288.0980239     
   2483159782.4669433     
   2662811037.4533048     
   2620591329.7854061     
   2583050840.0132647     
   2550351581.0167851     
   2522662957.0756083     
   2703733977.3530936     
   2671563840.3569059     
   2639235898.8646307     
   2606788929.2005887     
   2574267732.6292381     
   1955375203.6393335     
   2119443916.3530419     
   2284855208.0753379     
   2448644328.8970771     
   2608849928.1988997     
   1653915944.9906533     
   1820358249.0570953     
   1988493640.6450484     
   2155622372.8757443     
   2319984092.0283618     
   1393740791.2898204     
   1571105762.3647652     
   1749481019.7476132     
   1926860759.8730748     
   2101993169.8637249     
   1207173961.4901166     
   1399112026.1912718     
   1590640628.9710588     
   1780982197.9463651     
   1969677640.2813663     
   1136924962.3064110     
   1335237095.0797436     
   1533879355.6156704     
   1732851743.9141943     
   1932154259.9753120     
   2608849928.1988997     
   2676737853.1454611     
   2749181838.1456871     
   2825677600.6221652     
   2905875305.5295858     
   2319984092.0283618     
   2407011852.4786525     
   2496504379.4478283     
   2588074783.8615479     
   2681449380.4719424     
   2101993169.8637249     
   2205718465.3480272     
   2309350099.2590442     
   2412653306.6419582     
   2515462167.0540853     
   1969677640.2813663     
   2086789702.2510920     
   2201018013.9114556     
   2312287982.1984744     
   2420547737.0347438     
   1932154259.9753120     
   2058777646.3069406     
   2179916556.7365165     
   2295570991.2640376     
   2405740949.8895049     
   2905875305.5295858     
   2921144052.5269866     
   2937637849.9453483     
   2955298160.8684921     
   2974082726.4500160     
   2681449380.4719424     
   2703476821.8996449     
   2727815972.2741218     
   2754448320.9474521     
   2783365192.5511565     
   2515462167.0540853     
   2544180389.1286578     
   2576327035.7507043     
   2611903910.2530503     
   2650917048.9238052     
   2420547737.0347438     
   2454380254.4631639     
   2492759742.2322083     
   2535689864.8978443     
   2583175169.2545371     
   2405740949.8895049     
   2441505783.0815053     
   2482926569.0205240     
   2530003307.7065597     
   2582735999.1396165     
   2974082726.4500160     
   2942164128.1330199     
   2918495378.9844375     
   2903235494.3115115     
   2896609400.8861876     
   2783365192.5511565     
   2766444008.1434002     
   2757230578.0030479     
   2755816748.1008754     
   2762327856.4975309     
   2650917048.9238052     
   2645649205.8030329     
   2647239330.3268256     
   2655724887.8993826     
   2671156394.9833550     
   2583175169.2545371     
   2585968158.3752556     
   2594482249.1947494     
   2608724924.1838894     
   2628706501.9622326     
   2582735999.1396165     
   2590127208.4705119     
   2601878660.5831642     
   2617990355.4775820     
   2638462293.1537619     
   2896609400.8861876     
   2869545704.8957338     
   2848304609.7594724     
   2833027890.6666522     
   2823864820.2246118     
   2762327856.4975309     
   2742354116.0710673     
   2728947115.8462691     
   2722207124.8956051     
   2722238335.4880023     
   2671156394.9833550     
   2656620262.1269217     
   2649363755.8042560     
   2649440549.4998426     
   2656905790.6201472     
   2628706501.9622326     
   2617176746.4442239     
   2613593163.1783638     
   2617971171.5893526     
   2630326504.0082912     
   2638462293.1537619     
   2626871271.0035009     
   2623835602.9346237     
   2629355288.9471278     
   2643430329.0410175     
   2823864820.2246118     
   2783188020.6122856     
   2750943283.6805544     
   2727353255.5822330     
   2712655254.4402456     
   2722238335.4880023     
   2691882743.1885242     
   2670259166.9709606     
   2657506199.7458811     
   2653768282.7873011     
   2656905790.6201472     
   2634530552.1923523     
   2621093459.8114018     
   2616660370.9783058     
   2621298659.1972136     
   2630326504.0082912     
   2613081744.5879664     
   2604908484.4483714     
   2605823744.7725854     
   2615844715.8919959     
   2643430329.0410175     
   2628137798.9153647     
   2622002225.6056957     
   2625023609.1120057     
   2637201949.4342999     
   2712655254.4402456     
   2695787663.6124864     
   2688550092.2941256     
   2691135326.9445758     
   2703733977.3530936     
   2653768282.7873011     
   2645229898.6569424     
   2645179662.9026074     
   2653708461.1854215     
   2670905140.9600716     
   2621298659.1972136     
   2618280613.7143679     
   2622576494.6711717     
   2634218642.4364171     
   2653238471.6036243     
   2615844715.8919959     
   2615804307.3975544     
   2621890000.3561177     
   2634107919.8261437     
   2652464004.0179124     
   2637201949.4342999     
   2638013701.6619687     
   2643761484.8150105     
   2654445298.8934345     
   2670065143.8972292     
   2703733977.3530936     
   2671563840.3569059     
   2639235898.8646307     
   2606788929.2005887     
   2574267732.6292381     
   2670905140.9600716     
   2642809111.6075721     
   2619421658.3623681     
   2600831247.9782572     
   2587123480.0188966     
   2653238471.6036243     
   2629913313.1722059     
   2616078776.5680361     
   2611815037.6512175     
   2617193326.8334894     
   2652464004.0179124     
   2632715158.9780235     
   2627177836.4907031     
   2635884460.9237947     
   2658861641.8845139     
   2670065143.8972292     
   2650785265.7146802     
   2650557658.3669858     
   2669382321.8541408     
   2707259256.1761365     
   1136924962.3064110     
   1335237095.0797436     
   1533879355.6156704     
   1732851743.9141943     
   1932154259.9753120     
   1207173961.4899995     
   1399112026.1911967     
   1590640628.9710217     
   1780982197.9463668     
   1969677640.2814062     
   1393740791.2896585     
   1571105762.3646562     
   1749481019.7475569     
   1926860759.8730736     
   2101993169.8637803     
   1653915944.9905093     
   1820358249.0569925     
   1988493640.6449924     
   2155622372.8757396     
   2319984092.0284119     
   1955375203.6392488     
   2119443916.3529758     
   2284855208.0752983     
   2448644328.8970699     
   2608849928.1989298     
   1932154259.9753120     
   2058777646.3069406     
   2179916556.7365165     
   2295570991.2640376     
   2405740949.8895049     
   1969677640.2814062     
   2086789702.2511148     
   2201018013.9114604     
   2312287982.1984630     
   2420547737.0347180     
   2101993169.8637803     
   2205718465.3480549     
   2309350099.2590456     
   2412653306.6419339     
   2515462167.0540400     
   2319984092.0284119     
   2407011852.4786716     
   2496504379.4478192     
   2588074783.8615127     
   2681449380.4718852     
   2608849928.1989298     
   2676737853.1454630     
   2749181838.1456604     
   2825677600.6221166     
   2905875305.5295196     
   2405740949.8895049     
   2441505783.0815053     
   2482926569.0205240     
   2530003307.7065597     
   2582735999.1396165     
   2420547737.0347180     
   2454380254.4631433     
   2492759742.2321887     
   2535689864.8978233     
   2583175169.2545195     
   2515462167.0540400     
   2544180389.1286173     
   2576327035.7506633     
   2611903910.2530079     
   2650917048.9237561     
   2681449380.4718852     
   2703476821.8995910     
   2727815972.2740664     
   2754448320.9473886     
   2783365192.5510769     
   2905875305.5295196     
   2921144052.5269237     
   2937637849.9452806     
   2955298160.8684101     
   2974082726.4499130     
   2582735999.1396165     
   2590127208.4705119     
   2601878660.5831642     
   2617990355.4775820     
   2638462293.1537619     
   2583175169.2545195     
   2585968158.3752332     
   2594482249.1947269     
   2608724924.1838665     
   2628706501.9622102     
   2650917048.9237561     
   2645649205.8029814     
   2647239330.3267751     
   2655724887.8993402     
   2671156394.9833226     
   2783365192.5510769     
   2766444008.1433206     
   2757230578.0029697     
   2755816748.1008096     
   2762327856.4974828     
   2974082726.4499130     
   2942164128.1329117     
   2918495378.9843354     
   2903235494.3114247     
   2896609400.8861260     
   2638462293.1537619     
   2626871271.0035009     
   2623835602.9346237     
   2629355288.9471278     
   2643430329.0410175     
   2628706501.9622102     
   2617176746.4442072     
   2613593163.1783457     
   2617971171.5893340     
   2630326504.0082641     
   2671156394.9833226     
   2656620262.1268888     
   2649363755.8042235     
   2649440549.4998012     
   2656905790.6200967     
   2762327856.4974828     
   2742354116.0710263     
   2728947115.8462257     
   2722207124.8955517     
   2722238335.4879360     
   2896609400.8861260     
   2869545704.8956823     
   2848304609.7594199     
   2833027890.6665950     
   2823864820.2245345     
   2643430329.0410175     
   2628137798.9153647     
   2622002225.6056957     
   2625023609.1120057     
   2637201949.4342999     
   2630326504.0082641     
   2613081744.5879397     
   2604908484.4483552     
   2605823744.7725720     
   2615844715.8919964     
   2656905790.6200967     
   2634530552.1923013     
   2621093459.8113623     
   2616660370.9782834     
   2621298659.1972156     
   2722238335.4879360     
   2691882743.1884565     
   2670259166.9709010     
   2657506199.7458429     
   2653768282.7872915     
   2823864820.2245345     
   2783188020.6122022     
   2750943283.6804771     
   2727353255.5821781     
   2712655254.4402289     
   2637201949.4342999     
   2638013701.6619687     
   2643761484.8150105     
   2654445298.8934345     
   2670065143.8972292     
   2615844715.8919964     
   2615804307.3975754     
   2621890000.3561530     
   2634107919.8261862     
   2652464004.0179672     
   2621298659.1972156     
   2618280613.7143908     
   2622576494.6712151     
   2634218642.4364758     
   2653238471.6036916     
   2653768282.7872915     
   2645229898.6569605     
   2645179662.9026327     
   2653708461.1854548     
   2670905140.9601021     
   2712655254.4402289     
   2695787663.6124759     
   2688550092.2941113     
   2691135326.9445481     
   2703733977.3530369     
   2670065143.8972292     
   2650785265.7146802     
   2650557658.3669858     
   2669382321.8541408     
   2707259256.1761365     
   2652464004.0179672     
   2632715158.9780159     
   2627177836.4906344     
   2635884460.9236541     
   2658861641.8843307     
   2653238471.6036916     
   2629913313.1721931     
   2616078776.5679584     
   2611815037.6510801     
   2617193326.8332925     
   2670905140.9601021     
   2642809111.6075583     
   2619421658.3623304     
   2600831247.9782071     
   2587123480.0188575     
   2703733977.3530369     
   2671563840.3568935     
   2639235898.8646922     
   2606788929.2007322     
   2574267732.6294971     
   1955375203.6392488     
   2119443916.3529758     
   2284855208.0752983     
   2448644328.8970699     
   2608849928.1989298     
   2298803815.6918187     
   2449518266.2500854     
   2604946254.0947104     
   2763163363.8182588     
   2922738431.9489379     
   2694736814.0440092     
   2830526665.1873727     
   2973626287.3286066     
   3122953478.1339440     
   3277597305.0684700     
   3137969625.6066074     
   3255516126.7088833     
   3382483950.6904349     
   3518405594.6072741     
   3662824630.0456772     
   3625015399.3728738     
   3719694926.4559455     
   3825636244.2800398     
   3942778537.9812717     
   4071031721.5516434     
   2608849928.1989298     
   2676737853.1454630     
   2749181838.1456604     
   2825677600.6221166     
   2905875305.5295196     
   2922738431.9489379     
   2975590883.7019720     
   3030689122.9944911     
   3087353008.7136145     
   3145051002.1571736     
   3277597305.0684700     
   3320764452.8577738     
   3364173648.7591443     
   3407001783.2950697     
   3448570420.6864901     
   3662824630.0456772     
   3702208533.0524077     
   3740190949.9546776     
   3775871472.0329809     
   3808499491.8245630     
   4071031721.5516434     
   4112540221.9093933     
   4151360736.4507914     
   4186593283.8695135     
   4217504996.0296745     
   2905875305.5295196     
   2921144052.5269237     
   2937637849.9452806     
   2955298160.8684101     
   2974082726.4499130     
   3145051002.1571736     
   3141792767.7896595     
   3142093226.8707786     
   3145849516.9601684     
   3153046086.1767068     
   3448570420.6864901     
   3422749208.8415813     
   3402032453.5047288     
   3386189897.7199240     
   3375206587.5499825     
   3808499491.8245630     
   3755707528.9442973     
   3708960891.9689441     
   3667786229.3902535     
   3632091673.0389624     
   4217504996.0296745     
   4133042163.5967717     
   4055174230.9246984     
   3983051930.8184853     
   3916387167.6882186     
   2974082726.4499130     
   2942164128.1329117     
   2918495378.9843354     
   2903235494.3114247     
   2896609400.8861260     
   3153046086.1767068     
   3107031591.9076080     
   3067711560.3409214     
   3035305624.9871373     
   3010089982.8914795     
   3375206587.5499825     
   3315661746.1762877     
   3261439782.7995725     
   3212774019.6072569     
   3169945313.1592975     
   3632091673.0389624     
   3560327773.1099067     
   3492739435.7867165     
   3429539642.3020048     
   3370979327.8635440     
   3916387167.6882186     
   3834113100.0386968     
   3755108572.1473012     
   3679547376.1272984     
   3607632268.1482377     
   2896609400.8861260     
   2869545704.8956823     
   2848304609.7594199     
   2833027890.6665950     
   2823864820.2245345     
   3010089982.8914795     
   2970563892.8050623     
   2937108973.6260180     
   2909940741.5614033     
   2889296996.4043360     
   3169945313.1592975     
   3116201800.9443231     
   3068526095.4268622     
   3027202080.3268113     
   2992558093.4878488     
   3370979327.8635440     
   3301574930.8630581     
   3238017434.8451762     
   3180640878.9051232     
   3129850828.2219877     
   3607632268.1482377     
   3521373292.4671435     
   3440573380.7669382     
   3365590649.9636512     
   3296883113.3947654     
   2823864820.2245345     
   2783188020.6122022     
   2750943283.6804771     
   2727353255.5821781     
   2712655254.4402289     
   2889296996.4043360     
   2836817722.8928871     
   2792172224.5566096     
   2755669099.8394222     
   2727644693.6288390     
   2992558093.4878488     
   2927000648.3158407     
   2868572310.5059657     
   2817649443.8178000     
   2774652803.5611115     
   3129850828.2219877     
   3050568190.9568739     
   2977633094.8320546     
   2911460879.6708441     
   2852527918.5818386     
   3296883113.3947654     
   3203736116.8005137     
   3116121619.3071628     
   3034462679.0545254     
   2959256365.4855199     
   2712655254.4402289     
   2695787663.6124759     
   2688550092.2941113     
   2691135326.9445481     
   2703733977.3530369     
   2727644693.6288390     
   2698919439.1975069     
   2678363796.8481398     
   2666239861.0594740     
   2662811037.4532022     
   2774652803.5611115     
   2733359955.4273810     
   2698733265.0157876     
   2671069851.4091663     
   2650675639.0159807     
   2852527918.5818386     
   2798998971.8705654     
   2750612523.9174824     
   2707654145.3603559     
   2670425138.5883160     
   2959256365.4855199     
   2894738489.7236204     
   2833886185.6778836     
   2776929787.4433808     
   2724117142.5327487     
   2703733977.3530369     
   2671563840.3568935     
   2639235898.8646922     
   2606788929.2007322     
   2574267732.6294971     
   2662811037.4532022     
   2620591329.7854238     
   2583050840.0134130     
   2550351581.0170550     
   2522662957.0760345     
   2650675639.0159807     
   2594603815.1142139     
   2547731706.9215879     
   2510444288.0982709     
   2483159782.4672942     
   2670425138.5883160     
   2595088002.5716772     
   2532983714.2621169     
   2484894466.4875569     
   2451714582.0165544     
   2724117142.5327487     
   2622765331.6544542     
   2538054448.5497489     
   2471414267.6880574     
   2424569054.5892129     
   3625015399.3728738     
   3719694926.4559455     
   3825636244.2800398     
   3942778537.9812717     
   4071031721.5516434     
   4134199255.1844459     
   4224402596.1552248     
   4320531782.4720249     
   4420931392.9391479     
   4524147774.0561657     
   4643534235.9767103     
   4755562467.2417822     
   4868715092.8950815     
   4980357486.0742970     
   5088564414.0251160     
   5151499701.0832005     
   5311350250.6349258     
   5467828553.4854431     
   5618039077.1292210     
   5760516485.6447268     
   5657832017.8330517     
   5890928477.9744902     
   6116377152.5645628     
   6331719553.2166729     
   6536734394.7278442     
   4071031721.5516434     
   4112540221.9093933     
   4151360736.4507914     
   4186593283.8695135     
   4217504996.0296745     
   4524147774.0561657     
   4539106528.5363369     
   4558716975.8192501     
   4580499253.2876511     
   4602729779.0398760     
   5088564414.0251160     
   5054084815.3714113     
   5030115534.5647154     
   5011450463.0533075     
   4994888646.8209429     
   5760516485.6447268     
   5652146205.8468533     
   5559787323.9592390     
   5474377253.2747641     
   5390375952.3505478     
   6536734394.7278442     
   6328694240.8329659     
   6142861286.3617821     
   5965322439.9461679     
   5787068965.8146067     
   4217504996.0296745     
   4133042163.5967717     
   4055174230.9246984     
   3983051930.8184853     
   3916387167.6882186     
   4602729779.0398760     
   4493921877.0483160     
   4389384004.2820168     
   4288800291.4555182     
   4192084395.0420218     
   4994888646.8209429     
   4867194744.5227222     
   4742701491.8287678     
   4621377837.4702482     
   4503265747.8853559     
   5390375952.3505478     
   5248894898.2984533     
   5110619149.2418308     
   4975591064.4689484     
   4843904623.3236609     
   5787068965.8146067     
   5636353265.1626539     
   5489802960.6314793     
   5347331489.1238575     
   5208985084.4237309     
   3916387167.6882186     
   3834113100.0386968     
   3755108572.1473012     
   3679547376.1272984     
   3607632268.1482377     
   4192084395.0420218     
   4098192089.9688830     
   4007343367.5427337     
   3919730727.0480537     
   3835598250.1013865     
   4503265747.8853559     
   4395593250.8419933     
   4290472576.3435192     
   4188085051.9745107     
   4088695193.0104213     
   4843904623.3236609     
   4720377705.9321327     
   4598717527.6414156     
   4479059184.6655483     
   4361656924.7494745     
   5208985084.4237309     
   5067615080.2291279     
   4927299796.8083658     
   4788090750.6387854     
   4650195016.0278969     
   3607632268.1482377     
   3521373292.4671435     
   3440573380.7669382     
   3365590649.9636512     
   3296883113.3947654     
   3835598250.1013865     
   3734481849.9880972     
   3637631912.5973582     
   3545371730.3443575     
   3458110489.3267384     
   4088695193.0104213     
   3974111750.0758371     
   3862844258.4603567     
   3755162144.7212362     
   3651404341.7647729     
   4361656924.7494745     
   4235169898.4407058     
   4111290423.0354562     
   3990227909.1130257     
   3872245312.5407662     
   4650195016.0278969     
   4513411825.9725161     
   4378755632.2449245     
   4246377254.6306672     
   4116467710.4044833     
   3296883113.3947654     
   3203736116.8005137     
   3116121619.3071628     
   3034462679.0545254     
   2959256365.4855199     
   3458110489.3267384     
   3350373156.5427690     
   3247443884.0026588     
   3149731464.1653028     
   3057732399.9302855     
   3651404341.7647729     
   3529379666.4933524     
   3411436367.4927483     
   3297945183.0759826     
   3189371585.1031637     
   3872245312.5407662     
   3736330485.0649333     
   3603808996.7113304     
   3474999058.2368054     
   3350314328.5962191     
   4116467710.4044833     
   3967067939.6639690     
   3820436294.6700387     
   3676832577.4961166     
   3536608051.9007978     
   2959256365.4855199     
   2894738489.7236204     
   2833886185.6778836     
   2776929787.4433808     
   2724117142.5327487     
   3057732399.9302855     
   2983130182.1317959     
   2912200081.8729448     
   2845239974.8214226     
   2782582181.1370420     
   3189371585.1031637     
   3103548608.0775867     
   3021183038.6904497     
   2942624619.8141522     
   2868279424.4181180     
   3350314328.5962191     
   3252250931.1555314     
   3157241516.8379984     
   3065664977.0758619     
   2977980644.5199890     
   3536608051.9007978     
   3425383043.3159871     
   3316660082.2848334     
   3210820826.9908686     
   3108350814.5595140     
   2724117142.5327487     
   2622765331.6544542     
   2538054448.5497489     
   2471414267.6880574     
   2424569054.5892129     
   2782582181.1370420     
   2656003988.2381773     
   2541155322.6219072     
   2439391940.2274504     
   2352388769.2951546     
   2868279424.4181180     
   2721054743.6042933     
   2580978354.7539392     
   2449026097.8455997     
   2326434802.7849936     
   2977980644.5199890     
   2816687036.1855512     
   2658615844.2238812     
   2504234215.7488966     
   2354137797.2543993     
   3108350814.5595140     
   2940861249.5854316     
   2773629933.9017048     
   2606710386.9310274     
   2440174053.1075659     
   5657832017.8330517     
   5890928477.9744902     
   6116377152.5645628     
   6331719553.2166729     
   6536734394.7278442     
   6491648825.0781345     
   6586873284.3878803     
   6757429901.0073433     
   6961235837.9645700     
   7171630281.8271475     
   7982343096.0040264     
   7734956300.6271534     
   7669147882.7290220     
   7669602780.0159416     
   7666387006.8036089     
   10130361057.131603     
   9322016905.2761726     
   8826339885.2080936     
   8443477845.7718468     
   8035614221.2456341     
   12935788747.598461     
   11340767810.736010     
   10210171430.150803     
   9272629991.8856030     
   8303684304.7406168     
   6536734394.7278442     
   6328694240.8329659     
   6142861286.3617821     
   5965322439.9461679     
   5787068965.8146067     
   7171630281.8271475     
   6910960261.3121347     
   6658195847.4042358     
   6409478182.9109926     
   6161661928.9856176     
   7666387006.8036089     
   7381112200.2365093     
   7101229713.3710346     
   6826819006.7927113     
   6558085338.4658566     
   8035614221.2456341     
   7746801463.1849670     
   7473660949.0491638     
   7214233192.9603472     
   6968527056.3677883     
   8303684304.7406168     
   8020591491.5340357     
   7779623003.9225416     
   7570082863.6610794     
   7386996051.7946787     
   5787068965.8146067     
   5636353265.1626539     
   5489802960.6314793     
   5347331489.1238575     
   5208985084.4237309     
   6161661928.9856176     
   6012638550.4551249     
   5864951381.8896065     
   5718638904.4527960     
   5573757240.4856653     
   6558085338.4658566     
   6407437898.5413456     
   6255174567.0506744     
   6101264263.9052858     
   5945737878.9906416     
   6968527056.3677883     
   6814285355.9365311     
   6655440138.2633562     
   6491707492.7594833     
   6323037504.8520927     
   7386996051.7946787     
   7228177243.5001640     
   7061846434.5838060     
   6887302296.2087669     
   6704353163.0183258     
   5208985084.4237309     
   5067615080.2291279     
   4927299796.8083658     
   4788090750.6387854     
   4650195016.0278969     
   5573757240.4856653     
   5414113824.0790195     
   5255426768.3627501     
   5097741073.2992735     
   4941167254.4482584     
   5945737878.9906416     
   5771996891.2813616     
   5599625698.4434633     
   5428648091.4482088     
   5259120106.7960625     
   6323037504.8520927     
   6138882706.8478432     
   5956958437.6970100     
   5777236748.8614855     
   5599733606.2974405     
   6704353163.0183258     
   6512972339.6306381     
   6325087130.3705091     
   6140571146.6135817     
   5959387753.0610170     
   4650195016.0278969     
   4513411825.9725161     
   4378755632.2449245     
   4246377254.6306672     
   4116467710.4044833     
   4941167254.4482584     
   4794894749.5301418     
   4649893265.5056734     
   4506283204.7006750     
   4364223718.7032843     
   5259120106.7960625     
   5103258168.5880280     
   4947814175.0919466     
   4792863014.4963226     
   4638518502.3334084     
   5599733606.2974405     
   5434239826.3762741     
   5268340776.2653751     
   5102055008.4371538     
   4935441702.8746605     
   5959387753.0610170     
   5784254074.6177015     
   5607941694.6152420     
   5430405547.2773218     
   5251644463.8532743     
   4116467710.4044833     
   3967067939.6639690     
   3820436294.6700387     
   3676832577.4961166     
   3536608051.9007978     
   4364223718.7032843     
   4201014966.3751111     
   4039761821.4483461     
   3880638869.6936097     
   3723899541.6299396     
   4638518502.3334084     
   4462372740.7381163     
   4287501465.4486604     
   4114000120.1262426     
   3942027976.4769597     
   4935441702.8746605     
   4747162583.5807390     
   4559607196.9321899     
   4372803536.4484186     
   4186828698.2791519     
   5251644463.8532743     
   5051942950.1448793     
   4852533796.0004530     
   4653391145.8556366     
   4454525348.5978508     
   3536608051.9007978     
   3425383043.3159871     
   3316660082.2848334     
   3210820826.9908686     
   3108350814.5595140     
   3723899541.6299396     
   3598657890.9154940     
   3474928518.0946674     
   3352952245.0521221     
   3233045166.1350851     
   3942027976.4769597     
   3805382417.2772279     
   3669565388.6969337     
   3534700261.7415361     
   3400957106.6628728     
   4186828698.2791519     
   4041222881.7583947     
   3896056530.6587372     
   3751370091.2558451     
   3607228509.9783220     
   4454525348.5978508     
   4302147129.8948994     
   4150073951.9427924     
   3998296991.8222890     
   3846818146.6704631     
   3108350814.5595140     
   2940861249.5854316     
   2773629933.9017048     
   2606710386.9310274     
   2440174053.1075659     
   3233045166.1350851     
   3059528558.5443373     
   2887757060.2086744     
   2717901460.7397518     
   2550201180.8113375     
   3400957106.6628728     
   3215324935.4169936     
   3031864924.0568709     
   2850761901.0269108     
   2672375246.3003035     
   3607228509.9783220     
   3402635560.1947141     
   3199665914.9258976     
   2998418329.2060232     
   2799318891.7932038     
   3846818146.6704631     
   3616086698.6240954     
   3385648948.3838620     
   3155408263.0489960     
   2925770834.6724367     
 </DataArray>
 <DataArray  type="Float64" Name="strain" NumberOfComponents="3" format="ascii">
  0.20348792712330874        0.0000000000000000       0.12540890811540167     
  0.18665649783783378       -2.7325415152092636E-002   7.4352155012220131E-002
  0.16982506855235882       -4.4676707195170286E-002   3.5130644729565771E-002
  0.15299363926688386       -5.2053876129232957E-002   7.7443772674386305E-003
  0.13616220998140888       -4.9456921954280642E-002  -7.8066473741613268E-003
  0.15985602864309295        0.0000000000000000        9.6451316411001950E-002
  0.15317799667573007       -2.1845189918054758E-002   6.2690998763679603E-002
  0.14649996470836715       -3.6175346267820353E-002   3.7402232932054170E-002
  0.13982193274100427       -4.2990469049296792E-002   2.0585018916125662E-002
  0.13314390077364133       -4.2290558262484089E-002   1.2239356715894059E-002
  0.12645783278249945        0.0000000000000000        7.4203494711003015E-002
  0.12656950712841833       -1.6364964684016877E-002   5.5280522978814056E-002
  0.12668118147433718       -2.7673985340470424E-002   4.1465412057491727E-002
  0.12679285582025607       -3.3927061969360628E-002   3.2758161947036027E-002
  0.12690453016617492       -3.5124194570687509E-002   2.9158772647446915E-002
  0.10329333954152825        0.0000000000000000        5.8665443015404856E-002
  0.10683102919589860       -1.0884739449978996E-002   5.2120727657623475E-002
  0.11036871885026894       -1.9172624413120488E-002   4.7320182105878426E-002
  0.11390640850463929       -2.4863654889424467E-002   4.4263806360169695E-002
  0.11744409815900964       -2.7957830878890942E-002   4.2951600420497352E-002
   9.0362548920179336E-002   0.0000000000000000        4.9837161324207506E-002
   9.3962562878170869E-002  -5.4045142159411166E-003   5.3211612800107860E-002
   9.7562576836162401E-002  -1.0671263485770553E-002   5.4966543077214255E-002
  0.10116259079415396       -1.5800247809488299E-002   5.5101952155526698E-002
  0.10476260475214548       -2.0791467187094372E-002   5.3617840035045175E-002
  0.13616220998140888       -4.9456921954280642E-002  -7.8066473741613268E-003
  0.13295951453529981       -4.2921680470085780E-002  -3.3873288937369544E-003
  0.12975681908919076       -3.8483987476420782E-002  -3.8537500483014006E-004
  0.12655412364308169       -3.6143842973285711E-002   1.1992142925595847E-003
  0.12335142819697265       -3.5901246960680450E-002   1.3664389984316683E-003
  0.13314390077364133       -4.2290558262484089E-002   1.2239356715894059E-002
  0.12891247670928949       -3.8424359949696257E-002   1.2186246266459703E-002
  0.12468105264493762       -3.5740620153247436E-002   1.1493043172057165E-002
  0.12044962858058580       -3.4239338873137556E-002   1.0159747432686394E-002
  0.11621820451623391       -3.3920516109366666E-002   8.1863590483472887E-003
  0.12690453016617492       -3.5124194570687509E-002   2.9158772647446915E-002
  0.12242164943012945       -3.3927039429306742E-002   2.5548323242344829E-002
  0.11793876869408398       -3.2997252830074042E-002   2.2075053138823606E-002
  0.11345588795803849       -3.2334834772989401E-002   1.8738962336883436E-002
  0.10897300722199303       -3.1939785258052841E-002   1.5540050836524176E-002
  0.11744409815900964       -2.7957830878890942E-002   4.2951600420497352E-002
  0.11348703269781973       -2.9429718908917237E-002   3.6698902033918263E-002
  0.10952996723662983       -3.0253885506900682E-002   3.1360654895469409E-002
  0.10557290177543990       -3.0430330672841281E-002   2.6936859005150665E-002
  0.10161583631425004       -2.9959054406739037E-002   2.3427514362962185E-002
  0.10476260475214548       -2.0791467187094372E-002   5.3617840035045175E-002
  0.10210862651236033       -2.4932398388527715E-002   4.5637982641180158E-002
   9.9454648272575191E-002  -2.7510518183727316E-002   3.9349848441994531E-002
   9.6800670032790054E-002  -2.8525826572693130E-002   3.4753437437488197E-002
   9.4146691793004889E-002  -2.7978323555425233E-002   3.1848749627661238E-002
  0.12335142819697265       -3.5901246960680450E-002   1.3664389984316683E-003
  0.12040763045549280       -3.6399756747654236E-002   6.2477452340564676E-004
  0.11746383271401292       -3.6282929643256030E-002   8.5678281188189542E-005
  0.11452003497253306       -3.5550765647485827E-002  -2.5084972822145973E-004
  0.11157623723105320       -3.4203264760343854E-002  -3.8480950482266962E-004
  0.11621820451623391       -3.3920516109366666E-002   8.1863590483472887E-003
  0.11346109214413111       -3.3996217940850004E-002   7.8212112049894367E-003
  0.11070397977202838       -3.3678510446502781E-002   7.6268658675775550E-003
  0.10794686739992559       -3.2967393626325045E-002   7.6033230361116019E-003
  0.10518975502782282       -3.1862867480316914E-002   7.7505827105916747E-003
  0.10897300722199303       -3.1939785258052841E-002   1.5540050836524176E-002
  0.10637081449240514       -3.1592679134045766E-002   1.5329492059292800E-002
  0.10376862176281726       -3.1074091249749611E-002   1.5257970061145310E-002
  0.10116642903322937       -3.0384021605164346E-002   1.5325484842081535E-002
   9.8564236303641514E-002  -2.9522470200289974E-002   1.5532036402101559E-002
  0.10161583631425004       -2.9959054406739037E-002   2.3427514362962185E-002
   9.9136797500314816E-002  -2.9189140327241531E-002   2.3149617086315917E-002
   9.6657758686379630E-002  -2.8469672052996400E-002   2.2978990861891337E-002
   9.4178719872444416E-002  -2.7800649584003523E-002   2.2915635689688206E-002
   9.1699681058509189E-002  -2.7182072920263090E-002   2.2959551569706773E-002
   9.4146691793004889E-002  -2.7978323555425233E-002   3.1848749627661238E-002
   9.1759041167860184E-002  -2.6785601520437338E-002   3.1281586286058712E-002
   8.9371390542715451E-002  -2.5865252856243200E-002   3.0789928269815595E-002
   8.6983739917570732E-002  -2.5217277562842783E-002   3.0373775578931853E-002
   8.4596089292426013E-002  -2.4841675640236233E-002   3.0033128213407562E-002
  0.11157623723105320       -3.4203264760343854E-002  -3.8480950482266962E-004
  0.10852358727762135       -3.2674755542475870E-002  -1.2184527059164174E-004
  0.10547093732418941       -3.1399566554527761E-002   1.6110519301307247E-004
  0.10241828737075749       -3.0377697796499615E-002   4.6404188599219465E-004
   9.9365637417325625E-002  -2.9609149268391477E-002   7.8696480834511418E-004
  0.10518975502782282       -3.1862867480316914E-002   7.7505827105916747E-003
  0.10219354417871515       -3.0637840391292609E-002   7.6080994639627364E-003
   9.9197333329607465E-002  -2.9565220742066495E-002   7.5585081966080686E-003
   9.6201122480499807E-002  -2.8645008532638828E-002   7.6018089085282681E-003
   9.3204911631392107E-002  -2.7877203763009284E-002   7.7380015997225438E-003
   9.8564236303641514E-002  -2.9522470200289974E-002   1.5532036402101559E-002
   9.5697370308758467E-002  -2.8600925240109529E-002   1.5085018464734382E-002
   9.2830504313875378E-002  -2.7730874929605444E-002   1.4803798256542045E-002
   8.9963638318992331E-002  -2.6912319268778094E-002   1.4688375777524670E-002
   8.7096772324109312E-002  -2.6145258257627341E-002   1.4738751027681921E-002
   9.1699681058509189E-002  -2.7182072920263090E-002   2.2959551569706773E-002
   8.9035065667751184E-002  -2.6564010088926303E-002   2.2308911731723211E-002
   8.6370450276993180E-002  -2.5896529117144313E-002   2.1896975372814785E-002
   8.3705834886235161E-002  -2.5179630004917391E-002   2.1723742492981667E-002
   8.1041219495477101E-002  -2.4413312752245273E-002   2.1789213092223664E-002
   8.4596089292426013E-002  -2.4841675640236233E-002   3.0033128213407562E-002
   8.2206630255693386E-002  -2.4527094937743063E-002   2.9279779264929015E-002
   7.9817171218960800E-002  -2.4062183304683252E-002   2.8838039545426325E-002
   7.7427712182228159E-002  -2.3446940741056650E-002   2.8707909054899047E-002
   7.5038253145495531E-002  -2.2681367246863232E-002   2.8889387793347432E-002
   9.9365637417325625E-002  -2.9609149268391477E-002   7.8696480834511418E-004
   9.6404059013896648E-002  -2.8920334481968346E-002   4.0076049750081832E-004
   9.3442480610467671E-002  -2.8137666948995374E-002   2.0627328672231937E-004
   9.0480902207038694E-002  -2.7261146669472752E-002   2.0350317600974221E-004
   8.7519323803609717E-002  -2.6290773643400045E-002   3.9245016536315624E-004
   9.3204911631392107E-002  -2.7877203763009284E-002   7.7380015997225438E-003
   9.0427785202707833E-002  -2.7155172246456805E-002   7.4744754823045101E-003
   8.7650658774023449E-002  -2.6372279796259723E-002   7.3881362143099483E-003
   8.4873532345339175E-002  -2.5528526412418415E-002   7.4789837957388444E-003
   8.2096405916654847E-002  -2.4623912094932310E-002   7.7470182265910736E-003
   8.7096772324109312E-002  -2.6145258257627341E-002   1.4738751027681921E-002
   8.4489567619527001E-002  -2.5390010010945180E-002   1.4564911290785132E-002
   8.1882362914944745E-002  -2.4606892643524080E-002   1.4553728152669178E-002
   7.9275158210362476E-002  -2.3795906155363970E-002   1.4705201613334041E-002
   7.6667953505780179E-002  -2.2957050546464630E-002   1.5019331672779385E-002
   8.1041219495477101E-002  -2.4413312752245273E-002   2.1789213092223664E-002
   7.8589406264354317E-002  -2.3624847775433847E-002   2.1672067922942712E-002
   7.6137593033231463E-002  -2.2841505490788543E-002   2.1703049101799911E-002
   7.3685779802108664E-002  -2.2063285898309522E-002   2.1882156628795110E-002
   7.1233966570985824E-002  -2.1290188997996701E-002   2.2209390503928679E-002
   7.5038253145495531E-002  -2.2681367246863232E-002   2.8889387793347432E-002
   7.2727301137189615E-002  -2.1859685539922249E-002   2.8795945378776833E-002
   7.0416349128883657E-002  -2.1076118338052806E-002   2.8836099061701967E-002
   6.8105397120577726E-002  -2.0330665641255109E-002   2.9009848842122495E-002
   6.5794445112271754E-002  -1.9623327449528938E-002   2.9317194720038631E-002
   8.7519323803609717E-002  -2.6290773643400045E-002   3.9245016536315624E-004
   8.4193411289102627E-002  -2.5283628220256760E-002   5.1235622447853846E-005
   8.0867498774595481E-002  -2.4296790749522040E-002  -9.7348746819048149E-005
   7.7541586260088363E-002  -2.3330261231195824E-002  -5.3302942437327694E-005
   7.4215673745581245E-002  -2.2384039665277911E-002   1.8337303559246010E-004
   8.2096405916654847E-002  -2.4623912094932310E-002   7.7470182265910736E-003
   7.8964524509282485E-002  -2.3697763204579281E-002   7.3826202230829474E-003
   7.5832643101910235E-002  -2.2789406102136422E-002   7.2136542601959341E-003
   7.2700761694537916E-002  -2.1898840787603818E-002   7.2401203379305751E-003
   6.9568880287165624E-002  -2.1026067260981440E-002   7.4620184562861347E-003
   7.6667953505780179E-002  -2.2957050546464630E-002   1.5019331672779385E-002
   7.3732905072515509E-002  -2.2111898188901524E-002   1.4634266373176857E-002
   7.0797856639250797E-002  -2.1282021454750708E-002   1.4447434981168544E-002
   6.7862808205986086E-002  -2.0467420344011705E-002   1.4458837496754189E-002
   6.4927759772721416E-002  -1.9668094856684748E-002   1.4668473919933589E-002
   7.1233966570985824E-002  -2.1290188997996701E-002   2.2209390503928679E-002
   6.8498552978801489E-002  -2.0526033173223851E-002   2.1806174072730125E-002
   6.5763139386617181E-002  -1.9774636807364930E-002   2.1603993416098029E-002
   6.3027725794432887E-002  -1.9035999900419702E-002   2.1602848534032847E-002
   6.0292312202248538E-002  -1.8310122452388278E-002   2.1802739426534531E-002
   6.5794445112271754E-002  -1.9623327449528938E-002   2.9317194720038631E-002
   6.3261468228140577E-002  -1.8940168157546233E-002   2.8898343321742015E-002
   6.0728491344009386E-002  -1.8267252159979222E-002   2.8683329564984816E-002
   5.8195514459878230E-002  -1.7604579456827824E-002   2.8672153449767132E-002
   5.5662537575747018E-002  -1.6952150048091863E-002   2.8864814976088948E-002
   7.4215673745581245E-002  -2.2384039665277911E-002   1.8337303559246010E-004
   7.1714690609000376E-002  -2.1458587371959825E-002   5.6753501952111485E-005
   6.9213707472419506E-002  -2.0554365671433816E-002   2.3988464249335983E-005
   6.6712724335838636E-002  -1.9671374563698954E-002   8.5077922483967061E-005
   6.4211741199257766E-002  -1.8809614048755918E-002   2.4002187665628227E-004
   6.9568880287165624E-002  -2.1026067260981440E-002   7.4620184562861347E-003
   6.7173209718372484E-002  -2.0164749129103487E-002   7.3393551412819225E-003
   6.4777539149579288E-002  -1.9308549998805324E-002   7.3334624659157632E-003
   6.2381868580786093E-002  -1.8457469870086465E-002   7.4443404301872407E-003
   5.9986198011992953E-002  -1.7611508742947146E-002   7.6719890340971597E-003
   6.4927759772721416E-002  -1.9668094856684748E-002   1.4668473919933589E-002
   6.2660317915416291E-002  -1.8870910886247538E-002   1.4565878414777689E-002
   6.0392876058111250E-002  -1.8062734326177582E-002   1.4602969692960127E-002
   5.8125434200806181E-002  -1.7243565176474414E-002   1.4779747754480946E-002
   5.5857992343501084E-002  -1.6413403437138596E-002   1.5096212599340297E-002
   6.0292312202248538E-002  -1.8310122452388278E-002   2.1802739426534531E-002
   5.8176015200132006E-002  -1.7577072643391284E-002   2.1736323322439119E-002
   5.6059718198015487E-002  -1.6816918653549187E-002   2.1832510145382615E-002
   5.3943421195898941E-002  -1.6029660482862255E-002   2.2091299895365058E-002
   5.1827124193782437E-002  -1.5215298131329935E-002   2.2512692572386014E-002
   5.5662537575747018E-002  -1.6952150048091863E-002   2.8864814976088948E-002
   5.3720301572519502E-002  -1.6283234400535140E-002   2.8850689864266643E-002
   5.1778065569291987E-002  -1.5571102980921264E-002   2.9022083823183109E-002
   4.9835829566064416E-002  -1.4815755789250047E-002   2.9378996852838957E-002
   4.7893593562836900E-002  -1.4017192825521330E-002   2.9921428953234075E-002
   6.4211741199257766E-002  -1.8809614048755918E-002   2.4002187665628227E-004
   6.0294053836755679E-002  -1.7965716018428557E-002  -4.8558921281527390E-004
   5.6376366474253481E-002  -1.7136312364542106E-002  -6.4105283865611984E-004
   5.2458679111751394E-002  -1.6321403087095301E-002  -2.2636900086578371E-004
   4.8540991749249196E-002  -1.5520988186088935E-002   7.5846230055587327E-004
   5.9986198011992953E-002  -1.7611508742947146E-002   7.6719890340971597E-003
   5.6563271746822852E-002  -1.6775698726607613E-002   6.9534902988691027E-003
   5.3140345481652806E-002  -1.5955071930288056E-002   6.6543662946744186E-003
   4.9717419216482539E-002  -1.5149628353988351E-002   6.7746170215126911E-003
   4.6294492951312605E-002  -1.4359367997708983E-002   7.3142424793841698E-003
   5.5857992343501084E-002  -1.6413403437138596E-002   1.5096212599340297E-002
   5.2779054443065021E-002  -1.5585681434786225E-002   1.4384137374776507E-002
   4.9700116542628986E-002  -1.4773831496033979E-002   1.3940664148647364E-002
   4.6621178642192951E-002  -1.3977853620881671E-002   1.3765792920953840E-002
   4.3542240741756888E-002  -1.3197747809328808E-002   1.3859523691694853E-002
   5.1827124193782437E-002  -1.5215298131329935E-002   2.2512692572386014E-002
   4.8941401925482304E-002  -1.4395664142965170E-002   2.1806352014906341E-002
   4.6055679657182103E-002  -1.3592591061780138E-002   2.1217840723263735E-002
   4.3169957388882130E-002  -1.2806078887774634E-002   2.0747158697457847E-002
   4.0284235120581768E-002  -1.2036127620948966E-002   2.0394305937489421E-002
   4.7893593562836900E-002  -1.4017192825521330E-002   2.9921428953234075E-002
   4.5050314194074625E-002  -1.3205646851144059E-002   2.9220134219259120E-002
   4.2207034825312295E-002  -1.2411350627526116E-002   2.8485896018523055E-002
   3.9363755456550020E-002  -1.1634304154667829E-002   2.7718714351025478E-002
   3.6520476087787745E-002  -1.0874507432568903E-002   2.6918589216766931E-002
   9.0362548920179336E-002   0.0000000000000000        4.9837161324207506E-002
   9.3962562878170869E-002  -5.4045142159411166E-003   5.3211612800107860E-002
   9.7562576836162401E-002  -1.0671263485770553E-002   5.4966543077214255E-002
  0.10116259079415396       -1.5800247809488299E-002   5.5101952155526698E-002
  0.10476260475214548       -2.0791467187094372E-002   5.3617840035045175E-002
   8.2426453304636965E-002   0.0000000000000000        4.4785521012819990E-002
   8.4636188146152702E-002  -4.5743782181390906E-003   4.8269290151724098E-002
   8.6845922987668425E-002  -9.0377450050002327E-003   5.0592022256470567E-002
   8.9055657829184162E-002  -1.3390100360583423E-002   5.1753717327059370E-002
   9.1265392670699899E-002  -1.7631444284888668E-002   5.1754375363490548E-002
   7.4246045081085357E-002   0.0000000000000000        4.0577393456651373E-002
   7.5523984970761612E-002  -3.7442422203370646E-003   4.4143726743725492E-002
   7.6801924860437867E-002  -7.4042265242299145E-003   4.7007507161278259E-002
   7.8079864750114095E-002  -1.0979952911678546E-002   4.9168734709309700E-002
   7.9357804639790364E-002  -1.4471421382682962E-002   5.0627409387819844E-002
   6.5821324249524513E-002   0.0000000000000000        3.7212778655701641E-002
   6.6625953351997599E-002  -2.9141062225350386E-003   4.0834922576112036E-002
   6.7430582454470672E-002  -5.7707080434595956E-003   4.4212997791637419E-002
   6.8235211556943759E-002  -8.5698054627736647E-003   4.7347004302277770E-002
   6.9039840659416832E-002  -1.1311398480477255E-002   5.0236942108033131E-002
   5.7152290809954445E-002   0.0000000000000000        3.4691676609970815E-002
   5.7942093289860670E-002  -2.0839702247330127E-003   3.8342877648883750E-002
   5.8731895769766895E-002  -4.1371895626892766E-003   4.2208494147547980E-002
   5.9521698249673134E-002  -6.1596580138687899E-003   4.6288526105963519E-002
   6.0311500729579352E-002  -8.1513755782715511E-003   5.0582973524130374E-002
  0.10476260475214548       -2.0791467187094372E-002   5.3617840035045175E-002
  0.10210862651236033       -2.4932398388527715E-002   4.5637982641180158E-002
   9.9454648272575191E-002  -2.7510518183727316E-002   3.9349848441994531E-002
   9.6800670032790054E-002  -2.8525826572693130E-002   3.4753437437488197E-002
   9.4146691793004889E-002  -2.7978323555425233E-002   3.1848749627661238E-002
   9.1265392670699899E-002  -1.7631444284888668E-002   5.1754375363490548E-002
   9.0064835169991558E-002  -2.1206908580808526E-002   4.6517619180422319E-002
   8.8864277669283231E-002  -2.3561625051235581E-002   4.2495981280828356E-002
   8.7663720168574918E-002  -2.4695593696169801E-002   3.9689461664708749E-002
   8.6463162667866578E-002  -2.4608814515611220E-002   3.8098060332063297E-002
   7.9357804639790364E-002  -1.4471421382682962E-002   5.0627409387819844E-002
   7.9134062966953786E-002  -1.7481418773089334E-002   4.7791690834807485E-002
   7.8910321294117208E-002  -1.9612731918743829E-002   4.5694485654064330E-002
   7.8686579621280617E-002  -2.0865360819646454E-002   4.4335793845590381E-002
   7.8462837948444053E-002  -2.1239305475797207E-002   4.3715615409385671E-002
   6.9039840659416832E-002  -1.1311398480477255E-002   5.0236942108033131E-002
   6.9316309903246956E-002  -1.3755928965370149E-002   4.9460197604335662E-002
   6.9592779147077080E-002  -1.5663838786252087E-002   4.8945361561702302E-002
   6.9869248390907204E-002  -1.7035127943123115E-002   4.8692433980133197E-002
   7.0145717634737315E-002  -1.7869796435983194E-002   4.8701414859628187E-002
   6.0311500729579352E-002  -8.1513755782715511E-003   5.0582973524130374E-002
   6.0611575978871110E-002  -1.0030439157650940E-002   5.1523139489006838E-002
   6.0911651228162875E-002  -1.1714945653760342E-002   5.2248609003742431E-002
   6.1211726477454646E-002  -1.3204895066599765E-002   5.2759382068337156E-002
   6.1511801726746397E-002  -1.4500287396169181E-002   5.3055458682790962E-002
   9.4146691793004889E-002  -2.7978323555425233E-002   3.1848749627661238E-002
   9.1759041167860184E-002  -2.6785601520437338E-002   3.1281586286058712E-002
   8.9371390542715451E-002  -2.5865252856243200E-002   3.0789928269815595E-002
   8.6983739917570732E-002  -2.5217277562842783E-002   3.0373775578931853E-002
   8.4596089292426013E-002  -2.4841675640236233E-002   3.0033128213407562E-002
   8.6463162667866578E-002  -2.4608814515611220E-002   3.8098060332063297E-002
   8.4198705327569512E-002  -2.3965301007543575E-002   3.7071963085030690E-002
   8.1934247987272502E-002  -2.3429066669950656E-002   3.6216747082334036E-002
   7.9669790646975450E-002  -2.3000111502832467E-002   3.5532412323973361E-002
   7.7405333306678453E-002  -2.2678435506189018E-002   3.5018958809948583E-002
   7.8462837948444053E-002  -2.1239305475797207E-002   4.3715615409385671E-002
   7.6416949811971280E-002  -2.1145000494649853E-002   4.2395678457241924E-002
   7.4371061675498507E-002  -2.0992880483658192E-002   4.1341998668410720E-002
   7.2325173539025733E-002  -2.0782945442822151E-002   4.0554576042892101E-002
   7.0279285402552988E-002  -2.0515195372141845E-002   4.0033410580686046E-002
   7.0145717634737315E-002  -1.7869796435983194E-002   4.8701414859628187E-002
   6.8413774621065432E-002  -1.8324699981756110E-002   4.7252732402692392E-002
   6.6681831607393494E-002  -1.8556694297365714E-002   4.6165683028045752E-002
   6.4949888593721583E-002  -1.8565779382811839E-002   4.5440266735688184E-002
   6.3217945580049659E-002  -1.8351955238094679E-002   4.5076483525619854E-002
   6.1511801726746397E-002  -1.4500287396169181E-002   5.3055458682790962E-002
   6.0189179754851926E-002  -1.5504399468862375E-002   5.1643124921382129E-002
   5.8866557782957449E-002  -1.6120508111073191E-002   5.0687800161238986E-002
   5.7543935811062978E-002  -1.6348613322801513E-002   5.0189484402361727E-002
   5.6221313839168507E-002  -1.6188715104047485E-002   5.0148177644750103E-002
   8.4596089292426013E-002  -2.4841675640236233E-002   3.0033128213407562E-002
   8.2206630255693386E-002  -2.4527094937743063E-002   2.9279779264929015E-002
   7.9817171218960800E-002  -2.4062183304683252E-002   2.8838039545426325E-002
   7.7427712182228159E-002  -2.3446940741056650E-002   2.8707909054899047E-002
   7.5038253145495531E-002  -2.2681367246863232E-002   2.8889387793347432E-002
   7.7405333306678453E-002  -2.2678435506189018E-002   3.5018958809948583E-002
   7.5305194517393481E-002  -2.2355376982368565E-002   3.4438216539261983E-002
   7.3205055728108537E-002  -2.1922274233719421E-002   3.4124505534495315E-002
   7.1104916938823592E-002  -2.1379127260241673E-002   3.4077825795648151E-002
   6.9004778149538662E-002  -2.0725936061935180E-002   3.4298177322720877E-002
   7.0279285402552988E-002  -2.0515195372141845E-002   4.0033410580686046E-002
   6.8423888897659796E-002  -2.0183659026994032E-002   3.9584988282053368E-002
   6.6568492392766673E-002  -1.9782365162755645E-002   3.9359019286284484E-002
   6.4713095887873509E-002  -1.9311313779426638E-002   3.9355503593379540E-002
   6.2857699382980359E-002  -1.8770504877007058E-002   3.9574441203338383E-002
   6.3217945580049659E-002  -1.8351955238094679E-002   4.5076483525619854E-002
   6.1562713396492399E-002  -1.8011941071619516E-002   4.4720094493302893E-002
   5.9907481212935175E-002  -1.7642456091791787E-002   4.4541580800793935E-002
   5.8252249029377902E-002  -1.7243500298611717E-002   4.4540942448093021E-002
   5.6597016845820657E-002  -1.6815073692078984E-002   4.4718179435199998E-002
   5.6221313839168507E-002  -1.6188715104047485E-002   5.0148177644750103E-002
   5.4721668013891278E-002  -1.5840223116245000E-002   4.9843535173010822E-002
   5.3222022188614049E-002  -1.5502547020828067E-002   4.9672190078023648E-002
   5.1722376363336819E-002  -1.5175686817796678E-002   4.9634142359788636E-002
   5.0222730538059590E-002  -1.4859642507150855E-002   4.9729392018305646E-002
   7.5038253145495531E-002  -2.2681367246863232E-002   2.8889387793347432E-002
   7.2727301137189615E-002  -2.1859685539922249E-002   2.8795945378776833E-002
   7.0416349128883657E-002  -2.1076118338052806E-002   2.8836099061701967E-002
   6.8105397120577726E-002  -2.0330665641255109E-002   2.9009848842122495E-002
   6.5794445112271754E-002  -1.9623327449528938E-002   2.9317194720038631E-002
   6.9004778149538662E-002  -2.0725936061935180E-002   3.4298177322720877E-002
   6.6841669678248825E-002  -2.0025780285538794E-002   3.4078263790209146E-002
   6.4678561206959029E-002  -1.9341739577791436E-002   3.4020441234234290E-002
   6.2515452735669233E-002  -1.8673813938693117E-002   3.4124709654796165E-002
   6.0352344264379409E-002  -1.8022003368243888E-002   3.4391069051894596E-002
   6.2857699382980359E-002  -1.8770504877007058E-002   3.9574441203338383E-002
   6.0870929327747819E-002  -1.8191875031155359E-002   3.9250055989308266E-002
   5.8884159272515280E-002  -1.7607360817530070E-002   3.9116256630855911E-002
   5.6897389217282747E-002  -1.7016962236131212E-002   3.9173043127981463E-002
   5.4910619162050235E-002  -1.6420679286958756E-002   3.9420415480684895E-002
   5.6597016845820657E-002  -1.6815073692078984E-002   4.4718179435199998E-002
   5.4815080085686585E-002  -1.6357969776771928E-002   4.4311321976073889E-002
   5.3033143325552479E-002  -1.5872982057268704E-002   4.4123545251566788E-002
   5.1251206565418359E-002  -1.5360110533569263E-002   4.4154849261678758E-002
   4.9469269805284259E-002  -1.4819355205673693E-002   4.4405234006409625E-002
   5.0222730538059590E-002  -1.4859642507150855E-002   4.9729392018305646E-002
   4.8674121952065066E-002  -1.4524064522388455E-002   4.9262061750506125E-002
   4.7125513366070543E-002  -1.4138603297007259E-002   4.9042307096366963E-002
   4.5576904780076019E-002  -1.3703258831007337E-002   4.9070128055887764E-002
   4.4028296194081495E-002  -1.3218031124388629E-002   4.9345524629068771E-002
   6.5794445112271754E-002  -1.9623327449528938E-002   2.9317194720038631E-002
   6.3261468228140577E-002  -1.8940168157546233E-002   2.8898343321742015E-002
   6.0728491344009386E-002  -1.8267252159979222E-002   2.8683329564984816E-002
   5.8195514459878230E-002  -1.7604579456827824E-002   2.8672153449767132E-002
   5.5662537575747018E-002  -1.6952150048091863E-002   2.8864814976088948E-002
   6.0352344264379409E-002  -1.8022003368243888E-002   3.4391069051894596E-002
   5.8022038901565140E-002  -1.7380833973047405E-002   3.3963721990802331E-002
   5.5691733538750898E-002  -1.6744831859707709E-002   3.3737880330804285E-002
   5.3361428175936629E-002  -1.6113997028224872E-002   3.3713544071900733E-002
   5.1031122813122387E-002  -1.5488329478598795E-002   3.3890713214091095E-002
   5.4910619162050235E-002  -1.6420679286958756E-002   3.9420415480684895E-002
   5.2780653080107681E-002  -1.5821499788548493E-002   3.8989648769355706E-002
   5.0650686998165120E-002  -1.5222411559436246E-002   3.8758055218675654E-002
   4.8520720916222566E-002  -1.4623414599621918E-002   3.8725634828644689E-002
   4.6390754834280012E-002  -1.4024508909105698E-002   3.8892387599262862E-002
   4.9469269805284259E-002  -1.4819355205673693E-002   4.4405234006409625E-002
   4.7537310763768201E-002  -1.4262165604049623E-002   4.3976123657402527E-002
   4.5605351722252073E-002  -1.3699991259164702E-002   4.3743854228599124E-002
   4.3673392680735973E-002  -1.3132832171019172E-002   4.3708425719999576E-002
   4.1741433639219880E-002  -1.2560688339612616E-002   4.3869838131604104E-002
   4.4028296194081495E-002  -1.3218031124388629E-002   4.9345524629068771E-002
   4.2292011952546615E-002  -1.2702831419550725E-002   4.8923146654942407E-002
   4.0555727711011763E-002  -1.2177570958893227E-002   4.8695277360574635E-002
   3.8819443469476911E-002  -1.1642249742416167E-002   4.8661916745965469E-002
   3.7083159227942031E-002  -1.1096867770119534E-002   4.8823064811114980E-002
   5.5662537575747018E-002  -1.6952150048091863E-002   2.8864814976088948E-002
   5.3720301572519502E-002  -1.6283234400535140E-002   2.8850689864266643E-002
   5.1778065569291987E-002  -1.5571102980921264E-002   2.9022083823183109E-002
   4.9835829566064416E-002  -1.4815755789250047E-002   2.9378996852838957E-002
   4.7893593562836900E-002  -1.4017192825521330E-002   2.9921428953234075E-002
   5.1031122813122387E-002  -1.5488329478598795E-002   3.3890713214091095E-002
   4.9262291957132498E-002  -1.4850493857168218E-002   3.3891880561310761E-002
   4.7493461101142581E-002  -1.4183154810271853E-002   3.4054339132266465E-002
   4.5724630245152664E-002  -1.3486312337909971E-002   3.4378088926958289E-002
   4.3955799389162720E-002  -1.2759966440082149E-002   3.4863129945386095E-002
   4.6390754834280012E-002  -1.4024508909105698E-002   3.8892387599262862E-002
   4.4771101278524586E-002  -1.3417753313801239E-002   3.8895135058933050E-002
   4.3151447722769160E-002  -1.2795206639622650E-002   3.9034945895336390E-002
   4.1531794167013733E-002  -1.2156868886569836E-002   3.9311820108472416E-002
   3.9912140611258307E-002  -1.1502740054642829E-002   3.9725757698341593E-002
   4.1741433639219880E-002  -1.2560688339612616E-002   4.3869838131604104E-002
   4.0246729536695801E-002  -1.1985012770434317E-002   4.3860453357133601E-002
   3.8752025434171715E-002  -1.1407258468973343E-002   4.3963904112392815E-002
   3.7257321331647629E-002  -1.0827425435229731E-002   4.4180190397381781E-002
   3.5762617229123550E-002  -1.0245513669203468E-002   4.4509312212100485E-002
   3.7083159227942031E-002  -1.1096867770119534E-002   4.8823064811114980E-002
   3.5689176731646177E-002  -1.0552272227067339E-002   4.8787835455912032E-002
   3.4295194235350296E-002  -1.0019310298324091E-002   4.8841213783435755E-002
   3.2901211739054401E-002  -9.4979819838898333E-003   4.8983199793686039E-002
   3.1507229242758533E-002  -8.9882872837642180E-003   4.9213793486663104E-002
   4.7893593562836900E-002  -1.4017192825521330E-002   2.9921428953234075E-002
   4.5050314194074625E-002  -1.3205646851144059E-002   2.9220134219259120E-002
   4.2207034825312295E-002  -1.2411350627526116E-002   2.8485896018523055E-002
   3.9363755456550020E-002  -1.1634304154667829E-002   2.7718714351025478E-002
   3.6520476087787745E-002  -1.0874507432568903E-002   2.6918589216766931E-002
   4.3955799389162720E-002  -1.2759966440082149E-002   3.4863129945386095E-002
   4.1147701627443634E-002  -1.2022281130257245E-002   3.4112058504869786E-002
   3.8339603865724520E-002  -1.1291420421903758E-002   3.3464293745201018E-002
   3.5531506104005420E-002  -1.0567384315021765E-002   3.2919835666379585E-002
   3.2723408342286264E-002  -9.8501728096112018E-003   3.2478684268406055E-002
   3.9912140611258307E-002  -1.1502740054642829E-002   3.9725757698341593E-002
   3.7275474604191144E-002  -1.0838915409370403E-002   3.8935334700571811E-002
   3.4638808597124010E-002  -1.0171490216281408E-002   3.8384468531258549E-002
   3.2002142590056876E-002  -9.5004644753757857E-003   3.8073159190401676E-002
   2.9365476582989714E-002  -8.8258381866535007E-003   3.8001406678000671E-002
   3.5762617229123550E-002  -1.0245513669203468E-002   4.4509312212100485E-002
   3.3433633124317214E-002  -9.6555496884835751E-003   4.3689962806365508E-002
   3.1104649019510822E-002  -9.0515600106590537E-003   4.3246420376695800E-002
   2.8775664914704433E-002  -8.4335446357298761E-003   4.3178684923090946E-002
   2.6446680809898149E-002  -7.8015035636958552E-003   4.3486756445551528E-002
   3.1507229242758533E-002  -8.9882872837642180E-003   4.9213793486663104E-002
   2.9622177187821702E-002  -8.4721839675967470E-003   4.8375942822250884E-002
   2.7737125132884885E-002  -7.9316298050366441E-003   4.8050149281512688E-002
   2.5852073077948033E-002  -7.3666247960838399E-003   4.8236412864448297E-002
   2.3967021023011237E-002  -6.7771689407380986E-003   4.8934733571057931E-002
   5.7152290809954445E-002   0.0000000000000000        3.4691676609970815E-002
   5.7942093289860670E-002  -2.0839702247330127E-003   3.8342877648883750E-002
   5.8731895769766895E-002  -4.1371895626892766E-003   4.2208494147547980E-002
   5.9521698249673134E-002  -6.1596580138687899E-003   4.6288526105963519E-002
   6.0311500729579352E-002  -8.1513755782715511E-003   5.0582973524130374E-002
   4.8651462580027699E-002   0.0000000000000000        3.2790723686546938E-002
   4.9590280086904824E-002  -1.7094967111572238E-003   3.6965686230932847E-002
   5.0529097593781942E-002  -3.4328664871761897E-003   4.1224263369509233E-002
   5.1467915100659060E-002  -5.1701093280568967E-003   4.5566455102276096E-002
   5.2406732607536179E-002  -6.9212252337993441E-003   4.9992261429233437E-002
   4.0731357377396846E-002   0.0000000000000000        3.1286556252518104E-002
   4.1688389045684032E-002  -1.3350231975814359E-003   3.5940656350738509E-002
   4.2645420713971219E-002  -2.7285434116631046E-003   4.0547570177588539E-002
   4.3602452382258385E-002  -4.1805606422450018E-003   4.5107297733068250E-002
   4.4559484050545578E-002  -5.6910748893271336E-003   4.9619839017177592E-002
   3.3391975202061878E-002   0.0000000000000000        3.0179174307884301E-002
   3.4236420166198295E-002  -9.6054968400564834E-004   3.5267788008300702E-002
   3.5080865130334711E-002  -2.0242203361500160E-003   4.0178414571785920E-002
   3.5925310094471141E-002  -3.1910119564331112E-003   4.4911053998339938E-002
   3.6769755058607564E-002  -4.4609245448549197E-003   4.9465706287962818E-002
   2.6633316054022790E-002   0.0000000000000000        2.9468577852645530E-002
   2.7234373448447622E-002  -5.8607617042985907E-004   3.4947081203619425E-002
   2.7835430842872457E-002  -1.3198972606369326E-003   4.0116796552101319E-002
   2.8436488237297289E-002  -2.2014632706212171E-003   4.4977723898091224E-002
   2.9037545631722124E-002  -3.2307742003827153E-003   4.9529863241589110E-002
   6.0311500729579352E-002  -8.1513755782715511E-003   5.0582973524130374E-002
   6.0611575978871110E-002  -1.0030439157650940E-002   5.1523139489006838E-002
   6.0911651228162875E-002  -1.1714945653760342E-002   5.2248609003742431E-002
   6.1211726477454646E-002  -1.3204895066599765E-002   5.2759382068337156E-002
   6.1511801726746397E-002  -1.4500287396169181E-002   5.3055458682790962E-002
   5.2406732607536179E-002  -6.9212252337993441E-003   4.9992261429233437E-002
   5.2531565478568812E-002  -8.5850155691652580E-003   5.1220941675486679E-002
   5.2656398349601431E-002  -1.0060281698916363E-002   5.2313833615362508E-002
   5.2781231220634058E-002  -1.1347023623052697E-002   5.3270937248860985E-002
   5.2906064091666684E-002  -1.2445241341574216E-002   5.4092252575982026E-002
   4.4559484050545578E-002  -5.6910748893271336E-003   4.9619839017177592E-002
   4.4587982687082590E-002  -7.1395919806795747E-003   5.1131000667152343E-002
   4.4616481323619589E-002  -8.4056177440724050E-003   5.2585282154513240E-002
   4.4644979960156594E-002  -9.4891521795056350E-003   5.3982683479260260E-002
   4.4673478596693607E-002  -1.0390195286979251E-002   5.5323204641393460E-002
   3.6769755058607564E-002  -4.4609245448549197E-003   4.9465706287962818E-002
   3.6780827604412467E-002  -5.6941683921938975E-003   5.1253316464003947E-002
   3.6791900150217362E-002  -6.7509537892284331E-003   5.3062954621194695E-002
   3.6802972696022264E-002  -7.6312807359585942E-003   5.4894620759535086E-002
   3.6814045241827173E-002  -8.3351492323842993E-003   5.6748314879025194E-002
   2.9037545631722124E-002  -3.2307742003827153E-003   4.9529863241589110E-002
   2.9110100230558433E-002  -4.2487448037082116E-003   5.1587889066041365E-002
   2.9182654829394750E-002  -5.0962898343844629E-003   5.3746851015406806E-002
   2.9255209428231059E-002  -5.7734092924115032E-003   5.6006749089685400E-002
   2.9327764027067368E-002  -6.2801031777893201E-003   5.8367583288877173E-002
   6.1511801726746397E-002  -1.4500287396169181E-002   5.3055458682790962E-002
   6.0189179754851926E-002  -1.5504399468862375E-002   5.1643124921382129E-002
   5.8866557782957449E-002  -1.6120508111073191E-002   5.0687800161238986E-002
   5.7543935811062978E-002  -1.6348613322801513E-002   5.0189484402361727E-002
   5.6221313839168507E-002  -1.6188715104047485E-002   5.0148177644750103E-002
   5.2906064091666684E-002  -1.2445241341574216E-002   5.4092252575982026E-002
   5.1987249899936250E-002  -1.3295547992692162E-002   5.3347520413415568E-002
   5.1068435708205823E-002  -1.3838556714617740E-002   5.2953394809911430E-002
   5.0149621516475396E-002  -1.4074267507350868E-002   5.2909875765469565E-002
   4.9230807324744962E-002  -1.4002680370891696E-002   5.3216963280090179E-002
   4.4673478596693607E-002  -1.0390195286979251E-002   5.5323204641393460E-002
   4.4052069742923833E-002  -1.1086696516521905E-002   5.5165368576379242E-002
   4.3430660889154052E-002  -1.1556605318162234E-002   5.5251736628224024E-002
   4.2809252035384278E-002  -1.1799921691900219E-002   5.5582308796927736E-002
   4.2187843181614504E-002  -1.1816645637735892E-002   5.6157085082490399E-002
   3.6814045241827173E-002  -8.3351492323842993E-003   5.6748314879025194E-002
   3.6383639283814655E-002  -8.8778450403516704E-003   5.7096669410273228E-002
   3.5953233325802136E-002  -9.2746539217067551E-003   5.7582825616176857E-002
   3.5522827367789625E-002  -9.5255758764495827E-003   5.8206783496736011E-002
   3.5092421409777107E-002  -9.6306109045801239E-003   5.8968543051950727E-002
   2.9327764027067368E-002  -6.2801031777893201E-003   5.8367583288877173E-002
   2.8981958522608729E-002  -6.6689935641814392E-003   5.9141422915097414E-002
   2.8636153018150083E-002  -6.9927025252512903E-003   5.9946661773769838E-002
   2.8290347513691444E-002  -7.2512300609989290E-003   6.0783299864894447E-002
   2.7944542009232798E-002  -7.4445761714242997E-003   6.1651337188471211E-002
   5.6221313839168507E-002  -1.6188715104047485E-002   5.0148177644750103E-002
   5.4721668013891278E-002  -1.5840223116245000E-002   4.9843535173010822E-002
   5.3222022188614049E-002  -1.5502547020828067E-002   4.9672190078023648E-002
   5.1722376363336819E-002  -1.5175686817796678E-002   4.9634142359788636E-002
   5.0222730538059590E-002  -1.4859642507150855E-002   4.9729392018305646E-002
   4.9230807324744962E-002  -1.4002680370891696E-002   5.3216963280090179E-002
   4.7879511626062632E-002  -1.3770338301388733E-002   5.2876613951741640E-002
   4.6528215927380281E-002  -1.3523784294990716E-002   5.2699667499830766E-002
   4.5176920228697973E-002  -1.3263018351697501E-002   5.2686123924357564E-002
   4.3825624530015608E-002  -1.2988040471509255E-002   5.2835983225322139E-002
   4.2187843181614504E-002  -1.1816645637735892E-002   5.6157085082490399E-002
   4.1015003109212675E-002  -1.1700453486532536E-002   5.5806056726813234E-002
   3.9842163036810846E-002  -1.1545021569153338E-002   5.5648536747259295E-002
   3.8669322964409024E-002  -1.1350349885598392E-002   5.5684525143828691E-002
   3.7496482892007202E-002  -1.1116438435867612E-002   5.5914021916521388E-002
   3.5092421409777107E-002  -9.6306109045801239E-003   5.8968543051950727E-002
   3.4128142463341407E-002  -9.6305686716762762E-003   5.8631863498225543E-002
   3.3163863516905701E-002  -9.5662588433159459E-003   5.8518797820309262E-002
   3.2199584570470022E-002  -9.4376814194992217E-003   5.8629346018201904E-002
   3.1235305624034298E-002  -9.2448364002259906E-003   5.8963508091903545E-002
   2.7944542009232798E-002  -7.4445761714242997E-003   6.1651337188471211E-002
   2.7218929688448842E-002  -7.5606838568200163E-003   6.1354034265978699E-002
   2.6493317367664887E-002  -7.5874961174786232E-003   6.1310450718980725E-002
   2.5767705046880928E-002  -7.5250129534000822E-003   6.1520586547477329E-002
   2.5042092726096976E-002  -7.3732343645843690E-003   6.1984441751468444E-002
   5.0222730538059590E-002  -1.4859642507150855E-002   4.9729392018305646E-002
   4.8674121952065066E-002  -1.4524064522388455E-002   4.9262061750506125E-002
   4.7125513366070543E-002  -1.4138603297007259E-002   4.9042307096366963E-002
   4.5576904780076019E-002  -1.3703258831007337E-002   4.9070128055887764E-002
   4.4028296194081495E-002  -1.3218031124388629E-002   4.9345524629068771E-002
   4.3825624530015608E-002  -1.2988040471509255E-002   5.2835983225322139E-002
   4.2513187509314647E-002  -1.2686467038433638E-002   5.2469644483940717E-002
   4.1200750488613679E-002  -1.2345914436478880E-002   5.2328073259486248E-002
   3.9888313467912689E-002  -1.1966382665644749E-002   5.2411269551958697E-002
   3.8575876447211721E-002  -1.1547871725931302E-002   5.2719233361358281E-002
   3.7496482892007202E-002  -1.1116438435867612E-002   5.5914021916521388E-002
   3.6397409339866585E-002  -1.0848869554479022E-002   5.5637770629818520E-002
   3.5298335787725975E-002  -1.0553225575950582E-002   5.5563478763309512E-002
   3.4199262235585365E-002  -1.0229506500282214E-002   5.5691146316994254E-002
   3.3100188683444748E-002  -9.8777123274739476E-003   5.6020773290872725E-002
   3.1235305624034298E-002  -9.2448364002259906E-003   5.8963508091903545E-002
   3.0326787443720887E-002  -9.0112720705243197E-003   5.8766440188139799E-002
   2.9418269263407494E-002  -8.7605367154222156E-003   5.8748523607836722E-002
   2.8509751083094070E-002  -8.4926303349195983E-003   5.8909758350994157E-002
   2.7601232902780687E-002  -8.2075529290166621E-003   5.9250144417612227E-002
   2.5042092726096976E-002  -7.3732343645843690E-003   6.1984441751468444E-002
   2.4301321820877575E-002  -7.1736745865695895E-003   6.1855653158904400E-002
   2.3560550915658174E-002  -6.9678478548938771E-003   6.1883207793067774E-002
   2.2819780010438776E-002  -6.7557541695570864E-003   6.2067105653958510E-002
   2.2079009105219372E-002  -6.5373935305592656E-003   6.2407346741576719E-002
   4.4028296194081495E-002  -1.3218031124388629E-002   4.9345524629068771E-002
   4.2292011952546615E-002  -1.2702831419550725E-002   4.8923146654942407E-002
   4.0555727711011763E-002  -1.2177570958893227E-002   4.8695277360574635E-002
   3.8819443469476911E-002  -1.1642249742416167E-002   4.8661916745965469E-002
   3.7083159227942031E-002  -1.1096867770119534E-002   4.8823064811114980E-002
   3.8575876447211721E-002  -1.1547871725931302E-002   5.2719233361358281E-002
   3.7037571051096480E-002  -1.1103997519853442E-002   5.2287961595830212E-002
   3.5499265654981238E-002  -1.0648375949926486E-002   5.2058138841382676E-002
   3.3960960258865983E-002  -1.0181007016150080E-002   5.2029765098015747E-002
   3.2422654862750755E-002  -9.7018907185245640E-003   5.2202840365729586E-002
   3.3100188683444748E-002  -9.8777123274739476E-003   5.6020773290872725E-002
   3.1766802464071160E-002  -9.5051636201562845E-003   5.5582294341972538E-002
   3.0433416244697545E-002  -9.1191809409597938E-003   5.5352204735474995E-002
   2.9100030025323964E-002  -8.7197642898841580E-003   5.5330504471380201E-002
   2.7766643805950342E-002  -8.3069136669297050E-003   5.5517193549687816E-002
   2.7601232902780687E-002  -8.2075529290166621E-003   5.9250144417612227E-002
   2.6479706191470678E-002  -7.9063297204591196E-003   5.8806144893369626E-002
   2.5358179480160694E-002  -7.5899859319930214E-003   5.8577475042851775E-002
   2.4236652768850703E-002  -7.2585215636181534E-003   5.8564134866058479E-002
   2.3115126057540729E-002  -6.9119366153347350E-003   5.8766124362989905E-002
   2.2079009105219372E-002  -6.5373935305592656E-003   6.2407346741576719E-002
   2.1176282233295027E-002  -6.3074958207618714E-003   6.1959513250021470E-002
   2.0273555361370682E-002  -6.0607909230262491E-003   6.1733949763512902E-002
   1.9370828489446330E-002  -5.7972788373521766E-003   6.1730656282050905E-002
   1.8468101617521979E-002  -5.5169595637399316E-003   6.1949632805635535E-002
   3.7083159227942031E-002  -1.1096867770119534E-002   4.8823064811114980E-002
   3.5689176731646177E-002  -1.0552272227067339E-002   4.8787835455912032E-002
   3.4295194235350296E-002  -1.0019310298324091E-002   4.8841213783435755E-002
   3.2901211739054401E-002  -9.4979819838898333E-003   4.8983199793686039E-002
   3.1507229242758533E-002  -8.9882872837642180E-003   4.9213793486663104E-002
   3.2422654862750755E-002  -9.7018907185245640E-003   5.2202840365729586E-002
   3.1136509802474219E-002  -9.2216419322255216E-003   5.2180776071804602E-002
   2.9850364742197655E-002  -8.7508755324287729E-003   5.2285778967191693E-002
   2.8564219681921112E-002  -8.2895915191341825E-003   5.2517849051890705E-002
   2.7278074621644541E-002  -7.8377898923420175E-003   5.2876986325902042E-002
   2.7766643805950342E-002  -8.3069136669297050E-003   5.5517193549687816E-002
   2.6626795688278540E-002  -7.8910116373835937E-003   5.5510445544847450E-002
   2.5486947570606724E-002  -7.4824407665332326E-003   5.5669224235904285E-002
   2.4347099452934937E-002  -7.0812010543786982E-003   5.5993529622858876E-002
   2.3207251335263100E-002  -6.6872925009197615E-003   5.6483361705710666E-002
   2.3115126057540729E-002  -6.9119366153347350E-003   5.8766124362989905E-002
   2.2160034389059075E-002  -6.5603813425416102E-003   5.8776843875040508E-002
   2.1204942720577422E-002  -6.2140060006377756E-003   5.8991549589574040E-002
   2.0249851052095782E-002  -5.8728105896230752E-003   5.9410241506590258E-002
   1.9294759383614114E-002  -5.5367951094975332E-003   6.0032919626089518E-002
   1.8468101617521979E-002  -5.5169595637399316E-003   6.1949632805635535E-002
   1.7736225904815911E-002  -5.2297510476998488E-003   6.1979971062383843E-002
   1.7004350192109823E-002  -4.9455712347423741E-003   6.2252755028200352E-002
   1.6272474479403751E-002  -4.6644201248675632E-003   6.2767984703085061E-002
   1.5540598766697666E-002  -4.3862977180752494E-003   6.3525660087038249E-002
   3.1507229242758533E-002  -8.9882872837642180E-003   4.9213793486663104E-002
   2.9622177187821702E-002  -8.4721839675967470E-003   4.8375942822250884E-002
   2.7737125132884885E-002  -7.9316298050366441E-003   4.8050149281512688E-002
   2.5852073077948033E-002  -7.3666247960838399E-003   4.8236412864448297E-002
   2.3967021023011237E-002  -6.7771689407380986E-003   4.8934733571057931E-002
   2.7278074621644541E-002  -7.8377898923420175E-003   5.2876986325902042E-002
   2.5838185640151848E-002  -7.3780829510440293E-003   5.2155444876945845E-002
   2.4398296658659106E-002  -6.8930829942315947E-003   5.1812172451204008E-002
   2.2958407677166431E-002  -6.3827900219050222E-003   5.1847169048676534E-002
   2.1518518695673672E-002  -5.8472040340641351E-003   5.2260434669363032E-002
   2.3207251335263100E-002  -6.6872925009197615E-003   5.6483361705710666E-002
   2.2078737326754756E-002  -6.2839819344909786E-003   5.5878971641332140E-002
   2.0950223318246416E-002  -5.8545361834264342E-003   5.5519062499708213E-002
   1.9821709309738110E-002  -5.3989552477263156E-003   5.5403634280839040E-002
   1.8693195301229745E-002  -4.9172391273902827E-003   5.5532686984724244E-002
   1.9294759383614114E-002  -5.5367951094975332E-003   6.0032919626089518E-002
   1.8343832247630480E-002  -5.1898809179381500E-003   5.9546523115410241E-002
   1.7392905111646820E-002  -4.8159893726214403E-003   5.9170819427025560E-002
   1.6441977975663196E-002  -4.4151204735474979E-003   5.8905808560936024E-002
   1.5491050839679523E-002  -3.9872742207163192E-003   5.8751490517141000E-002
   1.5540598766697666E-002  -4.3862977180752494E-003   6.3525660087038249E-002
   1.4633470402778986E-002  -4.0957799013850993E-003   6.3158099299179427E-002
   1.3726342038860320E-002  -3.7774425618163493E-003   6.2767443233155668E-002
   1.2819213674941647E-002  -3.4312856993688502E-003   6.2353691888967402E-002
   1.1912085311022946E-002  -3.0573093140424668E-003   6.1916845266613896E-002
   2.6633316054022790E-002   0.0000000000000000        2.9468577852645530E-002
   2.7234373448447622E-002  -5.8607617042985907E-004   3.4947081203619425E-002
   2.7835430842872457E-002  -1.3198972606369326E-003   4.0116796552101319E-002
   2.8436488237297289E-002  -2.2014632706212171E-003   4.4977723898091224E-002
   2.9037545631722124E-002  -3.2307742003827153E-003   4.9529863241589110E-002
   2.0117510574853077E-002   0.0000000000000000        2.9020399605921777E-002
   2.0449410880257334E-002  -4.3955712782264844E-004   3.4314241376004959E-002
   2.0781311185661587E-002  -9.8992294547807936E-004   3.9378556970538978E-002
   2.1113211491065847E-002  -1.6510974529662962E-003   4.4213346389523844E-002
   2.1445111796470101E-002  -2.4230806502873016E-003   4.8818609632959580E-002
   1.3506689406126220E-002   0.0000000000000000        2.8700272286833018E-002
   1.3648694449452747E-002  -2.9303808521543608E-004   3.3846388705969913E-002
   1.3790699492779274E-002  -6.5994863031922611E-004   3.8842240776500503E-002
   1.3932704536105801E-002  -1.1007316353113753E-003   4.3687828498424772E-002
   1.4074709579432326E-002  -1.6153871001918780E-003   4.8383151871742761E-002
   6.8008525478422226E-003   0.0000000000000000        2.8508195895379260E-002
   6.8322241560338660E-003  -1.4651904260822284E-004   3.3543523193514294E-002
   6.8635957642255111E-003  -3.2997431516037200E-004   3.8507847969985874E-002
   6.8949673724171563E-003  -5.5036581765645094E-004   4.3401170224793978E-002
   6.9263389806087997E-003  -8.0769355009645770E-004   4.8223489957938633E-002
   1.0842021724855044E-015   0.0000000000000000        2.8444170431560500E-002
   6.9302202865273443E-016  -1.0122111482324669E-015   3.3405644838638102E-002
   3.0162504438546733E-016  -1.5196177649556830E-015   3.8375378550995078E-002
  -9.0097200533545418E-017  -1.5317608292875207E-015   4.3353371568631477E-002
  -4.8181944545255817E-016  -1.0399667238480959E-015   4.8339623891547230E-002
   2.9037545631722124E-002  -3.2307742003827153E-003   4.9529863241589110E-002
   2.9110100230558433E-002  -4.2487448037082116E-003   5.1587889066041365E-002
   2.9182654829394750E-002  -5.0962898343844629E-003   5.3746851015406806E-002
   2.9255209428231059E-002  -5.7734092924115032E-003   5.6006749089685400E-002
   2.9327764027067368E-002  -6.2801031777893201E-003   5.8367583288877173E-002
   2.1445111796470101E-002  -2.4230806502873016E-003   4.8818609632959580E-002
   2.1588833826564020E-002  -3.1865586027812524E-003   5.1218020758038572E-002
   2.1732555856657940E-002  -3.8222173757883780E-003   5.3658830620719591E-002
   2.1876277886751859E-002  -4.3300569693086313E-003   5.6141039221002692E-002
   2.2019999916845778E-002  -4.7100773833420317E-003   5.8664646558887840E-002
   1.4074709579432326E-002  -1.6153871001918780E-003   4.8383151871742761E-002
   1.4230061653472735E-002  -2.1243724018543140E-003   5.1081341904286100E-002
   1.4385413727513143E-002  -2.5481449171922731E-003   5.3761393287120374E-002
   1.4540765801553552E-002  -2.8867046462057516E-003   5.6423306020245603E-002
   1.4696117875593964E-002  -3.1400515888947433E-003   5.9067080103661712E-002
   6.9263389806087997E-003  -8.0769355009645770E-004   4.8223489957938633E-002
   7.0337837112845764E-003  -1.0621862009273756E-003   5.1177852504783954E-002
   7.1412284419603558E-003  -1.2740724585961851E-003   5.4054539014609104E-002
   7.2486731726361352E-003  -1.4433523231028689E-003   5.6853549487414050E-002
   7.3561179033119119E-003  -1.5700257944474480E-003   5.9574883923198818E-002
  -4.8181944545255817E-016  -1.0399667238480959E-015   4.8339623891547230E-002
  -4.5059442288497564E-016  -4.1286418728248009E-016   5.1507552559532169E-002
  -4.2218832596585543E-016  -8.4784609888366447E-017   5.4538267803185825E-002
  -3.9193908535350985E-016   1.3498317047444530E-017   5.7431769622508150E-002
  -3.6255720647915268E-016  -1.5265566588595902E-016   6.0188058017499171E-002
   2.9327764027067368E-002  -6.2801031777893201E-003   5.8367583288877173E-002
   2.8981958522608729E-002  -6.6689935641814392E-003   5.9141422915097414E-002
   2.8636153018150083E-002  -6.9927025252512903E-003   5.9946661773769838E-002
   2.8290347513691444E-002  -7.2512300609989290E-003   6.0783299864894447E-002
   2.7944542009232798E-002  -7.4445761714242997E-003   6.1651337188471211E-002
   2.2019999916845778E-002  -4.7100773833420317E-003   5.8664646558887840E-002
   2.1719356680754955E-002  -5.0017451731361566E-003   5.9493165037150464E-002
   2.1418713444664127E-002  -5.2445268939385441E-003   6.0380608819696549E-002
   2.1118070208573304E-002  -5.4384225457492800E-003   6.1326977906526116E-002
   2.0817426972482470E-002  -5.5834321285682803E-003   6.2332272297639144E-002
   1.4696117875593964E-002  -3.1400515888947433E-003   5.9067080103661712E-002
   1.4468162979702237E-002  -3.3344967820909000E-003   5.9933982077636228E-002
   1.4240208083810515E-002  -3.4963512626258533E-003   6.0887335427725474E-002
   1.4012253187918792E-002  -3.6256150304996310E-003   6.1927140153929486E-002
   1.3784298292027070E-002  -3.7222880857122054E-003   6.3053396256248215E-002
   7.3561179033119119E-003  -1.5700257944474480E-003   5.9574883923198818E-002
   7.2283774194505761E-003  -1.6672483910456374E-003   6.0463874036554663E-002
   7.1006369355892445E-003  -1.7481756313131418E-003   6.1466841597856550E-002
   6.9728964517279078E-003  -1.8128075152499890E-003   6.2583786607104494E-002
   6.8451559678665745E-003  -1.8611440428561721E-003   6.3814709064298369E-002
  -3.6255720647915268E-016  -1.5265566588595902E-016   6.0188058017499171E-002
  -2.1684043449710089E-017  -3.6429192995512949E-016   6.1082840913905853E-002
   3.1658703436576729E-016  -4.0592529337857286E-016   6.2119127330089847E-002
   6.5572547391923308E-016  -3.3046482217358175E-016   6.3296917266051120E-002
   9.9573127521068727E-016  -8.3266726846886741E-017   6.4616210721789774E-002
   2.7944542009232798E-002  -7.4445761714242997E-003   6.1651337188471211E-002
   2.7218929688448842E-002  -7.5606838568200163E-003   6.1354034265978699E-002
   2.6493317367664887E-002  -7.5874961174786232E-003   6.1310450718980725E-002
   2.5767705046880928E-002  -7.5250129534000822E-003   6.1520586547477329E-002
   2.5042092726096976E-002  -7.3732343645843690E-003   6.1984441751468444E-002
   2.0817426972482470E-002  -5.5834321285682803E-003   6.2332272297639144E-002
   2.0327454953368410E-002  -5.6705128926150261E-003   6.2189010154261828E-002
   1.9837482934254348E-002  -5.6906220881088980E-003   6.2263309238729803E-002
   1.9347510915140281E-002  -5.6437597150499159E-003   6.2555169551042913E-002
   1.8857538896026219E-002  -5.5299257734381657E-003   6.3064591091201300E-002
   1.3784298292027070E-002  -3.7222880857122054E-003   6.3053396256248215E-002
   1.3493808426933564E-002  -3.7803419284099526E-003   6.3041851035801830E-002
   1.3203318561840054E-002  -3.7937480587391451E-003   6.3211708895551388E-002
   1.2912828696746544E-002  -3.7625064766997913E-003   6.3562969835496808E-002
   1.2622338831653038E-002  -3.6866171822919624E-003   6.4095633855638101E-002
   6.8451559678665745E-003  -1.8611440428561721E-003   6.3814709064298369E-002
   6.7179901091442952E-003  -1.8901709642048375E-003   6.3912556910598647E-002
   6.5908242504220185E-003  -1.8968740293693366E-003   6.4155649689445482E-002
   6.4636583916997409E-003  -1.8812532383496320E-003   6.4543987400838887E-002
   6.3364925329774642E-003  -1.8433085911457592E-003   6.5077570044778876E-002
   9.9573127521068727E-016  -8.3266726846886741E-017   6.4616210721789774E-002
   6.1409211049578971E-016   1.7347234759768071E-016   6.4801127778652379E-002
   2.3245294578089215E-016   3.6776137690708310E-016   6.5095131620412097E-002
  -1.4831885719601701E-016   4.9439619065339002E-016   6.5498222247069138E-002
  -5.3082538364890297E-016   4.4408920985006262E-016   6.6010399658623403E-002
   2.5042092726096976E-002  -7.3732343645843690E-003   6.1984441751468444E-002
   2.4301321820877575E-002  -7.1736745865695895E-003   6.1855653158904400E-002
   2.3560550915658174E-002  -6.9678478548938771E-003   6.1883207793067774E-002
   2.2819780010438776E-002  -6.7557541695570864E-003   6.2067105653958510E-002
   2.2079009105219372E-002  -6.5373935305592656E-003   6.2407346741576719E-002
   1.8857538896026219E-002  -5.5299257734381657E-003   6.3064591091201300E-002
   1.8280323592428593E-002  -5.3802559399270811E-003   6.2897852223682521E-002
   1.7703108288830986E-002  -5.2258858911702691E-003   6.2901881332679960E-002
   1.7125892985233371E-002  -5.0668156271676899E-003   6.3076678418193505E-002
   1.6548677681635739E-002  -4.9030451479194492E-003   6.3422243480223184E-002
   1.2622338831653038E-002  -3.6866171822919624E-003   6.4095633855638101E-002
   1.2223103879465940E-002  -3.5868372932846004E-003   6.3889377974749473E-002
   1.1823868927278826E-002  -3.4839239274467165E-003   6.3868314820165625E-002
   1.1424633975091709E-002  -3.3778770847783766E-003   6.4032444391886684E-002
   1.1025399022904600E-002  -3.2686967652795218E-003   6.4381766689912606E-002
   6.3364925329774642E-003  -1.8433085911457592E-003   6.5077570044778876E-002
   6.1296626819895821E-003  -1.7934186466421337E-003   6.4830230412104936E-002
   5.9228328310016939E-003  -1.7419619637231640E-003   6.4782508255524701E-002
   5.7160029800138136E-003  -1.6889385423889940E-003   6.4934403575037991E-002
   5.5091731290259245E-003  -1.6343483826395944E-003   6.5285916370644972E-002
  -5.3082538364890297E-016   4.4408920985006262E-016   6.6010399658623403E-002
  -4.6837533851373792E-016   3.8857805861880479E-016   6.5720409535749175E-002
  -4.0592529337857286E-016   4.1633363423443370E-016   6.5644461638757257E-002
  -3.4087316302944259E-016   3.4000580129145419E-016   6.5782555967647580E-002
  -2.8102520310824275E-016   2.7755575615628914E-016   6.6134692522420269E-002
   2.2079009105219372E-002  -6.5373935305592656E-003   6.2407346741576719E-002
   2.1176282233295027E-002  -6.3074958207618714E-003   6.1959513250021470E-002
   2.0273555361370682E-002  -6.0607909230262491E-003   6.1733949763512902E-002
   1.9370828489446330E-002  -5.7972788373521766E-003   6.1730656282050905E-002
   1.8468101617521979E-002  -5.5169595637399316E-003   6.1949632805635535E-002
   1.6548677681635739E-002  -4.9030451479194492E-003   6.3422243480223184E-002
   1.5869073742991638E-002  -4.7306218655713272E-003   6.2997021971200079E-002
   1.5189469804347534E-002  -4.5455931922694648E-003   6.2795776323690808E-002
   1.4509865865703417E-002  -4.3479591280139937E-003   6.2818506537695384E-002
   1.3830261927059315E-002  -4.1377196728047960E-003   6.3065212613213795E-002
   1.1025399022904600E-002  -3.2686967652795218E-003   6.4381766689912606E-002
   1.0570623874007944E-002  -3.1537479103808247E-003   6.3974955366437034E-002
   1.0115848725111284E-002  -3.0303954615128470E-003   6.3793825760942488E-002
   9.6610735762146255E-003  -2.8986394186758663E-003   6.3838377873428956E-002
   9.2062984273179639E-003  -2.7584797818695772E-003   6.4108611703896562E-002
   5.5091731290259245E-003  -1.6343483826395944E-003   6.5285916370644972E-002
   5.2809326263439319E-003  -1.5768739551902736E-003   6.4893313435732430E-002
   5.0526921236619324E-003  -1.5151977307563957E-003   6.4728098075267901E-002
   4.8244516209799380E-003  -1.4493197093377111E-003   6.4790270289251939E-002
   4.5962111182979498E-003  -1.3792398909344000E-003   6.5079830077684073E-002
  -2.8102520310824275E-016   2.7755575615628914E-016   6.6134692522420269E-002
  -3.9551695252271202E-016   2.7755575615628914E-016   6.5752096179086034E-002
  -5.1521287236511171E-016   5.2735593669694936E-016   6.5598593266667338E-002
  -6.2970462177958098E-016   4.3715031594615539E-016   6.5674183785164042E-002
  -7.4940054162198066E-016   7.2164496600635175E-016   6.5978867734576285E-002
   1.8468101617521979E-002  -5.5169595637399316E-003   6.1949632805635535E-002
   1.7736225904815911E-002  -5.2297510476998488E-003   6.1979971062383843E-002
   1.7004350192109823E-002  -4.9455712347423741E-003   6.2252755028200352E-002
   1.6272474479403751E-002  -4.6644201248675632E-003   6.2767984703085061E-002
   1.5540598766697666E-002  -4.3862977180752494E-003   6.3525660087038249E-002
   1.3830261927059315E-002  -4.1377196728047960E-003   6.3065212613213795E-002
   1.3325962728198575E-002  -3.9223132857746368E-003   6.3091907750262993E-002
   1.2821663529337834E-002  -3.7091784260564475E-003   6.3331310205934799E-002
   1.2317364330477087E-002  -3.4983150936502838E-003   6.3783419980228878E-002
   1.1813065131616354E-002  -3.2897232885556460E-003   6.4448237073145342E-002
   9.2062984273179639E-003  -2.7584797818695772E-003   6.4108611703896562E-002
   8.8998373518566869E-003  -2.6148755238494248E-003   6.4132420897017650E-002
   8.5933762763954150E-003  -2.4727856173704654E-003   6.4339199018315349E-002
   8.2869152009341432E-003  -2.3322100624326714E-003   6.4728946067789478E-002
   7.9804541254728731E-003  -2.1931488590360704E-003   6.5301662045440231E-002
   4.5962111182979498E-003  -1.3792398909344000E-003   6.5079830077684073E-002
   4.4578497757902617E-003  -1.3074377619242961E-003   6.5101510502647647E-002
   4.3194884332825850E-003  -1.2363928086845666E-003   6.5276421465341974E-002
   4.1811270907749047E-003  -1.1661050312151144E-003   6.5604562965767083E-002
   4.0427657482672210E-003  -1.0965744295164809E-003   6.6085935003922680E-002
  -7.4940054162198066E-016   7.2164496600635175E-016   6.5978867734576285E-002
  -7.1470607210244452E-016   9.7144514654701197E-016   6.5999176567153206E-002
  -6.6613381477509392E-016   1.4294121442048890E-015   6.6142977547014814E-002
  -6.2623517482762736E-016   2.1059542998358438E-015   6.6410270674161317E-002
  -5.8286708792820718E-016   3.2196467714129540E-015   6.6801055948592425E-002
   1.5540598766697666E-002  -4.3862977180752494E-003   6.3525660087038249E-002
   1.4633470402778986E-002  -4.0957799013850993E-003   6.3158099299179427E-002
   1.3726342038860320E-002  -3.7774425618163493E-003   6.2767443233155668E-002
   1.2819213674941647E-002  -3.4312856993688502E-003   6.2353691888967402E-002
   1.1912085311022946E-002  -3.0573093140424668E-003   6.1916845266613896E-002
   1.1813065131616354E-002  -3.2897232885556460E-003   6.4448237073145342E-002
   1.0945310831818947E-002  -3.0718349260380751E-003   6.4062410339029430E-002
   1.0077556532021546E-002  -2.8330819213615160E-003   6.3778427011320804E-002
   9.2098022322241492E-003  -2.5734642745262500E-003   6.3596287090019549E-002
   8.3420479324267383E-003  -2.2929819855322942E-003   6.3515990575125691E-002
   7.9804541254728731E-003  -2.1931488590360704E-003   6.5301662045440231E-002
   7.2770125743690378E-003  -2.0478899506908843E-003   6.4890614484346951E-002
   6.5735710232651991E-003  -1.8887212809068424E-003   6.4706349014233333E-002
   5.8701294721613586E-003  -1.7156428496838700E-003   6.4748865635099365E-002
   5.1666879210575112E-003  -1.5286546570222326E-003   6.5018164346945240E-002
   4.0427657482672210E-003  -1.0965744295164809E-003   6.6085935003922680E-002
   3.6285756304292385E-003  -1.0239449753436658E-003   6.5642711735132017E-002
   3.2143855125912535E-003  -9.4436064045181137E-004   6.5551209241893477E-002
   2.8001953947532697E-003  -8.5782142484143540E-004   6.5811427524207253E-002
   2.3860052769152998E-003  -7.6432732851211549E-004   6.6423366582072499E-002
  -5.8286708792820718E-016   3.2196467714129540E-015   6.6801055948592425E-002
  -4.2327252813834093E-016   3.4416913763379853E-015   6.6318702091384796E-002
  -2.7061686225238191E-016   2.8310687127941492E-015   6.6313007694301485E-002
  -1.1275702593849246E-016   1.0130785099704553E-015   6.6783972757342380E-002
   4.1633363423443370E-017  -1.9984014443252818E-015   6.7731597280507261E-002
   1.0842021724855044E-015   0.0000000000000000        2.8444170431560500E-002
   6.9302202865273443E-016  -1.0122111482324669E-015   3.3405644838638102E-002
   3.0162504438546733E-016  -1.5196177649556830E-015   3.8375378550995078E-002
  -9.0097200533545418E-017  -1.5317608292875207E-015   4.3353371568631477E-002
  -4.8181944545255817E-016  -1.0399667238480959E-015   4.8339623891547230E-002
  -6.8008525478401600E-003   0.0000000000000000        2.8508195895377213E-002
  -6.8322241560325623E-003   1.4651904260695910E-004   3.3543523193512871E-002
  -6.8635957642249664E-003   3.2997431515846640E-004   3.8507847969985111E-002
  -6.8949673724173705E-003   5.5036581765452366E-004   4.3401170224793957E-002
  -6.9263389806097737E-003   8.0769355009512999E-004   4.8223489957939375E-002
  -1.3506689406124466E-002   0.0000000000000000        2.8700272286829875E-002
  -1.3648694449451684E-002   2.9303808521492997E-004   3.3846388705967644E-002
  -1.3790699492778903E-002   6.5994863031845763E-004   3.8842240776499191E-002
  -1.3932704536106122E-002   1.1007316353105799E-003   4.3687828498424522E-002
  -1.4074709579433345E-002   1.6153871001912995E-003   4.8383151871743656E-002
  -2.0117510574851838E-002   0.0000000000000000        2.9020399605918477E-002
  -2.0449410880256674E-002   4.3955712782290106E-004   3.4314241376002398E-002
  -2.0781311185661507E-002   9.8992294547844539E-004   3.9378556970537298E-002
  -2.1113211491066347E-002   1.6510974529666393E-003   4.4213346389523192E-002
  -2.1445111796471183E-002   2.4230806502874690E-003   4.8818609632960051E-002
  -2.6633316054022273E-002   0.0000000000000000        2.9468577852643028E-002
  -2.7234373448447528E-002   5.8607617043087128E-004   3.4947081203617156E-002
  -2.7835430842872783E-002   1.3198972606384349E-003   4.0116796552099460E-002
  -2.8436488237298042E-002   2.2014632706226916E-003   4.4977723898089940E-002
  -2.9037545631723290E-002   3.2307742003836381E-003   4.9529863241588604E-002
  -4.8181944545255817E-016  -1.0399667238480959E-015   4.8339623891547230E-002
  -4.5059442288497564E-016  -4.1286418728248009E-016   5.1507552559532169E-002
  -4.2218832596585543E-016  -8.4784609888366447E-017   5.4538267803185825E-002
  -3.9193908535350985E-016   1.3498317047444530E-017   5.7431769622508150E-002
  -3.6255720647915268E-016  -1.5265566588595902E-016   6.0188058017499171E-002
  -6.9263389806097737E-003   8.0769355009512999E-004   4.8223489957939375E-002
  -7.0337837112854820E-003   1.0621862009268018E-003   5.1177852504784280E-002
  -7.1412284419611876E-003   1.2740724585960223E-003   5.4054539014609007E-002
  -7.2486731726368915E-003   1.4433523231028049E-003   5.6853549487413557E-002
  -7.3561179033125972E-003   1.5700257944471496E-003   5.9574883923197999E-002
  -1.4074709579433345E-002   1.6153871001912995E-003   4.8383151871743656E-002
  -1.4230061653473635E-002   2.1243724018540164E-003   5.1081341904286322E-002
  -1.4385413727513932E-002   2.5481449171921014E-003   5.3761393287119964E-002
  -1.4540765801554230E-002   2.8867046462056033E-003   5.6423306020244590E-002
  -1.4696117875594522E-002   3.1400515888944727E-003   5.9067080103660227E-002
  -2.1445111796471183E-002   2.4230806502874690E-003   4.8818609632960051E-002
  -2.1588833826564919E-002   3.1865586027812346E-003   5.1218020758038316E-002
  -2.1732555856658661E-002   3.8222173757882084E-003   5.3658830620718724E-002
  -2.1876277886752407E-002   4.3300569693084014E-003   5.6141039221001249E-002
  -2.2019999916846143E-002   4.7100773833417924E-003   5.8664646558885924E-002
  -2.9037545631723290E-002   3.2307742003836381E-003   4.9529863241588604E-002
  -2.9110100230559339E-002   4.2487448037084510E-003   5.1587889066040303E-002
  -2.9182654829395374E-002   5.0962898343842825E-003   5.3746851015405266E-002
  -2.9255209428231423E-002   5.7734092924112013E-003   5.6006749089683526E-002
  -2.9327764027067459E-002   6.2801031777890981E-003   5.8367583288875036E-002
  -3.6255720647915268E-016  -1.5265566588595902E-016   6.0188058017499171E-002
  -2.1684043449710089E-017  -3.6429192995512949E-016   6.1082840913905853E-002
   3.1658703436576729E-016  -4.0592529337857286E-016   6.2119127330089847E-002
   6.5572547391923308E-016  -3.3046482217358175E-016   6.3296917266051120E-002
   9.9573127521068727E-016  -8.3266726846886741E-017   6.4616210721789774E-002
  -7.3561179033125972E-003   1.5700257944471496E-003   5.9574883923197999E-002
  -7.2283774194506134E-003   1.6672483910450502E-003   6.0463874036554149E-002
  -7.1006369355886313E-003   1.7481756313124583E-003   6.1466841597856231E-002
  -6.9728964517266458E-003   1.8128075152493376E-003   6.2583786607104300E-002
  -6.8451559678646655E-003   1.8611440428557280E-003   6.3814709064298369E-002
  -1.4696117875594522E-002   3.1400515888944727E-003   5.9067080103660227E-002
  -1.4468162979702241E-002   3.3344967820904663E-003   5.9933982077635180E-002
  -1.4240208083809956E-002   3.4963512626253242E-003   6.0887335427724711E-002
  -1.4012253187917670E-002   3.6256150304989783E-003   6.1927140153928958E-002
  -1.3784298292025390E-002   3.7222880857115254E-003   6.3053396256247757E-002
  -2.2019999916846143E-002   4.7100773833417924E-003   5.8664646558885924E-002
  -2.1719356680754909E-002   5.0017451731358886E-003   5.9493165037149000E-002
  -2.1418713444663666E-002   5.2445268939381893E-003   6.0380608819695383E-002
  -2.1118070208572429E-002   5.4384225457486330E-003   6.1326977906525068E-002
  -2.0817426972481189E-002   5.5834321285673019E-003   6.2332272297637971E-002
  -2.9327764027067459E-002   6.2801031777890981E-003   5.8367583288875036E-002
  -2.8981958522608601E-002   6.6689935641813074E-003   5.9141422915095623E-002
  -2.8636153018149754E-002   6.9927025252510926E-003   5.9946661773768138E-002
  -2.8290347513690903E-002   7.2512300609982759E-003   6.0783299864892615E-002
  -2.7944542009232048E-002   7.4445761714231479E-003   6.1651337188469033E-002
   9.9573127521068727E-016  -8.3266726846886741E-017   6.4616210721789774E-002
   6.1409211049578971E-016   1.7347234759768071E-016   6.4801127778652379E-002
   2.3245294578089215E-016   3.6776137690708310E-016   6.5095131620412097E-002
  -1.4831885719601701E-016   4.9439619065339002E-016   6.5498222247069138E-002
  -5.3082538364890297E-016   4.4408920985006262E-016   6.6010399658623403E-002
  -6.8451559678646655E-003   1.8611440428557280E-003   6.3814709064298369E-002
  -6.7179901091431208E-003   1.8901709642047057E-003   6.3912556910598356E-002
  -6.5908242504215727E-003   1.8968740293693470E-003   6.4155649689445010E-002
  -6.4636583917000254E-003   1.8812532383498358E-003   6.4543987400838235E-002
  -6.3364925329784869E-003   1.8433085911460090E-003   6.5077570044778099E-002
  -1.3784298292025390E-002   3.7222880857115254E-003   6.3053396256247757E-002
  -1.3493808426932524E-002   3.7803419284092067E-003   6.3041851035801025E-002
  -1.3203318561839664E-002   3.7937480587384616E-003   6.3211708895550306E-002
  -1.2912828696746809E-002   3.7625064766992596E-003   6.3562969835495628E-002
  -1.2622338831653947E-002   3.6866171822915739E-003   6.4095633855636908E-002
  -2.0817426972481189E-002   5.5834321285673019E-003   6.2332272297637971E-002
  -2.0327454953367630E-002   5.6705128926137788E-003   6.2189010154260330E-002
  -1.9837482934254049E-002   5.6906220881075918E-003   6.2263309238728040E-002
  -1.9347510915140489E-002   5.6437597150486973E-003   6.2555169551041137E-002
  -1.8857538896026916E-002   5.5299257734371388E-003   6.3064591091199690E-002
  -2.7944542009232048E-002   7.4445761714231479E-003   6.1651337188469033E-002
  -2.7218929688448384E-002   7.5606838568182400E-003   6.1354034265976243E-002
  -2.6493317367664727E-002   7.5874961174765727E-003   6.1310450718978247E-002
  -2.5767705046881063E-002   7.5250129533980430E-003   6.1520586547475054E-002
  -2.5042092726097403E-002   7.3732343645827036E-003   6.1984441751466612E-002
  -5.3082538364890297E-016   4.4408920985006262E-016   6.6010399658623403E-002
  -4.6837533851373792E-016   3.8857805861880479E-016   6.5720409535749175E-002
  -4.0592529337857286E-016   4.1633363423443370E-016   6.5644461638757257E-002
  -3.4087316302944259E-016   3.4000580129145419E-016   6.5782555967647580E-002
  -2.8102520310824275E-016   2.7755575615628914E-016   6.6134692522420269E-002
  -6.3364925329784869E-003   1.8433085911460090E-003   6.5077570044778099E-002
  -6.1296626819905033E-003   1.7934186466423974E-003   6.4830230412104312E-002
  -5.9228328310025179E-003   1.7419619637235248E-003   6.4782508255524063E-002
  -5.7160029800145369E-003   1.6889385423893479E-003   6.4934403575037380E-002
  -5.5091731290265490E-003   1.6343483826398442E-003   6.5285916370644181E-002
  -1.2622338831653947E-002   3.6866171822915739E-003   6.4095633855636908E-002
  -1.2223103879466830E-002   3.5868372932843784E-003   6.3889377974748279E-002
  -1.1823868927279695E-002   3.4839239274466055E-003   6.3868314820164460E-002
  -1.1424633975092571E-002   3.3778770847783281E-003   6.4032444391885296E-002
  -1.1025399022905450E-002   3.2686967652794385E-003   6.4381766689910996E-002
  -1.8857538896026916E-002   5.5299257734371388E-003   6.3064591091199690E-002
  -1.8280323592429426E-002   5.3802559399263733E-003   6.2897852223680994E-002
  -1.7703108288831936E-002   5.2258858911697834E-003   6.2901881332678281E-002
  -1.7125892985234446E-002   5.0668156271673221E-003   6.3076678418191506E-002
  -1.6548677681636960E-002   4.9030451479189913E-003   6.3422243480220797E-002
  -2.5042092726097403E-002   7.3732343645827036E-003   6.1984441751466612E-002
  -2.4301321820878328E-002   7.1736745865683821E-003   6.1855653158902513E-002
  -2.3560550915659242E-002   6.9678478548928086E-003   6.1883207793065609E-002
  -2.2819780010440154E-002   6.7557541695563057E-003   6.2067105653955942E-002
  -2.2079009105221082E-002   6.5373935305585440E-003   6.2407346741573388E-002
  -2.8102520310824275E-016   2.7755575615628914E-016   6.6134692522420269E-002
  -3.9551695252271202E-016   2.7755575615628914E-016   6.5752096179086034E-002
  -5.1521287236511171E-016   5.2735593669694936E-016   6.5598593266667338E-002
  -6.2970462177958098E-016   4.3715031594615539E-016   6.5674183785164042E-002
  -7.4940054162198066E-016   7.2164496600635175E-016   6.5978867734576285E-002
  -5.5091731290265490E-003   1.6343483826398442E-003   6.5285916370644181E-002
  -5.2809326263447455E-003   1.5768739551905858E-003   6.4893313435731612E-002
  -5.0526921236629472E-003   1.5151977307567913E-003   6.4728098075267304E-002
  -4.8244516209811445E-003   1.4493197093384206E-003   6.4790270289251384E-002
  -4.5962111182993454E-003   1.3792398909355796E-003   6.5079830077683837E-002
  -1.1025399022905450E-002   3.2686967652794385E-003   6.4381766689910996E-002
  -1.0570623874008842E-002   3.1537479103807275E-003   6.3974955366435410E-002
  -1.0115848725112246E-002   3.0303954615129997E-003   6.3793825760941128E-002
  -9.6610735762156438E-003   2.8986394186762375E-003   6.3838377873428026E-002
  -9.2062984273190498E-003   2.7584797818704654E-003   6.4108611703896215E-002
  -1.6548677681636960E-002   4.9030451479189913E-003   6.3422243480220797E-002
  -1.5869073742992682E-002   4.7306218655708693E-003   6.2997021971197775E-002
  -1.5189469804348417E-002   4.5455931922692913E-003   6.2795776323688782E-002
  -1.4509865865704148E-002   4.3479591280140544E-003   6.2818506537694024E-002
  -1.3830261927059863E-002   4.1377196728053928E-003   6.3065212613213226E-002
  -2.2079009105221082E-002   6.5373935305585440E-003   6.2407346741573388E-002
  -2.1176282233296272E-002   6.3074958207611220E-003   6.1959513250018361E-002
  -2.0273555361371445E-002   6.0607909230256246E-003   6.1733949763510321E-002
  -1.9370828489446629E-002   5.7972788373520205E-003   6.1730656282049226E-002
  -1.8468101617521812E-002   5.5169595637402091E-003   6.1949632805635146E-002
  -7.4940054162198066E-016   7.2164496600635175E-016   6.5978867734576285E-002
  -7.1470607210244452E-016   9.7144514654701197E-016   6.5999176567153206E-002
  -6.6613381477509392E-016   1.4294121442048890E-015   6.6142977547014814E-002
  -6.2623517482762736E-016   2.1059542998358438E-015   6.6410270674161317E-002
  -5.8286708792820718E-016   3.2196467714129540E-015   6.6801055948592425E-002
  -4.5962111182993454E-003   1.3792398909355796E-003   6.5079830077683837E-002
  -4.4578497757916113E-003   1.3074377619259059E-003   6.5101510502647925E-002
  -4.3194884332838739E-003   1.2363928086866899E-003   6.5276421465342613E-002
  -4.1811270907761364E-003   1.1661050312183306E-003   6.5604562965767887E-002
  -4.0427657482684023E-003   1.0965744295204360E-003   6.6085935003923790E-002
  -9.2062984273190498E-003   2.7584797818704654E-003   6.4108611703896215E-002
  -8.8998373518578006E-003   2.6148755238507432E-003   6.4132420897017831E-002
  -8.5933762763965582E-003   2.4727856173720128E-003   6.4339199018316029E-002
  -8.2869152009353055E-003   2.3322100624343905E-003   6.4728946067790560E-002
  -7.9804541254740735E-003   2.1931488590377080E-003   6.5301662045441550E-002
  -1.3830261927059863E-002   4.1377196728053928E-003   6.3065212613213226E-002
  -1.3325962728199293E-002   3.9223132857756290E-003   6.3091907750263063E-002
  -1.2821663529338726E-002   3.7091784260572767E-003   6.3331310205934993E-002
  -1.2317364330478146E-002   3.4983150936505327E-003   6.3783419980229294E-002
  -1.1813065131617581E-002   3.2897232885550076E-003   6.4448237073145731E-002
  -1.8468101617521812E-002   5.5169595637402091E-003   6.1949632805635146E-002
  -1.7736225904816102E-002   5.2297510477005149E-003   6.1979971062383343E-002
  -1.7004350192110371E-002   4.9455712347425407E-003   6.2252755028199630E-002
  -1.6272474479404660E-002   4.6644201248666611E-003   6.2767984703083923E-002
  -1.5540598766698929E-002   4.3862977180723073E-003   6.3525660087036417E-002
  -5.8286708792820718E-016   3.2196467714129540E-015   6.6801055948592425E-002
  -4.2327252813834093E-016   3.4416913763379853E-015   6.6318702091384796E-002
  -2.7061686225238191E-016   2.8310687127941492E-015   6.6313007694301485E-002
  -1.1275702593849246E-016   1.0130785099704553E-015   6.6783972757342380E-002
   4.1633363423443370E-017  -1.9984014443252818E-015   6.7731597280507261E-002
  -4.0427657482684023E-003   1.0965744295204360E-003   6.6085935003923790E-002
  -3.6285756304300573E-003   1.0239449753480512E-003   6.5642711735131615E-002
  -3.2143855125917123E-003   9.4436064045581858E-004   6.5551209241891617E-002
  -2.8001953947533829E-003   8.5782142484370702E-004   6.5811427524203658E-002
  -2.3860052769150084E-003   7.6432732851205998E-004   6.6423366582067933E-002
  -7.9804541254740735E-003   2.1931488590377080E-003   6.5301662045441550E-002
  -7.2770125743697473E-003   2.0478899506924386E-003   6.4890614484346368E-002
  -6.5735710232654159E-003   1.8887212809088616E-003   6.4706349014231224E-002
  -5.8701294721611053E-003   1.7156428496866785E-003   6.4748865635095812E-002
  -5.1666879210567861E-003   1.5286546570262294E-003   6.5018164346940244E-002
  -1.1813065131617581E-002   3.2897232885550076E-003   6.4448237073145731E-002
  -1.0945310831819479E-002   3.0718349260369371E-003   6.4062410339028972E-002
  -1.0077556532021390E-002   2.8330819213617103E-003   6.3778427011319860E-002
  -9.2098022322232992E-003   2.5734642745296223E-003   6.3596287090018314E-002
  -8.3420479324251839E-003   2.2929819855403433E-003   6.3515990575124651E-002
  -1.5540598766698929E-002   4.3862977180723073E-003   6.3525660087036417E-002
  -1.4633470402779267E-002   4.0957799013812690E-003   6.3158099299179371E-002
  -1.3726342038859619E-002   3.7774425618148089E-003   6.2767443233157749E-002
  -1.2819213674939971E-002   3.4312856993723787E-003   6.2353691888971580E-002
  -1.1912085311020310E-002   3.0573093140544572E-003   6.1916845266620779E-002
  -2.6633316054022273E-002   0.0000000000000000        2.9468577852643028E-002
  -2.7234373448447528E-002   5.8607617043087128E-004   3.4947081203617156E-002
  -2.7835430842872783E-002   1.3198972606384349E-003   4.0116796552099460E-002
  -2.8436488237298042E-002   2.2014632706226916E-003   4.4977723898089940E-002
  -2.9037545631723290E-002   3.2307742003836381E-003   4.9529863241588604E-002
  -3.3391975202062003E-002   0.0000000000000000        3.0179174307882927E-002
  -3.4236420166198718E-002   9.6054968400643981E-004   3.5267788008299411E-002
  -3.5080865130335426E-002   2.0242203361512225E-003   4.0178414571784789E-002
  -3.5925310094472147E-002   3.1910119564343437E-003   4.4911053998339077E-002
  -3.6769755058608855E-002   4.4609245448558087E-003   4.9465706287962263E-002
  -4.0731357377397248E-002   0.0000000000000000        3.1286556252517569E-002
  -4.1688389045684705E-002   1.3350231975820075E-003   3.5940656350738065E-002
  -4.2645420713972156E-002   2.7285434116640066E-003   4.0547570177588164E-002
  -4.3602452382259599E-002   4.1805606422459993E-003   4.5107297733067916E-002
  -4.4559484050547049E-002   5.6910748893279801E-003   4.9619839017177265E-002
  -4.8651462580028025E-002   0.0000000000000000        3.2790723686546952E-002
  -4.9590280086905476E-002   1.7094967111575751E-003   3.6965686230933090E-002
  -5.0529097593782941E-002   3.4328664871767925E-003   4.1224263369509594E-002
  -5.1467915100660400E-002   5.1701093280576531E-003   4.5566455102276429E-002
  -5.2406732607537872E-002   6.9212252338001542E-003   4.9992261429233617E-002
  -5.7152290809954320E-002   0.0000000000000000        3.4691676609971078E-002
  -5.7942093289861066E-002   2.0839702247331445E-003   3.8342877648884527E-002
  -5.8731895769767811E-002   4.1371895626895784E-003   4.2208494147549049E-002
  -5.9521698249674571E-002   6.1596580138693034E-003   4.6288526105964643E-002
  -6.0311500729581323E-002   8.1513755782723178E-003   5.0582973524131311E-002
  -2.9037545631723290E-002   3.2307742003836381E-003   4.9529863241588604E-002
  -2.9110100230559339E-002   4.2487448037084510E-003   5.1587889066040303E-002
  -2.9182654829395374E-002   5.0962898343842825E-003   5.3746851015405266E-002
  -2.9255209428231423E-002   5.7734092924112013E-003   5.6006749089683526E-002
  -2.9327764027067459E-002   6.2801031777890981E-003   5.8367583288875036E-002
  -3.6769755058608855E-002   4.4609245448558087E-003   4.9465706287962263E-002
  -3.6780827604413403E-002   5.6941683921943077E-003   5.1253316464002933E-002
  -3.6791900150217938E-002   6.7509537892285051E-003   5.3062954621193328E-002
  -3.6802972696022472E-002   7.6312807359584008E-003   5.4894620759533469E-002
  -3.6814045241827006E-002   8.3351492323840426E-003   5.6748314879023321E-002
  -4.4559484050547049E-002   5.6910748893279801E-003   4.9619839017177265E-002
  -4.4587982687083624E-002   7.1395919806801515E-003   5.1131000667151587E-002
  -4.4616481323620213E-002   8.4056177440726930E-003   5.2585282154512095E-002
  -4.4644979960156782E-002   9.4891521795056420E-003   5.3982683479258775E-002
  -4.4673478596693392E-002   1.0390195286978945E-002   5.5323204641391677E-002
  -5.2406732607537872E-002   6.9212252338001542E-003   4.9992261429233617E-002
  -5.2531565478570040E-002   8.5850155691660022E-003   5.1220941675486263E-002
  -5.2656398349602208E-002   1.0060281698916892E-002   5.2313833615361537E-002
  -5.2781231220634363E-002   1.1347023623052847E-002   5.3270937248859472E-002
  -5.2906064091666538E-002   1.2445241341573869E-002   5.4092252575979986E-002
  -6.0311500729581323E-002   8.1513755782723178E-003   5.0582973524131311E-002
  -6.0611575978872609E-002   1.0030439157651859E-002   5.1523139489006942E-002
  -6.0911651228163929E-002   1.1714945653761109E-002   5.2248609003741647E-002
  -6.1211726477455215E-002   1.3204895066600095E-002   5.2759382068335484E-002
  -6.1511801726746515E-002   1.4500287396168779E-002   5.3055458682788381E-002
  -2.9327764027067459E-002   6.2801031777890981E-003   5.8367583288875036E-002
  -2.8981958522608601E-002   6.6689935641813074E-003   5.9141422915095623E-002
  -2.8636153018149754E-002   6.9927025252510926E-003   5.9946661773768138E-002
  -2.8290347513690903E-002   7.2512300609982759E-003   6.0783299864892615E-002
  -2.7944542009232048E-002   7.4445761714231479E-003   6.1651337188469033E-002
  -3.6814045241827006E-002   8.3351492323840426E-003   5.6748314879023321E-002
  -3.6383639283814481E-002   8.8778450403513010E-003   5.7096669410271431E-002
  -3.5953233325801963E-002   9.2746539217062537E-003   5.7582825616174955E-002
  -3.5522827367789438E-002   9.5255758764487952E-003   5.8206783496733909E-002
  -3.5092421409776919E-002   9.6306109045790067E-003   5.8968543051948263E-002
  -4.4673478596693392E-002   1.0390195286978945E-002   5.5323204641391677E-002
  -4.4052069742923708E-002   1.1086696516521310E-002   5.5165368576377376E-002
  -4.3430660889154024E-002   1.1556605318161417E-002   5.5251736628221984E-002
  -4.2809252035384340E-002   1.1799921691899260E-002   5.5582308796925481E-002
  -4.2187843181614657E-002   1.1816645637734831E-002   5.6157085082487818E-002
  -5.2906064091666538E-002   1.2445241341573869E-002   5.4092252575979986E-002
  -5.1987249899936250E-002   1.3295547992691312E-002   5.3347520413413417E-002
  -5.1068435708205948E-002   1.3838556714616580E-002   5.2953394809909259E-002
  -5.0149621516475645E-002   1.4074267507349723E-002   5.2909875765467441E-002
  -4.9230807324745357E-002   1.4002680370890686E-002   5.3216963280087980E-002
  -6.1511801726746515E-002   1.4500287396168779E-002   5.3055458682788381E-002
  -6.0189179754852135E-002   1.5504399468861323E-002   5.1643124921379652E-002
  -5.8866557782957726E-002   1.6120508111071758E-002   5.0687800161236786E-002
  -5.7543935811063318E-002   1.6348613322800246E-002   5.0189484402359694E-002
  -5.6221313839168938E-002   1.6188715104046542E-002   5.0148177644748465E-002
  -2.7944542009232048E-002   7.4445761714231479E-003   6.1651337188469033E-002
  -2.7218929688448384E-002   7.5606838568182400E-003   6.1354034265976243E-002
  -2.6493317367664727E-002   7.5874961174765727E-003   6.1310450718978247E-002
  -2.5767705046881063E-002   7.5250129533980430E-003   6.1520586547475054E-002
  -2.5042092726097403E-002   7.3732343645827036E-003   6.1984441751466612E-002
  -3.5092421409776919E-002   9.6306109045790067E-003   5.8968543051948263E-002
  -3.4128142463341331E-002   9.6305686716748745E-003   5.8631863498223080E-002
  -3.3163863516905735E-002   9.5662588433143847E-003   5.8518797820307028E-002
  -3.2199584570470133E-002   9.4376814194976205E-003   5.8629346018199968E-002
  -3.1235305624034558E-002   9.2448364002245542E-003   5.8963508091902025E-002
  -4.2187843181614657E-002   1.1816645637734831E-002   5.6157085082487818E-002
  -4.1015003109212897E-002   1.1700453486531398E-002   5.5806056726810924E-002
  -3.9842163036811096E-002   1.1545021569152223E-002   5.5648536747257289E-002
  -3.8669322964409322E-002   1.1350349885597197E-002   5.5684525143827025E-002
  -3.7496482892007542E-002   1.1116438435866460E-002   5.5914021916520076E-002
  -4.9230807324745357E-002   1.4002680370890686E-002   5.3216963280087980E-002
  -4.7879511626063118E-002   1.3770338301387963E-002   5.2876613951739725E-002
  -4.6528215927380864E-002   1.3523784294989991E-002   5.2699667499829080E-002
  -4.5176920228698611E-002   1.3263018351696803E-002   5.2686123924356051E-002
  -4.3825624530016385E-002   1.2988040471508366E-002   5.2835983225320626E-002
  -5.6221313839168938E-002   1.6188715104046542E-002   5.0148177644748465E-002
  -5.4721668013891958E-002   1.5840223116244528E-002   4.9843535173009490E-002
  -5.3222022188614986E-002   1.5502547020827866E-002   4.9672190078022357E-002
  -5.1722376363338013E-002   1.5175686817796337E-002   4.9634142359787102E-002
  -5.0222730538061020E-002   1.4859642507150217E-002   4.9729392018303731E-002
  -2.5042092726097403E-002   7.3732343645827036E-003   6.1984441751466612E-002
  -2.4301321820878328E-002   7.1736745865683821E-003   6.1855653158902513E-002
  -2.3560550915659242E-002   6.9678478548928086E-003   6.1883207793065609E-002
  -2.2819780010440154E-002   6.7557541695563057E-003   6.2067105653955942E-002
  -2.2079009105221082E-002   6.5373935305585440E-003   6.2407346741573388E-002
  -3.1235305624034558E-002   9.2448364002245542E-003   5.8963508091902025E-002
  -3.0326787443721599E-002   9.0112720705231575E-003   5.8766440188137981E-002
  -2.9418269263408629E-002   8.7605367154211244E-003   5.8748523607834439E-002
  -2.8509751083095662E-002   8.4926303349187673E-003   5.8909758350991534E-002
  -2.7601232902782696E-002   8.2075529290157045E-003   5.9250144417609091E-002
  -3.7496482892007542E-002   1.1116438435866460E-002   5.5914021916520076E-002
  -3.6397409339867320E-002   1.0848869554477898E-002   5.5637770629816646E-002
  -3.5298335787727113E-002   1.0553225575949406E-002   5.5563478763307174E-002
  -3.4199262235586905E-002   1.0229506500281088E-002   5.5691146316991555E-002
  -3.3100188683446684E-002   9.8777123274728929E-003   5.6020773290870018E-002
  -4.3825624530016385E-002   1.2988040471508366E-002   5.2835983225320626E-002
  -4.2513187509315549E-002   1.2686467038432656E-002   5.2469644483938496E-002
  -4.1200750488614699E-002   1.2345914436477704E-002   5.2328073259483597E-002
  -3.9888313467913848E-002   1.1966382665643534E-002   5.2411269551956109E-002
  -3.8575876447213019E-002   1.1547871725930095E-002   5.2719233361355838E-002
  -5.0222730538061020E-002   1.4859642507150217E-002   4.9729392018303731E-002
  -4.8674121952066232E-002   1.4524064522387400E-002   4.9262061750503544E-002
  -4.7125513366071396E-002   1.4138603297005961E-002   4.9042307096363980E-002
  -4.5576904780076574E-002   1.3703258831005944E-002   4.9070128055885134E-002
  -4.4028296194081773E-002   1.3218031124387297E-002   4.9345524629066884E-002
  -2.2079009105221082E-002   6.5373935305585440E-003   6.2407346741573388E-002
  -2.1176282233296272E-002   6.3074958207611220E-003   6.1959513250018361E-002
  -2.0273555361371445E-002   6.0607909230256246E-003   6.1733949763510321E-002
  -1.9370828489446629E-002   5.7972788373520205E-003   6.1730656282049226E-002
  -1.8468101617521812E-002   5.5169595637402091E-003   6.1949632805635146E-002
  -2.7601232902782696E-002   8.2075529290157045E-003   5.9250144417609091E-002
  -2.6479706191472024E-002   7.9063297204582383E-003   5.8806144893367357E-002
  -2.5358179480161343E-002   7.5899859319923380E-003   5.8577475042850241E-002
  -2.4236652768850658E-002   7.2585215636179340E-003   5.8564134866057840E-002
  -2.3115126057539983E-002   6.9119366153350126E-003   5.8766124362990280E-002
  -3.3100188683446684E-002   9.8777123274728929E-003   5.6020773290870018E-002
  -3.1766802464072381E-002   9.5051636201553269E-003   5.5582294341970984E-002
  -3.0433416244698076E-002   9.1191809409589472E-003   5.5352204735474468E-002
  -2.9100030025323780E-002   8.7197642898836827E-003   5.5330504471380493E-002
  -2.7766643805949499E-002   8.3069136669295385E-003   5.5517193549688926E-002
  -3.8575876447213019E-002   1.1547871725930095E-002   5.2719233361355838E-002
  -3.7037571051097354E-002   1.1103997519852318E-002   5.2287961595829408E-002
  -3.5499265654981689E-002   1.0648375949925581E-002   5.2058138841383175E-002
  -3.3960960258865996E-002   1.0181007016149459E-002   5.2029765098017149E-002
  -3.2422654862750325E-002   9.7018907185241476E-003   5.2202840365731501E-002
  -4.4028296194081773E-002   1.3218031124387297E-002   4.9345524629066884E-002
  -4.2292011952546935E-002   1.2702831419549587E-002   4.8923146654942518E-002
  -4.0555727711012124E-002   1.2177570958892311E-002   4.8695277360576134E-002
  -3.8819443469477327E-002   1.1642249742415327E-002   4.8661916745967759E-002
  -3.7083159227942503E-002   1.1096867770118812E-002   4.8823064811117534E-002
  -1.8468101617521812E-002   5.5169595637402091E-003   6.1949632805635146E-002
  -1.7736225904816102E-002   5.2297510477005149E-003   6.1979971062383343E-002
  -1.7004350192110371E-002   4.9455712347425407E-003   6.2252755028199630E-002
  -1.6272474479404660E-002   4.6644201248666611E-003   6.2767984703083923E-002
  -1.5540598766698929E-002   4.3862977180723073E-003   6.3525660087036417E-002
  -2.3115126057539983E-002   6.9119366153350126E-003   5.8766124362990280E-002
  -2.2160034389058805E-002   6.5603813425421931E-003   5.8776843875039952E-002
  -2.1204942720577588E-002   6.2140060006382197E-003   5.8991549589572423E-002
  -2.0249851052096406E-002   5.8728105896231238E-003   5.9410241506587858E-002
  -1.9294759383615225E-002   5.5367951094967838E-003   6.0032919626086034E-002
  -2.7766643805949499E-002   8.3069136669295385E-003   5.5517193549688926E-002
  -2.6626795688277992E-002   7.8910116373838712E-003   5.5510445544847020E-002
  -2.5486947570606530E-002   7.4824407665340098E-003   5.5669224235902634E-002
  -2.4347099452935065E-002   7.0812010543795864E-003   5.5993529622856059E-002
  -2.3207251335263562E-002   6.6872925009209827E-003   5.6483361705707114E-002
  -3.2422654862750325E-002   9.7018907185241476E-003   5.2202840365731501E-002
  -3.1136509802473743E-002   9.2216419322256604E-003   5.2180776071804658E-002
  -2.9850364742197127E-002   8.7508755324296889E-003   5.2285778967190367E-002
  -2.8564219681920508E-002   8.2895915191361601E-003   5.2517849051888568E-002
  -2.7278074621643927E-002   7.8377898923452094E-003   5.2876986325899399E-002
  -3.7083159227942503E-002   1.1096867770118812E-002   4.8823064811117534E-002
  -3.5689176731645955E-002   1.0552272227067200E-002   4.8787835455912809E-002
  -3.4295194235349408E-002   1.0019310298325451E-002   4.8841213783435422E-002
  -3.2901211739052874E-002   9.4979819838925325E-003   4.8983199793685456E-002
  -3.1507229242756327E-002   8.9882872837696026E-003   4.9213793486662716E-002
  -1.5540598766698929E-002   4.3862977180723073E-003   6.3525660087036417E-002
  -1.4633470402779267E-002   4.0957799013812690E-003   6.3158099299179371E-002
  -1.3726342038859619E-002   3.7774425618148089E-003   6.2767443233157749E-002
  -1.2819213674939971E-002   3.4312856993723787E-003   6.2353691888971580E-002
  -1.1912085311020310E-002   3.0573093140544572E-003   6.1916845266620779E-002
  -1.9294759383615225E-002   5.5367951094967838E-003   6.0032919626086034E-002
  -1.8343832247630452E-002   5.1898809179366789E-003   5.9546523115410949E-002
  -1.7392905111645655E-002   4.8159893726206771E-003   5.9170819427030424E-002
  -1.6441977975660861E-002   4.4151204735487365E-003   5.8905808560944559E-002
  -1.5491050839676106E-002   3.9872742207208711E-003   5.8751490517153893E-002
  -2.3207251335263562E-002   6.6872925009209827E-003   5.6483361705707114E-002
  -2.2078737326754333E-002   6.2839819344920056E-003   5.5878971641333430E-002
  -2.0950223318245108E-002   5.8545361834267534E-003   5.5519062499713681E-002
  -1.9821709309735820E-002   5.3989552477251741E-003   5.5403634280847970E-002
  -1.8693195301226588E-002   4.9172391273872851E-003   5.5532686984736734E-002
  -2.7278074621643927E-002   7.8377898923452094E-003   5.2876986325899399E-002
  -2.5838185640150949E-002   7.3780829510473739E-003   5.2155444876946802E-002
  -2.4398296658657909E-002   6.8930829942329477E-003   5.1812172451207464E-002
  -2.2958407677164921E-002   6.3827900219016829E-003   5.1847169048681592E-002
  -2.1518518695671895E-002   5.8472040340536990E-003   5.2260434669369332E-002
  -3.1507229242756327E-002   8.9882872837696026E-003   4.9213793486662716E-002
  -2.9622177187820203E-002   8.4721839676027422E-003   4.8375942822250884E-002
  -2.7737125132884115E-002   7.9316298050387674E-003   4.8050149281511717E-002
  -2.5852073077947974E-002   7.3666247960779870E-003   4.8236412864445313E-002
  -2.3967021023011903E-002   6.7771689407201130E-003   4.8934733571051714E-002
  -5.7152290809954320E-002   0.0000000000000000        3.4691676609971078E-002
  -5.7942093289861066E-002   2.0839702247331445E-003   3.8342877648884527E-002
  -5.8731895769767811E-002   4.1371895626895784E-003   4.2208494147549049E-002
  -5.9521698249674571E-002   6.1596580138693034E-003   4.6288526105964643E-002
  -6.0311500729581323E-002   8.1513755782723178E-003   5.0582973524131311E-002
  -6.5821324249523985E-002   0.0000000000000000        3.7212778655701897E-002
  -6.6625953351997724E-002   2.9141062225349476E-003   4.0834922576112515E-002
  -6.7430582454471463E-002   5.7707080434595123E-003   4.4212997791638085E-002
  -6.8235211556945216E-002   8.5698054627736837E-003   4.7347004302278596E-002
  -6.9039840659418941E-002   1.1311398480477478E-002   5.0236942108034047E-002
  -7.4246045081084858E-002   0.0000000000000000        4.0577393456651359E-002
  -7.5523984970761737E-002   3.7442422203367532E-003   4.4143726743725478E-002
  -7.6801924860438589E-002   7.4042265242294427E-003   4.7007507161278397E-002
  -7.8079864750115441E-002   1.0979952911678068E-002   4.9168734709310130E-002
  -7.9357804639792306E-002   1.4471421382682625E-002   5.0627409387820690E-002
  -8.2426453304636979E-002   0.0000000000000000        4.4785521012819476E-002
  -8.4636188146153063E-002   4.5743782181385598E-003   4.8269290151723397E-002
  -8.6845922987669188E-002   9.0377450049993757E-003   5.0592022256470005E-002
  -8.9055657829185300E-002   1.3390100360582448E-002   5.1753717327059294E-002
  -9.1265392670701412E-002   1.7631444284887776E-002   5.1754375363491277E-002
  -9.0362548920180294E-002   0.0000000000000000        4.9837161324206222E-002
  -9.3962562878171785E-002   5.4045142159403637E-003   5.3211612800106278E-002
  -9.7562576836163276E-002   1.0671263485769307E-002   5.4966543077212895E-002
 -0.10116259079415475        1.5800247809486828E-002   5.5101952155526074E-002
 -0.10476260475214624        2.0791467187092929E-002   5.3617840035045786E-002
  -6.0311500729581323E-002   8.1513755782723178E-003   5.0582973524131311E-002
  -6.0611575978872609E-002   1.0030439157651859E-002   5.1523139489006942E-002
  -6.0911651228163929E-002   1.1714945653761109E-002   5.2248609003741647E-002
  -6.1211726477455215E-002   1.3204895066600095E-002   5.2759382068335484E-002
  -6.1511801726746515E-002   1.4500287396168779E-002   5.3055458682788381E-002
  -6.9039840659418941E-002   1.1311398480477478E-002   5.0236942108034047E-002
  -6.9316309903248649E-002   1.3755928965370510E-002   4.9460197604335725E-002
  -6.9592779147078357E-002   1.5663838786252406E-002   4.8945361561701484E-002
  -6.9869248390908065E-002   1.7035127943123174E-002   4.8692433980131365E-002
  -7.0145717634737759E-002   1.7869796435982827E-002   4.8701414859625328E-002
  -7.9357804639792306E-002   1.4471421382682625E-002   5.0627409387820690E-002
  -7.9134062966955424E-002   1.7481418773089164E-002   4.7791690834807589E-002
  -7.8910321294118527E-002   1.9612731918743728E-002   4.5694485654063588E-002
  -7.8686579621281658E-002   2.0865360819646302E-002   4.4335793845588632E-002
  -7.8462837948444747E-002   2.1239305475796909E-002   4.3715615409382791E-002
  -9.1265392670701412E-002   1.7631444284887776E-002   5.1754375363491277E-002
  -9.0064835169992932E-002   2.1206908580807812E-002   4.6517619180422541E-002
  -8.8864277669284480E-002   2.3561625051235033E-002   4.2495981280827863E-002
  -8.7663720168576001E-002   2.4695593696169426E-002   3.9689461664707291E-002
  -8.6463162667867521E-002   2.4608814515610988E-002   3.8098060332060771E-002
 -0.10476260475214624        2.0791467187092929E-002   5.3617840035045786E-002
 -0.10210862651236119        2.4932398388526466E-002   4.5637982641180533E-002
  -9.9454648272576149E-002   2.7510518183726348E-002   3.9349848441994427E-002
  -9.6800670032791095E-002   2.8525826572692526E-002   3.4753437437487308E-002
  -9.4146691793006040E-002   2.7978323555425046E-002   3.1848749627659302E-002
  -6.1511801726746515E-002   1.4500287396168779E-002   5.3055458682788381E-002
  -6.0189179754852135E-002   1.5504399468861323E-002   5.1643124921379652E-002
  -5.8866557782957726E-002   1.6120508111071758E-002   5.0687800161236786E-002
  -5.7543935811063318E-002   1.6348613322800246E-002   5.0189484402359694E-002
  -5.6221313839168938E-002   1.6188715104046542E-002   5.0148177644748465E-002
  -7.0145717634737759E-002   1.7869796435982827E-002   4.8701414859625328E-002
  -6.8413774621065862E-002   1.8324699981755371E-002   4.7252732402689873E-002
  -6.6681831607393965E-002   1.8556694297364687E-002   4.6165683028043643E-002
  -6.4949888593722083E-002   1.8565779382810819E-002   4.5440266735686567E-002
  -6.3217945580050172E-002   1.8351955238093853E-002   4.5076483525618702E-002
  -7.8462837948444747E-002   2.1239305475796909E-002   4.3715615409382791E-002
  -7.6416949811972001E-002   2.1145000494649395E-002   4.2395678457239572E-002
  -7.4371061675499270E-002   2.0992880483657557E-002   4.1341998668408826E-002
  -7.2325173539026538E-002   2.0782945442821502E-002   4.0554576042890665E-002
  -7.0279285402553793E-002   2.0515195372141151E-002   4.0033410580684999E-002
  -8.6463162667867521E-002   2.4608814515610988E-002   3.8098060332060771E-002
  -8.4198705327570580E-002   2.3965301007543429E-002   3.7071963085028622E-002
  -8.1934247987273640E-002   2.3429066669950472E-002   3.6216747082332322E-002
  -7.9669790646976685E-002   2.3000111502832155E-002   3.5532412323971960E-002
  -7.7405333306679730E-002   2.2678435506188428E-002   3.5018958809947404E-002
  -9.4146691793006040E-002   2.7978323555425046E-002   3.1848749627659302E-002
  -9.1759041167861558E-002   2.6785601520437460E-002   3.1281586286057143E-002
  -8.9371390542717061E-002   2.5865252856243359E-002   3.0789928269814134E-002
  -8.6983739917572550E-002   2.5217277562842783E-002   3.0373775578930423E-002
  -8.4596089292428081E-002   2.4841675640235747E-002   3.0033128213405855E-002
  -5.6221313839168938E-002   1.6188715104046542E-002   5.0148177644748465E-002
  -5.4721668013891958E-002   1.5840223116244528E-002   4.9843535173009490E-002
  -5.3222022188614986E-002   1.5502547020827866E-002   4.9672190078022357E-002
  -5.1722376363338013E-002   1.5175686817796337E-002   4.9634142359787102E-002
  -5.0222730538061020E-002   1.4859642507150217E-002   4.9729392018303731E-002
  -6.3217945580050172E-002   1.8351955238093853E-002   4.5076483525618702E-002
  -6.1562713396493274E-002   1.8011941071618874E-002   4.4720094493301658E-002
  -5.9907481212936389E-002   1.7642456091791249E-002   4.4541580800792596E-002
  -5.8252249029379484E-002   1.7243500298610853E-002   4.4540942448091501E-002
  -5.6597016845822593E-002   1.6815073692077742E-002   4.4718179435198332E-002
  -7.0279285402553793E-002   2.0515195372141151E-002   4.0033410580684999E-002
  -6.8423888897660878E-002   2.0183659026993275E-002   3.9584988282051890E-002
  -6.6568492392767992E-002   1.9782365162754664E-002   3.9359019286282895E-002
  -6.4713095887875105E-002   1.9311313779425292E-002   3.9355503593377937E-002
  -6.2857699382982232E-002   1.8770504877005212E-002   3.9574441203336932E-002
  -7.7405333306679730E-002   2.2678435506188428E-002   3.5018958809947404E-002
  -7.5305194517394744E-002   2.2355376982367621E-002   3.4438216539260200E-002
  -7.3205055728109786E-002   2.1922274233718134E-002   3.4124505534493227E-002
  -7.1104916938824772E-002   2.1379127260239796E-002   3.4077825795646402E-002
  -6.9004778149539828E-002   2.0725936061932737E-002   3.4298177322719572E-002
  -8.4596089292428081E-002   2.4841675640235747E-002   3.0033128213405855E-002
  -8.2206630255694926E-002   2.4527094937741994E-002   2.9279779264926586E-002
  -7.9817171218961758E-002   2.4062183304681486E-002   2.8838039545423653E-002
  -7.7427712182228603E-002   2.3446940741054224E-002   2.8707909054896803E-002
  -7.5038253145495448E-002   2.2681367246860207E-002   2.8889387793346238E-002
  -5.0222730538061020E-002   1.4859642507150217E-002   4.9729392018303731E-002
  -4.8674121952066232E-002   1.4524064522387400E-002   4.9262061750503544E-002
  -4.7125513366071396E-002   1.4138603297005961E-002   4.9042307096363980E-002
  -4.5576904780076574E-002   1.3703258831005944E-002   4.9070128055885134E-002
  -4.4028296194081773E-002   1.3218031124387297E-002   4.9345524629066884E-002
  -5.6597016845822593E-002   1.6815073692077742E-002   4.4718179435198332E-002
  -5.4815080085687841E-002   1.6357969776770287E-002   4.4311321976072154E-002
  -5.3033143325553089E-002   1.5872982057267004E-002   4.4123545251565137E-002
  -5.1251206565418331E-002   1.5360110533567797E-002   4.4154849261677412E-002
  -4.9469269805283586E-002   1.4819355205672735E-002   4.4405234006408945E-002
  -6.2857699382982232E-002   1.8770504877005212E-002   3.9574441203336932E-002
  -6.0870929327748943E-002   1.8191875031153208E-002   3.9250055989307461E-002
  -5.8884159272515682E-002   1.7607360817528041E-002   3.9116256630855877E-002
  -5.6897389217282365E-002   1.7016962236129730E-002   3.9173043127982060E-002
  -5.4910619162049132E-002   1.6420679286958256E-002   3.9420415480685894E-002
  -6.9004778149539828E-002   2.0725936061932737E-002   3.4298177322719572E-002
  -6.6841669678249491E-002   2.0025780285536084E-002   3.4078263790209694E-002
  -6.4678561206959140E-002   1.9341739577789108E-002   3.4020441234235983E-002
  -6.2515452735668761E-002   1.8673813938691653E-002   3.4124709654798746E-002
  -6.0352344264378494E-002   1.8022003368243680E-002   3.4391069051897843E-002
  -7.5038253145495448E-002   2.2681367246860207E-002   2.8889387793346238E-002
  -7.2727301137189504E-002   2.1859685539919099E-002   2.8795945378778470E-002
  -7.0416349128883504E-002   2.1076118338050093E-002   2.8836099061705645E-002
  -6.8105397120577546E-002   2.0330665641253499E-002   2.9009848842127789E-002
  -6.5794445112271560E-002   1.9623327449529215E-002   2.9317194720044792E-002
  -4.4028296194081773E-002   1.3218031124387297E-002   4.9345524629066884E-002
  -4.2292011952546935E-002   1.2702831419549587E-002   4.8923146654942518E-002
  -4.0555727711012124E-002   1.2177570958892311E-002   4.8695277360576134E-002
  -3.8819443469477327E-002   1.1642249742415327E-002   4.8661916745967759E-002
  -3.7083159227942503E-002   1.1096867770118812E-002   4.8823064811117534E-002
  -4.9469269805283586E-002   1.4819355205672735E-002   4.4405234006408945E-002
  -4.7537310763768027E-002   1.4262165604049221E-002   4.3976123657403138E-002
  -4.5605351722252448E-002   1.3699991259164768E-002   4.3743854228600859E-002
  -4.3673392680736917E-002   1.3132832171019085E-002   4.3708425720002081E-002
  -4.1741433639221323E-002   1.2560688339612436E-002   4.3869838131606692E-002
  -5.4910619162049132E-002   1.6420679286958256E-002   3.9420415480685894E-002
  -5.2780653080107390E-002   1.5821499788548993E-002   3.8989648769357371E-002
  -5.0650686998165703E-002   1.5222411559437175E-002   3.8758055218677680E-002
  -4.8520720916223947E-002   1.4623414599622844E-002   3.8725634828646882E-002
  -4.6390754834282281E-002   1.4024508909106087E-002   3.8892387599265027E-002
  -6.0352344264378494E-002   1.8022003368243680E-002   3.4391069051897843E-002
  -5.8022038901565147E-002   1.7380833973048695E-002   3.3963721990805010E-002
  -5.5691733538751780E-002   1.6744831859709691E-002   3.3737880330806443E-002
  -5.3361428175938502E-002   1.6113997028226659E-002   3.3713544071902274E-002
  -5.1031122813125114E-002   1.5488329478599724E-002   3.3890713214092351E-002
  -6.5794445112271560E-002   1.9623327449529215E-002   2.9317194720044792E-002
  -6.3261468228141216E-002   1.8940168157548398E-002   2.8898343321746234E-002
  -6.0728491344010857E-002   1.8267252159982095E-002   2.8683329564987370E-002
  -5.8195514459880492E-002   1.7604579456830374E-002   2.8672153449768284E-002
  -5.5662537575750126E-002   1.6952150048093306E-002   2.8864814976088893E-002
  -3.7083159227942503E-002   1.1096867770118812E-002   4.8823064811117534E-002
  -3.5689176731645955E-002   1.0552272227067200E-002   4.8787835455912809E-002
  -3.4295194235349408E-002   1.0019310298325451E-002   4.8841213783435422E-002
  -3.2901211739052874E-002   9.4979819838925325E-003   4.8983199793685456E-002
  -3.1507229242756327E-002   8.9882872837696026E-003   4.9213793486662716E-002
  -4.1741433639221323E-002   1.2560688339612436E-002   4.3869838131606692E-002
  -4.0246729536695967E-002   1.1985012770434317E-002   4.3860453357135065E-002
  -3.8752025434170556E-002   1.1407258468974002E-002   4.3963904112393828E-002
  -3.7257321331645207E-002   1.0827425435231311E-002   4.4180190397383003E-002
  -3.5762617229119845E-002   1.0245513669206674E-002   4.4509312212102303E-002
  -4.6390754834282281E-002   1.4024508909106087E-002   3.8892387599265027E-002
  -4.4771101278525065E-002   1.3417753313801115E-002   3.8895135058934868E-002
  -4.3151447722767813E-002   1.2795206639622400E-002   3.9034945895338083E-002
  -4.1531794167010645E-002   1.2156868886569871E-002   3.9311820108474581E-002
  -3.9912140611253408E-002   1.1502740054643551E-002   3.9725757698344258E-002
  -5.1031122813125114E-002   1.5488329478599724E-002   3.3890713214092351E-002
  -4.9262291957133150E-002   1.4850493857167989E-002   3.3891880561312079E-002
  -4.7493461101141152E-002   1.4183154810270875E-002   3.4054339132268172E-002
  -4.5724630245149223E-002   1.3486312337908429E-002   3.4378088926960447E-002
  -4.3955799389157182E-002   1.2759966440080581E-002   3.4863129945389093E-002
  -5.5662537575750126E-002   1.6952150048093306E-002   2.8864814976088893E-002
  -5.3720301572520363E-002   1.6283234400534974E-002   2.8850689864266810E-002
  -5.1778065569290599E-002   1.5571102980919405E-002   2.9022083823184081E-002
  -4.9835829566060807E-002   1.4815755789247168E-002   2.9378996852840483E-002
  -4.7893593562831072E-002   1.4017192825517444E-002   2.9921428953236295E-002
  -3.1507229242756327E-002   8.9882872837696026E-003   4.9213793486662716E-002
  -2.9622177187820203E-002   8.4721839676027422E-003   4.8375942822250884E-002
  -2.7737125132884115E-002   7.9316298050387674E-003   4.8050149281511717E-002
  -2.5852073077947974E-002   7.3666247960779870E-003   4.8236412864445313E-002
  -2.3967021023011903E-002   6.7771689407201130E-003   4.8934733571051714E-002
  -3.5762617229119845E-002   1.0245513669206674E-002   4.4509312212102303E-002
  -3.3433633124315104E-002   9.6555496884874747E-003   4.3689962806364085E-002
  -3.1104649019510426E-002   9.0515600106612082E-003   4.3246420376690242E-002
  -2.8775664914705620E-002   8.4335446357279853E-003   4.3178684923081245E-002
  -2.6446680809901008E-002   7.8015035636875840E-003   4.3486756445536345E-002
  -3.9912140611253408E-002   1.1502740054643551E-002   3.9725757698344258E-002
  -3.7275474604188445E-002   1.0838915409371985E-002   3.8935334700569840E-002
  -3.4638808597123392E-002   1.0171490216283309E-002   3.8384468531251499E-002
  -3.2002142590058423E-002   9.5004644753777876E-003   3.8073159190389241E-002
  -2.9365476582993419E-002   8.8258381866551661E-003   3.8001406677983296E-002
  -4.3955799389157182E-002   1.2759966440080581E-002   3.4863129945389093E-002
  -4.1147701627440220E-002   1.2022281130256496E-002   3.4112058504868342E-002
  -3.8339603865723333E-002   1.1291420421905413E-002   3.3464293745195550E-002
  -3.5531506104006322E-002   1.0567384315027576E-002   3.2919835666370544E-002
  -3.2723408342289442E-002   9.8501728096227481E-003   3.2478684268393190E-002
  -4.7893593562831072E-002   1.4017192825517444E-002   2.9921428953236295E-002
  -4.5050314194070462E-002   1.3205646851141006E-002   2.9220134219259286E-002
  -4.2207034825309880E-002   1.2411350627527670E-002   2.8485896018522000E-002
  -3.9363755456549229E-002   1.1634304154677515E-002   2.7718714351024035E-002
  -3.6520476087788745E-002   1.0874507432590219E-002   2.6918589216765598E-002
  -9.0362548920180294E-002   0.0000000000000000        4.9837161324206222E-002
  -9.3962562878171785E-002   5.4045142159403637E-003   5.3211612800106278E-002
  -9.7562576836163276E-002   1.0671263485769307E-002   5.4966543077212895E-002
 -0.10116259079415475        1.5800247809486828E-002   5.5101952155526074E-002
 -0.10476260475214624        2.0791467187092929E-002   5.3617840035045786E-002
 -0.10329333954153007        0.0000000000000000        5.8665443015403058E-002
 -0.10683102919590001        1.0884739449978819E-002   5.2120727657621914E-002
 -0.11036871885026994        1.9172624413120107E-002   4.7320182105877281E-002
 -0.11390640850463993        2.4863654889423877E-002   4.4263806360169189E-002
 -0.11744409815900984        2.7957830878890103E-002   4.2951600420497615E-002
 -0.12645783278250156        0.0000000000000000        7.4203494711001378E-002
 -0.12656950712842002        1.6364964684017273E-002   5.5280522978812953E-002
 -0.12668118147433843        2.7673985340470914E-002   4.1465412057490991E-002
 -0.12679285582025687        3.3927061969360919E-002   3.2758161947035506E-002
 -0.12690453016617534        3.5124194570687280E-002   2.9158772647446523E-002
 -0.15985602864309476        0.0000000000000000        9.6451316411001242E-002
 -0.15317799667573176        2.1845189918055730E-002   6.2690998763679381E-002
 -0.14649996470836868        3.6175346267821706E-002   3.7402232932053969E-002
 -0.13982193274100568        4.2990469049297972E-002   2.0585018916124975E-002
 -0.13314390077364263        4.2290558262484464E-002   1.2239356715892494E-002
 -0.20348792712330965        0.0000000000000000       0.12540890811540259     
 -0.18665649783783519        2.7325415152094180E-002   7.4352155012221227E-002
 -0.16982506855236074        4.4676707195172513E-002   3.5130644729566243E-002
 -0.15299363926688628        5.2053876129235011E-002   7.7443772674376798E-003
 -0.13616220998141182        4.9456921954281613E-002  -7.8066473741644216E-003
 -0.10476260475214624        2.0791467187092929E-002   5.3617840035045786E-002
 -0.10210862651236119        2.4932398388526466E-002   4.5637982641180533E-002
  -9.9454648272576149E-002   2.7510518183726348E-002   3.9349848441994427E-002
  -9.6800670032791095E-002   2.8525826572692526E-002   3.4753437437487308E-002
  -9.4146691793006040E-002   2.7978323555425046E-002   3.1848749627659302E-002
 -0.11744409815900984        2.7957830878890103E-002   4.2951600420497615E-002
 -0.11348703269782018        2.9429718908916262E-002   3.6698902033917950E-002
 -0.10952996723663053        3.0253885506899794E-002   3.1360654895468416E-002
 -0.10557290177544086        3.0430330672840681E-002   2.6936859005149076E-002
 -0.10161583631425118        2.9959054406739023E-002   2.3427514362959891E-002
 -0.12690453016617534        3.5124194570687280E-002   2.9158772647446523E-002
 -0.12242164943012993        3.3927039429306048E-002   2.5548323242343442E-002
 -0.11793876869408455        3.2997252830073265E-002   2.2075053138821622E-002
 -0.11345588795803917        3.2334834772988895E-002   1.8738962336881167E-002
 -0.10897300722199377        3.1939785258053008E-002   1.5540050836521839E-002
 -0.13314390077364263        4.2290558262484464E-002   1.2239356715892494E-002
 -0.12891247670929040        3.8424359949695855E-002   1.2186246266457066E-002
 -0.12468105264493821        3.5740620153246680E-002   1.1493043172053987E-002
 -0.12044962858058605        3.4239338873137119E-002   1.0159747432683428E-002
 -0.11621820451623380        3.3920516109366944E-002   8.1863590483450890E-003
 -0.13616220998141182        4.9456921954281613E-002  -7.8066473741644216E-003
 -0.13295951453530169        4.2921680470085599E-002  -3.3873288937410970E-003
 -0.12975681908919157        3.8483987476420185E-002  -3.8537500483434850E-004
 -0.12655412364308144        3.6143842973285253E-002   1.1992142925559904E-003
 -0.12335142819697131        3.5901246960680977E-002   1.3664389984296421E-003
  -9.4146691793006040E-002   2.7978323555425046E-002   3.1848749627659302E-002
  -9.1759041167861558E-002   2.6785601520437460E-002   3.1281586286057143E-002
  -8.9371390542717061E-002   2.5865252856243359E-002   3.0789928269814134E-002
  -8.6983739917572550E-002   2.5217277562842783E-002   3.0373775578930423E-002
  -8.4596089292428081E-002   2.4841675640235747E-002   3.0033128213405855E-002
 -0.10161583631425118        2.9959054406739023E-002   2.3427514362959891E-002
  -9.9136797500316301E-002   2.9189140327241989E-002   2.3149617086314151E-002
  -9.6657758686381434E-002   2.8469672052996969E-002   2.2978990861889925E-002
  -9.4178719872446526E-002   2.7800649584003891E-002   2.2915635689687339E-002
  -9.1699681058511659E-002   2.7182072920262798E-002   2.2959551569706152E-002
 -0.10897300722199377        3.1939785258053008E-002   1.5540050836521839E-002
 -0.10637081449240619        3.1592679134046509E-002   1.5329492059290952E-002
 -0.10376862176281862        3.1074091249750552E-002   1.5257970061144002E-002
 -0.10116642903323100        3.0384021605164971E-002   1.5325484842080888E-002
  -9.8564236303643443E-002   2.9522470200289801E-002   1.5532036402101757E-002
 -0.11621820451623380        3.3920516109366944E-002   8.1863590483450890E-003
 -0.11346109214413122        3.3996217940851059E-002   7.8212112049876811E-003
 -0.11070397977202859        3.3678510446504141E-002   7.6268658675763719E-003
 -0.10794686739992598        3.2967393626326016E-002   7.6033230361113643E-003
 -0.10518975502782339        3.1862867480316859E-002   7.7505827105925169E-003
 -0.12335142819697131        3.5901246960680977E-002   1.3664389984296421E-003
 -0.12040763045549138        3.6399756747655554E-002   6.2477452340406470E-004
 -0.11746383271401140        3.6282929643257689E-002   8.5678281187093197E-005
 -0.11452003497253141        3.5550765647487159E-002  -2.5084972822148402E-004
 -0.11157623723105148        3.4203264760343910E-002  -3.8480950482155940E-004
  -8.4596089292428081E-002   2.4841675640235747E-002   3.0033128213405855E-002
  -8.2206630255694926E-002   2.4527094937741994E-002   2.9279779264926586E-002
  -7.9817171218961758E-002   2.4062183304681486E-002   2.8838039545423653E-002
  -7.7427712182228603E-002   2.3446940741054224E-002   2.8707909054896803E-002
  -7.5038253145495448E-002   2.2681367246860207E-002   2.8889387793346238E-002
  -9.1699681058511659E-002   2.7182072920262798E-002   2.2959551569706152E-002
  -8.9035065667752836E-002   2.6564010088925151E-002   2.2308911731722315E-002
  -8.6370450276993999E-002   2.5896529117142564E-002   2.1896975372813723E-002
  -8.3705834886235203E-002   2.5179630004914962E-002   2.1723742492980119E-002
  -8.1041219495476380E-002   2.4413312752242372E-002   2.1789213092221676E-002
  -9.8564236303643443E-002   2.9522470200289801E-002   1.5532036402101757E-002
  -9.5697370308760077E-002   2.8600925240108363E-002   1.5085018464735114E-002
  -9.2830504313876627E-002   2.7730874929603619E-002   1.4803798256542473E-002
  -8.9963638318993261E-002   2.6912319268775648E-002   1.4688375777523969E-002
  -8.7096772324109811E-002   2.6145258257624593E-002   1.4738751027679367E-002
 -0.10518975502782339        3.1862867480316859E-002   7.7505827105925169E-003
 -0.10219354417871648        3.0637840391291409E-002   7.6080994639648363E-003
  -9.9197333329609616E-002   2.9565220742064711E-002   7.5585081966100219E-003
  -9.6201122480502707E-002   2.8645008532636330E-002   7.6018089085283479E-003
  -9.3204911631395881E-002   2.7877203763006814E-002   7.7380015997195462E-003
 -0.11157623723105148        3.4203264760343910E-002  -3.8480950482155940E-004
 -0.10852358727762224        3.2674755542474648E-002  -1.2184527058839434E-004
 -0.10547093732419294        3.1399566554525804E-002   1.6110519301637538E-004
 -0.10241828737076369        3.0377697796497100E-002   4.6404188599319385E-004
  -9.9365637417334396E-002   2.9609149268388923E-002   7.8696480834189453E-004
  -7.5038253145495448E-002   2.2681367246860207E-002   2.8889387793346238E-002
  -7.2727301137189504E-002   2.1859685539919099E-002   2.8795945378778470E-002
  -7.0416349128883504E-002   2.1076118338050093E-002   2.8836099061705645E-002
  -6.8105397120577546E-002   2.0330665641253499E-002   2.9009848842127789E-002
  -6.5794445112271560E-002   1.9623327449529215E-002   2.9317194720044792E-002
  -8.1041219495476380E-002   2.4413312752242372E-002   2.1789213092221676E-002
  -7.8589406264353942E-002   2.3624847775430766E-002   2.1672067922942434E-002
  -7.6137593033231504E-002   2.2841505490785889E-002   2.1703049101801278E-002
  -7.3685779802109039E-002   2.2063285898307861E-002   2.1882156628798090E-002
  -7.1233966570986643E-002   2.1290188997996617E-002   2.2209390503933085E-002
  -8.7096772324109811E-002   2.6145258257624593E-002   1.4738751027679367E-002
  -8.4489567619527819E-002   2.5390010010942529E-002   1.4564911290783265E-002
  -8.1882362914945814E-002   2.4606892643521686E-002   1.4553728152668186E-002
  -7.9275158210363753E-002   2.3795906155362079E-002   1.4705201613334350E-002
  -7.6667953505781761E-002   2.2957050546463909E-002   1.5019331672781591E-002
  -9.3204911631395881E-002   2.7877203763006814E-002   7.7380015997195462E-003
  -9.0427785202711233E-002   2.7155172246454300E-002   7.4744754823008793E-003
  -8.7650658774026488E-002   2.6372279796257510E-002   7.3881362143062394E-003
  -8.4873532345341771E-002   2.5528526412416534E-002   7.4789837957363482E-003
  -8.2096405916657178E-002   2.4623912094931311E-002   7.7470182265902757E-003
  -9.9365637417334396E-002   2.9609149268388923E-002   7.8696480834189453E-004
  -9.6404059013903975E-002   2.8920334481966153E-002   4.0076049749526721E-004
  -9.3442480610473500E-002   2.8137666948993181E-002   2.0627328671582457E-004
  -9.0480902207043051E-002   2.7261146669470816E-002   2.0350317600386497E-004
  -8.7519323803612603E-002   2.6290773643398602E-002   3.9245016535921495E-004
  -6.5794445112271560E-002   1.9623327449529215E-002   2.9317194720044792E-002
  -6.3261468228141216E-002   1.8940168157548398E-002   2.8898343321746234E-002
  -6.0728491344010857E-002   1.8267252159982095E-002   2.8683329564987370E-002
  -5.8195514459880492E-002   1.7604579456830374E-002   2.8672153449768284E-002
  -5.5662537575750126E-002   1.6952150048093306E-002   2.8864814976088893E-002
  -7.1233966570986643E-002   2.1290188997996617E-002   2.2209390503933085E-002
  -6.8498552978802835E-002   2.0526033173225308E-002   2.1806174072731901E-002
  -6.5763139386618985E-002   1.9774636807366949E-002   2.1603993416097714E-002
  -6.3027725794435177E-002   1.9035999900422051E-002   2.1602848534030855E-002
  -6.0292312202251397E-002   1.8310122452390110E-002   2.1802739426531076E-002
  -7.6667953505781761E-002   2.2957050546463909E-002   1.5019331672781591E-002
  -7.3732905072517146E-002   2.2111898188902079E-002   1.4634266373176427E-002
  -7.0797856639252518E-002   2.1282021454751859E-002   1.4447434981165644E-002
  -6.7862808205987918E-002   2.0467420344013561E-002   1.4458837496749477E-002
  -6.4927759772723290E-002   1.9668094856686830E-002   1.4668473919927802E-002
  -8.2096405916657178E-002   2.4623912094931311E-002   7.7470182265902757E-003
  -7.8964524509284317E-002   2.3697763204578809E-002   7.3826202230797139E-003
  -7.5832643101911387E-002   2.2789406102136769E-002   7.2136542601907300E-003
  -7.2700761694538513E-002   2.1898840787605321E-002   7.2401203379239987E-003
  -6.9568880287165624E-002   2.1026067260983702E-002   7.4620184562788246E-003
  -8.7519323803612603E-002   2.6290773643398602E-002   3.9245016535921495E-004
  -8.4193411289104070E-002   2.5283628220255816E-002   5.1235622441858641E-005
  -8.0867498774595648E-002   2.4296790749521818E-002  -9.7348746826611543E-005
  -7.7541586260087197E-002   2.3330261231196657E-002  -5.3302942445588447E-005
  -7.4215673745578692E-002   2.2384039665280353E-002   1.8337303558457752E-004
  -5.5662537575750126E-002   1.6952150048093306E-002   2.8864814976088893E-002
  -5.3720301572520363E-002   1.6283234400534974E-002   2.8850689864266810E-002
  -5.1778065569290599E-002   1.5571102980919405E-002   2.9022083823184081E-002
  -4.9835829566060807E-002   1.4815755789247168E-002   2.9378996852840483E-002
  -4.7893593562831072E-002   1.4017192825517444E-002   2.9921428953236295E-002
  -6.0292312202251397E-002   1.8310122452390110E-002   2.1802739426531076E-002
  -5.8176015200132547E-002   1.7577072643392089E-002   2.1736323322437190E-002
  -5.6059718198013780E-002   1.6816918653548826E-002   2.1832510145381984E-002
  -5.3943421195895014E-002   1.6029660482860333E-002   2.2091299895365873E-002
  -5.1827124193776164E-002   1.5215298131326771E-002   2.2512692572388304E-002
  -6.4927759772723290E-002   1.9668094856686830E-002   1.4668473919927802E-002
  -6.2660317915415792E-002   1.8870910886249287E-002   1.4565878414773650E-002
  -6.0392876058108336E-002   1.8062734326178248E-002   1.4602969692958115E-002
  -5.8125434200800873E-002   1.7243565176473720E-002   1.4779747754480849E-002
  -5.5857992343493437E-002   1.6413403437136015E-002   1.5096212599342199E-002
  -6.9568880287165624E-002   2.1026067260983702E-002   7.4620184562788246E-003
  -6.7173209718369958E-002   2.0164749129106471E-002   7.3393551412765830E-003
  -6.4777539149574251E-002   1.9308549998807448E-002   7.3334624659123354E-003
  -6.2381868580778571E-002   1.8457469870087385E-002   7.4443404301860437E-003
  -5.9986198011982877E-002   1.7611508742945356E-002   7.6719890340977807E-003
  -7.4215673745578692E-002   2.2384039665280353E-002   1.8337303558457752E-004
  -7.1714690608995157E-002   2.1458587371963656E-002   5.6753501945672191E-005
  -6.9213707472411623E-002   2.0554365671437119E-002   2.3988464244589780E-005
  -6.6712724335828144E-002   1.9671374563700390E-002   8.5077922481309465E-005
  -6.4211741199244554E-002   1.8809614048754475E-002   2.4002187665528307E-004
  -4.7893593562831072E-002   1.4017192825517444E-002   2.9921428953236295E-002
  -4.5050314194070462E-002   1.3205646851141006E-002   2.9220134219259286E-002
  -4.2207034825309880E-002   1.2411350627527670E-002   2.8485896018522000E-002
  -3.9363755456549229E-002   1.1634304154677515E-002   2.7718714351024035E-002
  -3.6520476087788745E-002   1.0874507432590219E-002   2.6918589216765598E-002
  -5.1827124193776164E-002   1.5215298131326771E-002   2.2512692572388304E-002
  -4.8941401925477135E-002   1.4395664142961423E-002   2.1806352014910574E-002
  -4.6055679657178189E-002   1.3592591061777792E-002   2.1217840723270265E-002
  -4.3169957388879215E-002   1.2806078887775824E-002   2.0747158697467141E-002
  -4.0284235120580214E-002   1.2036127620955628E-002   2.0394305937501245E-002
  -5.5857992343493437E-002   1.6413403437136015E-002   1.5096212599342199E-002
  -5.2779054443058207E-002   1.5585681434781562E-002   1.4384137374782210E-002
  -4.9700116542623012E-002   1.4773831496027644E-002   1.3940664148657404E-002
  -4.6621178642187788E-002   1.3977853620874522E-002   1.3765792920967603E-002
  -4.3542240741752641E-002   1.3197747809321148E-002   1.3859523691713116E-002
  -5.9986198011982877E-002   1.7611508742945356E-002   7.6719890340977807E-003
  -5.6563271746813609E-002   1.6775698726602173E-002   6.9534902988743728E-003
  -5.3140345481644355E-002   1.5955071930277908E-002   6.6543662946837879E-003
  -4.9717419216475003E-002   1.5149628353972749E-002   6.7746170215261829E-003
  -4.6294492951305791E-002   1.4359367997686667E-002   7.3142424794016281E-003
  -6.4211741199244554E-002   1.8809614048754475E-002   2.4002187665528307E-004
  -6.0294053836743355E-002   1.7965716018422340E-002  -4.8558921281338652E-004
  -5.6376366474242212E-002   1.7136312364528034E-002  -6.4105283865090179E-004
  -5.2458679111741152E-002   1.6321403087071466E-002  -2.2636900085812317E-004
  -4.8540991749239870E-002   1.5520988186052076E-002   7.5846230056608732E-004
 </DataArray>
 </PointData>
 </Piece>
 <Piece  NumberOfPoints="          1600 "  NumberOfCells="         1024 ">
 <Points>
 <DataArray  type="Float64" NumberOfComponents="3"  format="ascii" >
  0.50000000000000000        0.0000000000000000        0.0000000000000000     
  0.53125000000000000        0.0000000000000000        0.0000000000000000     
  0.56250000000000000        0.0000000000000000        0.0000000000000000     
  0.59375000000000000        0.0000000000000000        0.0000000000000000     
  0.62500000000000000        0.0000000000000000        0.0000000000000000     
  0.50000000000000000        3.1250000000000000E-002   0.0000000000000000     
  0.53125000000000000        3.1250000000000000E-002   0.0000000000000000     
  0.56250000000000000        3.1250000000000000E-002   0.0000000000000000     
  0.59375000000000000        3.1250000000000000E-002   0.0000000000000000     
  0.62500000000000000        3.1250000000000000E-002   0.0000000000000000     
  0.50000000000000000        6.2500000000000000E-002   0.0000000000000000     
  0.53125000000000000        6.2500000000000000E-002   0.0000000000000000     
  0.56250000000000000        6.2500000000000000E-002   0.0000000000000000     
  0.59375000000000000        6.2500000000000000E-002   0.0000000000000000     
  0.62500000000000000        6.2500000000000000E-002   0.0000000000000000     
  0.50000000000000000        9.3750000000000000E-002   0.0000000000000000     
  0.53125000000000000        9.3750000000000000E-002   0.0000000000000000     
  0.56250000000000000        9.3750000000000000E-002   0.0000000000000000     
  0.59375000000000000        9.3750000000000000E-002   0.0000000000000000     
  0.62500000000000000        9.3750000000000000E-002   0.0000000000000000     
  0.50000000000000000       0.12500000000000000        0.0000000000000000     
  0.53125000000000000       0.12500000000000000        0.0000000000000000     
  0.56250000000000000       0.12500000000000000        0.0000000000000000     
  0.59375000000000000       0.12500000000000000        0.0000000000000000     
  0.62500000000000000       0.12500000000000000        0.0000000000000000     
  0.62500000000000000        0.0000000000000000        0.0000000000000000     
  0.65625000000000000        0.0000000000000000        0.0000000000000000     
  0.68750000000000000        0.0000000000000000        0.0000000000000000     
  0.71875000000000000        0.0000000000000000        0.0000000000000000     
  0.75000000000000000        0.0000000000000000        0.0000000000000000     
  0.62500000000000000        3.1250000000000000E-002   0.0000000000000000     
  0.65625000000000000        3.1250000000000000E-002   0.0000000000000000     
  0.68750000000000000        3.1250000000000000E-002   0.0000000000000000     
  0.71875000000000000        3.1250000000000000E-002   0.0000000000000000     
  0.75000000000000000        3.1250000000000000E-002   0.0000000000000000     
  0.62500000000000000        6.2500000000000000E-002   0.0000000000000000     
  0.65625000000000000        6.2500000000000000E-002   0.0000000000000000     
  0.68750000000000000        6.2500000000000000E-002   0.0000000000000000     
  0.71875000000000000        6.2500000000000000E-002   0.0000000000000000     
  0.75000000000000000        6.2500000000000000E-002   0.0000000000000000     
  0.62500000000000000        9.3750000000000000E-002   0.0000000000000000     
  0.65625000000000000        9.3750000000000000E-002   0.0000000000000000     
  0.68750000000000000        9.3750000000000000E-002   0.0000000000000000     
  0.71875000000000000        9.3750000000000000E-002   0.0000000000000000     
  0.75000000000000000        9.3750000000000000E-002   0.0000000000000000     
  0.62500000000000000       0.12500000000000000        0.0000000000000000     
  0.65625000000000000       0.12500000000000000        0.0000000000000000     
  0.68750000000000000       0.12500000000000000        0.0000000000000000     
  0.71875000000000000       0.12500000000000000        0.0000000000000000     
  0.75000000000000000       0.12500000000000000        0.0000000000000000     
  0.75000000000000000        0.0000000000000000        0.0000000000000000     
  0.78125000000000000        0.0000000000000000        0.0000000000000000     
  0.81250000000000000        0.0000000000000000        0.0000000000000000     
  0.84375000000000000        0.0000000000000000        0.0000000000000000     
  0.87500000000000000        0.0000000000000000        0.0000000000000000     
  0.75000000000000000        3.1250000000000000E-002   0.0000000000000000     
  0.78125000000000000        3.1250000000000000E-002   0.0000000000000000     
  0.81250000000000000        3.1250000000000000E-002   0.0000000000000000     
  0.84375000000000000        3.1250000000000000E-002   0.0000000000000000     
  0.87500000000000000        3.1250000000000000E-002   0.0000000000000000     
  0.75000000000000000        6.2500000000000000E-002   0.0000000000000000     
  0.78125000000000000        6.2500000000000000E-002   0.0000000000000000     
  0.81250000000000000        6.2500000000000000E-002   0.0000000000000000     
  0.84375000000000000        6.2500000000000000E-002   0.0000000000000000     
  0.87500000000000000        6.2500000000000000E-002   0.0000000000000000     
  0.75000000000000000        9.3750000000000000E-002   0.0000000000000000     
  0.78125000000000000        9.3750000000000000E-002   0.0000000000000000     
  0.81250000000000000        9.3750000000000000E-002   0.0000000000000000     
  0.84375000000000000        9.3750000000000000E-002   0.0000000000000000     
  0.87500000000000000        9.3750000000000000E-002   0.0000000000000000     
  0.75000000000000000       0.12500000000000000        0.0000000000000000     
  0.78125000000000000       0.12500000000000000        0.0000000000000000     
  0.81250000000000000       0.12500000000000000        0.0000000000000000     
  0.84375000000000000       0.12500000000000000        0.0000000000000000     
  0.87500000000000000       0.12500000000000000        0.0000000000000000     
  0.87500000000000000        0.0000000000000000        0.0000000000000000     
  0.90625000000000000        0.0000000000000000        0.0000000000000000     
  0.93750000000000000        0.0000000000000000        0.0000000000000000     
  0.96875000000000000        0.0000000000000000        0.0000000000000000     
   1.0000000000000000        0.0000000000000000        0.0000000000000000     
  0.87500000000000000        3.1250000000000000E-002   0.0000000000000000     
  0.90625000000000000        3.1250000000000000E-002   0.0000000000000000     
  0.93750000000000000        3.1250000000000000E-002   0.0000000000000000     
  0.96875000000000000        3.1250000000000000E-002   0.0000000000000000     
   1.0000000000000000        3.1250000000000000E-002   0.0000000000000000     
  0.87500000000000000        6.2500000000000000E-002   0.0000000000000000     
  0.90625000000000000        6.2500000000000000E-002   0.0000000000000000     
  0.93750000000000000        6.2500000000000000E-002   0.0000000000000000     
  0.96875000000000000        6.2500000000000000E-002   0.0000000000000000     
   1.0000000000000000        6.2500000000000000E-002   0.0000000000000000     
  0.87500000000000000        9.3750000000000000E-002   0.0000000000000000     
  0.90625000000000000        9.3750000000000000E-002   0.0000000000000000     
  0.93750000000000000        9.3750000000000000E-002   0.0000000000000000     
  0.96875000000000000        9.3750000000000000E-002   0.0000000000000000     
   1.0000000000000000        9.3750000000000000E-002   0.0000000000000000     
  0.87500000000000000       0.12500000000000000        0.0000000000000000     
  0.90625000000000000       0.12500000000000000        0.0000000000000000     
  0.93750000000000000       0.12500000000000000        0.0000000000000000     
  0.96875000000000000       0.12500000000000000        0.0000000000000000     
   1.0000000000000000       0.12500000000000000        0.0000000000000000     
   1.0000000000000000        0.0000000000000000        0.0000000000000000     
   1.0312500000000000        0.0000000000000000        0.0000000000000000     
   1.0625000000000000        0.0000000000000000        0.0000000000000000     
   1.0937500000000000        0.0000000000000000        0.0000000000000000     
   1.1250000000000000        0.0000000000000000        0.0000000000000000     
   1.0000000000000000        3.1250000000000000E-002   0.0000000000000000     
   1.0312500000000000        3.1250000000000000E-002   0.0000000000000000     
   1.0625000000000000        3.1250000000000000E-002   0.0000000000000000     
   1.0937500000000000        3.1250000000000000E-002   0.0000000000000000     
   1.1250000000000000        3.1250000000000000E-002   0.0000000000000000     
   1.0000000000000000        6.2500000000000000E-002   0.0000000000000000     
   1.0312500000000000        6.2500000000000000E-002   0.0000000000000000     
   1.0625000000000000        6.2500000000000000E-002   0.0000000000000000     
   1.0937500000000000        6.2500000000000000E-002   0.0000000000000000     
   1.1250000000000000        6.2500000000000000E-002   0.0000000000000000     
   1.0000000000000000        9.3750000000000000E-002   0.0000000000000000     
   1.0312500000000000        9.3750000000000000E-002   0.0000000000000000     
   1.0625000000000000        9.3750000000000000E-002   0.0000000000000000     
   1.0937500000000000        9.3750000000000000E-002   0.0000000000000000     
   1.1250000000000000        9.3750000000000000E-002   0.0000000000000000     
   1.0000000000000000       0.12500000000000000        0.0000000000000000     
   1.0312500000000000       0.12500000000000000        0.0000000000000000     
   1.0625000000000000       0.12500000000000000        0.0000000000000000     
   1.0937500000000000       0.12500000000000000        0.0000000000000000     
   1.1250000000000000       0.12500000000000000        0.0000000000000000     
   1.1250000000000000        0.0000000000000000        0.0000000000000000     
   1.1562500000000000        0.0000000000000000        0.0000000000000000     
   1.1875000000000000        0.0000000000000000        0.0000000000000000     
   1.2187500000000000        0.0000000000000000        0.0000000000000000     
   1.2500000000000000        0.0000000000000000        0.0000000000000000     
   1.1250000000000000        3.1250000000000000E-002   0.0000000000000000     
   1.1562500000000000        3.1250000000000000E-002   0.0000000000000000     
   1.1875000000000000        3.1250000000000000E-002   0.0000000000000000     
   1.2187500000000000        3.1250000000000000E-002   0.0000000000000000     
   1.2500000000000000        3.1250000000000000E-002   0.0000000000000000     
   1.1250000000000000        6.2500000000000000E-002   0.0000000000000000     
   1.1562500000000000        6.2500000000000000E-002   0.0000000000000000     
   1.1875000000000000        6.2500000000000000E-002   0.0000000000000000     
   1.2187500000000000        6.2500000000000000E-002   0.0000000000000000     
   1.2500000000000000        6.2500000000000000E-002   0.0000000000000000     
   1.1250000000000000        9.3750000000000000E-002   0.0000000000000000     
   1.1562500000000000        9.3750000000000000E-002   0.0000000000000000     
   1.1875000000000000        9.3750000000000000E-002   0.0000000000000000     
   1.2187500000000000        9.3750000000000000E-002   0.0000000000000000     
   1.2500000000000000        9.3750000000000000E-002   0.0000000000000000     
   1.1250000000000000       0.12500000000000000        0.0000000000000000     
   1.1562500000000000       0.12500000000000000        0.0000000000000000     
   1.1875000000000000       0.12500000000000000        0.0000000000000000     
   1.2187500000000000       0.12500000000000000        0.0000000000000000     
   1.2500000000000000       0.12500000000000000        0.0000000000000000     
   1.2500000000000000        0.0000000000000000        0.0000000000000000     
   1.2812500000000000        0.0000000000000000        0.0000000000000000     
   1.3125000000000000        0.0000000000000000        0.0000000000000000     
   1.3437500000000000        0.0000000000000000        0.0000000000000000     
   1.3750000000000000        0.0000000000000000        0.0000000000000000     
   1.2500000000000000        3.1250000000000000E-002   0.0000000000000000     
   1.2812500000000000        3.1250000000000000E-002   0.0000000000000000     
   1.3125000000000000        3.1250000000000000E-002   0.0000000000000000     
   1.3437500000000000        3.1250000000000000E-002   0.0000000000000000     
   1.3750000000000000        3.1250000000000000E-002   0.0000000000000000     
   1.2500000000000000        6.2500000000000000E-002   0.0000000000000000     
   1.2812500000000000        6.2500000000000000E-002   0.0000000000000000     
   1.3125000000000000        6.2500000000000000E-002   0.0000000000000000     
   1.3437500000000000        6.2500000000000000E-002   0.0000000000000000     
   1.3750000000000000        6.2500000000000000E-002   0.0000000000000000     
   1.2500000000000000        9.3750000000000000E-002   0.0000000000000000     
   1.2812500000000000        9.3750000000000000E-002   0.0000000000000000     
   1.3125000000000000        9.3750000000000000E-002   0.0000000000000000     
   1.3437500000000000        9.3750000000000000E-002   0.0000000000000000     
   1.3750000000000000        9.3750000000000000E-002   0.0000000000000000     
   1.2500000000000000       0.12500000000000000        0.0000000000000000     
   1.2812500000000000       0.12500000000000000        0.0000000000000000     
   1.3125000000000000       0.12500000000000000        0.0000000000000000     
   1.3437500000000000       0.12500000000000000        0.0000000000000000     
   1.3750000000000000       0.12500000000000000        0.0000000000000000     
   1.3750000000000000        0.0000000000000000        0.0000000000000000     
   1.4062500000000000        0.0000000000000000        0.0000000000000000     
   1.4375000000000000        0.0000000000000000        0.0000000000000000     
   1.4687500000000000        0.0000000000000000        0.0000000000000000     
   1.5000000000000000        0.0000000000000000        0.0000000000000000     
   1.3750000000000000        3.1250000000000000E-002   0.0000000000000000     
   1.4062500000000000        3.1250000000000000E-002   0.0000000000000000     
   1.4375000000000000        3.1250000000000000E-002   0.0000000000000000     
   1.4687500000000000        3.1250000000000000E-002   0.0000000000000000     
   1.5000000000000000        3.1250000000000000E-002   0.0000000000000000     
   1.3750000000000000        6.2500000000000000E-002   0.0000000000000000     
   1.4062500000000000        6.2500000000000000E-002   0.0000000000000000     
   1.4375000000000000        6.2500000000000000E-002   0.0000000000000000     
   1.4687500000000000        6.2500000000000000E-002   0.0000000000000000     
   1.5000000000000000        6.2500000000000000E-002   0.0000000000000000     
   1.3750000000000000        9.3750000000000000E-002   0.0000000000000000     
   1.4062500000000000        9.3750000000000000E-002   0.0000000000000000     
   1.4375000000000000        9.3750000000000000E-002   0.0000000000000000     
   1.4687500000000000        9.3750000000000000E-002   0.0000000000000000     
   1.5000000000000000        9.3750000000000000E-002   0.0000000000000000     
   1.3750000000000000       0.12500000000000000        0.0000000000000000     
   1.4062500000000000       0.12500000000000000        0.0000000000000000     
   1.4375000000000000       0.12500000000000000        0.0000000000000000     
   1.4687500000000000       0.12500000000000000        0.0000000000000000     
   1.5000000000000000       0.12500000000000000        0.0000000000000000     
  0.50000000000000000       0.12500000000000000        0.0000000000000000     
  0.53125000000000000       0.12500000000000000        0.0000000000000000     
  0.56250000000000000       0.12500000000000000        0.0000000000000000     
  0.59375000000000000       0.12500000000000000        0.0000000000000000     
  0.62500000000000000       0.12500000000000000        0.0000000000000000     
  0.50000000000000000       0.15625000000000000        0.0000000000000000     
  0.53125000000000000       0.15625000000000000        0.0000000000000000     
  0.56250000000000000       0.15625000000000000        0.0000000000000000     
  0.59375000000000000       0.15625000000000000        0.0000000000000000     
  0.62500000000000000       0.15625000000000000        0.0000000000000000     
  0.50000000000000000       0.18750000000000000        0.0000000000000000     
  0.53125000000000000       0.18750000000000000        0.0000000000000000     
  0.56250000000000000       0.18750000000000000        0.0000000000000000     
  0.59375000000000000       0.18750000000000000        0.0000000000000000     
  0.62500000000000000       0.18750000000000000        0.0000000000000000     
  0.50000000000000000       0.21875000000000000        0.0000000000000000     
  0.53125000000000000       0.21875000000000000        0.0000000000000000     
  0.56250000000000000       0.21875000000000000        0.0000000000000000     
  0.59375000000000000       0.21875000000000000        0.0000000000000000     
  0.62500000000000000       0.21875000000000000        0.0000000000000000     
  0.50000000000000000       0.25000000000000000        0.0000000000000000     
  0.53125000000000000       0.25000000000000000        0.0000000000000000     
  0.56250000000000000       0.25000000000000000        0.0000000000000000     
  0.59375000000000000       0.25000000000000000        0.0000000000000000     
  0.62500000000000000       0.25000000000000000        0.0000000000000000     
  0.62500000000000000       0.12500000000000000        0.0000000000000000     
  0.65625000000000000       0.12500000000000000        0.0000000000000000     
  0.68750000000000000       0.12500000000000000        0.0000000000000000     
  0.71875000000000000       0.12500000000000000        0.0000000000000000     
  0.75000000000000000       0.12500000000000000        0.0000000000000000     
  0.62500000000000000       0.15625000000000000        0.0000000000000000     
  0.65625000000000000       0.15625000000000000        0.0000000000000000     
  0.68750000000000000       0.15625000000000000        0.0000000000000000     
  0.71875000000000000       0.15625000000000000        0.0000000000000000     
  0.75000000000000000       0.15625000000000000        0.0000000000000000     
  0.62500000000000000       0.18750000000000000        0.0000000000000000     
  0.65625000000000000       0.18750000000000000        0.0000000000000000     
  0.68750000000000000       0.18750000000000000        0.0000000000000000     
  0.71875000000000000       0.18750000000000000        0.0000000000000000     
  0.75000000000000000       0.18750000000000000        0.0000000000000000     
  0.62500000000000000       0.21875000000000000        0.0000000000000000     
  0.65625000000000000       0.21875000000000000        0.0000000000000000     
  0.68750000000000000       0.21875000000000000        0.0000000000000000     
  0.71875000000000000       0.21875000000000000        0.0000000000000000     
  0.75000000000000000       0.21875000000000000        0.0000000000000000     
  0.62500000000000000       0.25000000000000000        0.0000000000000000     
  0.65625000000000000       0.25000000000000000        0.0000000000000000     
  0.68750000000000000       0.25000000000000000        0.0000000000000000     
  0.71875000000000000       0.25000000000000000        0.0000000000000000     
  0.75000000000000000       0.25000000000000000        0.0000000000000000     
  0.75000000000000000       0.12500000000000000        0.0000000000000000     
  0.78125000000000000       0.12500000000000000        0.0000000000000000     
  0.81250000000000000       0.12500000000000000        0.0000000000000000     
  0.84375000000000000       0.12500000000000000        0.0000000000000000     
  0.87500000000000000       0.12500000000000000        0.0000000000000000     
  0.75000000000000000       0.15625000000000000        0.0000000000000000     
  0.78125000000000000       0.15625000000000000        0.0000000000000000     
  0.81250000000000000       0.15625000000000000        0.0000000000000000     
  0.84375000000000000       0.15625000000000000        0.0000000000000000     
  0.87500000000000000       0.15625000000000000        0.0000000000000000     
  0.75000000000000000       0.18750000000000000        0.0000000000000000     
  0.78125000000000000       0.18750000000000000        0.0000000000000000     
  0.81250000000000000       0.18750000000000000        0.0000000000000000     
  0.84375000000000000       0.18750000000000000        0.0000000000000000     
  0.87500000000000000       0.18750000000000000        0.0000000000000000     
  0.75000000000000000       0.21875000000000000        0.0000000000000000     
  0.78125000000000000       0.21875000000000000        0.0000000000000000     
  0.81250000000000000       0.21875000000000000        0.0000000000000000     
  0.84375000000000000       0.21875000000000000        0.0000000000000000     
  0.87500000000000000       0.21875000000000000        0.0000000000000000     
  0.75000000000000000       0.25000000000000000        0.0000000000000000     
  0.78125000000000000       0.25000000000000000        0.0000000000000000     
  0.81250000000000000       0.25000000000000000        0.0000000000000000     
  0.84375000000000000       0.25000000000000000        0.0000000000000000     
  0.87500000000000000       0.25000000000000000        0.0000000000000000     
  0.87500000000000000       0.12500000000000000        0.0000000000000000     
  0.90625000000000000       0.12500000000000000        0.0000000000000000     
  0.93750000000000000       0.12500000000000000        0.0000000000000000     
  0.96875000000000000       0.12500000000000000        0.0000000000000000     
   1.0000000000000000       0.12500000000000000        0.0000000000000000     
  0.87500000000000000       0.15625000000000000        0.0000000000000000     
  0.90625000000000000       0.15625000000000000        0.0000000000000000     
  0.93750000000000000       0.15625000000000000        0.0000000000000000     
  0.96875000000000000       0.15625000000000000        0.0000000000000000     
   1.0000000000000000       0.15625000000000000        0.0000000000000000     
  0.87500000000000000       0.18750000000000000        0.0000000000000000     
  0.90625000000000000       0.18750000000000000        0.0000000000000000     
  0.93750000000000000       0.18750000000000000        0.0000000000000000     
  0.96875000000000000       0.18750000000000000        0.0000000000000000     
   1.0000000000000000       0.18750000000000000        0.0000000000000000     
  0.87500000000000000       0.21875000000000000        0.0000000000000000     
  0.90625000000000000       0.21875000000000000        0.0000000000000000     
  0.93750000000000000       0.21875000000000000        0.0000000000000000     
  0.96875000000000000       0.21875000000000000        0.0000000000000000     
   1.0000000000000000       0.21875000000000000        0.0000000000000000     
  0.87500000000000000       0.25000000000000000        0.0000000000000000     
  0.90625000000000000       0.25000000000000000        0.0000000000000000     
  0.93750000000000000       0.25000000000000000        0.0000000000000000     
  0.96875000000000000       0.25000000000000000        0.0000000000000000     
   1.0000000000000000       0.25000000000000000        0.0000000000000000     
   1.0000000000000000       0.12500000000000000        0.0000000000000000     
   1.0312500000000000       0.12500000000000000        0.0000000000000000     
   1.0625000000000000       0.12500000000000000        0.0000000000000000     
   1.0937500000000000       0.12500000000000000        0.0000000000000000     
   1.1250000000000000       0.12500000000000000        0.0000000000000000     
   1.0000000000000000       0.15625000000000000        0.0000000000000000     
   1.0312500000000000       0.15625000000000000        0.0000000000000000     
   1.0625000000000000       0.15625000000000000        0.0000000000000000     
   1.0937500000000000       0.15625000000000000        0.0000000000000000     
   1.1250000000000000       0.15625000000000000        0.0000000000000000     
   1.0000000000000000       0.18750000000000000        0.0000000000000000     
   1.0312500000000000       0.18750000000000000        0.0000000000000000     
   1.0625000000000000       0.18750000000000000        0.0000000000000000     
   1.0937500000000000       0.18750000000000000        0.0000000000000000     
   1.1250000000000000       0.18750000000000000        0.0000000000000000     
   1.0000000000000000       0.21875000000000000        0.0000000000000000     
   1.0312500000000000       0.21875000000000000        0.0000000000000000     
   1.0625000000000000       0.21875000000000000        0.0000000000000000     
   1.0937500000000000       0.21875000000000000        0.0000000000000000     
   1.1250000000000000       0.21875000000000000        0.0000000000000000     
   1.0000000000000000       0.25000000000000000        0.0000000000000000     
   1.0312500000000000       0.25000000000000000        0.0000000000000000     
   1.0625000000000000       0.25000000000000000        0.0000000000000000     
   1.0937500000000000       0.25000000000000000        0.0000000000000000     
   1.1250000000000000       0.25000000000000000        0.0000000000000000     
   1.1250000000000000       0.12500000000000000        0.0000000000000000     
   1.1562500000000000       0.12500000000000000        0.0000000000000000     
   1.1875000000000000       0.12500000000000000        0.0000000000000000     
   1.2187500000000000       0.12500000000000000        0.0000000000000000     
   1.2500000000000000       0.12500000000000000        0.0000000000000000     
   1.1250000000000000       0.15625000000000000        0.0000000000000000     
   1.1562500000000000       0.15625000000000000        0.0000000000000000     
   1.1875000000000000       0.15625000000000000        0.0000000000000000     
   1.2187500000000000       0.15625000000000000        0.0000000000000000     
   1.2500000000000000       0.15625000000000000        0.0000000000000000     
   1.1250000000000000       0.18750000000000000        0.0000000000000000     
   1.1562500000000000       0.18750000000000000        0.0000000000000000     
   1.1875000000000000       0.18750000000000000        0.0000000000000000     
   1.2187500000000000       0.18750000000000000        0.0000000000000000     
   1.2500000000000000       0.18750000000000000        0.0000000000000000     
   1.1250000000000000       0.21875000000000000        0.0000000000000000     
   1.1562500000000000       0.21875000000000000        0.0000000000000000     
   1.1875000000000000       0.21875000000000000        0.0000000000000000     
   1.2187500000000000       0.21875000000000000        0.0000000000000000     
   1.2500000000000000       0.21875000000000000        0.0000000000000000     
   1.1250000000000000       0.25000000000000000        0.0000000000000000     
   1.1562500000000000       0.25000000000000000        0.0000000000000000     
   1.1875000000000000       0.25000000000000000        0.0000000000000000     
   1.2187500000000000       0.25000000000000000        0.0000000000000000     
   1.2500000000000000       0.25000000000000000        0.0000000000000000     
   1.2500000000000000       0.12500000000000000        0.0000000000000000     
   1.2812500000000000       0.12500000000000000        0.0000000000000000     
   1.3125000000000000       0.12500000000000000        0.0000000000000000     
   1.3437500000000000       0.12500000000000000        0.0000000000000000     
   1.3750000000000000       0.12500000000000000        0.0000000000000000     
   1.2500000000000000       0.15625000000000000        0.0000000000000000     
   1.2812500000000000       0.15625000000000000        0.0000000000000000     
   1.3125000000000000       0.15625000000000000        0.0000000000000000     
   1.3437500000000000       0.15625000000000000        0.0000000000000000     
   1.3750000000000000       0.15625000000000000        0.0000000000000000     
   1.2500000000000000       0.18750000000000000        0.0000000000000000     
   1.2812500000000000       0.18750000000000000        0.0000000000000000     
   1.3125000000000000       0.18750000000000000        0.0000000000000000     
   1.3437500000000000       0.18750000000000000        0.0000000000000000     
   1.3750000000000000       0.18750000000000000        0.0000000000000000     
   1.2500000000000000       0.21875000000000000        0.0000000000000000     
   1.2812500000000000       0.21875000000000000        0.0000000000000000     
   1.3125000000000000       0.21875000000000000        0.0000000000000000     
   1.3437500000000000       0.21875000000000000        0.0000000000000000     
   1.3750000000000000       0.21875000000000000        0.0000000000000000     
   1.2500000000000000       0.25000000000000000        0.0000000000000000     
   1.2812500000000000       0.25000000000000000        0.0000000000000000     
   1.3125000000000000       0.25000000000000000        0.0000000000000000     
   1.3437500000000000       0.25000000000000000        0.0000000000000000     
   1.3750000000000000       0.25000000000000000        0.0000000000000000     
   1.3750000000000000       0.12500000000000000        0.0000000000000000     
   1.4062500000000000       0.12500000000000000        0.0000000000000000     
   1.4375000000000000       0.12500000000000000        0.0000000000000000     
   1.4687500000000000       0.12500000000000000        0.0000000000000000     
   1.5000000000000000       0.12500000000000000        0.0000000000000000     
   1.3750000000000000       0.15625000000000000        0.0000000000000000     
   1.4062500000000000       0.15625000000000000        0.0000000000000000     
   1.4375000000000000       0.15625000000000000        0.0000000000000000     
   1.4687500000000000       0.15625000000000000        0.0000000000000000     
   1.5000000000000000       0.15625000000000000        0.0000000000000000     
   1.3750000000000000       0.18750000000000000        0.0000000000000000     
   1.4062500000000000       0.18750000000000000        0.0000000000000000     
   1.4375000000000000       0.18750000000000000        0.0000000000000000     
   1.4687500000000000       0.18750000000000000        0.0000000000000000     
   1.5000000000000000       0.18750000000000000        0.0000000000000000     
   1.3750000000000000       0.21875000000000000        0.0000000000000000     
   1.4062500000000000       0.21875000000000000        0.0000000000000000     
   1.4375000000000000       0.21875000000000000        0.0000000000000000     
   1.4687500000000000       0.21875000000000000        0.0000000000000000     
   1.5000000000000000       0.21875000000000000        0.0000000000000000     
   1.3750000000000000       0.25000000000000000        0.0000000000000000     
   1.4062500000000000       0.25000000000000000        0.0000000000000000     
   1.4375000000000000       0.25000000000000000        0.0000000000000000     
   1.4687500000000000       0.25000000000000000        0.0000000000000000     
   1.5000000000000000       0.25000000000000000        0.0000000000000000     
  0.50000000000000000       0.25000000000000000        0.0000000000000000     
  0.53125000000000000       0.25000000000000000        0.0000000000000000     
  0.56250000000000000       0.25000000000000000        0.0000000000000000     
  0.59375000000000000       0.25000000000000000        0.0000000000000000     
  0.62500000000000000       0.25000000000000000        0.0000000000000000     
  0.50000000000000000       0.28125000000000000        0.0000000000000000     
  0.53125000000000000       0.28125000000000000        0.0000000000000000     
  0.56250000000000000       0.28125000000000000        0.0000000000000000     
  0.59375000000000000       0.28125000000000000        0.0000000000000000     
  0.62500000000000000       0.28125000000000000        0.0000000000000000     
  0.50000000000000000       0.31250000000000000        0.0000000000000000     
  0.53125000000000000       0.31250000000000000        0.0000000000000000     
  0.56250000000000000       0.31250000000000000        0.0000000000000000     
  0.59375000000000000       0.31250000000000000        0.0000000000000000     
  0.62500000000000000       0.31250000000000000        0.0000000000000000     
  0.50000000000000000       0.34375000000000000        0.0000000000000000     
  0.53125000000000000       0.34375000000000000        0.0000000000000000     
  0.56250000000000000       0.34375000000000000        0.0000000000000000     
  0.59375000000000000       0.34375000000000000        0.0000000000000000     
  0.62500000000000000       0.34375000000000000        0.0000000000000000     
  0.50000000000000000       0.37500000000000000        0.0000000000000000     
  0.53125000000000000       0.37500000000000000        0.0000000000000000     
  0.56250000000000000       0.37500000000000000        0.0000000000000000     
  0.59375000000000000       0.37500000000000000        0.0000000000000000     
  0.62500000000000000       0.37500000000000000        0.0000000000000000     
  0.62500000000000000       0.25000000000000000        0.0000000000000000     
  0.65625000000000000       0.25000000000000000        0.0000000000000000     
  0.68750000000000000       0.25000000000000000        0.0000000000000000     
  0.71875000000000000       0.25000000000000000        0.0000000000000000     
  0.75000000000000000       0.25000000000000000        0.0000000000000000     
  0.62500000000000000       0.28125000000000000        0.0000000000000000     
  0.65625000000000000       0.28125000000000000        0.0000000000000000     
  0.68750000000000000       0.28125000000000000        0.0000000000000000     
  0.71875000000000000       0.28125000000000000        0.0000000000000000     
  0.75000000000000000       0.28125000000000000        0.0000000000000000     
  0.62500000000000000       0.31250000000000000        0.0000000000000000     
  0.65625000000000000       0.31250000000000000        0.0000000000000000     
  0.68750000000000000       0.31250000000000000        0.0000000000000000     
  0.71875000000000000       0.31250000000000000        0.0000000000000000     
  0.75000000000000000       0.31250000000000000        0.0000000000000000     
  0.62500000000000000       0.34375000000000000        0.0000000000000000     
  0.65625000000000000       0.34375000000000000        0.0000000000000000     
  0.68750000000000000       0.34375000000000000        0.0000000000000000     
  0.71875000000000000       0.34375000000000000        0.0000000000000000     
  0.75000000000000000       0.34375000000000000        0.0000000000000000     
  0.62500000000000000       0.37500000000000000        0.0000000000000000     
  0.65625000000000000       0.37500000000000000        0.0000000000000000     
  0.68750000000000000       0.37500000000000000        0.0000000000000000     
  0.71875000000000000       0.37500000000000000        0.0000000000000000     
  0.75000000000000000       0.37500000000000000        0.0000000000000000     
  0.75000000000000000       0.25000000000000000        0.0000000000000000     
  0.78125000000000000       0.25000000000000000        0.0000000000000000     
  0.81250000000000000       0.25000000000000000        0.0000000000000000     
  0.84375000000000000       0.25000000000000000        0.0000000000000000     
  0.87500000000000000       0.25000000000000000        0.0000000000000000     
  0.75000000000000000       0.28125000000000000        0.0000000000000000     
  0.78125000000000000       0.28125000000000000        0.0000000000000000     
  0.81250000000000000       0.28125000000000000        0.0000000000000000     
  0.84375000000000000       0.28125000000000000        0.0000000000000000     
  0.87500000000000000       0.28125000000000000        0.0000000000000000     
  0.75000000000000000       0.31250000000000000        0.0000000000000000     
  0.78125000000000000       0.31250000000000000        0.0000000000000000     
  0.81250000000000000       0.31250000000000000        0.0000000000000000     
  0.84375000000000000       0.31250000000000000        0.0000000000000000     
  0.87500000000000000       0.31250000000000000        0.0000000000000000     
  0.75000000000000000       0.34375000000000000        0.0000000000000000     
  0.78125000000000000       0.34375000000000000        0.0000000000000000     
  0.81250000000000000       0.34375000000000000        0.0000000000000000     
  0.84375000000000000       0.34375000000000000        0.0000000000000000     
  0.87500000000000000       0.34375000000000000        0.0000000000000000     
  0.75000000000000000       0.37500000000000000        0.0000000000000000     
  0.78125000000000000       0.37500000000000000        0.0000000000000000     
  0.81250000000000000       0.37500000000000000        0.0000000000000000     
  0.84375000000000000       0.37500000000000000        0.0000000000000000     
  0.87500000000000000       0.37500000000000000        0.0000000000000000     
  0.87500000000000000       0.25000000000000000        0.0000000000000000     
  0.90625000000000000       0.25000000000000000        0.0000000000000000     
  0.93750000000000000       0.25000000000000000        0.0000000000000000     
  0.96875000000000000       0.25000000000000000        0.0000000000000000     
   1.0000000000000000       0.25000000000000000        0.0000000000000000     
  0.87500000000000000       0.28125000000000000        0.0000000000000000     
  0.90625000000000000       0.28125000000000000        0.0000000000000000     
  0.93750000000000000       0.28125000000000000        0.0000000000000000     
  0.96875000000000000       0.28125000000000000        0.0000000000000000     
   1.0000000000000000       0.28125000000000000        0.0000000000000000     
  0.87500000000000000       0.31250000000000000        0.0000000000000000     
  0.90625000000000000       0.31250000000000000        0.0000000000000000     
  0.93750000000000000       0.31250000000000000        0.0000000000000000     
  0.96875000000000000       0.31250000000000000        0.0000000000000000     
   1.0000000000000000       0.31250000000000000        0.0000000000000000     
  0.87500000000000000       0.34375000000000000        0.0000000000000000     
  0.90625000000000000       0.34375000000000000        0.0000000000000000     
  0.93750000000000000       0.34375000000000000        0.0000000000000000     
  0.96875000000000000       0.34375000000000000        0.0000000000000000     
   1.0000000000000000       0.34375000000000000        0.0000000000000000     
  0.87500000000000000       0.37500000000000000        0.0000000000000000     
  0.90625000000000000       0.37500000000000000        0.0000000000000000     
  0.93750000000000000       0.37500000000000000        0.0000000000000000     
  0.96875000000000000       0.37500000000000000        0.0000000000000000     
   1.0000000000000000       0.37500000000000000        0.0000000000000000     
   1.0000000000000000       0.25000000000000000        0.0000000000000000     
   1.0312500000000000       0.25000000000000000        0.0000000000000000     
   1.0625000000000000       0.25000000000000000        0.0000000000000000     
   1.0937500000000000       0.25000000000000000        0.0000000000000000     
   1.1250000000000000       0.25000000000000000        0.0000000000000000     
   1.0000000000000000       0.28125000000000000        0.0000000000000000     
   1.0312500000000000       0.28125000000000000        0.0000000000000000     
   1.0625000000000000       0.28125000000000000        0.0000000000000000     
   1.0937500000000000       0.28125000000000000        0.0000000000000000     
   1.1250000000000000       0.28125000000000000        0.0000000000000000     
   1.0000000000000000       0.31250000000000000        0.0000000000000000     
   1.0312500000000000       0.31250000000000000        0.0000000000000000     
   1.0625000000000000       0.31250000000000000        0.0000000000000000     
   1.0937500000000000       0.31250000000000000        0.0000000000000000     
   1.1250000000000000       0.31250000000000000        0.0000000000000000     
   1.0000000000000000       0.34375000000000000        0.0000000000000000     
   1.0312500000000000       0.34375000000000000        0.0000000000000000     
   1.0625000000000000       0.34375000000000000        0.0000000000000000     
   1.0937500000000000       0.34375000000000000        0.0000000000000000     
   1.1250000000000000       0.34375000000000000        0.0000000000000000     
   1.0000000000000000       0.37500000000000000        0.0000000000000000     
   1.0312500000000000       0.37500000000000000        0.0000000000000000     
   1.0625000000000000       0.37500000000000000        0.0000000000000000     
   1.0937500000000000       0.37500000000000000        0.0000000000000000     
   1.1250000000000000       0.37500000000000000        0.0000000000000000     
   1.1250000000000000       0.25000000000000000        0.0000000000000000     
   1.1562500000000000       0.25000000000000000        0.0000000000000000     
   1.1875000000000000       0.25000000000000000        0.0000000000000000     
   1.2187500000000000       0.25000000000000000        0.0000000000000000     
   1.2500000000000000       0.25000000000000000        0.0000000000000000     
   1.1250000000000000       0.28125000000000000        0.0000000000000000     
   1.1562500000000000       0.28125000000000000        0.0000000000000000     
   1.1875000000000000       0.28125000000000000        0.0000000000000000     
   1.2187500000000000       0.28125000000000000        0.0000000000000000     
   1.2500000000000000       0.28125000000000000        0.0000000000000000     
   1.1250000000000000       0.31250000000000000        0.0000000000000000     
   1.1562500000000000       0.31250000000000000        0.0000000000000000     
   1.1875000000000000       0.31250000000000000        0.0000000000000000     
   1.2187500000000000       0.31250000000000000        0.0000000000000000     
   1.2500000000000000       0.31250000000000000        0.0000000000000000     
   1.1250000000000000       0.34375000000000000        0.0000000000000000     
   1.1562500000000000       0.34375000000000000        0.0000000000000000     
   1.1875000000000000       0.34375000000000000        0.0000000000000000     
   1.2187500000000000       0.34375000000000000        0.0000000000000000     
   1.2500000000000000       0.34375000000000000        0.0000000000000000     
   1.1250000000000000       0.37500000000000000        0.0000000000000000     
   1.1562500000000000       0.37500000000000000        0.0000000000000000     
   1.1875000000000000       0.37500000000000000        0.0000000000000000     
   1.2187500000000000       0.37500000000000000        0.0000000000000000     
   1.2500000000000000       0.37500000000000000        0.0000000000000000     
   1.2500000000000000       0.25000000000000000        0.0000000000000000     
   1.2812500000000000       0.25000000000000000        0.0000000000000000     
   1.3125000000000000       0.25000000000000000        0.0000000000000000     
   1.3437500000000000       0.25000000000000000        0.0000000000000000     
   1.3750000000000000       0.25000000000000000        0.0000000000000000     
   1.2500000000000000       0.28125000000000000        0.0000000000000000     
   1.2812500000000000       0.28125000000000000        0.0000000000000000     
   1.3125000000000000       0.28125000000000000        0.0000000000000000     
   1.3437500000000000       0.28125000000000000        0.0000000000000000     
   1.3750000000000000       0.28125000000000000        0.0000000000000000     
   1.2500000000000000       0.31250000000000000        0.0000000000000000     
   1.2812500000000000       0.31250000000000000        0.0000000000000000     
   1.3125000000000000       0.31250000000000000        0.0000000000000000     
   1.3437500000000000       0.31250000000000000        0.0000000000000000     
   1.3750000000000000       0.31250000000000000        0.0000000000000000     
   1.2500000000000000       0.34375000000000000        0.0000000000000000     
   1.2812500000000000       0.34375000000000000        0.0000000000000000     
   1.3125000000000000       0.34375000000000000        0.0000000000000000     
   1.3437500000000000       0.34375000000000000        0.0000000000000000     
   1.3750000000000000       0.34375000000000000        0.0000000000000000     
   1.2500000000000000       0.37500000000000000        0.0000000000000000     
   1.2812500000000000       0.37500000000000000        0.0000000000000000     
   1.3125000000000000       0.37500000000000000        0.0000000000000000     
   1.3437500000000000       0.37500000000000000        0.0000000000000000     
   1.3750000000000000       0.37500000000000000        0.0000000000000000     
   1.3750000000000000       0.25000000000000000        0.0000000000000000     
   1.4062500000000000       0.25000000000000000        0.0000000000000000     
   1.4375000000000000       0.25000000000000000        0.0000000000000000     
   1.4687500000000000       0.25000000000000000        0.0000000000000000     
   1.5000000000000000       0.25000000000000000        0.0000000000000000     
   1.3750000000000000       0.28125000000000000        0.0000000000000000     
   1.4062500000000000       0.28125000000000000        0.0000000000000000     
   1.4375000000000000       0.28125000000000000        0.0000000000000000     
   1.4687500000000000       0.28125000000000000        0.0000000000000000     
   1.5000000000000000       0.28125000000000000        0.0000000000000000     
   1.3750000000000000       0.31250000000000000        0.0000000000000000     
   1.4062500000000000       0.31250000000000000        0.0000000000000000     
   1.4375000000000000       0.31250000000000000        0.0000000000000000     
   1.4687500000000000       0.31250000000000000        0.0000000000000000     
   1.5000000000000000       0.31250000000000000        0.0000000000000000     
   1.3750000000000000       0.34375000000000000        0.0000000000000000     
   1.4062500000000000       0.34375000000000000        0.0000000000000000     
   1.4375000000000000       0.34375000000000000        0.0000000000000000     
   1.4687500000000000       0.34375000000000000        0.0000000000000000     
   1.5000000000000000       0.34375000000000000        0.0000000000000000     
   1.3750000000000000       0.37500000000000000        0.0000000000000000     
   1.4062500000000000       0.37500000000000000        0.0000000000000000     
   1.4375000000000000       0.37500000000000000        0.0000000000000000     
   1.4687500000000000       0.37500000000000000        0.0000000000000000     
   1.5000000000000000       0.37500000000000000        0.0000000000000000     
  0.50000000000000000       0.37500000000000000        0.0000000000000000     
  0.53125000000000000       0.37500000000000000        0.0000000000000000     
  0.56250000000000000       0.37500000000000000        0.0000000000000000     
  0.59375000000000000       0.37500000000000000        0.0000000000000000     
  0.62500000000000000       0.37500000000000000        0.0000000000000000     
  0.50000000000000000       0.40625000000000000        0.0000000000000000     
  0.53125000000000000       0.40625000000000000        0.0000000000000000     
  0.56250000000000000       0.40625000000000000        0.0000000000000000     
  0.59375000000000000       0.40625000000000000        0.0000000000000000     
  0.62500000000000000       0.40625000000000000        0.0000000000000000     
  0.50000000000000000       0.43750000000000000        0.0000000000000000     
  0.53125000000000000       0.43750000000000000        0.0000000000000000     
  0.56250000000000000       0.43750000000000000        0.0000000000000000     
  0.59375000000000000       0.43750000000000000        0.0000000000000000     
  0.62500000000000000       0.43750000000000000        0.0000000000000000     
  0.50000000000000000       0.46875000000000000        0.0000000000000000     
  0.53125000000000000       0.46875000000000000        0.0000000000000000     
  0.56250000000000000       0.46875000000000000        0.0000000000000000     
  0.59375000000000000       0.46875000000000000        0.0000000000000000     
  0.62500000000000000       0.46875000000000000        0.0000000000000000     
  0.50000000000000000       0.50000000000000000        0.0000000000000000     
  0.53125000000000000       0.50000000000000000        0.0000000000000000     
  0.56250000000000000       0.50000000000000000        0.0000000000000000     
  0.59375000000000000       0.50000000000000000        0.0000000000000000     
  0.62500000000000000       0.50000000000000000        0.0000000000000000     
  0.62500000000000000       0.37500000000000000        0.0000000000000000     
  0.65625000000000000       0.37500000000000000        0.0000000000000000     
  0.68750000000000000       0.37500000000000000        0.0000000000000000     
  0.71875000000000000       0.37500000000000000        0.0000000000000000     
  0.75000000000000000       0.37500000000000000        0.0000000000000000     
  0.62500000000000000       0.40625000000000000        0.0000000000000000     
  0.65625000000000000       0.40625000000000000        0.0000000000000000     
  0.68750000000000000       0.40625000000000000        0.0000000000000000     
  0.71875000000000000       0.40625000000000000        0.0000000000000000     
  0.75000000000000000       0.40625000000000000        0.0000000000000000     
  0.62500000000000000       0.43750000000000000        0.0000000000000000     
  0.65625000000000000       0.43750000000000000        0.0000000000000000     
  0.68750000000000000       0.43750000000000000        0.0000000000000000     
  0.71875000000000000       0.43750000000000000        0.0000000000000000     
  0.75000000000000000       0.43750000000000000        0.0000000000000000     
  0.62500000000000000       0.46875000000000000        0.0000000000000000     
  0.65625000000000000       0.46875000000000000        0.0000000000000000     
  0.68750000000000000       0.46875000000000000        0.0000000000000000     
  0.71875000000000000       0.46875000000000000        0.0000000000000000     
  0.75000000000000000       0.46875000000000000        0.0000000000000000     
  0.62500000000000000       0.50000000000000000        0.0000000000000000     
  0.65625000000000000       0.50000000000000000        0.0000000000000000     
  0.68750000000000000       0.50000000000000000        0.0000000000000000     
  0.71875000000000000       0.50000000000000000        0.0000000000000000     
  0.75000000000000000       0.50000000000000000        0.0000000000000000     
  0.75000000000000000       0.37500000000000000        0.0000000000000000     
  0.78125000000000000       0.37500000000000000        0.0000000000000000     
  0.81250000000000000       0.37500000000000000        0.0000000000000000     
  0.84375000000000000       0.37500000000000000        0.0000000000000000     
  0.87500000000000000       0.37500000000000000        0.0000000000000000     
  0.75000000000000000       0.40625000000000000        0.0000000000000000     
  0.78125000000000000       0.40625000000000000        0.0000000000000000     
  0.81250000000000000       0.40625000000000000        0.0000000000000000     
  0.84375000000000000       0.40625000000000000        0.0000000000000000     
  0.87500000000000000       0.40625000000000000        0.0000000000000000     
  0.75000000000000000       0.43750000000000000        0.0000000000000000     
  0.78125000000000000       0.43750000000000000        0.0000000000000000     
  0.81250000000000000       0.43750000000000000        0.0000000000000000     
  0.84375000000000000       0.43750000000000000        0.0000000000000000     
  0.87500000000000000       0.43750000000000000        0.0000000000000000     
  0.75000000000000000       0.46875000000000000        0.0000000000000000     
  0.78125000000000000       0.46875000000000000        0.0000000000000000     
  0.81250000000000000       0.46875000000000000        0.0000000000000000     
  0.84375000000000000       0.46875000000000000        0.0000000000000000     
  0.87500000000000000       0.46875000000000000        0.0000000000000000     
  0.75000000000000000       0.50000000000000000        0.0000000000000000     
  0.78125000000000000       0.50000000000000000        0.0000000000000000     
  0.81250000000000000       0.50000000000000000        0.0000000000000000     
  0.84375000000000000       0.50000000000000000        0.0000000000000000     
  0.87500000000000000       0.50000000000000000        0.0000000000000000     
  0.87500000000000000       0.37500000000000000        0.0000000000000000     
  0.90625000000000000       0.37500000000000000        0.0000000000000000     
  0.93750000000000000       0.37500000000000000        0.0000000000000000     
  0.96875000000000000       0.37500000000000000        0.0000000000000000     
   1.0000000000000000       0.37500000000000000        0.0000000000000000     
  0.87500000000000000       0.40625000000000000        0.0000000000000000     
  0.90625000000000000       0.40625000000000000        0.0000000000000000     
  0.93750000000000000       0.40625000000000000        0.0000000000000000     
  0.96875000000000000       0.40625000000000000        0.0000000000000000     
   1.0000000000000000       0.40625000000000000        0.0000000000000000     
  0.87500000000000000       0.43750000000000000        0.0000000000000000     
  0.90625000000000000       0.43750000000000000        0.0000000000000000     
  0.93750000000000000       0.43750000000000000        0.0000000000000000     
  0.96875000000000000       0.43750000000000000        0.0000000000000000     
   1.0000000000000000       0.43750000000000000        0.0000000000000000     
  0.87500000000000000       0.46875000000000000        0.0000000000000000     
  0.90625000000000000       0.46875000000000000        0.0000000000000000     
  0.93750000000000000       0.46875000000000000        0.0000000000000000     
  0.96875000000000000       0.46875000000000000        0.0000000000000000     
   1.0000000000000000       0.46875000000000000        0.0000000000000000     
  0.87500000000000000       0.50000000000000000        0.0000000000000000     
  0.90625000000000000       0.50000000000000000        0.0000000000000000     
  0.93750000000000000       0.50000000000000000        0.0000000000000000     
  0.96875000000000000       0.50000000000000000        0.0000000000000000     
   1.0000000000000000       0.50000000000000000        0.0000000000000000     
   1.0000000000000000       0.37500000000000000        0.0000000000000000     
   1.0312500000000000       0.37500000000000000        0.0000000000000000     
   1.0625000000000000       0.37500000000000000        0.0000000000000000     
   1.0937500000000000       0.37500000000000000        0.0000000000000000     
   1.1250000000000000       0.37500000000000000        0.0000000000000000     
   1.0000000000000000       0.40625000000000000        0.0000000000000000     
   1.0312500000000000       0.40625000000000000        0.0000000000000000     
   1.0625000000000000       0.40625000000000000        0.0000000000000000     
   1.0937500000000000       0.40625000000000000        0.0000000000000000     
   1.1250000000000000       0.40625000000000000        0.0000000000000000     
   1.0000000000000000       0.43750000000000000        0.0000000000000000     
   1.0312500000000000       0.43750000000000000        0.0000000000000000     
   1.0625000000000000       0.43750000000000000        0.0000000000000000     
   1.0937500000000000       0.43750000000000000        0.0000000000000000     
   1.1250000000000000       0.43750000000000000        0.0000000000000000     
   1.0000000000000000       0.46875000000000000        0.0000000000000000     
   1.0312500000000000       0.46875000000000000        0.0000000000000000     
   1.0625000000000000       0.46875000000000000        0.0000000000000000     
   1.0937500000000000       0.46875000000000000        0.0000000000000000     
   1.1250000000000000       0.46875000000000000        0.0000000000000000     
   1.0000000000000000       0.50000000000000000        0.0000000000000000     
   1.0312500000000000       0.50000000000000000        0.0000000000000000     
   1.0625000000000000       0.50000000000000000        0.0000000000000000     
   1.0937500000000000       0.50000000000000000        0.0000000000000000     
   1.1250000000000000       0.50000000000000000        0.0000000000000000     
   1.1250000000000000       0.37500000000000000        0.0000000000000000     
   1.1562500000000000       0.37500000000000000        0.0000000000000000     
   1.1875000000000000       0.37500000000000000        0.0000000000000000     
   1.2187500000000000       0.37500000000000000        0.0000000000000000     
   1.2500000000000000       0.37500000000000000        0.0000000000000000     
   1.1250000000000000       0.40625000000000000        0.0000000000000000     
   1.1562500000000000       0.40625000000000000        0.0000000000000000     
   1.1875000000000000       0.40625000000000000        0.0000000000000000     
   1.2187500000000000       0.40625000000000000        0.0000000000000000     
   1.2500000000000000       0.40625000000000000        0.0000000000000000     
   1.1250000000000000       0.43750000000000000        0.0000000000000000     
   1.1562500000000000       0.43750000000000000        0.0000000000000000     
   1.1875000000000000       0.43750000000000000        0.0000000000000000     
   1.2187500000000000       0.43750000000000000        0.0000000000000000     
   1.2500000000000000       0.43750000000000000        0.0000000000000000     
   1.1250000000000000       0.46875000000000000        0.0000000000000000     
   1.1562500000000000       0.46875000000000000        0.0000000000000000     
   1.1875000000000000       0.46875000000000000        0.0000000000000000     
   1.2187500000000000       0.46875000000000000        0.0000000000000000     
   1.2500000000000000       0.46875000000000000        0.0000000000000000     
   1.1250000000000000       0.50000000000000000        0.0000000000000000     
   1.1562500000000000       0.50000000000000000        0.0000000000000000     
   1.1875000000000000       0.50000000000000000        0.0000000000000000     
   1.2187500000000000       0.50000000000000000        0.0000000000000000     
   1.2500000000000000       0.50000000000000000        0.0000000000000000     
   1.2500000000000000       0.37500000000000000        0.0000000000000000     
   1.2812500000000000       0.37500000000000000        0.0000000000000000     
   1.3125000000000000       0.37500000000000000        0.0000000000000000     
   1.3437500000000000       0.37500000000000000        0.0000000000000000     
   1.3750000000000000       0.37500000000000000        0.0000000000000000     
   1.2500000000000000       0.40625000000000000        0.0000000000000000     
   1.2812500000000000       0.40625000000000000        0.0000000000000000     
   1.3125000000000000       0.40625000000000000        0.0000000000000000     
   1.3437500000000000       0.40625000000000000        0.0000000000000000     
   1.3750000000000000       0.40625000000000000        0.0000000000000000     
   1.2500000000000000       0.43750000000000000        0.0000000000000000     
   1.2812500000000000       0.43750000000000000        0.0000000000000000     
   1.3125000000000000       0.43750000000000000        0.0000000000000000     
   1.3437500000000000       0.43750000000000000        0.0000000000000000     
   1.3750000000000000       0.43750000000000000        0.0000000000000000     
   1.2500000000000000       0.46875000000000000        0.0000000000000000     
   1.2812500000000000       0.46875000000000000        0.0000000000000000     
   1.3125000000000000       0.46875000000000000        0.0000000000000000     
   1.3437500000000000       0.46875000000000000        0.0000000000000000     
   1.3750000000000000       0.46875000000000000        0.0000000000000000     
   1.2500000000000000       0.50000000000000000        0.0000000000000000     
   1.2812500000000000       0.50000000000000000        0.0000000000000000     
   1.3125000000000000       0.50000000000000000        0.0000000000000000     
   1.3437500000000000       0.50000000000000000        0.0000000000000000     
   1.3750000000000000       0.50000000000000000        0.0000000000000000     
   1.3750000000000000       0.37500000000000000        0.0000000000000000     
   1.4062500000000000       0.37500000000000000        0.0000000000000000     
   1.4375000000000000       0.37500000000000000        0.0000000000000000     
   1.4687500000000000       0.37500000000000000        0.0000000000000000     
   1.5000000000000000       0.37500000000000000        0.0000000000000000     
   1.3750000000000000       0.40625000000000000        0.0000000000000000     
   1.4062500000000000       0.40625000000000000        0.0000000000000000     
   1.4375000000000000       0.40625000000000000        0.0000000000000000     
   1.4687500000000000       0.40625000000000000        0.0000000000000000     
   1.5000000000000000       0.40625000000000000        0.0000000000000000     
   1.3750000000000000       0.43750000000000000        0.0000000000000000     
   1.4062500000000000       0.43750000000000000        0.0000000000000000     
   1.4375000000000000       0.43750000000000000        0.0000000000000000     
   1.4687500000000000       0.43750000000000000        0.0000000000000000     
   1.5000000000000000       0.43750000000000000        0.0000000000000000     
   1.3750000000000000       0.46875000000000000        0.0000000000000000     
   1.4062500000000000       0.46875000000000000        0.0000000000000000     
   1.4375000000000000       0.46875000000000000        0.0000000000000000     
   1.4687500000000000       0.46875000000000000        0.0000000000000000     
   1.5000000000000000       0.46875000000000000        0.0000000000000000     
   1.3750000000000000       0.50000000000000000        0.0000000000000000     
   1.4062500000000000       0.50000000000000000        0.0000000000000000     
   1.4375000000000000       0.50000000000000000        0.0000000000000000     
   1.4687500000000000       0.50000000000000000        0.0000000000000000     
   1.5000000000000000       0.50000000000000000        0.0000000000000000     
  0.50000000000000000       0.50000000000000000        0.0000000000000000     
  0.53125000000000000       0.50000000000000000        0.0000000000000000     
  0.56250000000000000       0.50000000000000000        0.0000000000000000     
  0.59375000000000000       0.50000000000000000        0.0000000000000000     
  0.62500000000000000       0.50000000000000000        0.0000000000000000     
  0.50000000000000000       0.53125000000000000        0.0000000000000000     
  0.53125000000000000       0.53125000000000000        0.0000000000000000     
  0.56250000000000000       0.53125000000000000        0.0000000000000000     
  0.59375000000000000       0.53125000000000000        0.0000000000000000     
  0.62500000000000000       0.53125000000000000        0.0000000000000000     
  0.50000000000000000       0.56250000000000000        0.0000000000000000     
  0.53125000000000000       0.56250000000000000        0.0000000000000000     
  0.56250000000000000       0.56250000000000000        0.0000000000000000     
  0.59375000000000000       0.56250000000000000        0.0000000000000000     
  0.62500000000000000       0.56250000000000000        0.0000000000000000     
  0.50000000000000000       0.59375000000000000        0.0000000000000000     
  0.53125000000000000       0.59375000000000000        0.0000000000000000     
  0.56250000000000000       0.59375000000000000        0.0000000000000000     
  0.59375000000000000       0.59375000000000000        0.0000000000000000     
  0.62500000000000000       0.59375000000000000        0.0000000000000000     
  0.50000000000000000       0.62500000000000000        0.0000000000000000     
  0.53125000000000000       0.62500000000000000        0.0000000000000000     
  0.56250000000000000       0.62500000000000000        0.0000000000000000     
  0.59375000000000000       0.62500000000000000        0.0000000000000000     
  0.62500000000000000       0.62500000000000000        0.0000000000000000     
  0.62500000000000000       0.50000000000000000        0.0000000000000000     
  0.65625000000000000       0.50000000000000000        0.0000000000000000     
  0.68750000000000000       0.50000000000000000        0.0000000000000000     
  0.71875000000000000       0.50000000000000000        0.0000000000000000     
  0.75000000000000000       0.50000000000000000        0.0000000000000000     
  0.62500000000000000       0.53125000000000000        0.0000000000000000     
  0.65625000000000000       0.53125000000000000        0.0000000000000000     
  0.68750000000000000       0.53125000000000000        0.0000000000000000     
  0.71875000000000000       0.53125000000000000        0.0000000000000000     
  0.75000000000000000       0.53125000000000000        0.0000000000000000     
  0.62500000000000000       0.56250000000000000        0.0000000000000000     
  0.65625000000000000       0.56250000000000000        0.0000000000000000     
  0.68750000000000000       0.56250000000000000        0.0000000000000000     
  0.71875000000000000       0.56250000000000000        0.0000000000000000     
  0.75000000000000000       0.56250000000000000        0.0000000000000000     
  0.62500000000000000       0.59375000000000000        0.0000000000000000     
  0.65625000000000000       0.59375000000000000        0.0000000000000000     
  0.68750000000000000       0.59375000000000000        0.0000000000000000     
  0.71875000000000000       0.59375000000000000        0.0000000000000000     
  0.75000000000000000       0.59375000000000000        0.0000000000000000     
  0.62500000000000000       0.62500000000000000        0.0000000000000000     
  0.65625000000000000       0.62500000000000000        0.0000000000000000     
  0.68750000000000000       0.62500000000000000        0.0000000000000000     
  0.71875000000000000       0.62500000000000000        0.0000000000000000     
  0.75000000000000000       0.62500000000000000        0.0000000000000000     
  0.75000000000000000       0.50000000000000000        0.0000000000000000     
  0.78125000000000000       0.50000000000000000        0.0000000000000000     
  0.81250000000000000       0.50000000000000000        0.0000000000000000     
  0.84375000000000000       0.50000000000000000        0.0000000000000000     
  0.87500000000000000       0.50000000000000000        0.0000000000000000     
  0.75000000000000000       0.53125000000000000        0.0000000000000000     
  0.78125000000000000       0.53125000000000000        0.0000000000000000     
  0.81250000000000000       0.53125000000000000        0.0000000000000000     
  0.84375000000000000       0.53125000000000000        0.0000000000000000     
  0.87500000000000000       0.53125000000000000        0.0000000000000000     
  0.75000000000000000       0.56250000000000000        0.0000000000000000     
  0.78125000000000000       0.56250000000000000        0.0000000000000000     
  0.81250000000000000       0.56250000000000000        0.0000000000000000     
  0.84375000000000000       0.56250000000000000        0.0000000000000000     
  0.87500000000000000       0.56250000000000000        0.0000000000000000     
  0.75000000000000000       0.59375000000000000        0.0000000000000000     
  0.78125000000000000       0.59375000000000000        0.0000000000000000     
  0.81250000000000000       0.59375000000000000        0.0000000000000000     
  0.84375000000000000       0.59375000000000000        0.0000000000000000     
  0.87500000000000000       0.59375000000000000        0.0000000000000000     
  0.75000000000000000       0.62500000000000000        0.0000000000000000     
  0.78125000000000000       0.62500000000000000        0.0000000000000000     
  0.81250000000000000       0.62500000000000000        0.0000000000000000     
  0.84375000000000000       0.62500000000000000        0.0000000000000000     
  0.87500000000000000       0.62500000000000000        0.0000000000000000     
  0.87500000000000000       0.50000000000000000        0.0000000000000000     
  0.90625000000000000       0.50000000000000000        0.0000000000000000     
  0.93750000000000000       0.50000000000000000        0.0000000000000000     
  0.96875000000000000       0.50000000000000000        0.0000000000000000     
   1.0000000000000000       0.50000000000000000        0.0000000000000000     
  0.87500000000000000       0.53125000000000000        0.0000000000000000     
  0.90625000000000000       0.53125000000000000        0.0000000000000000     
  0.93750000000000000       0.53125000000000000        0.0000000000000000     
  0.96875000000000000       0.53125000000000000        0.0000000000000000     
   1.0000000000000000       0.53125000000000000        0.0000000000000000     
  0.87500000000000000       0.56250000000000000        0.0000000000000000     
  0.90625000000000000       0.56250000000000000        0.0000000000000000     
  0.93750000000000000       0.56250000000000000        0.0000000000000000     
  0.96875000000000000       0.56250000000000000        0.0000000000000000     
   1.0000000000000000       0.56250000000000000        0.0000000000000000     
  0.87500000000000000       0.59375000000000000        0.0000000000000000     
  0.90625000000000000       0.59375000000000000        0.0000000000000000     
  0.93750000000000000       0.59375000000000000        0.0000000000000000     
  0.96875000000000000       0.59375000000000000        0.0000000000000000     
   1.0000000000000000       0.59375000000000000        0.0000000000000000     
  0.87500000000000000       0.62500000000000000        0.0000000000000000     
  0.90625000000000000       0.62500000000000000        0.0000000000000000     
  0.93750000000000000       0.62500000000000000        0.0000000000000000     
  0.96875000000000000       0.62500000000000000        0.0000000000000000     
   1.0000000000000000       0.62500000000000000        0.0000000000000000     
   1.0000000000000000       0.50000000000000000        0.0000000000000000     
   1.0312500000000000       0.50000000000000000        0.0000000000000000     
   1.0625000000000000       0.50000000000000000        0.0000000000000000     
   1.0937500000000000       0.50000000000000000        0.0000000000000000     
   1.1250000000000000       0.50000000000000000        0.0000000000000000     
   1.0000000000000000       0.53125000000000000        0.0000000000000000     
   1.0312500000000000       0.53125000000000000        0.0000000000000000     
   1.0625000000000000       0.53125000000000000        0.0000000000000000     
   1.0937500000000000       0.53125000000000000        0.0000000000000000     
   1.1250000000000000       0.53125000000000000        0.0000000000000000     
   1.0000000000000000       0.56250000000000000        0.0000000000000000     
   1.0312500000000000       0.56250000000000000        0.0000000000000000     
   1.0625000000000000       0.56250000000000000        0.0000000000000000     
   1.0937500000000000       0.56250000000000000        0.0000000000000000     
   1.1250000000000000       0.56250000000000000        0.0000000000000000     
   1.0000000000000000       0.59375000000000000        0.0000000000000000     
   1.0312500000000000       0.59375000000000000        0.0000000000000000     
   1.0625000000000000       0.59375000000000000        0.0000000000000000     
   1.0937500000000000       0.59375000000000000        0.0000000000000000     
   1.1250000000000000       0.59375000000000000        0.0000000000000000     
   1.0000000000000000       0.62500000000000000        0.0000000000000000     
   1.0312500000000000       0.62500000000000000        0.0000000000000000     
   1.0625000000000000       0.62500000000000000        0.0000000000000000     
   1.0937500000000000       0.62500000000000000        0.0000000000000000     
   1.1250000000000000       0.62500000000000000        0.0000000000000000     
   1.1250000000000000       0.50000000000000000        0.0000000000000000     
   1.1562500000000000       0.50000000000000000        0.0000000000000000     
   1.1875000000000000       0.50000000000000000        0.0000000000000000     
   1.2187500000000000       0.50000000000000000        0.0000000000000000     
   1.2500000000000000       0.50000000000000000        0.0000000000000000     
   1.1250000000000000       0.53125000000000000        0.0000000000000000     
   1.1562500000000000       0.53125000000000000        0.0000000000000000     
   1.1875000000000000       0.53125000000000000        0.0000000000000000     
   1.2187500000000000       0.53125000000000000        0.0000000000000000     
   1.2500000000000000       0.53125000000000000        0.0000000000000000     
   1.1250000000000000       0.56250000000000000        0.0000000000000000     
   1.1562500000000000       0.56250000000000000        0.0000000000000000     
   1.1875000000000000       0.56250000000000000        0.0000000000000000     
   1.2187500000000000       0.56250000000000000        0.0000000000000000     
   1.2500000000000000       0.56250000000000000        0.0000000000000000     
   1.1250000000000000       0.59375000000000000        0.0000000000000000     
   1.1562500000000000       0.59375000000000000        0.0000000000000000     
   1.1875000000000000       0.59375000000000000        0.0000000000000000     
   1.2187500000000000       0.59375000000000000        0.0000000000000000     
   1.2500000000000000       0.59375000000000000        0.0000000000000000     
   1.1250000000000000       0.62500000000000000        0.0000000000000000     
   1.1562500000000000       0.62500000000000000        0.0000000000000000     
   1.1875000000000000       0.62500000000000000        0.0000000000000000     
   1.2187500000000000       0.62500000000000000        0.0000000000000000     
   1.2500000000000000       0.62500000000000000        0.0000000000000000     
   1.2500000000000000       0.50000000000000000        0.0000000000000000     
   1.2812500000000000       0.50000000000000000        0.0000000000000000     
   1.3125000000000000       0.50000000000000000        0.0000000000000000     
   1.3437500000000000       0.50000000000000000        0.0000000000000000     
   1.3750000000000000       0.50000000000000000        0.0000000000000000     
   1.2500000000000000       0.53125000000000000        0.0000000000000000     
   1.2812500000000000       0.53125000000000000        0.0000000000000000     
   1.3125000000000000       0.53125000000000000        0.0000000000000000     
   1.3437500000000000       0.53125000000000000        0.0000000000000000     
   1.3750000000000000       0.53125000000000000        0.0000000000000000     
   1.2500000000000000       0.56250000000000000        0.0000000000000000     
   1.2812500000000000       0.56250000000000000        0.0000000000000000     
   1.3125000000000000       0.56250000000000000        0.0000000000000000     
   1.3437500000000000       0.56250000000000000        0.0000000000000000     
   1.3750000000000000       0.56250000000000000        0.0000000000000000     
   1.2500000000000000       0.59375000000000000        0.0000000000000000     
   1.2812500000000000       0.59375000000000000        0.0000000000000000     
   1.3125000000000000       0.59375000000000000        0.0000000000000000     
   1.3437500000000000       0.59375000000000000        0.0000000000000000     
   1.3750000000000000       0.59375000000000000        0.0000000000000000     
   1.2500000000000000       0.62500000000000000        0.0000000000000000     
   1.2812500000000000       0.62500000000000000        0.0000000000000000     
   1.3125000000000000       0.62500000000000000        0.0000000000000000     
   1.3437500000000000       0.62500000000000000        0.0000000000000000     
   1.3750000000000000       0.62500000000000000        0.0000000000000000     
   1.3750000000000000       0.50000000000000000        0.0000000000000000     
   1.4062500000000000       0.50000000000000000        0.0000000000000000     
   1.4375000000000000       0.50000000000000000        0.0000000000000000     
   1.4687500000000000       0.50000000000000000        0.0000000000000000     
   1.5000000000000000       0.50000000000000000        0.0000000000000000     
   1.3750000000000000       0.53125000000000000        0.0000000000000000     
   1.4062500000000000       0.53125000000000000        0.0000000000000000     
   1.4375000000000000       0.53125000000000000        0.0000000000000000     
   1.4687500000000000       0.53125000000000000        0.0000000000000000     
   1.5000000000000000       0.53125000000000000        0.0000000000000000     
   1.3750000000000000       0.56250000000000000        0.0000000000000000     
   1.4062500000000000       0.56250000000000000        0.0000000000000000     
   1.4375000000000000       0.56250000000000000        0.0000000000000000     
   1.4687500000000000       0.56250000000000000        0.0000000000000000     
   1.5000000000000000       0.56250000000000000        0.0000000000000000     
   1.3750000000000000       0.59375000000000000        0.0000000000000000     
   1.4062500000000000       0.59375000000000000        0.0000000000000000     
   1.4375000000000000       0.59375000000000000        0.0000000000000000     
   1.4687500000000000       0.59375000000000000        0.0000000000000000     
   1.5000000000000000       0.59375000000000000        0.0000000000000000     
   1.3750000000000000       0.62500000000000000        0.0000000000000000     
   1.4062500000000000       0.62500000000000000        0.0000000000000000     
   1.4375000000000000       0.62500000000000000        0.0000000000000000     
   1.4687500000000000       0.62500000000000000        0.0000000000000000     
   1.5000000000000000       0.62500000000000000        0.0000000000000000     
  0.50000000000000000       0.62500000000000000        0.0000000000000000     
  0.53125000000000000       0.62500000000000000        0.0000000000000000     
  0.56250000000000000       0.62500000000000000        0.0000000000000000     
  0.59375000000000000       0.62500000000000000        0.0000000000000000     
  0.62500000000000000       0.62500000000000000        0.0000000000000000     
  0.50000000000000000       0.65625000000000000        0.0000000000000000     
  0.53125000000000000       0.65625000000000000        0.0000000000000000     
  0.56250000000000000       0.65625000000000000        0.0000000000000000     
  0.59375000000000000       0.65625000000000000        0.0000000000000000     
  0.62500000000000000       0.65625000000000000        0.0000000000000000     
  0.50000000000000000       0.68750000000000000        0.0000000000000000     
  0.53125000000000000       0.68750000000000000        0.0000000000000000     
  0.56250000000000000       0.68750000000000000        0.0000000000000000     
  0.59375000000000000       0.68750000000000000        0.0000000000000000     
  0.62500000000000000       0.68750000000000000        0.0000000000000000     
  0.50000000000000000       0.71875000000000000        0.0000000000000000     
  0.53125000000000000       0.71875000000000000        0.0000000000000000     
  0.56250000000000000       0.71875000000000000        0.0000000000000000     
  0.59375000000000000       0.71875000000000000        0.0000000000000000     
  0.62500000000000000       0.71875000000000000        0.0000000000000000     
  0.50000000000000000       0.75000000000000000        0.0000000000000000     
  0.53125000000000000       0.75000000000000000        0.0000000000000000     
  0.56250000000000000       0.75000000000000000        0.0000000000000000     
  0.59375000000000000       0.75000000000000000        0.0000000000000000     
  0.62500000000000000       0.75000000000000000        0.0000000000000000     
  0.62500000000000000       0.62500000000000000        0.0000000000000000     
  0.65625000000000000       0.62500000000000000        0.0000000000000000     
  0.68750000000000000       0.62500000000000000        0.0000000000000000     
  0.71875000000000000       0.62500000000000000        0.0000000000000000     
  0.75000000000000000       0.62500000000000000        0.0000000000000000     
  0.62500000000000000       0.65625000000000000        0.0000000000000000     
  0.65625000000000000       0.65625000000000000        0.0000000000000000     
  0.68750000000000000       0.65625000000000000        0.0000000000000000     
  0.71875000000000000       0.65625000000000000        0.0000000000000000     
  0.75000000000000000       0.65625000000000000        0.0000000000000000     
  0.62500000000000000       0.68750000000000000        0.0000000000000000     
  0.65625000000000000       0.68750000000000000        0.0000000000000000     
  0.68750000000000000       0.68750000000000000        0.0000000000000000     
  0.71875000000000000       0.68750000000000000        0.0000000000000000     
  0.75000000000000000       0.68750000000000000        0.0000000000000000     
  0.62500000000000000       0.71875000000000000        0.0000000000000000     
  0.65625000000000000       0.71875000000000000        0.0000000000000000     
  0.68750000000000000       0.71875000000000000        0.0000000000000000     
  0.71875000000000000       0.71875000000000000        0.0000000000000000     
  0.75000000000000000       0.71875000000000000        0.0000000000000000     
  0.62500000000000000       0.75000000000000000        0.0000000000000000     
  0.65625000000000000       0.75000000000000000        0.0000000000000000     
  0.68750000000000000       0.75000000000000000        0.0000000000000000     
  0.71875000000000000       0.75000000000000000        0.0000000000000000     
  0.75000000000000000       0.75000000000000000        0.0000000000000000     
  0.75000000000000000       0.62500000000000000        0.0000000000000000     
  0.78125000000000000       0.62500000000000000        0.0000000000000000     
  0.81250000000000000       0.62500000000000000        0.0000000000000000     
  0.84375000000000000       0.62500000000000000        0.0000000000000000     
  0.87500000000000000       0.62500000000000000        0.0000000000000000     
  0.75000000000000000       0.65625000000000000        0.0000000000000000     
  0.78125000000000000       0.65625000000000000        0.0000000000000000     
  0.81250000000000000       0.65625000000000000        0.0000000000000000     
  0.84375000000000000       0.65625000000000000        0.0000000000000000     
  0.87500000000000000       0.65625000000000000        0.0000000000000000     
  0.75000000000000000       0.68750000000000000        0.0000000000000000     
  0.78125000000000000       0.68750000000000000        0.0000000000000000     
  0.81250000000000000       0.68750000000000000        0.0000000000000000     
  0.84375000000000000       0.68750000000000000        0.0000000000000000     
  0.87500000000000000       0.68750000000000000        0.0000000000000000     
  0.75000000000000000       0.71875000000000000        0.0000000000000000     
  0.78125000000000000       0.71875000000000000        0.0000000000000000     
  0.81250000000000000       0.71875000000000000        0.0000000000000000     
  0.84375000000000000       0.71875000000000000        0.0000000000000000     
  0.87500000000000000       0.71875000000000000        0.0000000000000000     
  0.75000000000000000       0.75000000000000000        0.0000000000000000     
  0.78125000000000000       0.75000000000000000        0.0000000000000000     
  0.81250000000000000       0.75000000000000000        0.0000000000000000     
  0.84375000000000000       0.75000000000000000        0.0000000000000000     
  0.87500000000000000       0.75000000000000000        0.0000000000000000     
  0.87500000000000000       0.62500000000000000        0.0000000000000000     
  0.90625000000000000       0.62500000000000000        0.0000000000000000     
  0.93750000000000000       0.62500000000000000        0.0000000000000000     
  0.96875000000000000       0.62500000000000000        0.0000000000000000     
   1.0000000000000000       0.62500000000000000        0.0000000000000000     
  0.87500000000000000       0.65625000000000000        0.0000000000000000     
  0.90625000000000000       0.65625000000000000        0.0000000000000000     
  0.93750000000000000       0.65625000000000000        0.0000000000000000     
  0.96875000000000000       0.65625000000000000        0.0000000000000000     
   1.0000000000000000       0.65625000000000000        0.0000000000000000     
  0.87500000000000000       0.68750000000000000        0.0000000000000000     
  0.90625000000000000       0.68750000000000000        0.0000000000000000     
  0.93750000000000000       0.68750000000000000        0.0000000000000000     
  0.96875000000000000       0.68750000000000000        0.0000000000000000     
   1.0000000000000000       0.68750000000000000        0.0000000000000000     
  0.87500000000000000       0.71875000000000000        0.0000000000000000     
  0.90625000000000000       0.71875000000000000        0.0000000000000000     
  0.93750000000000000       0.71875000000000000        0.0000000000000000     
  0.96875000000000000       0.71875000000000000        0.0000000000000000     
   1.0000000000000000       0.71875000000000000        0.0000000000000000     
  0.87500000000000000       0.75000000000000000        0.0000000000000000     
  0.90625000000000000       0.75000000000000000        0.0000000000000000     
  0.93750000000000000       0.75000000000000000        0.0000000000000000     
  0.96875000000000000       0.75000000000000000        0.0000000000000000     
   1.0000000000000000       0.75000000000000000        0.0000000000000000     
   1.0000000000000000       0.62500000000000000        0.0000000000000000     
   1.0312500000000000       0.62500000000000000        0.0000000000000000     
   1.0625000000000000       0.62500000000000000        0.0000000000000000     
   1.0937500000000000       0.62500000000000000        0.0000000000000000     
   1.1250000000000000       0.62500000000000000        0.0000000000000000     
   1.0000000000000000       0.65625000000000000        0.0000000000000000     
   1.0312500000000000       0.65625000000000000        0.0000000000000000     
   1.0625000000000000       0.65625000000000000        0.0000000000000000     
   1.0937500000000000       0.65625000000000000        0.0000000000000000     
   1.1250000000000000       0.65625000000000000        0.0000000000000000     
   1.0000000000000000       0.68750000000000000        0.0000000000000000     
   1.0312500000000000       0.68750000000000000        0.0000000000000000     
   1.0625000000000000       0.68750000000000000        0.0000000000000000     
   1.0937500000000000       0.68750000000000000        0.0000000000000000     
   1.1250000000000000       0.68750000000000000        0.0000000000000000     
   1.0000000000000000       0.71875000000000000        0.0000000000000000     
   1.0312500000000000       0.71875000000000000        0.0000000000000000     
   1.0625000000000000       0.71875000000000000        0.0000000000000000     
   1.0937500000000000       0.71875000000000000        0.0000000000000000     
   1.1250000000000000       0.71875000000000000        0.0000000000000000     
   1.0000000000000000       0.75000000000000000        0.0000000000000000     
   1.0312500000000000       0.75000000000000000        0.0000000000000000     
   1.0625000000000000       0.75000000000000000        0.0000000000000000     
   1.0937500000000000       0.75000000000000000        0.0000000000000000     
   1.1250000000000000       0.75000000000000000        0.0000000000000000     
   1.1250000000000000       0.62500000000000000        0.0000000000000000     
   1.1562500000000000       0.62500000000000000        0.0000000000000000     
   1.1875000000000000       0.62500000000000000        0.0000000000000000     
   1.2187500000000000       0.62500000000000000        0.0000000000000000     
   1.2500000000000000       0.62500000000000000        0.0000000000000000     
   1.1250000000000000       0.65625000000000000        0.0000000000000000     
   1.1562500000000000       0.65625000000000000        0.0000000000000000     
   1.1875000000000000       0.65625000000000000        0.0000000000000000     
   1.2187500000000000       0.65625000000000000        0.0000000000000000     
   1.2500000000000000       0.65625000000000000        0.0000000000000000     
   1.1250000000000000       0.68750000000000000        0.0000000000000000     
   1.1562500000000000       0.68750000000000000        0.0000000000000000     
   1.1875000000000000       0.68750000000000000        0.0000000000000000     
   1.2187500000000000       0.68750000000000000        0.0000000000000000     
   1.2500000000000000       0.68750000000000000        0.0000000000000000     
   1.1250000000000000       0.71875000000000000        0.0000000000000000     
   1.1562500000000000       0.71875000000000000        0.0000000000000000     
   1.1875000000000000       0.71875000000000000        0.0000000000000000     
   1.2187500000000000       0.71875000000000000        0.0000000000000000     
   1.2500000000000000       0.71875000000000000        0.0000000000000000     
   1.1250000000000000       0.75000000000000000        0.0000000000000000     
   1.1562500000000000       0.75000000000000000        0.0000000000000000     
   1.1875000000000000       0.75000000000000000        0.0000000000000000     
   1.2187500000000000       0.75000000000000000        0.0000000000000000     
   1.2500000000000000       0.75000000000000000        0.0000000000000000     
   1.2500000000000000       0.62500000000000000        0.0000000000000000     
   1.2812500000000000       0.62500000000000000        0.0000000000000000     
   1.3125000000000000       0.62500000000000000        0.0000000000000000     
   1.3437500000000000       0.62500000000000000        0.0000000000000000     
   1.3750000000000000       0.62500000000000000        0.0000000000000000     
   1.2500000000000000       0.65625000000000000        0.0000000000000000     
   1.2812500000000000       0.65625000000000000        0.0000000000000000     
   1.3125000000000000       0.65625000000000000        0.0000000000000000     
   1.3437500000000000       0.65625000000000000        0.0000000000000000     
   1.3750000000000000       0.65625000000000000        0.0000000000000000     
   1.2500000000000000       0.68750000000000000        0.0000000000000000     
   1.2812500000000000       0.68750000000000000        0.0000000000000000     
   1.3125000000000000       0.68750000000000000        0.0000000000000000     
   1.3437500000000000       0.68750000000000000        0.0000000000000000     
   1.3750000000000000       0.68750000000000000        0.0000000000000000     
   1.2500000000000000       0.71875000000000000        0.0000000000000000     
   1.2812500000000000       0.71875000000000000        0.0000000000000000     
   1.3125000000000000       0.71875000000000000        0.0000000000000000     
   1.3437500000000000       0.71875000000000000        0.0000000000000000     
   1.3750000000000000       0.71875000000000000        0.0000000000000000     
   1.2500000000000000       0.75000000000000000        0.0000000000000000     
   1.2812500000000000       0.75000000000000000        0.0000000000000000     
   1.3125000000000000       0.75000000000000000        0.0000000000000000     
   1.3437500000000000       0.75000000000000000        0.0000000000000000     
   1.3750000000000000       0.75000000000000000        0.0000000000000000     
   1.3750000000000000       0.62500000000000000        0.0000000000000000     
   1.4062500000000000       0.62500000000000000        0.0000000000000000     
   1.4375000000000000       0.62500000000000000        0.0000000000000000     
   1.4687500000000000       0.62500000000000000        0.0000000000000000     
   1.5000000000000000       0.62500000000000000        0.0000000000000000     
   1.3750000000000000       0.65625000000000000        0.0000000000000000     
   1.4062500000000000       0.65625000000000000        0.0000000000000000     
   1.4375000000000000       0.65625000000000000        0.0000000000000000     
   1.4687500000000000       0.65625000000000000        0.0000000000000000     
   1.5000000000000000       0.65625000000000000        0.0000000000000000     
   1.3750000000000000       0.68750000000000000        0.0000000000000000     
   1.4062500000000000       0.68750000000000000        0.0000000000000000     
   1.4375000000000000       0.68750000000000000        0.0000000000000000     
   1.4687500000000000       0.68750000000000000        0.0000000000000000     
   1.5000000000000000       0.68750000000000000        0.0000000000000000     
   1.3750000000000000       0.71875000000000000        0.0000000000000000     
   1.4062500000000000       0.71875000000000000        0.0000000000000000     
   1.4375000000000000       0.71875000000000000        0.0000000000000000     
   1.4687500000000000       0.71875000000000000        0.0000000000000000     
   1.5000000000000000       0.71875000000000000        0.0000000000000000     
   1.3750000000000000       0.75000000000000000        0.0000000000000000     
   1.4062500000000000       0.75000000000000000        0.0000000000000000     
   1.4375000000000000       0.75000000000000000        0.0000000000000000     
   1.4687500000000000       0.75000000000000000        0.0000000000000000     
   1.5000000000000000       0.75000000000000000        0.0000000000000000     
  0.50000000000000000       0.75000000000000000        0.0000000000000000     
  0.53125000000000000       0.75000000000000000        0.0000000000000000     
  0.56250000000000000       0.75000000000000000        0.0000000000000000     
  0.59375000000000000       0.75000000000000000        0.0000000000000000     
  0.62500000000000000       0.75000000000000000        0.0000000000000000     
  0.50000000000000000       0.78125000000000000        0.0000000000000000     
  0.53125000000000000       0.78125000000000000        0.0000000000000000     
  0.56250000000000000       0.78125000000000000        0.0000000000000000     
  0.59375000000000000       0.78125000000000000        0.0000000000000000     
  0.62500000000000000       0.78125000000000000        0.0000000000000000     
  0.50000000000000000       0.81250000000000000        0.0000000000000000     
  0.53125000000000000       0.81250000000000000        0.0000000000000000     
  0.56250000000000000       0.81250000000000000        0.0000000000000000     
  0.59375000000000000       0.81250000000000000        0.0000000000000000     
  0.62500000000000000       0.81250000000000000        0.0000000000000000     
  0.50000000000000000       0.84375000000000000        0.0000000000000000     
  0.53125000000000000       0.84375000000000000        0.0000000000000000     
  0.56250000000000000       0.84375000000000000        0.0000000000000000     
  0.59375000000000000       0.84375000000000000        0.0000000000000000     
  0.62500000000000000       0.84375000000000000        0.0000000000000000     
  0.50000000000000000       0.87500000000000000        0.0000000000000000     
  0.53125000000000000       0.87500000000000000        0.0000000000000000     
  0.56250000000000000       0.87500000000000000        0.0000000000000000     
  0.59375000000000000       0.87500000000000000        0.0000000000000000     
  0.62500000000000000       0.87500000000000000        0.0000000000000000     
  0.62500000000000000       0.75000000000000000        0.0000000000000000     
  0.65625000000000000       0.75000000000000000        0.0000000000000000     
  0.68750000000000000       0.75000000000000000        0.0000000000000000     
  0.71875000000000000       0.75000000000000000        0.0000000000000000     
  0.75000000000000000       0.75000000000000000        0.0000000000000000     
  0.62500000000000000       0.78125000000000000        0.0000000000000000     
  0.65625000000000000       0.78125000000000000        0.0000000000000000     
  0.68750000000000000       0.78125000000000000        0.0000000000000000     
  0.71875000000000000       0.78125000000000000        0.0000000000000000     
  0.75000000000000000       0.78125000000000000        0.0000000000000000     
  0.62500000000000000       0.81250000000000000        0.0000000000000000     
  0.65625000000000000       0.81250000000000000        0.0000000000000000     
  0.68750000000000000       0.81250000000000000        0.0000000000000000     
  0.71875000000000000       0.81250000000000000        0.0000000000000000     
  0.75000000000000000       0.81250000000000000        0.0000000000000000     
  0.62500000000000000       0.84375000000000000        0.0000000000000000     
  0.65625000000000000       0.84375000000000000        0.0000000000000000     
  0.68750000000000000       0.84375000000000000        0.0000000000000000     
  0.71875000000000000       0.84375000000000000        0.0000000000000000     
  0.75000000000000000       0.84375000000000000        0.0000000000000000     
  0.62500000000000000       0.87500000000000000        0.0000000000000000     
  0.65625000000000000       0.87500000000000000        0.0000000000000000     
  0.68750000000000000       0.87500000000000000        0.0000000000000000     
  0.71875000000000000       0.87500000000000000        0.0000000000000000     
  0.75000000000000000       0.87500000000000000        0.0000000000000000     
  0.75000000000000000       0.75000000000000000        0.0000000000000000     
  0.78125000000000000       0.75000000000000000        0.0000000000000000     
  0.81250000000000000       0.75000000000000000        0.0000000000000000     
  0.84375000000000000       0.75000000000000000        0.0000000000000000     
  0.87500000000000000       0.75000000000000000        0.0000000000000000     
  0.75000000000000000       0.78125000000000000        0.0000000000000000     
  0.78125000000000000       0.78125000000000000        0.0000000000000000     
  0.81250000000000000       0.78125000000000000        0.0000000000000000     
  0.84375000000000000       0.78125000000000000        0.0000000000000000     
  0.87500000000000000       0.78125000000000000        0.0000000000000000     
  0.75000000000000000       0.81250000000000000        0.0000000000000000     
  0.78125000000000000       0.81250000000000000        0.0000000000000000     
  0.81250000000000000       0.81250000000000000        0.0000000000000000     
  0.84375000000000000       0.81250000000000000        0.0000000000000000     
  0.87500000000000000       0.81250000000000000        0.0000000000000000     
  0.75000000000000000       0.84375000000000000        0.0000000000000000     
  0.78125000000000000       0.84375000000000000        0.0000000000000000     
  0.81250000000000000       0.84375000000000000        0.0000000000000000     
  0.84375000000000000       0.84375000000000000        0.0000000000000000     
  0.87500000000000000       0.84375000000000000        0.0000000000000000     
  0.75000000000000000       0.87500000000000000        0.0000000000000000     
  0.78125000000000000       0.87500000000000000        0.0000000000000000     
  0.81250000000000000       0.87500000000000000        0.0000000000000000     
  0.84375000000000000       0.87500000000000000        0.0000000000000000     
  0.87500000000000000       0.87500000000000000        0.0000000000000000     
  0.87500000000000000       0.75000000000000000        0.0000000000000000     
  0.90625000000000000       0.75000000000000000        0.0000000000000000     
  0.93750000000000000       0.75000000000000000        0.0000000000000000     
  0.96875000000000000       0.75000000000000000        0.0000000000000000     
   1.0000000000000000       0.75000000000000000        0.0000000000000000     
  0.87500000000000000       0.78125000000000000        0.0000000000000000     
  0.90625000000000000       0.78125000000000000        0.0000000000000000     
  0.93750000000000000       0.78125000000000000        0.0000000000000000     
  0.96875000000000000       0.78125000000000000        0.0000000000000000     
   1.0000000000000000       0.78125000000000000        0.0000000000000000     
  0.87500000000000000       0.81250000000000000        0.0000000000000000     
  0.90625000000000000       0.81250000000000000        0.0000000000000000     
  0.93750000000000000       0.81250000000000000        0.0000000000000000     
  0.96875000000000000       0.81250000000000000        0.0000000000000000     
   1.0000000000000000       0.81250000000000000        0.0000000000000000     
  0.87500000000000000       0.84375000000000000        0.0000000000000000     
  0.90625000000000000       0.84375000000000000        0.0000000000000000     
  0.93750000000000000       0.84375000000000000        0.0000000000000000     
  0.96875000000000000       0.84375000000000000        0.0000000000000000     
   1.0000000000000000       0.84375000000000000        0.0000000000000000     
  0.87500000000000000       0.87500000000000000        0.0000000000000000     
  0.90625000000000000       0.87500000000000000        0.0000000000000000     
  0.93750000000000000       0.87500000000000000        0.0000000000000000     
  0.96875000000000000       0.87500000000000000        0.0000000000000000     
   1.0000000000000000       0.87500000000000000        0.0000000000000000     
   1.0000000000000000       0.75000000000000000        0.0000000000000000     
   1.0312500000000000       0.75000000000000000        0.0000000000000000     
   1.0625000000000000       0.75000000000000000        0.0000000000000000     
   1.0937500000000000       0.75000000000000000        0.0000000000000000     
   1.1250000000000000       0.75000000000000000        0.0000000000000000     
   1.0000000000000000       0.78125000000000000        0.0000000000000000     
   1.0312500000000000       0.78125000000000000        0.0000000000000000     
   1.0625000000000000       0.78125000000000000        0.0000000000000000     
   1.0937500000000000       0.78125000000000000        0.0000000000000000     
   1.1250000000000000       0.78125000000000000        0.0000000000000000     
   1.0000000000000000       0.81250000000000000        0.0000000000000000     
   1.0312500000000000       0.81250000000000000        0.0000000000000000     
   1.0625000000000000       0.81250000000000000        0.0000000000000000     
   1.0937500000000000       0.81250000000000000        0.0000000000000000     
   1.1250000000000000       0.81250000000000000        0.0000000000000000     
   1.0000000000000000       0.84375000000000000        0.0000000000000000     
   1.0312500000000000       0.84375000000000000        0.0000000000000000     
   1.0625000000000000       0.84375000000000000        0.0000000000000000     
   1.0937500000000000       0.84375000000000000        0.0000000000000000     
   1.1250000000000000       0.84375000000000000        0.0000000000000000     
   1.0000000000000000       0.87500000000000000        0.0000000000000000     
   1.0312500000000000       0.87500000000000000        0.0000000000000000     
   1.0625000000000000       0.87500000000000000        0.0000000000000000     
   1.0937500000000000       0.87500000000000000        0.0000000000000000     
   1.1250000000000000       0.87500000000000000        0.0000000000000000     
   1.1250000000000000       0.75000000000000000        0.0000000000000000     
   1.1562500000000000       0.75000000000000000        0.0000000000000000     
   1.1875000000000000       0.75000000000000000        0.0000000000000000     
   1.2187500000000000       0.75000000000000000        0.0000000000000000     
   1.2500000000000000       0.75000000000000000        0.0000000000000000     
   1.1250000000000000       0.78125000000000000        0.0000000000000000     
   1.1562500000000000       0.78125000000000000        0.0000000000000000     
   1.1875000000000000       0.78125000000000000        0.0000000000000000     
   1.2187500000000000       0.78125000000000000        0.0000000000000000     
   1.2500000000000000       0.78125000000000000        0.0000000000000000     
   1.1250000000000000       0.81250000000000000        0.0000000000000000     
   1.1562500000000000       0.81250000000000000        0.0000000000000000     
   1.1875000000000000       0.81250000000000000        0.0000000000000000     
   1.2187500000000000       0.81250000000000000        0.0000000000000000     
   1.2500000000000000       0.81250000000000000        0.0000000000000000     
   1.1250000000000000       0.84375000000000000        0.0000000000000000     
   1.1562500000000000       0.84375000000000000        0.0000000000000000     
   1.1875000000000000       0.84375000000000000        0.0000000000000000     
   1.2187500000000000       0.84375000000000000        0.0000000000000000     
   1.2500000000000000       0.84375000000000000        0.0000000000000000     
   1.1250000000000000       0.87500000000000000        0.0000000000000000     
   1.1562500000000000       0.87500000000000000        0.0000000000000000     
   1.1875000000000000       0.87500000000000000        0.0000000000000000     
   1.2187500000000000       0.87500000000000000        0.0000000000000000     
   1.2500000000000000       0.87500000000000000        0.0000000000000000     
   1.2500000000000000       0.75000000000000000        0.0000000000000000     
   1.2812500000000000       0.75000000000000000        0.0000000000000000     
   1.3125000000000000       0.75000000000000000        0.0000000000000000     
   1.3437500000000000       0.75000000000000000        0.0000000000000000     
   1.3750000000000000       0.75000000000000000        0.0000000000000000     
   1.2500000000000000       0.78125000000000000        0.0000000000000000     
   1.2812500000000000       0.78125000000000000        0.0000000000000000     
   1.3125000000000000       0.78125000000000000        0.0000000000000000     
   1.3437500000000000       0.78125000000000000        0.0000000000000000     
   1.3750000000000000       0.78125000000000000        0.0000000000000000     
   1.2500000000000000       0.81250000000000000        0.0000000000000000     
   1.2812500000000000       0.81250000000000000        0.0000000000000000     
   1.3125000000000000       0.81250000000000000        0.0000000000000000     
   1.3437500000000000       0.81250000000000000        0.0000000000000000     
   1.3750000000000000       0.81250000000000000        0.0000000000000000     
   1.2500000000000000       0.84375000000000000        0.0000000000000000     
   1.2812500000000000       0.84375000000000000        0.0000000000000000     
   1.3125000000000000       0.84375000000000000        0.0000000000000000     
   1.3437500000000000       0.84375000000000000        0.0000000000000000     
   1.3750000000000000       0.84375000000000000        0.0000000000000000     
   1.2500000000000000       0.87500000000000000        0.0000000000000000     
   1.2812500000000000       0.87500000000000000        0.0000000000000000     
   1.3125000000000000       0.87500000000000000        0.0000000000000000     
   1.3437500000000000       0.87500000000000000        0.0000000000000000     
   1.3750000000000000       0.87500000000000000        0.0000000000000000     
   1.3750000000000000       0.75000000000000000        0.0000000000000000     
   1.4062500000000000       0.75000000000000000        0.0000000000000000     
   1.4375000000000000       0.75000000000000000        0.0000000000000000     
   1.4687500000000000       0.75000000000000000        0.0000000000000000     
   1.5000000000000000       0.75000000000000000        0.0000000000000000     
   1.3750000000000000       0.78125000000000000        0.0000000000000000     
   1.4062500000000000       0.78125000000000000        0.0000000000000000     
   1.4375000000000000       0.78125000000000000        0.0000000000000000     
   1.4687500000000000       0.78125000000000000        0.0000000000000000     
   1.5000000000000000       0.78125000000000000        0.0000000000000000     
   1.3750000000000000       0.81250000000000000        0.0000000000000000     
   1.4062500000000000       0.81250000000000000        0.0000000000000000     
   1.4375000000000000       0.81250000000000000        0.0000000000000000     
   1.4687500000000000       0.81250000000000000        0.0000000000000000     
   1.5000000000000000       0.81250000000000000        0.0000000000000000     
   1.3750000000000000       0.84375000000000000        0.0000000000000000     
   1.4062500000000000       0.84375000000000000        0.0000000000000000     
   1.4375000000000000       0.84375000000000000        0.0000000000000000     
   1.4687500000000000       0.84375000000000000        0.0000000000000000     
   1.5000000000000000       0.84375000000000000        0.0000000000000000     
   1.3750000000000000       0.87500000000000000        0.0000000000000000     
   1.4062500000000000       0.87500000000000000        0.0000000000000000     
   1.4375000000000000       0.87500000000000000        0.0000000000000000     
   1.4687500000000000       0.87500000000000000        0.0000000000000000     
   1.5000000000000000       0.87500000000000000        0.0000000000000000     
  0.50000000000000000       0.87500000000000000        0.0000000000000000     
  0.53125000000000000       0.87500000000000000        0.0000000000000000     
  0.56250000000000000       0.87500000000000000        0.0000000000000000     
  0.59375000000000000       0.87500000000000000        0.0000000000000000     
  0.62500000000000000       0.87500000000000000        0.0000000000000000     
  0.50000000000000000       0.90625000000000000        0.0000000000000000     
  0.53125000000000000       0.90625000000000000        0.0000000000000000     
  0.56250000000000000       0.90625000000000000        0.0000000000000000     
  0.59375000000000000       0.90625000000000000        0.0000000000000000     
  0.62500000000000000       0.90625000000000000        0.0000000000000000     
  0.50000000000000000       0.93750000000000000        0.0000000000000000     
  0.53125000000000000       0.93750000000000000        0.0000000000000000     
  0.56250000000000000       0.93750000000000000        0.0000000000000000     
  0.59375000000000000       0.93750000000000000        0.0000000000000000     
  0.62500000000000000       0.93750000000000000        0.0000000000000000     
  0.50000000000000000       0.96875000000000000        0.0000000000000000     
  0.53125000000000000       0.96875000000000000        0.0000000000000000     
  0.56250000000000000       0.96875000000000000        0.0000000000000000     
  0.59375000000000000       0.96875000000000000        0.0000000000000000     
  0.62500000000000000       0.96875000000000000        0.0000000000000000     
  0.50000000000000000        1.0000000000000000        0.0000000000000000     
  0.53125000000000000        1.0000000000000000        0.0000000000000000     
  0.56250000000000000        1.0000000000000000        0.0000000000000000     
  0.59375000000000000        1.0000000000000000        0.0000000000000000     
  0.62500000000000000        1.0000000000000000        0.0000000000000000     
  0.62500000000000000       0.87500000000000000        0.0000000000000000     
  0.65625000000000000       0.87500000000000000        0.0000000000000000     
  0.68750000000000000       0.87500000000000000        0.0000000000000000     
  0.71875000000000000       0.87500000000000000        0.0000000000000000     
  0.75000000000000000       0.87500000000000000        0.0000000000000000     
  0.62500000000000000       0.90625000000000000        0.0000000000000000     
  0.65625000000000000       0.90625000000000000        0.0000000000000000     
  0.68750000000000000       0.90625000000000000        0.0000000000000000     
  0.71875000000000000       0.90625000000000000        0.0000000000000000     
  0.75000000000000000       0.90625000000000000        0.0000000000000000     
  0.62500000000000000       0.93750000000000000        0.0000000000000000     
  0.65625000000000000       0.93750000000000000        0.0000000000000000     
  0.68750000000000000       0.93750000000000000        0.0000000000000000     
  0.71875000000000000       0.93750000000000000        0.0000000000000000     
  0.75000000000000000       0.93750000000000000        0.0000000000000000     
  0.62500000000000000       0.96875000000000000        0.0000000000000000     
  0.65625000000000000       0.96875000000000000        0.0000000000000000     
  0.68750000000000000       0.96875000000000000        0.0000000000000000     
  0.71875000000000000       0.96875000000000000        0.0000000000000000     
  0.75000000000000000       0.96875000000000000        0.0000000000000000     
  0.62500000000000000        1.0000000000000000        0.0000000000000000     
  0.65625000000000000        1.0000000000000000        0.0000000000000000     
  0.68750000000000000        1.0000000000000000        0.0000000000000000     
  0.71875000000000000        1.0000000000000000        0.0000000000000000     
  0.75000000000000000        1.0000000000000000        0.0000000000000000     
  0.75000000000000000       0.87500000000000000        0.0000000000000000     
  0.78125000000000000       0.87500000000000000        0.0000000000000000     
  0.81250000000000000       0.87500000000000000        0.0000000000000000     
  0.84375000000000000       0.87500000000000000        0.0000000000000000     
  0.87500000000000000       0.87500000000000000        0.0000000000000000     
  0.75000000000000000       0.90625000000000000        0.0000000000000000     
  0.78125000000000000       0.90625000000000000        0.0000000000000000     
  0.81250000000000000       0.90625000000000000        0.0000000000000000     
  0.84375000000000000       0.90625000000000000        0.0000000000000000     
  0.87500000000000000       0.90625000000000000        0.0000000000000000     
  0.75000000000000000       0.93750000000000000        0.0000000000000000     
  0.78125000000000000       0.93750000000000000        0.0000000000000000     
  0.81250000000000000       0.93750000000000000        0.0000000000000000     
  0.84375000000000000       0.93750000000000000        0.0000000000000000     
  0.87500000000000000       0.93750000000000000        0.0000000000000000     
  0.75000000000000000       0.96875000000000000        0.0000000000000000     
  0.78125000000000000       0.96875000000000000        0.0000000000000000     
  0.81250000000000000       0.96875000000000000        0.0000000000000000     
  0.84375000000000000       0.96875000000000000        0.0000000000000000     
  0.87500000000000000       0.96875000000000000        0.0000000000000000     
  0.75000000000000000        1.0000000000000000        0.0000000000000000     
  0.78125000000000000        1.0000000000000000        0.0000000000000000     
  0.81250000000000000        1.0000000000000000        0.0000000000000000     
  0.84375000000000000        1.0000000000000000        0.0000000000000000     
  0.87500000000000000        1.0000000000000000        0.0000000000000000     
  0.87500000000000000       0.87500000000000000        0.0000000000000000     
  0.90625000000000000       0.87500000000000000        0.0000000000000000     
  0.93750000000000000       0.87500000000000000        0.0000000000000000     
  0.96875000000000000       0.87500000000000000        0.0000000000000000     
   1.0000000000000000       0.87500000000000000        0.0000000000000000     
  0.87500000000000000       0.90625000000000000        0.0000000000000000     
  0.90625000000000000       0.90625000000000000        0.0000000000000000     
  0.93750000000000000       0.90625000000000000        0.0000000000000000     
  0.96875000000000000       0.90625000000000000        0.0000000000000000     
   1.0000000000000000       0.90625000000000000        0.0000000000000000     
  0.87500000000000000       0.93750000000000000        0.0000000000000000     
  0.90625000000000000       0.93750000000000000        0.0000000000000000     
  0.93750000000000000       0.93750000000000000        0.0000000000000000     
  0.96875000000000000       0.93750000000000000        0.0000000000000000     
   1.0000000000000000       0.93750000000000000        0.0000000000000000     
  0.87500000000000000       0.96875000000000000        0.0000000000000000     
  0.90625000000000000       0.96875000000000000        0.0000000000000000     
  0.93750000000000000       0.96875000000000000        0.0000000000000000     
  0.96875000000000000       0.96875000000000000        0.0000000000000000     
   1.0000000000000000       0.96875000000000000        0.0000000000000000     
  0.87500000000000000        1.0000000000000000        0.0000000000000000     
  0.90625000000000000        1.0000000000000000        0.0000000000000000     
  0.93750000000000000        1.0000000000000000        0.0000000000000000     
  0.96875000000000000        1.0000000000000000        0.0000000000000000     
   1.0000000000000000        1.0000000000000000        0.0000000000000000     
   1.0000000000000000       0.87500000000000000        0.0000000000000000     
   1.0312500000000000       0.87500000000000000        0.0000000000000000     
   1.0625000000000000       0.87500000000000000        0.0000000000000000     
   1.0937500000000000       0.87500000000000000        0.0000000000000000     
   1.1250000000000000       0.87500000000000000        0.0000000000000000     
   1.0000000000000000       0.90625000000000000        0.0000000000000000     
   1.0312500000000000       0.90625000000000000        0.0000000000000000     
   1.0625000000000000       0.90625000000000000        0.0000000000000000     
   1.0937500000000000       0.90625000000000000        0.0000000000000000     
   1.1250000000000000       0.90625000000000000        0.0000000000000000     
   1.0000000000000000       0.93750000000000000        0.0000000000000000     
   1.0312500000000000       0.93750000000000000        0.0000000000000000     
   1.0625000000000000       0.93750000000000000        0.0000000000000000     
   1.0937500000000000       0.93750000000000000        0.0000000000000000     
   1.1250000000000000       0.93750000000000000        0.0000000000000000     
   1.0000000000000000       0.96875000000000000        0.0000000000000000     
   1.0312500000000000       0.96875000000000000        0.0000000000000000     
   1.0625000000000000       0.96875000000000000        0.0000000000000000     
   1.0937500000000000       0.96875000000000000        0.0000000000000000     
   1.1250000000000000       0.96875000000000000        0.0000000000000000     
   1.0000000000000000        1.0000000000000000        0.0000000000000000     
   1.0312500000000000        1.0000000000000000        0.0000000000000000     
   1.0625000000000000        1.0000000000000000        0.0000000000000000     
   1.0937500000000000        1.0000000000000000        0.0000000000000000     
   1.1250000000000000        1.0000000000000000        0.0000000000000000     
   1.1250000000000000       0.87500000000000000        0.0000000000000000     
   1.1562500000000000       0.87500000000000000        0.0000000000000000     
   1.1875000000000000       0.87500000000000000        0.0000000000000000     
   1.2187500000000000       0.87500000000000000        0.0000000000000000     
   1.2500000000000000       0.87500000000000000        0.0000000000000000     
   1.1250000000000000       0.90625000000000000        0.0000000000000000     
   1.1562500000000000       0.90625000000000000        0.0000000000000000     
   1.1875000000000000       0.90625000000000000        0.0000000000000000     
   1.2187500000000000       0.90625000000000000        0.0000000000000000     
   1.2500000000000000       0.90625000000000000        0.0000000000000000     
   1.1250000000000000       0.93750000000000000        0.0000000000000000     
   1.1562500000000000       0.93750000000000000        0.0000000000000000     
   1.1875000000000000       0.93750000000000000        0.0000000000000000     
   1.2187500000000000       0.93750000000000000        0.0000000000000000     
   1.2500000000000000       0.93750000000000000        0.0000000000000000     
   1.1250000000000000       0.96875000000000000        0.0000000000000000     
   1.1562500000000000       0.96875000000000000        0.0000000000000000     
   1.1875000000000000       0.96875000000000000        0.0000000000000000     
   1.2187500000000000       0.96875000000000000        0.0000000000000000     
   1.2500000000000000       0.96875000000000000        0.0000000000000000     
   1.1250000000000000        1.0000000000000000        0.0000000000000000     
   1.1562500000000000        1.0000000000000000        0.0000000000000000     
   1.1875000000000000        1.0000000000000000        0.0000000000000000     
   1.2187500000000000        1.0000000000000000        0.0000000000000000     
   1.2500000000000000        1.0000000000000000        0.0000000000000000     
   1.2500000000000000       0.87500000000000000        0.0000000000000000     
   1.2812500000000000       0.87500000000000000        0.0000000000000000     
   1.3125000000000000       0.87500000000000000        0.0000000000000000     
   1.3437500000000000       0.87500000000000000        0.0000000000000000     
   1.3750000000000000       0.87500000000000000        0.0000000000000000     
   1.2500000000000000       0.90625000000000000        0.0000000000000000     
   1.2812500000000000       0.90625000000000000        0.0000000000000000     
   1.3125000000000000       0.90625000000000000        0.0000000000000000     
   1.3437500000000000       0.90625000000000000        0.0000000000000000     
   1.3750000000000000       0.90625000000000000        0.0000000000000000     
   1.2500000000000000       0.93750000000000000        0.0000000000000000     
   1.2812500000000000       0.93750000000000000        0.0000000000000000     
   1.3125000000000000       0.93750000000000000        0.0000000000000000     
   1.3437500000000000       0.93750000000000000        0.0000000000000000     
   1.3750000000000000       0.93750000000000000        0.0000000000000000     
   1.2500000000000000       0.96875000000000000        0.0000000000000000     
   1.2812500000000000       0.96875000000000000        0.0000000000000000     
   1.3125000000000000       0.96875000000000000        0.0000000000000000     
   1.3437500000000000       0.96875000000000000        0.0000000000000000     
   1.3750000000000000       0.96875000000000000        0.0000000000000000     
   1.2500000000000000        1.0000000000000000        0.0000000000000000     
   1.2812500000000000        1.0000000000000000        0.0000000000000000     
   1.3125000000000000        1.0000000000000000        0.0000000000000000     
   1.3437500000000000        1.0000000000000000        0.0000000000000000     
   1.3750000000000000        1.0000000000000000        0.0000000000000000     
   1.3750000000000000       0.87500000000000000        0.0000000000000000     
   1.4062500000000000       0.87500000000000000        0.0000000000000000     
   1.4375000000000000       0.87500000000000000        0.0000000000000000     
   1.4687500000000000       0.87500000000000000        0.0000000000000000     
   1.5000000000000000       0.87500000000000000        0.0000000000000000     
   1.3750000000000000       0.90625000000000000        0.0000000000000000     
   1.4062500000000000       0.90625000000000000        0.0000000000000000     
   1.4375000000000000       0.90625000000000000        0.0000000000000000     
   1.4687500000000000       0.90625000000000000        0.0000000000000000     
   1.5000000000000000       0.90625000000000000        0.0000000000000000     
   1.3750000000000000       0.93750000000000000        0.0000000000000000     
   1.4062500000000000       0.93750000000000000        0.0000000000000000     
   1.4375000000000000       0.93750000000000000        0.0000000000000000     
   1.4687500000000000       0.93750000000000000        0.0000000000000000     
   1.5000000000000000       0.93750000000000000        0.0000000000000000     
   1.3750000000000000       0.96875000000000000        0.0000000000000000     
   1.4062500000000000       0.96875000000000000        0.0000000000000000     
   1.4375000000000000       0.96875000000000000        0.0000000000000000     
   1.4687500000000000       0.96875000000000000        0.0000000000000000     
   1.5000000000000000       0.96875000000000000        0.0000000000000000     
   1.3750000000000000        1.0000000000000000        0.0000000000000000     
   1.4062500000000000        1.0000000000000000        0.0000000000000000     
   1.4375000000000000        1.0000000000000000        0.0000000000000000     
   1.4687500000000000        1.0000000000000000        0.0000000000000000     
   1.5000000000000000        1.0000000000000000        0.0000000000000000     
 </DataArray>
 </Points>
 <Cells>
 <DataArray  type="Int32"  Name="connectivity"  format="ascii">
           0           1           6           5
           1           2           7           6
           2           3           8           7
           3           4           9           8
           5           6          11          10
           6           7          12          11
           7           8          13          12
           8           9          14          13
          10          11          16          15
          11          12          17          16
          12          13          18          17
          13          14          19          18
          15          16          21          20
          16          17          22          21
          17          18          23          22
          18          19          24          23
          25          26          31          30
          26          27          32          31
          27          28          33          32
          28          29          34          33
          30          31          36          35
          31          32          37          36
          32          33          38          37
          33          34          39          38
          35          36          41          40
          36          37          42          41
          37          38          43          42
          38          39          44          43
          40          41          46          45
          41          42          47          46
          42          43          48          47
          43          44          49          48
          50          51          56          55
          51          52          57          56
          52          53          58          57
          53          54          59          58
          55          56          61          60
          56          57          62          61
          57          58          63          62
          58          59          64          63
          60          61          66          65
          61          62          67          66
          62          63          68          67
          63          64          69          68
          65          66          71          70
          66          67          72          71
          67          68          73          72
          68          69          74          73
          75          76          81          80
          76          77          82          81
          77          78          83          82
          78          79          84          83
          80          81          86          85
          81          82          87          86
          82          83          88          87
          83          84          89          88
          85          86          91          90
          86          87          92          91
          87          88          93          92
          88          89          94          93
          90          91          96          95
          91          92          97          96
          92          93          98          97
          93          94          99          98
         100         101         106         105
         101         102         107         106
         102         103         108         107
         103         104         109         108
         105         106         111         110
         106         107         112         111
         107         108         113         112
         108         109         114         113
         110         111         116         115
         111         112         117         116
         112         113         118         117
         113         114         119         118
         115         116         121         120
         116         117         122         121
         117         118         123         122
         118         119         124         123
         125         126         131         130
         126         127         132         131
         127         128         133         132
         128         129         134         133
         130         131         136         135
         131         132         137         136
         132         133         138         137
         133         134         139         138
         135         136         141         140
         136         137         142         141
         137         138         143         142
         138         139         144         143
         140         141         146         145
         141         142         147         146
         142         143         148         147
         143         144         149         148
         150         151         156         155
         151         152         157         156
         152         153         158         157
         153         154         159         158
         155         156         161         160
         156         157         162         161
         157         158         163         162
         158         159         164         163
         160         161         166         165
         161         162         167         166
         162         163         168         167
         163         164         169         168
         165         166         171         170
         166         167         172         171
         167         168         173         172
         168         169         174         173
         175         176         181         180
         176         177         182         181
         177         178         183         182
         178         179         184         183
         180         181         186         185
         181         182         187         186
         182         183         188         187
         183         184         189         188
         185         186         191         190
         186         187         192         191
         187         188         193         192
         188         189         194         193
         190         191         196         195
         191         192         197         196
         192         193         198         197
         193         194         199         198
         200         201         206         205
         201         202         207         206
         202         203         208         207
         203         204         209         208
         205         206         211         210
         206         207         212         211
         207         208         213         212
         208         209         214         213
         210         211         216         215
         211         212         217         216
         212         213         218         217
         213         214         219         218
         215         216         221         220
         216         217         222         221
         217         218         223         222
         218         219         224         223
         225         226         231         230
         226         227         232         231
         227         228         233         232
         228         229         234         233
         230         231         236         235
         231         232         237         236
         232         233         238         237
         233         234         239         238
         235         236         241         240
         236         237         242         241
         237         238         243         242
         238         239         244         243
         240         241         246         245
         241         242         247         246
         242         243         248         247
         243         244         249         248
         250         251         256         255
         251         252         257         256
         252         253         258         257
         253         254         259         258
         255         256         261         260
         256         257         262         261
         257         258         263         262
         258         259         264         263
         260         261         266         265
         261         262         267         266
         262         263         268         267
         263         264         269         268
         265         266         271         270
         266         267         272         271
         267         268         273         272
         268         269         274         273
         275         276         281         280
         276         277         282         281
         277         278         283         282
         278         279         284         283
         280         281         286         285
         281         282         287         286
         282         283         288         287
         283         284         289         288
         285         286         291         290
         286         287         292         291
         287         288         293         292
         288         289         294         293
         290         291         296         295
         291         292         297         296
         292         293         298         297
         293         294         299         298
         300         301         306         305
         301         302         307         306
         302         303         308         307
         303         304         309         308
         305         306         311         310
         306         307         312         311
         307         308         313         312
         308         309         314         313
         310         311         316         315
         311         312         317         316
         312         313         318         317
         313         314         319         318
         315         316         321         320
         316         317         322         321
         317         318         323         322
         318         319         324         323
         325         326         331         330
         326         327         332         331
         327         328         333         332
         328         329         334         333
         330         331         336         335
         331         332         337         336
         332         333         338         337
         333         334         339         338
         335         336         341         340
         336         337         342         341
         337         338         343         342
         338         339         344         343
         340         341         346         345
         341         342         347         346
         342         343         348         347
         343         344         349         348
         350         351         356         355
         351         352         357         356
         352         353         358         357
         353         354         359         358
         355         356         361         360
         356         357         362         361
         357         358         363         362
         358         359         364         363
         360         361         366         365
         361         362         367         366
         362         363         368         367
         363         364         369         368
         365         366         371         370
         366         367         372         371
         367         368         373         372
         368         369         374         373
         375         376         381         380
         376         377         382         381
         377         378         383         382
         378         379         384         383
         380         381         386         385
         381         382         387         386
         382         383         388         387
         383         384         389         388
         385         386         391         390
         386         387         392         391
         387         388         393         392
         388         389         394         393
         390         391         396         395
         391         392         397         396
         392         393         398         397
         393         394         399         398
         400         401         406         405
         401         402         407         406
         402         403         408         407
         403         404         409         408
         405         406         411         410
         406         407         412         411
         407         408         413         412
         408         409         414         413
         410         411         416         415
         411         412         417         416
         412         413         418         417
         413         414         419         418
         415         416         421         420
         416         417         422         421
         417         418         423         422
         418         419         424         423
         425         426         431         430
         426         427         432         431
         427         428         433         432
         428         429         434         433
         430         431         436         435
         431         432         437         436
         432         433         438         437
         433         434         439         438
         435         436         441         440
         436         437         442         441
         437         438         443         442
         438         439         444         443
         440         441         446         445
         441         442         447         446
         442         443         448         447
         443         444         449         448
         450         451         456         455
         451         452         457         456
         452         453         458         457
         453         454         459         458
         455         456         461         460
         456         457         462         461
         457         458         463         462
         458         459         464         463
         460         461         466         465
         461         462         467         466
         462         463         468         467
         463         464         469         468
         465         466         471         470
         466         467         472         471
         467         468         473         472
         468         469         474         473
         475         476         481         480
         476         477         482         481
         477         478         483         482
         478         479         484         483
         480         481         486         485
         481         482         487         486
         482         483         488         487
         483         484         489         488
         485         486         491         490
         486         487         492         491
         487         488         493         492
         488         489         494         493
         490         491         496         495
         491         492         497         496
         492         493         498         497
         493         494         499         498
         500         501         506         505
         501         502         507         506
         502         503         508         507
         503         504         509         508
         505         506         511         510
         506         507         512         511
         507         508         513         512
         508         509         514         513
         510         511         516         515
         511         512         517         516
         512         513         518         517
         513         514         519         518
         515         516         521         520
         516         517         522         521
         517         518         523         522
         518         519         524         523
         525         526         531         530
         526         527         532         531
         527         528         533         532
         528         529         534         533
         530         531         536         535
         531         532         537         536
         532         533         538         537
         533         534         539         538
         535         536         541         540
         536         537         542         541
         537         538         543         542
         538         539         544         543
         540         541         546         545
         541         542         547         546
         542         543         548         547
         543         544         549         548
         550         551         556         555
         551         552         557         556
         552         553         558         557
         553         554         559         558
         555         556         561         560
         556         557         562         561
         557         558         563         562
         558         559         564         563
         560         561         566         565
         561         562         567         566
         562         563         568         567
         563         564         569         568
         565         566         571         570
         566         567         572         571
         567         568         573         572
         568         569         574         573
         575         576         581         580
         576         577         582         581
         577         578         583         582
         578         579         584         583
         580         581         586         585
         581         582         587         586
         582         583         588         587
         583         584         589         588
         585         586         591         590
         586         587         592         591
         587         588         593         592
         588         589         594         593
         590         591         596         595
         591         592         597         596
         592         593         598         597
         593         594         599         598
         600         601         606         605
         601         602         607         606
         602         603         608         607
         603         604         609         608
         605         606         611         610
         606         607         612         611
         607         608         613         612
         608         609         614         613
         610         611         616         615
         611         612         617         616
         612         613         618         617
         613         614         619         618
         615         616         621         620
         616         617         622         621
         617         618         623         622
         618         619         624         623
         625         626         631         630
         626         627         632         631
         627         628         633         632
         628         629         634         633
         630         631         636         635
         631         632         637         636
         632         633         638         637
         633         634         639         638
         635         636         641         640
         636         637         642         641
         637         638         643         642
         638         639         644         643
         640         641         646         645
         641         642         647         646
         642         643         648         647
         643         644         649         648
         650         651         656         655
         651         652         657         656
         652         653         658         657
         653         654         659         658
         655         656         661         660
         656         657         662         661
         657         658         663         662
         658         659         664         663
         660         661         666         665
         661         662         667         666
         662         663         668         667
         663         664         669         668
         665         666         671         670
         666         667         672         671
         667         668         673         672
         668         669         674         673
         675         676         681         680
         676         677         682         681
         677         678         683         682
         678         679         684         683
         680         681         686         685
         681         682         687         686
         682         683         688         687
         683         684         689         688
         685         686         691         690
         686         687         692         691
         687         688         693         692
         688         689         694         693
         690         691         696         695
         691         692         697         696
         692         693         698         697
         693         694         699         698
         700         701         706         705
         701         702         707         706
         702         703         708         707
         703         704         709         708
         705         706         711         710
         706         707         712         711
         707         708         713         712
         708         709         714         713
         710         711         716         715
         711         712         717         716
         712         713         718         717
         713         714         719         718
         715         716         721         720
         716         717         722         721
         717         718         723         722
         718         719         724         723
         725         726         731         730
         726         727         732         731
         727         728         733         732
         728         729         734         733
         730         731         736         735
         731         732         737         736
         732         733         738         737
         733         734         739         738
         735         736         741         740
         736         737         742         741
         737         738         743         742
         738         739         744         743
         740         741         746         745
         741         742         747         746
         742         743         748         747
         743         744         749         748
         750         751         756         755
         751         752         757         756
         752         753         758         757
         753         754         759         758
         755         756         761         760
         756         757         762         761
         757         758         763         762
         758         759         764         763
         760         761         766         765
         761         762         767         766
         762         763         768         767
         763         764         769         768
         765         766         771         770
         766         767         772         771
         767         768         773         772
         768         769         774         773
         775         776         781         780
         776         777         782         781
         777         778         783         782
         778         779         784         783
         780         781         786         785
         781         782         787         786
         782         783         788         787
         783         784         789         788
         785         786         791         790
         786         787         792         791
         787         788         793         792
         788         789         794         793
         790         791         796         795
         791         792         797         796
         792         793         798         797
         793         794         799         798
         800         801         806         805
         801         802         807         806
         802         803         808         807
         803         804         809         808
         805         806         811         810
         806         807         812         811
         807         808         813         812
         808         809         814         813
         810         811         816         815
         811         812         817         816
         812         813         818         817
         813         814         819         818
         815         816         821         820
         816         817         822         821
         817         818         823         822
         818         819         824         823
         825         826         831         830
         826         827         832         831
         827         828         833         832
         828         829         834         833
         830         831         836         835
         831         832         837         836
         832         833         838         837
         833         834         839         838
         835         836         841         840
         836         837         842         841
         837         838         843         842
         838         839         844         843
         840         841         846         845
         841         842         847         846
         842         843         848         847
         843         844         849         848
         850         851         856         855
         851         852         857         856
         852         853         858         857
         853         854         859         858
         855         856         861         860
         856         857         862         861
         857         858         863         862
         858         859         864         863
         860         861         866         865
         861         862         867         866
         862         863         868         867
         863         864         869         868
         865         866         871         870
         866         867         872         871
         867         868         873         872
         868         869         874         873
         875         876         881         880
         876         877         882         881
         877         878         883         882
         878         879         884         883
         880         881         886         885
         881         882         887         886
         882         883         888         887
         883         884         889         888
         885         886         891         890
         886         887         892         891
         887         888         893         892
         888         889         894         893
         890         891         896         895
         891         892         897         896
         892         893         898         897
         893         894         899         898
         900         901         906         905
         901         902         907         906
         902         903         908         907
         903         904         909         908
         905         906         911         910
         906         907         912         911
         907         908         913         912
         908         909         914         913
         910         911         916         915
         911         912         917         916
         912         913         918         917
         913         914         919         918
         915         916         921         920
         916         917         922         921
         917         918         923         922
         918         919         924         923
         925         926         931         930
         926         927         932         931
         927         928         933         932
         928         929         934         933
         930         931         936         935
         931         932         937         936
         932         933         938         937
         933         934         939         938
         935         936         941         940
         936         937         942         941
         937         938         943         942
         938         939         944         943
         940         941         946         945
         941         942         947         946
         942         943         948         947
         943         944         949         948
         950         951         956         955
         951         952         957         956
         952         953         958         957
         953         954         959         958
         955         956         961         960
         956         957         962         961
         957         958         963         962
         958         959         964         963
         960         961         966         965
         961         962         967         966
         962         963         968         967
         963         964         969         968
         965         966         971         970
         966         967         972         971
         967         968         973         972
         968         969         974         973
         975         976         981         980
         976         977         982         981
         977         978         983         982
         978         979         984         983
         980         981         986         985
         981         982         987         986
         982         983         988         987
         983         984         989         988
         985         986         991         990
         986         987         992         991
         987         988         993         992
         988         989         994         993
         990         991         996         995
         991         992         997         996
         992         993         998         997
         993         994         999         998
        1000        1001        1006        1005
        1001        1002        1007        1006
        1002        1003        1008        1007
        1003        1004        1009        1008
        1005        1006        1011        1010
        1006        1007        1012        1011
        1007        1008        1013        1012
        1008        1009        1014        1013
        1010        1011        1016        1015
        1011        1012        1017        1016
        1012        1013        1018        1017
        1013        1014        1019        1018
        1015        1016        1021        1020
        1016        1017        1022        1021
        1017        1018        1023        1022
        1018        1019        1024        1023
        1025        1026        1031        1030
        1026        1027        1032        1031
        1027        1028        1033        1032
        1028        1029        1034        1033
        1030        1031        1036        1035
        1031        1032        1037        1036
        1032        1033        1038        1037
        1033        1034        1039        1038
        1035        1036        1041        1040
        1036        1037        1042        1041
        1037        1038        1043        1042
        1038        1039        1044        1043
        1040        1041        1046        1045
        1041        1042        1047        1046
        1042        1043        1048        1047
        1043        1044        1049        1048
        1050        1051        1056        1055
        1051        1052        1057        1056
        1052        1053        1058        1057
        1053        1054        1059        1058
        1055        1056        1061        1060
        1056        1057        1062        1061
        1057        1058        1063        1062
        1058        1059        1064        1063
        1060        1061        1066        1065
        1061        1062        1067        1066
        1062        1063        1068        1067
        1063        1064        1069        1068
        1065        1066        1071        1070
        1066        1067        1072        1071
        1067        1068        1073        1072
        1068        1069        1074        1073
        1075        1076        1081        1080
        1076        1077        1082        1081
        1077        1078        1083        1082
        1078        1079        1084        1083
        1080        1081        1086        1085
        1081        1082        1087        1086
        1082        1083        1088        1087
        1083        1084        1089        1088
        1085        1086        1091        1090
        1086        1087        1092        1091
        1087        1088        1093        1092
        1088        1089        1094        1093
        1090        1091        1096        1095
        1091        1092        1097        1096
        1092        1093        1098        1097
        1093        1094        1099        1098
        1100        1101        1106        1105
        1101        1102        1107        1106
        1102        1103        1108        1107
        1103        1104        1109        1108
        1105        1106        1111        1110
        1106        1107        1112        1111
        1107        1108        1113        1112
        1108        1109        1114        1113
        1110        1111        1116        1115
        1111        1112        1117        1116
        1112        1113        1118        1117
        1113        1114        1119        1118
        1115        1116        1121        1120
        1116        1117        1122        1121
        1117        1118        1123        1122
        1118        1119        1124        1123
        1125        1126        1131        1130
        1126        1127        1132        1131
        1127        1128        1133        1132
        1128        1129        1134        1133
        1130        1131        1136        1135
        1131        1132        1137        1136
        1132        1133        1138        1137
        1133        1134        1139        1138
        1135        1136        1141        1140
        1136        1137        1142        1141
        1137        1138        1143        1142
        1138        1139        1144        1143
        1140        1141        1146        1145
        1141        1142        1147        1146
        1142        1143        1148        1147
        1143        1144        1149        1148
        1150        1151        1156        1155
        1151        1152        1157        1156
        1152        1153        1158        1157
        1153        1154        1159        1158
        1155        1156        1161        1160
        1156        1157        1162        1161
        1157        1158        1163        1162
        1158        1159        1164        1163
        1160        1161        1166        1165
        1161        1162        1167        1166
        1162        1163        1168        1167
        1163        1164        1169        1168
        1165        1166        1171        1170
        1166        1167        1172        1171
        1167        1168        1173        1172
        1168        1169        1174        1173
        1175        1176        1181        1180
        1176        1177        1182        1181
        1177        1178        1183        1182
        1178        1179        1184        1183
        1180        1181        1186        1185
        1181        1182        1187        1186
        1182        1183        1188        1187
        1183        1184        1189        1188
        1185        1186        1191        1190
        1186        1187        1192        1191
        1187        1188        1193        1192
        1188        1189        1194        1193
        1190        1191        1196        1195
        1191        1192        1197        1196
        1192        1193        1198        1197
        1193        1194        1199        1198
        1200        1201        1206        1205
        1201        1202        1207        1206
        1202        1203        1208        1207
        1203        1204        1209        1208
        1205        1206        1211        1210
        1206        1207        1212        1211
        1207        1208        1213        1212
        1208        1209        1214        1213
        1210        1211        1216        1215
        1211        1212        1217        1216
        1212        1213        1218        1217
        1213        1214        1219        1218
        1215        1216        1221        1220
        1216        1217        1222        1221
        1217        1218        1223        1222
        1218        1219        1224        1223
        1225        1226        1231        1230
        1226        1227        1232        1231
        1227        1228        1233        1232
        1228        1229        1234        1233
        1230        1231        1236        1235
        1231        1232        1237        1236
        1232        1233        1238        1237
        1233        1234        1239        1238
        1235        1236        1241        1240
        1236        1237        1242        1241
        1237        1238        1243        1242
        1238        1239        1244        1243
        1240        1241        1246        1245
        1241        1242        1247        1246
        1242        1243        1248        1247
        1243        1244        1249        1248
        1250        1251        1256        1255
        1251        1252        1257        1256
        1252        1253        1258        1257
        1253        1254        1259        1258
        1255        1256        1261        1260
        1256        1257        1262        1261
        1257        1258        1263        1262
        1258        1259        1264        1263
        1260        1261        1266        1265
        1261        1262        1267        1266
        1262        1263        1268        1267
        1263        1264        1269        1268
        1265        1266        1271        1270
        1266        1267        1272        1271
        1267        1268        1273        1272
        1268        1269        1274        1273
        1275        1276        1281        1280
        1276        1277        1282        1281
        1277        1278        1283        1282
        1278        1279        1284        1283
        1280        1281        1286        1285
        1281        1282        1287        1286
        1282        1283        1288        1287
        1283        1284        1289        1288
        1285        1286        1291        1290
        1286        1287        1292        1291
        1287        1288        1293        1292
        1288        1289        1294        1293
        1290        1291        1296        1295
        1291        1292        1297        1296
        1292        1293        1298        1297
        1293        1294        1299        1298
        1300        1301        1306        1305
        1301        1302        1307        1306
        1302        1303        1308        1307
        1303        1304        1309        1308
        1305        1306        1311        1310
        1306        1307        1312        1311
        1307        1308        1313        1312
        1308        1309        1314        1313
        1310        1311        1316        1315
        1311        1312        1317        1316
        1312        1313        1318        1317
        1313        1314        1319        1318
        1315        1316        1321        1320
        1316        1317        1322        1321
        1317        1318        1323        1322
        1318        1319        1324        1323
        1325        1326        1331        1330
        1326        1327        1332        1331
        1327        1328        1333        1332
        1328        1329        1334        1333
        1330        1331        1336        1335
        1331        1332        1337        1336
        1332        1333        1338        1337
        1333        1334        1339        1338
        1335        1336        1341        1340
        1336        1337        1342        1341
        1337        1338        1343        1342
        1338        1339        1344        1343
        1340        1341        1346        1345
        1341        1342        1347        1346
        1342        1343        1348        1347
        1343        1344        1349        1348
        1350        1351        1356        1355
        1351        1352        1357        1356
        1352        1353        1358        1357
        1353        1354        1359        1358
        1355        1356        1361        1360
        1356        1357        1362        1361
        1357        1358        1363        1362
        1358        1359        1364        1363
        1360        1361        1366        1365
        1361        1362        1367        1366
        1362        1363        1368        1367
        1363        1364        1369        1368
        1365        1366        1371        1370
        1366        1367        1372        1371
        1367        1368        1373        1372
        1368        1369        1374        1373
        1375        1376        1381        1380
        1376        1377        1382        1381
        1377        1378        1383        1382
        1378        1379        1384        1383
        1380        1381        1386        1385
        1381        1382        1387        1386
        1382        1383        1388        1387
        1383        1384        1389        1388
        1385        1386        1391        1390
        1386        1387        1392        1391
        1387        1388        1393        1392
        1388        1389        1394        1393
        1390        1391        1396        1395
        1391        1392        1397        1396
        1392        1393        1398        1397
        1393        1394        1399        1398
        1400        1401        1406        1405
        1401        1402        1407        1406
        1402        1403        1408        1407
        1403        1404        1409        1408
        1405        1406        1411        1410
        1406        1407        1412        1411
        1407        1408        1413        1412
        1408        1409        1414        1413
        1410        1411        1416        1415
        1411        1412        1417        1416
        1412        1413        1418        1417
        1413        1414        1419        1418
        1415        1416        1421        1420
        1416        1417        1422        1421
        1417        1418        1423        1422
        1418        1419        1424        1423
        1425        1426        1431        1430
        1426        1427        1432        1431
        1427        1428        1433        1432
        1428        1429        1434        1433
        1430        1431        1436        1435
        1431        1432        1437        1436
        1432        1433        1438        1437
        1433        1434        1439        1438
        1435        1436        1441        1440
        1436        1437        1442        1441
        1437        1438        1443        1442
        1438        1439        1444        1443
        1440        1441        1446        1445
        1441        1442        1447        1446
        1442        1443        1448        1447
        1443        1444        1449        1448
        1450        1451        1456        1455
        1451        1452        1457        1456
        1452        1453        1458        1457
        1453        1454        1459        1458
        1455        1456        1461        1460
        1456        1457        1462        1461
        1457        1458        1463        1462
        1458        1459        1464        1463
        1460        1461        1466        1465
        1461        1462        1467        1466
        1462        1463        1468        1467
        1463        1464        1469        1468
        1465        1466        1471        1470
        1466        1467        1472        1471
        1467        1468        1473        1472
        1468        1469        1474        1473
        1475        1476        1481        1480
        1476        1477        1482        1481
        1477        1478        1483        1482
        1478        1479        1484        1483
        1480        1481        1486        1485
        1481        1482        1487        1486
        1482        1483        1488        1487
        1483        1484        1489        1488
        1485        1486        1491        1490
        1486        1487        1492        1491
        1487        1488        1493        1492
        1488        1489        1494        1493
        1490        1491        1496        1495
        1491        1492        1497        1496
        1492        1493        1498        1497
        1493        1494        1499        1498
        1500        1501        1506        1505
        1501        1502        1507        1506
        1502        1503        1508        1507
        1503        1504        1509        1508
        1505        1506        1511        1510
        1506        1507        1512        1511
        1507        1508        1513        1512
        1508        1509        1514        1513
        1510        1511        1516        1515
        1511        1512        1517        1516
        1512        1513        1518        1517
        1513        1514        1519        1518
        1515        1516        1521        1520
        1516        1517        1522        1521
        1517        1518        1523        1522
        1518        1519        1524        1523
        1525        1526        1531        1530
        1526        1527        1532        1531
        1527        1528        1533        1532
        1528        1529        1534        1533
        1530        1531        1536        1535
        1531        1532        1537        1536
        1532        1533        1538        1537
        1533        1534        1539        1538
        1535        1536        1541        1540
        1536        1537        1542        1541
        1537        1538        1543        1542
        1538        1539        1544        1543
        1540        1541        1546        1545
        1541        1542        1547        1546
        1542        1543        1548        1547
        1543        1544        1549        1548
        1550        1551        1556        1555
        1551        1552        1557        1556
        1552        1553        1558        1557
        1553        1554        1559        1558
        1555        1556        1561        1560
        1556        1557        1562        1561
        1557        1558        1563        1562
        1558        1559        1564        1563
        1560        1561        1566        1565
        1561        1562        1567        1566
        1562        1563        1568        1567
        1563        1564        1569        1568
        1565        1566        1571        1570
        1566        1567        1572        1571
        1567        1568        1573        1572
        1568        1569        1574        1573
        1575        1576        1581        1580
        1576        1577        1582        1581
        1577        1578        1583        1582
        1578        1579        1584        1583
        1580        1581        1586        1585
        1581        1582        1587        1586
        1582        1583        1588        1587
        1583        1584        1589        1588
        1585        1586        1591        1590
        1586        1587        1592        1591
        1587        1588        1593        1592
        1588        1589        1594        1593
        1590        1591        1596        1595
        1591        1592        1597        1596
        1592        1593        1598        1597
        1593        1594        1599        1598
 </DataArray>
 <DataArray  type="Int32"  Name="offsets"  format="ascii"> 
           4
           8
          12
          16
          20
          24
          28
          32
          36
          40
          44
          48
          52
          56
          60
          64
          68
          72
          76
          80
          84
          88
          92
          96
         100
         104
         108
         112
         116
         120
         124
         128
         132
         136
         140
         144
         148
         152
         156
         160
         164
         168
         172
         176
         180
         184
         188
         192
         196
         200
         204
         208
         212
         216
         220
         224
         228
         232
         236
         240
         244
         248
         252
         256
         260
         264
         268
         272
         276
         280
         284
         288
         292
         296
         300
         304
         308
         312
         316
         320
         324
         328
         332
         336
         340
         344
         348
         352
         356
         360
         364
         368
         372
         376
         380
         384
         388
         392
         396
         400
         404
         408
         412
         416
         420
         424
         428
         432
         436
         440
         444
         448
         452
         456
         460
         464
         468
         472
         476
         480
         484
         488
         492
         496
         500
         504
         508
         512
         516
         520
         524
         528
         532
         536
         540
         544
         548
         552
         556
         560
         564
         568
         572
         576
         580
         584
         588
         592
         596
         600
         604
         608
         612
         616
         620
         624
         628
         632
         636
         640
         644
         648
         652
         656
         660
         664
         668
         672
         676
         680
         684
         688
         692
         696
         700
         704
         708
         712
         716
         720
         724
         728
         732
         736
         740
         744
         748
         752
         756
         760
         764
         768
         772
         776
         780
         784
         788
         792
         796
         800
         804
         808
         812
         816
         820
         824
         828
         832
         836
         840
         844
         848
         852
         856
         860
         864
         868
         872
         876
         880
         884
         888
         892
         896
         900
         904
         908
         912
         916
         920
         924
         928
         932
         936
         940
         944
         948
         952
         956
         960
         964
         968
         972
         976
         980
         984
         988
         992
         996
        1000
        1004
        1008
        1012
        1016
        1020
        1024
        1028
        1032
        1036
        1040
        1044
        1048
        1052
        1056
        1060
        1064
        1068
        1072
        1076
        1080
        1084
        1088
        1092
        1096
        1100
        1104
        1108
        1112
        1116
        1120
        1124
        1128
        1132
        1136
        1140
        1144
        1148
        1152
        1156
        1160
        1164
        1168
        1172
        1176
        1180
        1184
        1188
        1192
        1196
        1200
        1204
        1208
        1212
        1216
        1220
        1224
        1228
        1232
        1236
        1240
        1244
        1248
        1252
        1256
        1260
        1264
        1268
        1272
        1276
        1280
        1284
        1288
        1292
        1296
        1300
        1304
        1308
        1312
        1316
        1320
        1324
        1328
        1332
        1336
        1340
        1344
        1348
        1352
        1356
        1360
        1364
        1368
        1372
        1376
        1380
        1384
        1388
        1392
        1396
        1400
        1404
        1408
        1412
        1416
        1420
        1424
        1428
        1432
        1436
        1440
        1444
        1448
        1452
        1456
        1460
        1464
        1468
        1472
        1476
        1480
        1484
        1488
        1492
        1496
        1500
        1504
        1508
        1512
        1516
        1520
        1524
        1528
        1532
        1536
        1540
        1544
        1548
        1552
        1556
        1560
        1564
        1568
        1572
        1576
        1580
        1584
        1588
        1592
        1596
        1600
        1604
        1608
        1612
        1616
        1620
        1624
        1628
        1632
        1636
        1640
        1644
        1648
        1652
        1656
        1660
        1664
        1668
        1672
        1676
        1680
        1684
        1688
        1692
        1696
        1700
        1704
        1708
        1712
        1716
        1720
        1724
        1728
        1732
        1736
        1740
        1744
        1748
        1752
        1756
        1760
        1764
        1768
        1772
        1776
        1780
        1784
        1788
        1792
        1796
        1800
        1804
        1808
        1812
        1816
        1820
        1824
        1828
        1832
        1836
        1840
        1844
        1848
        1852
        1856
        1860
        1864
        1868
        1872
        1876
        1880
        1884
        1888
        1892
        1896
        1900
        1904
        1908
        1912
        1916
        1920
        1924
        1928
        1932
        1936
        1940
        1944
        1948
        1952
        1956
        1960
        1964
        1968
        1972
        1976
        1980
        1984
        1988
        1992
        1996
        2000
        2004
        2008
        2012
        2016
        2020
        2024
        2028
        2032
        2036
        2040
        2044
        2048
        2052
        2056
        2060
        2064
        2068
        2072
        2076
        2080
        2084
        2088
        2092
        2096
        2100
        2104
        2108
        2112
        2116
        2120
        2124
        2128
        2132
        2136
        2140
        2144
        2148
        2152
        2156
        2160
        2164
        2168
        2172
        2176
        2180
        2184
        2188
        2192
        2196
        2200
        2204
        2208
        2212
        2216
        2220
        2224
        2228
        2232
        2236
        2240
        2244
        2248
        2252
        2256
        2260
        2264
        2268
        2272
        2276
        2280
        2284
        2288
        2292
        2296
        2300
        2304
        2308
        2312
        2316
        2320
        2324
        2328
        2332
        2336
        2340
        2344
        2348
        2352
        2356
        2360
        2364
        2368
        2372
        2376
        2380
        2384
        2388
        2392
        2396
        2400
        2404
        2408
        2412
        2416
        2420
        2424
        2428
        2432
        2436
        2440
        2444
        2448
        2452
        2456
        2460
        2464
        2468
        2472
        2476
        2480
        2484
        2488
        2492
        2496
        2500
        2504
        2508
        2512
        2516
        2520
        2524
        2528
        2532
        2536
        2540
        2544
        2548
        2552
        2556
        2560
        2564
        2568
        2572
        2576
        2580
        2584
        2588
        2592
        2596
        2600
        2604
        2608
        2612
        2616
        2620
        2624
        2628
        2632
        2636
        2640
        2644
        2648
        2652
        2656
        2660
        2664
        2668
        2672
        2676
        2680
        2684
        2688
        2692
        2696
        2700
        2704
        2708
        2712
        2716
        2720
        2724
        2728
        2732
        2736
        2740
        2744
        2748
        2752
        2756
        2760
        2764
        2768
        2772
        2776
        2780
        2784
        2788
        2792
        2796
        2800
        2804
        2808
        2812
        2816
        2820
        2824
        2828
        2832
        2836
        2840
        2844
        2848
        2852
        2856
        2860
        2864
        2868
        2872
        2876
        2880
        2884
        2888
        2892
        2896
        2900
        2904
        2908
        2912
        2916
        2920
        2924
        2928
        2932
        2936
        2940
        2944
        2948
        2952
        2956
        2960
        2964
        2968
        2972
        2976
        2980
        2984
        2988
        2992
        2996
        3000
        3004
        3008
        3012
        3016
        3020
        3024
        3028
        3032
        3036
        3040
        3044
        3048
        3052
        3056
        3060
        3064
        3068
        3072
        3076
        3080
        3084
        3088
        3092
        3096
        3100
        3104
        3108
        3112
        3116
        3120
        3124
        3128
        3132
        3136
        3140
        3144
        3148
        3152
        3156
        3160
        3164
        3168
        3172
        3176
        3180
        3184
        3188
        3192
        3196
        3200
        3204
        3208
        3212
        3216
        3220
        3224
        3228
        3232
        3236
        3240
        3244
        3248
        3252
        3256
        3260
        3264
        3268
        3272
        3276
        3280
        3284
        3288
        3292
        3296
        3300
        3304
        3308
        3312
        3316
        3320
        3324
        3328
        3332
        3336
        3340
        3344
        3348
        3352
        3356
        3360
        3364
        3368
        3372
        3376
        3380
        3384
        3388
        3392
        3396
        3400
        3404
        3408
        3412
        3416
        3420
        3424
        3428
        3432
        3436
        3440
        3444
        3448
        3452
        3456
        3460
        3464
        3468
        3472
        3476
        3480
        3484
        3488
        3492
        3496
        3500
        3504
        3508
        3512
        3516
        3520
        3524
        3528
        3532
        3536
        3540
        3544
        3548
        3552
        3556
        3560
        3564
        3568
        3572
        3576
        3580
        3584
        3588
        3592
        3596
        3600
        3604
        3608
        3612
        3616
        3620
        3624
        3628
        3632
        3636
        3640
        3644
        3648
        3652
        3656
        3660
        3664
        3668
        3672
        3676
        3680
        3684
        3688
        3692
        3696
        3700
        3704
        3708
        3712
        3716
        3720
        3724
        3728
        3732
        3736
        3740
        3744
        3748
        3752
        3756
        3760
        3764
        3768
        3772
        3776
        3780
        3784
        3788
        3792
        3796
        3800
        3804
        3808
        3812
        3816
        3820
        3824
        3828
        3832
        3836
        3840
        3844
        3848
        3852
        3856
        3860
        3864
        3868
        3872
        3876
        3880
        3884
        3888
        3892
        3896
        3900
        3904
        3908
        3912
        3916
        3920
        3924
        3928
        3932
        3936
        3940
        3944
        3948
        3952
        3956
        3960
        3964
        3968
        3972
        3976
        3980
        3984
        3988
        3992
        3996
        4000
        4004
        4008
        4012
        4016
        4020
        4024
        4028
        4032
        4036
        4040
        4044
        4048
        4052
        4056
        4060
        4064
        4068
        4072
        4076
        4080
        4084
        4088
        4092
        4096
 </DataArray>
 <DataArray  type="UInt8"  Name="types"  format="ascii">
 9
 9
 9
 9
 9
 9
 9
 9
 9
 9
 9
 9
 9
 9
 9
 9
 9
 9
 9
 9
 9
 9
 9
 9
 9
 9
 9
 9
 9
 9
 9
 9
 9
 9
 9
 9
 9
 9
 9
 9
 9
 9
 9
 9
 9
 9
 9
 9
 9
 9
 9
 9
 9
 9
 9
 9
 9
 9
 9
 9
 9
 9
 9
 9
 9
 9
 9
 9
 9
 9
 9
 9
 9
 9
 9
 9
 9
 9
 9
 9
 9
 9
 9
 9
 9
 9
 9
 9
 9
 9
 9
 9
 9
 9
 9
 9
 9
 9
 9
 9
 9
 9
 9
 9
 9
 9
 9
 9
 9
 9
 9
 9
 9
 9
 9
 9
 9
 9
 9
 9
 9
 9
 9
 9
 9
 9
 9
 9
 9
 9
 9
 9
 9
 9
 9
 9
 9
 9
 9
 9
 9
 9
 9
 9
 9
 9
 9
 9
 9
 9
 9
 9
 9
 9
 9
 9
 9
 9
 9
 9
 9
 9
 9
 9
 9
 9
 9
 9
 9
 9
 9
 9
 9
 9
 9
 9
 9
 9
 9
 9
 9
 9
 9
 9
 9
 9
 9
 9
 9
 9
 9
 9
 9
 9
 9
 9
 9
 9
 9
 9
 9
 9
 9
 9
 9
 9
 9
 9
 9
 9
 9
 9
 9
 9
 9
 9
 9
 9
 9
 9
 9
 9
 9
 9
 9
 9
 9
 9
 9
 9
 9
 9
 9
 9
 9
 9
 9
 9
 9
 9
 9
 9
 9
 9
 9
 9
 9
 9
 9
 9
 9
 9
 9
 9
 9
 9
 9
 9
 9
 9
 9
 9
 9
 9
 9
 9
 9
 9
 9
 9
 9
 9
 9
 9
 9
 9
 9
 9
 9
 9
 9
 9
 9
 9
 9
 9
 9
 9
 9
 9
 9
 9
 9
 9
 9
 9
 9
 9
 9
 9
 9
 9
 9
 9
 9
 9
 9
 9
 9
 9
 9
 9
 9
 9
 9
 9
 9
 9
 9
 9
 9
 9
 9
 9
 9
 9
 9
 9
 9
 9
 9
 9
 9
 9
 9
 9
 9
 9
 9
 9
 9
 9
 9
 9
 9
 9
 9
 9
 9
 9
 9
 9
 9
 9
 9
 9
 9
 9
 9
 9
 9
 9
 9
 9
 9
 9
 9
 9
 9
 9
 9
 9
 9
 9
 9
 9
 9
 9
 9
 9
 9
 9
 9
 9
 9
 9
 9
 9
 9
 9
 9
 9
 9
 9
 9
 9
 9
 9
 9
 9
 9
 9
 9
 9
 9
 9
 9
 9
 9
 9
 9
 9
 9
 9
 9
 9
 9
 9
 9
 9
 9
 9
 9
 9
 9
 9
 9
 9
 9
 9
 9
 9
 9
 9
 9
 9
 9
 9
 9
 9
 9
 9
 9
 9
 9
 9
 9
 9
 9
 9
 9
 9
 9
 9
 9
 9
 9
 9
 9
 9
 9
 9
 9
 9
 9
 9
 9
 9
 9
 9
 9
 9
 9
 9
 9
 9
 9
 9
 9
 9
 9
 9
 9
 9
 9
 9
 9
 9
 9
 9
 9
 9
 9
 9
 9
 9
 9
 9
 9
 9
 9
 9
 9
 9
 9
 9
 9
 9
 9
 9
 9
 9
 9
 9
 9
 9
 9
 9
 9
 9
 9
 9
 9
 9
 9
 9
 9
 9
 9
 9
 9
 9
 9
 9
 9
 9
 9
 9
 9
 9
 9
 9
 9
 9
 9
 9
 9
 9
 9
 9
 9
 9
 9
 9
 9
 9
 9
 9
 9
 9
 9
 9
 9
 9
 9
 9
 9
 9
 9
 9
 9
 9
 9
 9
 9
 9
 9
 9
 9
 9
 9
 9
 9
 9
 9
 9
 9
 9
 9
 9
 9
 9
 9
 9
 9
 9
 9
 9
 9
 9
 9
 9
 9
 9
 9
 9
 9
 9
 9
 9
 9
 9
 9
 9
 9
 9
 9
 9
 9
 9
 9
 9
 9
 9
 9
 9
 9
 9
 9
 9
 9
 9
 9
 9
 9
 9
 9
 9
 9
 9
 9
 9
 9
 9
 9
 9
 9
 9
 9
 9
 9
 9
 9
 9
 9
 9
 9
 9
 9
 9
 9
 9
 9
 9
 9
 9
 9
 9
 9
 9
 9
 9
 9
 9
 9
 9
 9
 9
 9
 9
 9
 9
 9
 9
 9
 9
 9
 9
 9
 9
 9
 9
 9
 9
 9
 9
 9
 9
 9
 9
 9
 9
 9
 9
 9
 9
 9
 9
 9
 9
 9
 9
 9
 9
 9
 9
 9
 9
 9
 9
 9
 9
 9
 9
 9
 9
 9
 9
 9
 9
 9
 9
 9
 9
 9
 9
 9
 9
 9
 9
 9
 9
 9
 9
 9
 9
 9
 9
 9
 9
 9
 9
 9
 9
 9
 9
 9
 9
 9
 9
 9
 9
 9
 9
 9
 9
 9
 9
 9
 9
 9
 9
 9
 9
 9
 9
 9
 9
 9
 9
 9
 9
 9
 9
 9
 9
 9
 9
 9
 9
 9
 9
 9
 9
 9
 9
 9
 9
 9
 9
 9
 9
 9
 9
 9
 9
 9
 9
 9
 9
 9
 9
 9
 9
 9
 9
 9
 9
 9
 9
 9
 9
 9
 9
 9
 9
 9
 9
 9
 9
 9
 9
 9
 9
 9
 9
 9
 9
 9
 9
 9
 9
 9
 9
 9
 9
 9
 9
 9
 9
 9
 9
 9
 9
 9
 9
 9
 9
 9
 9
 9
 9
 9
 9
 9
 9
 9
 9
 9
 9
 9
 9
 9
 9
 9
 9
 9
 9
 9
 9
 9
 9
 9
 9
 9
 9
 9
 9
 9
 9
 9
 9
 9
 9
 9
 9
 9
 9
 9
 9
 9
 9
 9
 9
 9
 9
 9
 9
 9
 9
 9
 9
 9
 9
 9
 9
 9
 9
 9
 9
 9
 9
 9
 9
 9
 9
 9
 9
 9
 9
 9
 9
 9
 9
 9
 9
 9
 9
 9
 9
 9
 9
 9
 9
 9
 9
 9
 9
 9
 9
 9
 9
 9
 9
 9
 9
 9
 9
 9
 9
 9
 9
 9
 9
 9
 9
 9
 9
 9
 9
 9
 9
 9
 9
 9
 9
 9
 9
 9
 9
 9
 9
 9
 9
 9
 9
 9
 9
 9
 9
 9
 9
 9
 9
 9
 9
 9
 9
 9
 9
 9
 9
 9
 9
 9
 9
 9
 9
 9
 9
 9
 9
 9
 9
 9
 9
 9
 9
 9
 9
 9
 9
 9
 9
 </DataArray>
 </Cells> 
 <PointData>
 <DataArray  type="Float64" Name="disp" NumberOfComponents="3" format="ascii">
   6.5348709952221834E-002   6.2787990924026815E-002   0.0000000000000000     
   6.8368814429538849E-002   6.8179796471534715E-002   0.0000000000000000     
   7.1306479916494608E-002   7.3746993378849823E-002   0.0000000000000000     
   7.4161706413089112E-002   7.9489581645972127E-002   0.0000000000000000     
   7.6934493919322361E-002   8.5407561272901639E-002   0.0000000000000000     
   6.0158416338849344E-002   6.1887894335036775E-002   0.0000000000000000     
   6.3026520940174746E-002   6.7303710143782433E-002   0.0000000000000000     
   6.5802761736032930E-002   7.2896829254304935E-002   0.0000000000000000     
   6.8487138726423924E-002   7.8667251666604279E-002   0.0000000000000000     
   7.1079651911347713E-002   8.4614977380680467E-002   0.0000000000000000     
   5.5166971725297623E-002   6.1042731899994769E-002   0.0000000000000000     
   5.7866254050850982E-002   6.6482742475692275E-002   0.0000000000000000     
   6.0471331297254363E-002   7.2101087320568302E-002   0.0000000000000000     
   6.2982203464507738E-002   7.7897766434622873E-002   0.0000000000000000     
   6.5398870552611121E-002   8.3872779817855986E-002   0.0000000000000000     
   5.0374376111566685E-002   6.0252503618900777E-002   0.0000000000000000     
   5.2888013761567591E-002   6.5716893467264240E-002   0.0000000000000000     
   5.5312188600158865E-002   7.1359767577639940E-002   0.0000000000000000     
   5.7646900627340542E-002   7.7181125950027907E-002   0.0000000000000000     
   5.9892149843112599E-002   8.3180968584428167E-002   0.0000000000000000     
   4.5780629497656530E-002   5.9517209491754819E-002   0.0000000000000000     
   4.8091800072324532E-002   6.5006163118498314E-002   0.0000000000000000     
   5.0325333644746471E-002   7.0672870025519849E-002   0.0000000000000000     
   5.2481230214922341E-002   7.6517330212819409E-002   0.0000000000000000     
   5.4559489782852133E-002   8.2539543680396996E-002   0.0000000000000000     
   7.6934493919322361E-002   8.5407561272901639E-002   0.0000000000000000     
   7.9619898041303941E-002   9.1495003994341392E-002   0.0000000000000000     
   8.2212974385143481E-002   9.7745981544994462E-002   0.0000000000000000     
   8.4713722950840953E-002  0.10416049392486082        0.0000000000000000     
   8.7122143738396371E-002  0.11073854113394049        0.0000000000000000     
   7.1079651911347713E-002   8.4614977380680467E-002   0.0000000000000000     
   7.3584975578716905E-002   9.0732399652342796E-002   0.0000000000000000     
   7.6007784016444133E-002   9.7011911737400564E-002   0.0000000000000000     
   7.8348077224529369E-002  0.10345351363585374        0.0000000000000000     
   8.0605855202972643E-002  0.11005720534770236        0.0000000000000000     
   6.5398870552611121E-002   8.3872779817855986E-002   0.0000000000000000     
   6.7731008911804252E-002   9.0017628665604629E-002   0.0000000000000000     
   6.9988294892326844E-002   9.6323814173205902E-002   0.0000000000000000     
   7.2170728494178868E-002  0.10279133634065969        0.0000000000000000     
   7.4278309717360366E-002  0.10942019516796610        0.0000000000000000     
   5.9892149843112599E-002   8.3180968584428167E-002   0.0000000000000000     
   6.2057998040565977E-002   8.9350691034126878E-002   0.0000000000000000     
   6.4154507012791587E-002   9.5681688852410407E-002   0.0000000000000000     
   6.6181676759789421E-002  0.10217396203927867        0.0000000000000000     
   6.8139507281559528E-002  0.10882751059473171        0.0000000000000000     
   5.4559489782852133E-002   8.2539543680396996E-002   0.0000000000000000     
   5.6565942965002086E-002   8.8731586757909583E-002   0.0000000000000000     
   5.8506420377838396E-002   9.5085535775014163E-002   0.0000000000000000     
   6.0380922021361083E-002  0.10160139073171069        0.0000000000000000     
   6.2189447895570134E-002  0.10827915162799923        0.0000000000000000     
   8.7122143738396371E-002  0.11073854113394049        0.0000000000000000     
   8.9432485096518896E-002  0.11746253839376211        0.0000000000000000     
   9.1638995373917675E-002  0.12431490092585440        0.0000000000000000     
   9.3741674570592709E-002  0.13129562873021730        0.0000000000000000     
   9.5740522686543997E-002  0.13840472180685084        0.0000000000000000     
   8.0605855202972643E-002  0.11005720534770236        0.0000000000000000     
   8.2773321224991425E-002  0.11680676244704433        0.0000000000000000     
   8.4842678563803148E-002  0.12368596050797756        0.0000000000000000     
   8.6813927219407838E-002  0.13069479953050214        0.0000000000000000     
   8.8687067191805483E-002  0.13783327951461796        0.0000000000000000     
   7.4278309717360366E-002  0.10942019516796610        0.0000000000000000     
   7.6302339303760680E-002  0.11619486872285066        0.0000000000000000     
   7.8234117995269220E-002  0.12309983507303905        0.0000000000000000     
   8.0073645791885945E-002  0.13013509421853123        0.0000000000000000     
   8.1820922693610867E-002  0.13730064615932724        0.0000000000000000     
   6.8139507281559528E-002  0.10882751059473171        0.0000000000000000     
   7.0019539332826730E-002  0.11562685722118121        0.0000000000000000     
   7.1813313668315892E-002  0.12255652462103889        0.0000000000000000     
   7.3520830288027028E-002  0.12961651279430472        0.0000000000000000     
   7.5142089191960165E-002  0.13680682174097872        0.0000000000000000     
   6.2189447895570134E-002  0.10827915162799923        0.0000000000000000     
   6.3924921312189520E-002  0.11510272794203594        0.0000000000000000     
   6.5580265582943165E-002  0.12205602915197701        0.0000000000000000     
   6.7155480707831117E-002  0.12913905525782252        0.0000000000000000     
   6.8650566686853348E-002  0.13635180625957236        0.0000000000000000     
   9.5740522686543997E-002  0.13840472180685084        0.0000000000000000     
   9.7643181484304717E-002  0.14563413221814542        0.0000000000000000     
   9.9457292726408034E-002  0.15297581202649138        0.0000000000000000     
  0.10118285641285395       0.16042976123188882        0.0000000000000000     
  0.10281987254364244       0.16799597983433764        0.0000000000000000     
   8.8687067191805483E-002  0.13783327951461796        0.0000000000000000     
   9.0469516159767574E-002  0.14509199453834068        0.0000000000000000     
   9.2168691802065605E-002  0.15246153867968582        0.0000000000000000     
   9.3784594118699563E-002  0.15994191193865340        0.0000000000000000     
   9.5317223109669447E-002  0.16753311431524340        0.0000000000000000     
   8.1820922693610867E-002  0.13730064615932724        0.0000000000000000     
   8.3482896577780560E-002  0.14458640041885262        0.0000000000000000     
   8.5066515321731540E-002  0.15198226652053290        0.0000000000000000     
   8.6571778925463846E-002  0.15948824446436816        0.0000000000000000     
   8.7998687388977467E-002  0.16710433425035831        0.0000000000000000     
   7.5142089191960165E-002  0.13680682174097872        0.0000000000000000     
   7.6683322738343648E-002  0.14411734985968125        0.0000000000000000     
   7.8150763285405836E-002  0.15153799554903272        0.0000000000000000     
   7.9544410833146839E-002  0.15906875880903307        0.0000000000000000     
   8.0864265381566519E-002  0.16670963963968230        0.0000000000000000     
   6.8650566686853348E-002  0.13635180625957236        0.0000000000000000     
   7.0070794641456824E-002  0.14368484286082656        0.0000000000000000     
   7.1421435693088522E-002  0.15112872576518516        0.0000000000000000     
   7.2702489841748458E-002  0.15868345497264813        0.0000000000000000     
   7.3913957087436588E-002  0.16634903048321548        0.0000000000000000     
  0.10281987254364244       0.16799597983433764        0.0000000000000000     
  0.10436912153801922       0.17566285557137523        0.0000000000000000     
  0.10583138381522997       0.18341877618053892        0.0000000000000000     
  0.10720665937527465       0.19126374166182869        0.0000000000000000     
  0.10849494821815331       0.19919775201524456        0.0000000000000000     
   9.5317223109669447E-002  0.16753311431524340        0.0000000000000000     
   9.6766004319217863E-002  0.17522469947724373        0.0000000000000000     
   9.8130363291587419E-002  0.18300622109244216        0.0000000000000000     
   9.9410300026778115E-002  0.19087767916083873        0.0000000000000000     
  0.10060581452478992       0.19883907368243342        0.0000000000000000     
   8.7998687388977467E-002  0.16710433425035831        0.0000000000000000     
   8.9345627291813862E-002  0.17482062487784236        0.0000000000000000     
   9.0610985213514461E-002  0.18262720534615923        0.0000000000000000     
   9.1794761154079266E-002  0.19052407565530899        0.0000000000000000     
   9.2896955113508289E-002  0.19851123580529162        0.0000000000000000     
   8.0864265381566519E-002  0.16670963963968230        0.0000000000000000     
   8.2107990455807189E-002  0.17445063177317113        0.0000000000000000     
   8.3273249581011052E-002  0.18228172894169029        0.0000000000000000     
   8.4360042757178122E-002  0.19020293114523953        0.0000000000000000     
   8.5368369984308384E-002  0.19821423838381910        0.0000000000000000     
   7.3913957087436588E-002  0.16634903048321548        0.0000000000000000     
   7.5053093811197874E-002  0.17411472016323012        0.0000000000000000     
   7.6117156394077248E-002  0.18196979187903509        0.0000000000000000     
   7.7106144836074697E-002  0.18991424563063034        0.0000000000000000     
   7.8020059137190220E-002  0.19794808141801590        0.0000000000000000     
  0.10849494821815331       0.19919775201524456        0.0000000000000000     
  0.10970220584762447       0.20721714999588281        0.0000000000000000     
  0.11083438776744670       0.21531827835883968        0.0000000000000000     
  0.11189149397762001       0.22350113710411523        0.0000000000000000     
  0.11287352447814439       0.23176572623170943        0.0000000000000000     
  0.10060581452478992       0.19883907368243342        0.0000000000000000     
  0.10172258535680737       0.20688417843583767        0.0000000000000000     
  0.10276629109401497       0.21500676719966294        0.0000000000000000     
  0.10373693173641271       0.22320683997390914        0.0000000000000000     
  0.10463450728400056       0.23148439675857635        0.0000000000000000     
   9.2896955113508289E-002  0.19851123580529162        0.0000000000000000     
   9.3922320290825506E-002  0.20658104081534459        0.0000000000000000     
   9.4875609885054946E-002  0.21472584570470543        0.0000000000000000     
   9.5756823896196580E-002  0.22294565047337422        0.0000000000000000     
   9.6565962324250382E-002  0.23124045512135089        0.0000000000000000     
   8.5368369984308384E-002  0.19821423838381910        0.0000000000000000     
   8.6301410649678875E-002  0.20630773713440345        0.0000000000000000     
   8.7162344140566644E-002  0.21447551387396724        0.0000000000000000     
   8.7951170456971622E-002  0.22271756860251049        0.0000000000000000     
   8.8667889598893879E-002  0.23103390132003304        0.0000000000000000     
   7.8020059137190220E-002  0.19794808141801590        0.0000000000000000     
   7.8859856433367431E-002  0.20606426739301434        0.0000000000000000     
   7.9626493860549985E-002  0.21425577170744833        0.0000000000000000     
   8.0319971418737868E-002  0.22252259436131783        0.0000000000000000     
   8.0940289107931038E-002  0.23086473535462285        0.0000000000000000     
  0.11287352447814439       0.23176572623170943        0.0000000000000000     
  0.11380846069705836       0.24012863072273793        0.0000000000000000     
  0.11472428406240044       0.24860643555831638        0.0000000000000000     
  0.11562099457417066       0.25719914073844480        0.0000000000000000     
  0.11649859223236898       0.26590674626312322        0.0000000000000000     
  0.10463450728400056       0.23148439675857635        0.0000000000000000     
  0.10546397013951134       0.23986296704829707        0.0000000000000000     
  0.10623027270567788       0.24836608033770391        0.0000000000000000     
  0.10693341498250013       0.25699373662679681        0.0000000000000000     
  0.10757339696997813       0.26574593591557583        0.0000000000000000     
   9.6565962324250382E-002  0.23124045512135089        0.0000000000000000     
   9.7293859459100948E-002  0.23963677530877459        0.0000000000000000     
   9.7931349590632794E-002  0.24816112669578450        0.0000000000000000     
   9.8478432718845932E-002  0.25681350928238061        0.0000000000000000     
   9.8935108843740321E-002  0.26559392306856289        0.0000000000000000     
   8.8667889598893879E-002  0.23103390132003304        0.0000000000000000     
   8.9298128655827161E-002  0.23945005550417053        0.0000000000000000     
   8.9827514717265203E-002  0.24799157463255822        0.0000000000000000     
   9.0256047783208004E-002  0.25665845870519616        0.0000000000000000     
   9.0583727853655593E-002  0.26545070772208446        0.0000000000000000     
   8.0940289107931038E-002  0.23086473535462285        0.0000000000000000     
   8.1476777729689975E-002  0.23930280763448475        0.0000000000000000     
   8.1918768085575133E-002  0.24785742414802503        0.0000000000000000     
   8.2266260175586428E-002  0.25652858489524361        0.0000000000000000     
   8.2519253999723929E-002  0.26531628987614042        0.0000000000000000     
  0.11649859223236898       0.26590674626312322        0.0000000000000000     
  0.11729748616919902       0.27489381536964963        0.0000000000000000     
  0.11795808551686429       0.28432491129532200        0.0000000000000000     
  0.11848039027536487       0.29420003404014056        0.0000000000000000     
  0.11886440044470070       0.30451918360410507        0.0000000000000000     
  0.10757339696997813       0.26574593591557583        0.0000000000000000     
  0.10813126020657511       0.27475478455535368        0.0000000000000000     
  0.10858804623075437       0.28415238889744321        0.0000000000000000     
  0.10894375504251588       0.29393874894184441        0.0000000000000000     
  0.10919838664185968       0.30411386468855728        0.0000000000000000     
   9.8935108843740321E-002  0.26559392306856289        0.0000000000000000     
   9.9312395751232074E-002  0.27460062733325763        0.0000000000000000     
   9.9621311227237178E-002  0.28393188135539121        0.0000000000000000     
   9.9861855271755659E-002  0.29358768513496353        0.0000000000000000     
  0.10003402788478749       0.30356803867197463        0.0000000000000000     
   9.0583727853655593E-002  0.26545070772208446        0.0000000000000000     
   9.0840892803169843E-002  0.27443134370336142        0.0000000000000000     
   9.1057880506312722E-002  0.28366338866916596        0.0000000000000000     
   9.1234690963084134E-002  0.29314684261949780        0.0000000000000000     
   9.1371324173484175E-002  0.30288170555435712        0.0000000000000000     
   8.2519253999723929E-002  0.26531628987614042        0.0000000000000000     
   8.2716751362388485E-002  0.27424693366566522        0.0000000000000000     
   8.2897754067980972E-002  0.28334691083876756        0.0000000000000000     
   8.3062262116501390E-002  0.29261622139544741        0.0000000000000000     
   8.3210275507949710E-002  0.30205486533570480        0.0000000000000000     
   4.5780629497656530E-002   5.9517209491754819E-002   0.0000000000000000     
   4.8091800072324532E-002   6.5006163118498314E-002   0.0000000000000000     
   5.0325333644746471E-002   7.0672870025519849E-002   0.0000000000000000     
   5.2481230214922341E-002   7.6517330212819409E-002   0.0000000000000000     
   5.4559489782852133E-002   8.2539543680396996E-002   0.0000000000000000     
   4.1357520936531944E-002   5.8839652312184562E-002   0.0000000000000000     
   4.3463610803270235E-002   6.4351652533611886E-002   0.0000000000000000     
   4.5504875749411845E-002   7.0040541565117201E-002   0.0000000000000000     
   4.7481315774956769E-002   7.5906319406700506E-002   0.0000000000000000     
   4.9392930879904998E-002   8.1948986058361803E-002   0.0000000000000000     
   3.7076839481157718E-002   5.8222634873817652E-002   0.0000000000000000     
   3.8989443774553087E-002   6.3754462816822316E-002   0.0000000000000000     
   4.0844924232549665E-002   6.9462929097341225E-002   0.0000000000000000     
   4.2643280855147465E-002   7.5348033715374407E-002   0.0000000000000000     
   4.4384513642346475E-002   8.1409776670921891E-002   0.0000000000000000     
   3.2938585131533860E-002   5.7666157176654138E-002   0.0000000000000000     
   3.4669298986173089E-002   6.3214593968129590E-002   0.0000000000000000     
   3.6345479094159944E-002   6.8940032622191907E-002   0.0000000000000000     
   3.7967125455494438E-002   7.4842473138841153E-002   0.0000000000000000     
   3.9534238070176558E-002   8.0921915518077259E-002   0.0000000000000000     
   2.8942757887660372E-002   5.7170219220693985E-002   0.0000000000000000     
   3.0503176438130233E-002   6.2732045987533722E-002   0.0000000000000000     
   3.2006540334242661E-002   6.8471852139669276E-002   0.0000000000000000     
   3.3452849575997666E-002   7.4389637677100690E-002   0.0000000000000000     
   3.4842104163395247E-002   8.0485402599827935E-002   0.0000000000000000     
   5.4559489782852133E-002   8.2539543680396996E-002   0.0000000000000000     
   5.6565942965002086E-002   8.8731586757909583E-002   0.0000000000000000     
   5.8506420377838396E-002   9.5085535775014163E-002   0.0000000000000000     
   6.0380922021361083E-002  0.10160139073171069        0.0000000000000000     
   6.2189447895570134E-002  0.10827915162799923        0.0000000000000000     
   4.9392930879904998E-002   8.1948986058361803E-002   0.0000000000000000     
   5.1240676314151072E-002   8.8161451159331744E-002   0.0000000000000000     
   5.3025507327589483E-002   9.4536624348841011E-002   0.0000000000000000     
   5.4747423920220258E-002  0.10107450562688959        0.0000000000000000     
   5.6406426092043375E-002  0.10777509499347751        0.0000000000000000     
   4.4384513642346475E-002   8.1409776670921891E-002   0.0000000000000000     
   4.6068030717051428E-002   8.7641419560772454E-002   0.0000000000000000     
   4.7693240202167100E-002   9.4036223981714892E-002   0.0000000000000000     
   4.9260142097693430E-002  0.10059418993374925        0.0000000000000000     
   5.0768736403630471E-002  0.10731531741687547        0.0000000000000000     
   3.9534238070176558E-002   8.0921915518077259E-002   0.0000000000000000     
   4.1048006173703189E-002   8.7171491962231673E-002   0.0000000000000000     
   4.2509619001571207E-002   9.3584334673635805E-002   0.0000000000000000     
   4.3919076553780613E-002  0.10016044365228959        0.0000000000000000     
   4.5276378830331400E-002  0.10689981889819312        0.0000000000000000     
   3.4842104163395247E-002   8.0485402599827935E-002   0.0000000000000000     
   3.6180602684106326E-002   8.6751668363709455E-002   0.0000000000000000     
   3.7474643725801844E-002   9.3180956424603709E-002   0.0000000000000000     
   3.8724227288481787E-002   9.9773266782510708E-002   0.0000000000000000     
   3.9929353372146176E-002  0.10652859943743043        0.0000000000000000     
   6.2189447895570134E-002  0.10827915162799923        0.0000000000000000     
   6.3924921312189520E-002  0.11510272794203594        0.0000000000000000     
   6.5580265582943165E-002  0.12205602915197701        0.0000000000000000     
   6.7155480707831117E-002  0.12913905525782252        0.0000000000000000     
   6.8650566686853348E-002  0.13635180625957236        0.0000000000000000     
   5.6406426092043375E-002  0.10777509499347751        0.0000000000000000     
   5.7997005641512944E-002  0.11462156656072905        0.0000000000000000     
   5.9513654367083023E-002  0.12159709444076847        0.0000000000000000     
   6.0956372268753632E-002  0.12870167863359583        0.0000000000000000     
   6.2325159346524765E-002  0.13593531913921109        0.0000000000000000     
   5.0768736403630471E-002  0.10731531741687547        0.0000000000000000     
   5.2214312720460905E-002  0.11418245875257478        0.0000000000000000     
   5.3592160648667411E-002  0.12117846626232824        0.0000000000000000     
   5.4902280188250045E-002  0.12830333994613591        0.0000000000000000     
   5.6144671339208738E-002  0.13555707980399784        0.0000000000000000     
   4.5276378830331400E-002  0.10689981889819312        0.0000000000000000     
   4.6576842549033382E-002  0.11378540451757309        0.0000000000000000     
   4.7815784427696358E-002  0.12080014461665632        0.0000000000000000     
   4.8993204466320328E-002  0.12794403919544284        0.0000000000000000     
   5.0109102664905286E-002  0.13521708825393258        0.0000000000000000     
   3.9929353372146176E-002  0.10652859943743043        0.0000000000000000     
   4.1084595127230387E-002  0.11343040385572403        0.0000000000000000     
   4.2184525704169834E-002  0.12046212950375275        0.0000000000000000     
   4.3229145102964502E-002  0.12762377638151653        0.0000000000000000     
   4.4218453323614397E-002  0.13491534448901538        0.0000000000000000     
   6.8650566686853348E-002  0.13635180625957236        0.0000000000000000     
   7.0070794641456824E-002  0.14368484286082656        0.0000000000000000     
   7.1421435693088522E-002  0.15112872576518516        0.0000000000000000     
   7.2702489841748458E-002  0.15868345497264813        0.0000000000000000     
   7.3913957087436588E-002  0.16634903048321548        0.0000000000000000     
   6.2325159346524765E-002  0.13593531913921109        0.0000000000000000     
   6.3624276752424075E-002  0.14328938132453770        0.0000000000000000     
   6.4857985638479235E-002  0.15075523055649914        0.0000000000000000     
   6.6026286004690266E-002  0.15833286683509540        0.0000000000000000     
   6.7129177851057126E-002  0.16602229016032646        0.0000000000000000     
   5.6144671339208738E-002  0.13555707980399784        0.0000000000000000     
   5.7322733536549354E-002  0.14293146715306368        0.0000000000000000     
   5.8439866215277712E-002  0.15041828331048335        0.0000000000000000     
   5.9496069375393784E-002  0.15801752827625679        0.0000000000000000     
   6.0491343016897590E-002  0.16572920205038408        0.0000000000000000     
   5.0109102664905286E-002  0.13521708825393258        0.0000000000000000     
   5.1166164993832683E-002  0.14261110034640459        0.0000000000000000     
   5.2167077423483921E-002  0.15011788402713788        0.0000000000000000     
   5.3111839953859027E-002  0.15773743929613240        0.0000000000000000     
   5.4000452584957982E-002  0.16546976615338824        0.0000000000000000     
   4.4218453323614397E-002  0.13491534448901538        0.0000000000000000     
   4.5154571124274033E-002  0.14232828090456040        0.0000000000000000     
   4.6039619263097888E-002  0.14985403270646269        0.0000000000000000     
   4.6873597740085989E-002  0.15749259989472222        0.0000000000000000     
   4.7656506555238308E-002  0.16524398246933905        0.0000000000000000     
   7.3913957087436588E-002  0.16634903048321548        0.0000000000000000     
   7.5053093811197874E-002  0.17411472016323012        0.0000000000000000     
   7.6117156394077248E-002  0.18196979187903509        0.0000000000000000     
   7.7106144836074697E-002  0.18991424563063034        0.0000000000000000     
   7.8020059137190220E-002  0.19794808141801590        0.0000000000000000     
   6.7129177851057126E-002  0.16602229016032646        0.0000000000000000     
   6.8163744371624563E-002  0.17381188563065103        0.0000000000000000     
   6.9127068760437241E-002  0.18169003834452774        0.0000000000000000     
   7.0019151017495188E-002  0.18965674830195664        0.0000000000000000     
   7.0839991142798403E-002  0.19771201550293765        0.0000000000000000     
   6.0491343016897590E-002  0.16572920205038408        0.0000000000000000     
   6.1422749150725847E-002  0.17354112375806569        0.0000000000000000     
   6.2287349787815249E-002  0.18144111252450218        0.0000000000000000     
   6.3085144928165804E-002  0.18942916834969367        0.0000000000000000     
   6.3816134571777525E-002  0.19750529123364002        0.0000000000000000     
   5.4000452584957982E-002  0.16546976615338824        0.0000000000000000     
   5.4830108148501762E-002  0.17330243454547400        0.0000000000000000     
   5.5597999476211281E-002  0.18122301441895838        0.0000000000000000     
   5.6304126568086567E-002  0.18923150577384137        0.0000000000000000     
   5.6948489424127592E-002  0.19732790861012295        0.0000000000000000     
   4.7656506555238308E-002  0.16524398246933905        0.0000000000000000     
   4.8385821364952279E-002  0.17309581799287610        0.0000000000000000     
   4.9059017825625321E-002  0.18103574402789632        0.0000000000000000     
   4.9676095937257428E-002  0.18906376057439980        0.0000000000000000     
   5.0237055699848605E-002  0.19717986763238649        0.0000000000000000     
   7.8020059137190220E-002  0.19794808141801590        0.0000000000000000     
   7.8859856433367431E-002  0.20606426739301434        0.0000000000000000     
   7.9626493860549985E-002  0.21425577170744833        0.0000000000000000     
   8.0319971418737868E-002  0.22252259436131783        0.0000000000000000     
   8.0940289107931038E-002  0.23086473535462285        0.0000000000000000     
   7.0839991142798403E-002  0.19771201550293765        0.0000000000000000     
   7.1588435667489222E-002  0.20584982969689489        0.0000000000000000     
   7.2263331122710009E-002  0.21406418063325222        0.0000000000000000     
   7.2864677508460762E-002  0.22235506831200982        0.0000000000000000     
   7.3392474824741455E-002  0.23072249273316756        0.0000000000000000     
   6.3816134571777525E-002  0.19750529123364002        0.0000000000000000     
   6.4477926377642200E-002  0.20566362215176254        0.0000000000000000     
   6.5068128004751632E-002  0.21389830207948249        0.0000000000000000     
   6.5586739453105808E-002  0.22220933101679982        0.0000000000000000     
   6.6033760722704754E-002  0.23059670896371454        0.0000000000000000     
   5.6948489424127592E-002  0.19732790861012295        0.0000000000000000     
   5.7528328563826357E-002  0.20550564475761746        0.0000000000000000     
   5.8040884506674835E-002  0.21375813604613908        0.0000000000000000     
   5.8486157252673018E-002  0.22208538247568785        0.0000000000000000     
   5.8864146801820914E-002  0.23048738404626373        0.0000000000000000     
   5.0237055699848605E-002  0.19717986763238649        0.0000000000000000     
   5.0739642226041715E-002  0.20537589751445953        0.0000000000000000     
   5.1181600628479644E-002  0.21364368253322200        0.0000000000000000     
   5.1562930907162387E-002  0.22198322268867390        0.0000000000000000     
   5.1883633062089936E-002  0.23039451798081523        0.0000000000000000     
   8.0940289107931038E-002  0.23086473535462285        0.0000000000000000     
   8.1476777729689975E-002  0.23930280763448475        0.0000000000000000     
   8.1918768085575133E-002  0.24785742414802503        0.0000000000000000     
   8.2266260175586428E-002  0.25652858489524361        0.0000000000000000     
   8.2519253999723929E-002  0.26531628987614042        0.0000000000000000     
   7.3392474824741455E-002  0.23072249273316756        0.0000000000000000     
   7.3843345895313314E-002  0.23918006850354423        0.0000000000000000     
   7.4213913543937499E-002  0.24774141022995858        0.0000000000000000     
   7.4504177770614022E-002  0.25640651791241059        0.0000000000000000     
   7.4714138575342884E-002  0.26517539155090025        0.0000000000000000     
   6.6033760722704754E-002  0.23059670896371454        0.0000000000000000     
   6.6411372367321073E-002  0.23906687491517578        0.0000000000000000     
   6.6721754940727379E-002  0.24762626786613262        0.0000000000000000     
   6.6964908442923687E-002  0.25627488781658503        0.0000000000000000     
   6.7140832873909997E-002  0.26501273476653314        0.0000000000000000     
   5.8864146801820914E-002  0.23048738404626373        0.0000000000000000     
   5.9180857145713250E-002  0.23896322686937937        0.0000000000000000     
   5.9442292275944747E-002  0.24751199705654708        0.0000000000000000     
   5.9648452192515425E-002  0.25613369460776708        0.0000000000000000     
   5.9799336895425277E-002  0.26482831952303909        0.0000000000000000     
   5.1883633062089936E-002  0.23039451798081523        0.0000000000000000     
   5.2151800230489834E-002  0.23886912436615493        0.0000000000000000     
   5.2375525549589595E-002  0.24739859780120202        0.0000000000000000     
   5.2554809019389213E-002  0.25598293828595647        0.0000000000000000     
   5.2689650639888716E-002  0.26462214582041832        0.0000000000000000     
   8.2519253999723929E-002  0.26531628987614042        0.0000000000000000     
   8.2716751362388485E-002  0.27424693366566522        0.0000000000000000     
   8.2897754067980972E-002  0.28334691083876756        0.0000000000000000     
   8.3062262116501390E-002  0.29261622139544741        0.0000000000000000     
   8.3210275507949710E-002  0.30205486533570480        0.0000000000000000     
   7.4714138575342884E-002  0.26517539155090025        0.0000000000000000     
   7.4884789276901467E-002  0.27404170900841390        0.0000000000000000     
   7.5057123194067182E-002  0.28299914814793803        0.0000000000000000     
   7.5231140326840001E-002  0.29204770896947246        0.0000000000000000     
   7.5406840675219952E-002  0.30118739147301737        0.0000000000000000     
   6.7140832873909997E-002  0.26501273476653314        0.0000000000000000     
   6.7289824394722267E-002  0.27380998151985270        0.0000000000000000     
   6.7452179166396481E-002  0.28263680088041943        0.0000000000000000     
   6.7627897188932640E-002  0.29149319284823344        0.0000000000000000     
   6.7816978462330729E-002  0.30037915742329474        0.0000000000000000     
   5.9799336895425277E-002  0.26482831952303909        0.0000000000000000     
   5.9931856715850905E-002  0.27355175119998143        0.0000000000000000     
   6.0082921984968903E-002  0.28225986903621175        0.0000000000000000     
   6.0252532702779291E-002  0.29095267303173034        0.0000000000000000     
   6.0440688869282042E-002  0.29963016318653685        0.0000000000000000     
   5.2689650639888716E-002  0.26462214582041832        0.0000000000000000     
   5.2810886240287354E-002  0.27326701804880021        0.0000000000000000     
   5.2949351649784440E-002  0.28186835261531512        0.0000000000000000     
   5.3105046868379947E-002  0.29042614951996293        0.0000000000000000     
   5.3277971896073896E-002  0.29894040876274369        0.0000000000000000     
   2.8942757887660372E-002   5.7170219220693985E-002   0.0000000000000000     
   3.0503176438130233E-002   6.2732045987533722E-002   0.0000000000000000     
   3.2006540334242661E-002   6.8471852139669276E-002   0.0000000000000000     
   3.3452849575997666E-002   7.4389637677100690E-002   0.0000000000000000     
   3.4842104163395247E-002   8.0485402599827935E-002   0.0000000000000000     
   2.5065172195481093E-002   5.6734094750443942E-002   0.0000000000000000     
   2.6454339347439838E-002   6.2306845922441983E-002   0.0000000000000000     
   2.7784069321658104E-002   6.8058803964208756E-002   0.0000000000000000     
   2.9054362118135894E-002   7.3989968875744230E-002   0.0000000000000000     
   3.0265217736873202E-002   8.0100340657048436E-002   0.0000000000000000     
   2.1281642500939869E-002   5.6357057510410744E-002   0.0000000000000000     
   2.2486050931117212E-002   6.1939020820261703E-002   0.0000000000000000     
   2.3634027425266522E-002   6.7701304410245799E-002   0.0000000000000000     
   2.4725571983387821E-002   7.3643908280363032E-002   0.0000000000000000     
   2.5760684605481095E-002   7.9766832430613388E-002   0.0000000000000000     
   1.7592168804036711E-002   5.6039107500594376E-002   0.0000000000000000     
   1.8598311189162348E-002   6.1628570680992853E-002   0.0000000000000000     
   1.9556414645067931E-002   6.7399353477780408E-002   0.0000000000000000     
   2.0466479171753454E-002   7.3351455890957040E-002   0.0000000000000000     
   2.1328504769218919E-002   7.9484877920522765E-002   0.0000000000000000     
   1.3996751104771612E-002   5.5780244720994868E-002   0.0000000000000000     
   1.4791120121575256E-002   6.1375495504635433E-002   0.0000000000000000     
   1.5551230981062317E-002   6.7152951166812580E-002   0.0000000000000000     
   1.6277083683232788E-002   7.3112611707526295E-002   0.0000000000000000     
   1.6968678228086672E-002   7.9254477126776579E-002   0.0000000000000000     
   3.4842104163395247E-002   8.0485402599827935E-002   0.0000000000000000     
   3.6180602684106326E-002   8.6751668363709455E-002   0.0000000000000000     
   3.7474643725801844E-002   9.3180956424603709E-002   0.0000000000000000     
   3.8724227288481787E-002   9.9773266782510708E-002   0.0000000000000000     
   3.9929353372146176E-002  0.10652859943743043        0.0000000000000000     
   3.0265217736873202E-002   8.0100340657048436E-002   0.0000000000000000     
   3.1428044120803800E-002   8.6381651020237274E-002   0.0000000000000000     
   3.2554249212861416E-002   9.2825631677426676E-002   0.0000000000000000     
   3.3643833013046069E-002   9.9432282628616600E-002   0.0000000000000000     
   3.4696795521357758E-002  0.10620160387380706        0.0000000000000000     
   2.5760684605481095E-002   7.9766832430613388E-002   0.0000000000000000     
   2.6752554356338550E-002   8.6061142186846670E-002   0.0000000000000000     
   2.7714370300752373E-002   9.2517902874912669E-002   0.0000000000000000     
   2.8646132438722563E-002   9.9137114494811343E-002   0.0000000000000000     
   2.9547840770249127E-002  0.10591877704654271        0.0000000000000000     
   2.1328504769218919E-002   7.9484877920522765E-002   0.0000000000000000     
   2.2154133390710585E-002   8.5790141863537617E-002   0.0000000000000000     
   2.2955006989474697E-002   9.2257770017061674E-002   0.0000000000000000     
   2.3731125565511262E-002   9.8887762381094924E-002   0.0000000000000000     
   2.4482489118820276E-002  0.10568011895563739        0.0000000000000000     
   1.6968678228086672E-002   7.9254477126776579E-002   0.0000000000000000     
   1.7632781223919897E-002   8.5568650050310155E-002   0.0000000000000000     
   1.8276159279028398E-002   9.2045233103873761E-002   0.0000000000000000     
   1.8898812393412165E-002   9.8684226287467383E-002   0.0000000000000000     
   1.9500740567071208E-002  0.10548562960109104        0.0000000000000000     
   3.9929353372146176E-002  0.10652859943743043        0.0000000000000000     
   4.1084595127230387E-002  0.11343040385572403        0.0000000000000000     
   4.2184525704169834E-002  0.12046212950375275        0.0000000000000000     
   4.3229145102964502E-002  0.12762377638151653        0.0000000000000000     
   4.4218453323614397E-002  0.13491534448901538        0.0000000000000000     
   3.4696795521357758E-002  0.10620160387380706        0.0000000000000000     
   3.5706942875651029E-002  0.11311768088981980        0.0000000000000000     
   3.6668081213780415E-002  0.12016459915347651        0.0000000000000000     
   3.7580210535745943E-002  0.12734235866477719        0.0000000000000000     
   3.8443330841547593E-002  0.13465095942372188        0.0000000000000000     
   2.9547840770249127E-002  0.10591877704654271        0.0000000000000000     
   3.0413258214894389E-002  0.11284745974265258        0.0000000000000000     
   3.1236147692220693E-002  0.11990773179568670        0.0000000000000000     
   3.2016509202228031E-002  0.12709959320564507        0.0000000000000000     
   3.2754342744916412E-002  0.13442304397252774        0.0000000000000000     
   2.4482489118820276E-002  0.10568011895563739        0.0000000000000000     
   2.5203541144960491E-002  0.11261974041422237        0.0000000000000000     
   2.5888725139490656E-002  0.11969152743038332        0.0000000000000000     
   2.6538041102410773E-002  0.12689548000412013        0.0000000000000000     
   2.7151489033720839E-002  0.13423159813543292        0.0000000000000000     
   1.9500740567071208E-002  0.10548562960109104        0.0000000000000000     
   2.0077791665849318E-002  0.11243452290452920        0.0000000000000000     
   2.0625813555590303E-002  0.11951598605756632        0.0000000000000000     
   2.1144806236294153E-002  0.12673001906020243        0.0000000000000000     
   2.1634769707960883E-002  0.13407662191243749        0.0000000000000000     
   4.4218453323614397E-002  0.13491534448901538        0.0000000000000000     
   4.5154571124274033E-002  0.14232828090456040        0.0000000000000000     
   4.6039619263097888E-002  0.14985403270646269        0.0000000000000000     
   4.6873597740085989E-002  0.15749259989472222        0.0000000000000000     
   4.7656506555238308E-002  0.16524398246933905        0.0000000000000000     
   3.8443330841547593E-002  0.13465095942372188        0.0000000000000000     
   3.9259126342133195E-002  0.14208135707014408        0.0000000000000000     
   4.0029281248450531E-002  0.14962450724387727        0.0000000000000000     
   4.0753795560499614E-002  0.15728040994492154        0.0000000000000000     
   4.1432669278280453E-002  0.16504906517327686        0.0000000000000000     
   3.2754342744916412E-002  0.13442304397252774        0.0000000000000000     
   3.3451005061669953E-002  0.14186867708576845        0.0000000000000000     
   3.4107852893872789E-002  0.14942708553480108        0.0000000000000000     
   3.4724886241524922E-002  0.15709826931962564        0.0000000000000000     
   3.5302105104626336E-002  0.16488222844024211        0.0000000000000000     
   2.7151489033720839E-002  0.13423159813543292        0.0000000000000000     
   2.7730207282884316E-002  0.14169024095143362        0.0000000000000000     
   2.8275334199364659E-002  0.14926176757923415        0.0000000000000000     
   2.8786869783161882E-002  0.15694617801883454        0.0000000000000000     
   2.9264814034275971E-002  0.16474347227023484        0.0000000000000000     
   2.1634769707960883E-002  0.13407662191243749        0.0000000000000000     
   2.2096733005776276E-002  0.14154604866713952        0.0000000000000000     
   2.2531725164926152E-002  0.14912855337717645        0.0000000000000000     
   2.2939746185410503E-002  0.15682413604254830        0.0000000000000000     
   2.3320796067229331E-002  0.16463279666325503        0.0000000000000000     
   4.7656506555238308E-002  0.16524398246933905        0.0000000000000000     
   4.8385821364952279E-002  0.17309581799287610        0.0000000000000000     
   4.9059017825625321E-002  0.18103574402789632        0.0000000000000000     
   4.9676095937257428E-002  0.18906376057439980        0.0000000000000000     
   5.0237055699848605E-002  0.19717986763238649        0.0000000000000000     
   4.1432669278280453E-002  0.16504906517327686        0.0000000000000000     
   4.2063702634708447E-002  0.17291825842622233        0.0000000000000000     
   4.2644695862698985E-002  0.18087577520103706        0.0000000000000000     
   4.3175648962252081E-002  0.18892161549772107        0.0000000000000000     
   4.3656561933367741E-002  0.19705577931627438        0.0000000000000000     
   3.5302105104626336E-002  0.16488222844024211        0.0000000000000000     
   3.5837565792401258E-002  0.17276674017146321        0.0000000000000000     
   3.6329324614073871E-002  0.18073958178810159        0.0000000000000000     
   3.6777381569644177E-002  0.18880075329015730        0.0000000000000000     
   3.7181736659112168E-002  0.19695025467763030        0.0000000000000000     
   2.9264814034275971E-002  0.16474347227023484        0.0000000000000000     
   2.9707410838030732E-002  0.17264126322859871        0.0000000000000000     
   3.0112904079749977E-002  0.18062716378908991        0.0000000000000000     
   3.0481293759433696E-002  0.18870117395170849        0.0000000000000000     
   3.0812579877081900E-002  0.19686329371645428        0.0000000000000000     
   2.3320796067229331E-002  0.16463279666325503        0.0000000000000000     
   2.3673237771596852E-002  0.17254182759762890        0.0000000000000000     
   2.3995434259727295E-002  0.18053852120400204        0.0000000000000000     
   2.4287385531620655E-002  0.18862287748237458        0.0000000000000000     
   2.4549091587276931E-002  0.19679489643274634        0.0000000000000000     
   5.0237055699848605E-002  0.19717986763238649        0.0000000000000000     
   5.0739642226041715E-002  0.20537589751445953        0.0000000000000000     
   5.1181600628479644E-002  0.21364368253322200        0.0000000000000000     
   5.1562930907162387E-002  0.22198322268867390        0.0000000000000000     
   5.1883633062089936E-002  0.23039451798081523        0.0000000000000000     
   4.3656561933367741E-002  0.19705577931627438        0.0000000000000000     
   4.4086060109745140E-002  0.20526814823119682        0.0000000000000000     
   4.4462768825083494E-002  0.21354860381698815        0.0000000000000000     
   4.4786688079382804E-002  0.22189714607364838        0.0000000000000000     
   4.5057817872643055E-002  0.23031377500117764        0.0000000000000000     
   3.7181736659112168E-002  0.19695025467763030        0.0000000000000000     
   3.7541774960393508E-002  0.20517616471673714        0.0000000000000000     
   3.7856881551403834E-002  0.21346656217369439        0.0000000000000000     
   3.8127056432143168E-002  0.22182144704850193        0.0000000000000000     
   3.8352299602611481E-002  0.23024081934115986        0.0000000000000000     
   3.0812579877081900E-002  0.19686329371645428        0.0000000000000000     
   3.1106786777986811E-002  0.20509994697108067        0.0000000000000000     
   3.1363938807440671E-002  0.21339755760334070        0.0000000000000000     
   3.1584035965443465E-002  0.22175612561323441        0.0000000000000000     
   3.1767078251995214E-002  0.23017565100076179        0.0000000000000000     
   2.4549091587276931E-002  0.19679489643274634        0.0000000000000000     
   2.4781095562525064E-002  0.20503949499422727        0.0000000000000000     
   2.4983940593193997E-002  0.21334159010592707        0.0000000000000000     
   2.5157626679283725E-002  0.22170118176784584        0.0000000000000000     
   2.5302153820794256E-002  0.23011826997998355        0.0000000000000000     
   5.1883633062089936E-002  0.23039451798081523        0.0000000000000000     
   5.2151800230489834E-002  0.23886912436615493        0.0000000000000000     
   5.2375525549589595E-002  0.24739859780120202        0.0000000000000000     
   5.2554809019389213E-002  0.25598293828595647        0.0000000000000000     
   5.2689650639888716E-002  0.26462214582041832        0.0000000000000000     
   4.5057817872643055E-002  0.23031377500117764        0.0000000000000000     
   4.5285055314767786E-002  0.23878313872910403        0.0000000000000000     
   4.5477297515660542E-002  0.24728988538695570        0.0000000000000000     
   4.5634544475321316E-002  0.25583401497473252        0.0000000000000000     
   4.5756796193750081E-002  0.26441552749243469        0.0000000000000000     
   3.8352299602611481E-002  0.23024081934115986        0.0000000000000000     
   3.8541476091664070E-002  0.23870384128182803        0.0000000000000000     
   3.8703450928156212E-002  0.24718967510066620        0.0000000000000000     
   3.8838224112087913E-002  0.25569832079767446        0.0000000000000000     
   3.8945795643459159E-002  0.26422977837285272        0.0000000000000000     
   3.1767078251995214E-002  0.23017565100076179        0.0000000000000000     
   3.1921062561178673E-002  0.23863123202432696        0.0000000000000000     
   3.2053985787076612E-002  0.24709796694233371        0.0000000000000000     
   3.2165847929689025E-002  0.25557585575478220        0.0000000000000000     
   3.2256648989015931E-002  0.26406489846167225        0.0000000000000000     
   2.5302153820794256E-002  0.23011826997998355        0.0000000000000000     
   2.5423814723311587E-002  0.23856531095660077        0.0000000000000000     
   2.5528902092421726E-002  0.24701476091195815        0.0000000000000000     
   2.5617415928124655E-002  0.25546661984605568        0.0000000000000000     
   2.5689356230420388E-002  0.26392088775889339        0.0000000000000000     
   5.2689650639888716E-002  0.26462214582041832        0.0000000000000000     
   5.2810886240287354E-002  0.27326701804880021        0.0000000000000000     
   5.2949351649784440E-002  0.28186835261531512        0.0000000000000000     
   5.3105046868379947E-002  0.29042614951996293        0.0000000000000000     
   5.3277971896073896E-002  0.29894040876274369        0.0000000000000000     
   4.5756796193750081E-002  0.26441552749243469        0.0000000000000000     
   4.5868159054514468E-002  0.27298449328172447        0.0000000000000000     
   4.5992739441182040E-002  0.28149098268426409        0.0000000000000000     
   4.6130537353752797E-002  0.28993499570005365        0.0000000000000000     
   4.6281552792226746E-002  0.29831653232909305        0.0000000000000000     
   3.8945795643459159E-002  0.26422977837285272        0.0000000000000000     
   3.9044921245015046E-002  0.27273288811416951        0.0000000000000000     
   3.9154356639500655E-002  0.28115649030959350        0.0000000000000000     
   3.9274101826916000E-002  0.28950058495912445        0.0000000000000000     
   3.9404156807261059E-002  0.29776517206276254        0.0000000000000000     
   3.2256648989015931E-002  0.26406489846167225        0.0000000000000000     
   3.2341172811789089E-002  0.27251220254613551        0.0000000000000000     
   3.2434203244740292E-002  0.28086487549130329        0.0000000000000000     
   3.2535740287869534E-002  0.28912291729717560        0.0000000000000000     
   3.2645783941176829E-002  0.29728632796375232        0.0000000000000000     
   2.5689356230420388E-002  0.26392088775889339        0.0000000000000000     
   2.5756913754836595E-002  0.27232243657762228        0.0000000000000000     
   2.5832279256900941E-002  0.28061613822939335        0.0000000000000000     
   2.5915452736613425E-002  0.28880199271420670        0.0000000000000000     
   2.6006434193974051E-002  0.29688000003206227        0.0000000000000000     
   1.3996751104771612E-002   5.5780244720994868E-002   0.0000000000000000     
   1.4791120121575256E-002   6.1375495504635433E-002   0.0000000000000000     
   1.5551230981062317E-002   6.7152951166812580E-002   0.0000000000000000     
   1.6277083683232788E-002   7.3112611707526295E-002   0.0000000000000000     
   1.6968678228086672E-002   7.9254477126776579E-002   0.0000000000000000     
   1.0460661885388835E-002   5.5579590452065147E-002   0.0000000000000000     
   1.1041487566174398E-002   6.1179156271596452E-002   0.0000000000000000     
   1.1602552215314078E-002   6.6961651666620922E-002   0.0000000000000000     
   1.2143855832807877E-002   7.2927076637138544E-002   0.0000000000000000     
   1.2665398418655792E-002   7.9075431183149331E-002   0.0000000000000000     
   6.9491736281326469E-003   5.5436265974258214E-002   0.0000000000000000     
   7.3264233607782375E-003   6.1038913962282899E-002   0.0000000000000000     
   7.6944541298876118E-003   6.6825009166484026E-002   0.0000000000000000     
   8.0532659354607683E-003   7.2794551586861572E-002   0.0000000000000000     
   8.4028587774977112E-003   7.8947541223415588E-002   0.0000000000000000     
   3.4622863330030481E-003   5.5350271287574054E-002   0.0000000000000000     
   3.6459275053867752E-003   6.0954768576694768E-002   0.0000000000000000     
   3.8269367247829146E-003   6.6743023666401891E-002   0.0000000000000000     
   4.0053139911914656E-003   7.2715036556695409E-002   0.0000000000000000     
   4.1810593046124282E-003   7.8870807247575322E-002   0.0000000000000000     
   3.7730235602495554E-017   5.5321606392012654E-002   0.0000000000000000     
   9.5409791178724390E-018   6.0926720114832078E-002   0.0000000000000000     
  -1.4853569763051411E-017   6.6715695166374531E-002   0.0000000000000000     
  -3.7865760874056242E-017   7.2688531546640026E-002   0.0000000000000000     
  -5.6378512969246231E-017   7.8845229255628577E-002   0.0000000000000000     
   1.6968678228086672E-002   7.9254477126776579E-002   0.0000000000000000     
   1.7632781223919897E-002   8.5568650050310155E-002   0.0000000000000000     
   1.8276159279028398E-002   9.2045233103873761E-002   0.0000000000000000     
   1.8898812393412165E-002   9.8684226287467383E-002   0.0000000000000000     
   1.9500740567071208E-002  0.10548562960109104        0.0000000000000000     
   1.2665398418655792E-002   7.9075431183149331E-002   0.0000000000000000     
   1.3168619071895871E-002   8.5396504686896788E-002   0.0000000000000000     
   1.3654956891566161E-002   9.1880086530624391E-002   0.0000000000000000     
   1.4124411877666658E-002   9.8526176714332156E-002   0.0000000000000000     
   1.4576984030197368E-002  0.10533477523802007        0.0000000000000000     
   8.4028587774977112E-003   7.8947541223415588E-002   0.0000000000000000     
   8.7417681505678642E-003   8.5273543713030087E-002   0.0000000000000000     
   9.0685295492406639E-003   9.1762124692589112E-002   0.0000000000000000     
   9.3831429735161068E-003   9.8413284162092690E-002   0.0000000000000000     
   9.6856084233941982E-003  0.10522702212154081        0.0000000000000000     
   4.1810593046124282E-003   7.8870807247575322E-002   0.0000000000000000     
   4.3522284599358824E-003   8.5199767128710052E-002   0.0000000000000000     
   4.5168772520519131E-003   9.1691347589767935E-002   0.0000000000000000     
   4.6750056809605157E-003   9.8345548630749000E-002   0.0000000000000000     
   4.8266137466616938E-003  0.10516237025165324        0.0000000000000000     
  -5.6378512969246231E-017   7.8845229255628577E-002   0.0000000000000000     
  -7.5460471204991109E-017   8.5175174933936643E-002   0.0000000000000000     
  -9.5843472047718592E-017   9.1667755222160835E-002   0.0000000000000000     
  -1.1698541441118593E-016   9.8322970120301070E-002   0.0000000000000000     
  -1.4051260155412137E-016  0.10514081962835739        0.0000000000000000     
   1.9500740567071208E-002  0.10548562960109104        0.0000000000000000     
   2.0077791665849318E-002  0.11243452290452920        0.0000000000000000     
   2.0625813555590303E-002  0.11951598605756632        0.0000000000000000     
   2.1144806236294153E-002  0.12673001906020243        0.0000000000000000     
   2.1634769707960883E-002  0.13407662191243749        0.0000000000000000     
   1.4576984030197368E-002  0.10533477523802007        0.0000000000000000     
   1.5010105423958878E-002  0.11229105212924512        0.0000000000000000     
   1.5421208133751767E-002  0.11938017741556427        0.0000000000000000     
   1.5810292159576040E-002  0.12660215109697756        0.0000000000000000     
   1.6177357501431698E-002  0.13395697317348496        0.0000000000000000     
   9.6856084233941982E-003  0.10522702212154081        0.0000000000000000     
   9.9745780656871463E-003  0.11218857300404220        0.0000000000000000     
   1.0248704067207175E-002  0.11928317124270568        0.0000000000000000     
   1.0507986427954277E-002  0.12651081683753126        0.0000000000000000     
   1.0752425147928455E-002  0.13387150978851889        0.0000000000000000     
   4.8266137466616938E-003  0.10516237025165324        0.0000000000000000     
   4.9712095910341338E-003  0.11212708552892049        0.0000000000000000     
   5.1083013559565238E-003  0.11922496753899058        0.0000000000000000     
   5.2378890414288620E-003  0.12645601628186348        0.0000000000000000     
   5.3599726474511510E-003  0.13382023175753927        0.0000000000000000     
  -1.4051260155412137E-016  0.10514081962835739        0.0000000000000000     
  -1.6349768761081407E-016  0.11210658970387996        0.0000000000000000     
  -1.8344700758454735E-016  0.11920556630441892        0.0000000000000000     
  -2.0090266256156397E-016  0.12643774942997429        0.0000000000000000     
  -2.1380466841414147E-016  0.13380313908054606        0.0000000000000000     
   2.1634769707960883E-002  0.13407662191243749        0.0000000000000000     
   2.2096733005776276E-002  0.14154604866713952        0.0000000000000000     
   2.2531725164926152E-002  0.14912855337717645        0.0000000000000000     
   2.2939746185410503E-002  0.15682413604254830        0.0000000000000000     
   2.3320796067229331E-002  0.16463279666325503        0.0000000000000000     
   1.6177357501431698E-002  0.13395697317348496        0.0000000000000000     
   1.6523327798213319E-002  0.14143486210277501        0.0000000000000000     
   1.6849126688815476E-002  0.14902603634253622        0.0000000000000000     
   1.7154754173238175E-002  0.15673049589276863        0.0000000000000000     
   1.7440210251481410E-002  0.16454824075347221        0.0000000000000000     
   1.0752425147928455E-002  0.13387150978851889        0.0000000000000000     
   1.0982737228062915E-002  0.14135544312822892        0.0000000000000000     
   1.1199639669290856E-002  0.14895280988922183        0.0000000000000000     
   1.1403132471612280E-002  0.15666361007149743        0.0000000000000000     
   1.1593215635027184E-002  0.16448784367505589        0.0000000000000000     
   5.3599726474511510E-003  0.13382023175753927        0.0000000000000000     
   5.4749612953250686E-003  0.14130779174350130        0.0000000000000000     
   5.5832641063522908E-003  0.14890887401723316        0.0000000000000000     
   5.6848810805328210E-003  0.15662347857873474        0.0000000000000000     
   5.7798122178666558E-003  0.16445160542800616        0.0000000000000000     
  -2.1380466841414147E-016  0.13380313908054606        0.0000000000000000     
  -2.2074356231804870E-016  0.14129190794859209        0.0000000000000000     
  -2.1684043449710089E-016  0.14889422872657024        0.0000000000000000     
  -2.0339632755828063E-016  0.15661010141448051        0.0000000000000000     
  -1.7737547541862853E-016  0.16443952601232284        0.0000000000000000     
   2.3320796067229331E-002  0.16463279666325503        0.0000000000000000     
   2.3673237771596852E-002  0.17254182759762890        0.0000000000000000     
   2.3995434259727295E-002  0.18053852120400204        0.0000000000000000     
   2.4287385531620655E-002  0.18862287748237458        0.0000000000000000     
   2.4549091587276931E-002  0.19679489643274634        0.0000000000000000     
   1.7440210251481410E-002  0.16454824075347221        0.0000000000000000     
   1.7704023819022880E-002  0.17246621449448421        0.0000000000000000     
   1.7944723771340279E-002  0.18047136068564187        0.0000000000000000     
   1.8162310108433614E-002  0.18856367932694518        0.0000000000000000     
   1.8356782830302877E-002  0.19674317041839420        0.0000000000000000     
   1.1593215635027184E-002  0.16448784367505589        0.0000000000000000     
   1.1768746206232052E-002  0.17241220513509514        0.0000000000000000     
   1.1928581231923372E-002  0.18042338888681314        0.0000000000000000     
   1.2072720712101141E-002  0.18852139493020995        0.0000000000000000     
   1.2201164646765359E-002  0.19670622326528547        0.0000000000000000     
   5.7798122178666558E-003  0.16445160542800616        0.0000000000000000     
   5.8674049332243785E-003  0.17237979951946167        0.0000000000000000     
   5.9470066414765710E-003  0.18039460580751593        0.0000000000000000     
   6.0186173426232375E-003  0.18849602429216877        0.0000000000000000     
   6.0822370366643737E-003  0.19668405497342029        0.0000000000000000     
  -1.7737547541862853E-016  0.16443952601232284        0.0000000000000000     
  -1.4831885719601701E-016  0.17236899764758393        0.0000000000000000     
  -1.2197274440461925E-016  0.18038501144775021        0.0000000000000000     
  -9.6846359057267684E-017  0.18848756741282177        0.0000000000000000     
  -7.5894152073985310E-017  0.19667666554279856        0.0000000000000000     
   2.4549091587276931E-002  0.19679489643274634        0.0000000000000000     
   2.4781095562525064E-002  0.20503949499422727        0.0000000000000000     
   2.4983940593193997E-002  0.21334159010592707        0.0000000000000000     
   2.5157626679283725E-002  0.22170118176784584        0.0000000000000000     
   2.5302153820794256E-002  0.23011826997998355        0.0000000000000000     
   1.8356782830302877E-002  0.19674317041839420        0.0000000000000000     
   1.8528995040875282E-002  0.20499349703833195        0.0000000000000000     
   1.8679799844078044E-002  0.21329832226510145        0.0000000000000000     
   1.8809197239911160E-002  0.22165764609870289        0.0000000000000000     
   1.8917187228374634E-002  0.23007146853913621        0.0000000000000000     
   1.2201164646765359E-002  0.19670622326528547        0.0000000000000000     
   1.2314778939904500E-002  0.20496064135554956        0.0000000000000000     
   1.2414429495507051E-002  0.21326741666451179        0.0000000000000000     
   1.2500116313573008E-002  0.22162654919217228        0.0000000000000000     
   1.2571839394102370E-002  0.23003803893853092        0.0000000000000000     
   6.0822370366643737E-003  0.19668405497342029        0.0000000000000000     
   6.1384472596127202E-003  0.20494092794588009        0.0000000000000000     
   6.1878295474810186E-003  0.21324887330415798        0.0000000000000000     
   6.2303839002692653E-003  0.22160789104825382        0.0000000000000000     
   6.2661103179774656E-003  0.23001798117816777        0.0000000000000000     
  -7.5894152073985310E-017  0.19667666554279856        0.0000000000000000     
  -6.0498481224691147E-017  0.20493435680932368        0.0000000000000000     
  -5.6378512969246231E-017  0.21324269218404007        0.0000000000000000     
  -6.3100566438656358E-017  0.22160167166694777        0.0000000000000000     
  -8.1098322501915732E-017  0.23001129525804678        0.0000000000000000     
   2.5302153820794256E-002  0.23011826997998355        0.0000000000000000     
   2.5423814723311587E-002  0.23856531095660077        0.0000000000000000     
   2.5528902092421726E-002  0.24701476091195815        0.0000000000000000     
   2.5617415928124655E-002  0.25546661984605568        0.0000000000000000     
   2.5689356230420388E-002  0.26392088775889339        0.0000000000000000     
   1.8917187228374634E-002  0.23007146853913621        0.0000000000000000     
   1.9008077559436166E-002  0.23851055610536687        0.0000000000000000     
   1.9086175983063468E-002  0.24694567531636069        0.0000000000000000     
   1.9151482499256529E-002  0.25537682617211760        0.0000000000000000     
   1.9203997108015354E-002  0.26380400867263754        0.0000000000000000     
   1.2571839394102370E-002  0.23003803893853092        0.0000000000000000     
   1.2632196050925746E-002  0.23847144549734273        0.0000000000000000     
   1.2683783597873748E-002  0.24689632846236251        0.0000000000000000     
   1.2726602034946365E-002  0.25531268783359035        0.0000000000000000     
   1.2760651362143608E-002  0.26372052361102621        0.0000000000000000     
   6.2661103179774656E-003  0.23001798117816777        0.0000000000000000     
   6.2961701977803271E-003  0.23844797913252821        0.0000000000000000     
   6.3217249368525642E-003  0.24686672034996363        0.0000000000000000     
   6.3427745351941761E-003  0.25527420483047403        0.0000000000000000     
   6.3593189928051611E-003  0.26367043257405937        0.0000000000000000     
  -8.1098322501915732E-017  0.23001129525804678        0.0000000000000000     
  -9.2157184661267877E-017  0.23844015701092344        0.0000000000000000     
  -8.0989902284667181E-017  0.24685685097916404        0.0000000000000000     
  -4.7352529883304406E-017  0.25526137716276859        0.0000000000000000     
   8.6736173798840355E-018  0.26365373556173705        0.0000000000000000     
   2.5689356230420388E-002  0.26392088775889339        0.0000000000000000     
   2.5756913754836595E-002  0.27232243657762228        0.0000000000000000     
   2.5832279256900941E-002  0.28061613822939335        0.0000000000000000     
   2.5915452736613425E-002  0.28880199271420670        0.0000000000000000     
   2.6006434193974051E-002  0.29688000003206227        0.0000000000000000     
   1.9203997108015354E-002  0.26380400867263754        0.0000000000000000     
   1.9253720868547496E-002  0.27216991867996360        0.0000000000000000     
   1.9310654840060507E-002  0.28041725205613866        0.0000000000000000     
   1.9374799022554390E-002  0.28854600880116282        0.0000000000000000     
   1.9446153416029142E-002  0.29655618891503610        0.0000000000000000     
   1.2760651362143608E-002  0.26372052361102621        0.0000000000000000     
   1.2793170947311706E-002  0.27206097732449303        0.0000000000000000     
   1.2831400158296889E-002  0.28027519050381389        0.0000000000000000     
   1.2875338995099161E-002  0.28836316314898869        0.0000000000000000     
   1.2924987457718518E-002  0.29632489526001743        0.0000000000000000     
   6.3593189928051611E-003  0.26367043257405937        0.0000000000000000     
   6.3752639911292290E-003  0.27199561251121063        0.0000000000000000     
   6.3945152116100887E-003  0.28018995357241894        0.0000000000000000     
   6.4170726542477361E-003  0.28825345575768413        0.0000000000000000     
   6.4429363190421744E-003  0.29618611906700626        0.0000000000000000     
   8.6736173798840355E-018  0.26365373556173705        0.0000000000000000     
   6.5485811218124468E-017  0.27197382424011646        0.0000000000000000     
   1.0191500421363742E-016  0.28016154126195392        0.0000000000000000     
   1.1850329745266563E-016  0.28821688662724920        0.0000000000000000     
   1.1275702593849246E-016  0.29613986033600248        0.0000000000000000     
   3.7730235602495554E-017   5.5321606392012654E-002   0.0000000000000000     
   9.5409791178724390E-018   6.0926720114832078E-002   0.0000000000000000     
  -1.4853569763051411E-017   6.6715695166374531E-002   0.0000000000000000     
  -3.7865760874056242E-017   7.2688531546640026E-002   0.0000000000000000     
  -5.6378512969246231E-017   7.8845229255628577E-002   0.0000000000000000     
  -3.4622863330029839E-003   5.5350271287574040E-002   0.0000000000000000     
  -3.6459275053867648E-003   6.0954768576694796E-002   0.0000000000000000     
  -3.8269367247829511E-003   6.6743023666401932E-002   0.0000000000000000     
  -4.0053139911915463E-003   7.2715036556695423E-002   0.0000000000000000     
  -4.1810593046125470E-003   7.8870807247575309E-002   0.0000000000000000     
  -6.9491736281326166E-003   5.5436265974258193E-002   0.0000000000000000     
  -7.3264233607782539E-003   6.1038913962282934E-002   0.0000000000000000     
  -7.6944541298876751E-003   6.6825009166484095E-002   0.0000000000000000     
  -8.0532659354608706E-003   7.2794551586861642E-002   0.0000000000000000     
  -8.4028587774978517E-003   7.8947541223415560E-002   0.0000000000000000     
  -1.0460661885388861E-002   5.5579590452065120E-002   0.0000000000000000     
  -1.1041487566174461E-002   6.1179156271596501E-002   0.0000000000000000     
  -1.1602552215314177E-002   6.6961651666620992E-002   0.0000000000000000     
  -1.2143855832808016E-002   7.2927076637138613E-002   0.0000000000000000     
  -1.2665398418655971E-002   7.9075431183149317E-002   0.0000000000000000     
  -1.3996751104771716E-002   5.5780244720994819E-002   0.0000000000000000     
  -1.4791120121575383E-002   6.1375495504635481E-002   0.0000000000000000     
  -1.5551230981062470E-002   6.7152951166812663E-002   0.0000000000000000     
  -1.6277083683232975E-002   7.3112611707526379E-002   0.0000000000000000     
  -1.6968678228086898E-002   7.9254477126776607E-002   0.0000000000000000     
  -5.6378512969246231E-017   7.8845229255628577E-002   0.0000000000000000     
  -7.5460471204991109E-017   8.5175174933936643E-002   0.0000000000000000     
  -9.5843472047718592E-017   9.1667755222160835E-002   0.0000000000000000     
  -1.1698541441118593E-016   9.8322970120301070E-002   0.0000000000000000     
  -1.4051260155412137E-016  0.10514081962835739        0.0000000000000000     
  -4.1810593046125470E-003   7.8870807247575309E-002   0.0000000000000000     
  -4.3522284599360403E-003   8.5199767128709969E-002   0.0000000000000000     
  -4.5168772520521108E-003   9.1691347589767866E-002   0.0000000000000000     
  -4.6750056809607568E-003   9.8345548630748944E-002   0.0000000000000000     
  -4.8266137466619809E-003  0.10516237025165326        0.0000000000000000     
  -8.4028587774978517E-003   7.8947541223415560E-002   0.0000000000000000     
  -8.7417681505680429E-003   8.5273543713029989E-002   0.0000000000000000     
  -9.0685295492408842E-003   9.1762124692589028E-002   0.0000000000000000     
  -9.3831429735163688E-003   9.8413284162092649E-002   0.0000000000000000     
  -9.6856084233945001E-003  0.10522702212154085        0.0000000000000000     
  -1.2665398418655971E-002   7.9075431183149317E-002   0.0000000000000000     
  -1.3168619071896084E-002   8.5396504686896704E-002   0.0000000000000000     
  -1.3654956891566414E-002   9.1880086530624308E-002   0.0000000000000000     
  -1.4124411877666949E-002   9.8526176714332114E-002   0.0000000000000000     
  -1.4576984030197701E-002  0.10533477523802018        0.0000000000000000     
  -1.6968678228086898E-002   7.9254477126776607E-002   0.0000000000000000     
  -1.7632781223920167E-002   8.5568650050310155E-002   0.0000000000000000     
  -1.8276159279028703E-002   9.2045233103873761E-002   0.0000000000000000     
  -1.8898812393412505E-002   9.8684226287467453E-002   0.0000000000000000     
  -1.9500740567071580E-002  0.10548562960109120        0.0000000000000000     
  -1.4051260155412137E-016  0.10514081962835739        0.0000000000000000     
  -1.6349768761081407E-016  0.11210658970387996        0.0000000000000000     
  -1.8344700758454735E-016  0.11920556630441892        0.0000000000000000     
  -2.0090266256156397E-016  0.12643774942997429        0.0000000000000000     
  -2.1380466841414147E-016  0.13380313908054606        0.0000000000000000     
  -4.8266137466619809E-003  0.10516237025165326        0.0000000000000000     
  -4.9712095910344652E-003  0.11212708552892060        0.0000000000000000     
  -5.1083013559568924E-003  0.11922496753899070        0.0000000000000000     
  -5.2378890414292653E-003  0.12645601628186362        0.0000000000000000     
  -5.3599726474515795E-003  0.13382023175753932        0.0000000000000000     
  -9.6856084233945001E-003  0.10522702212154085        0.0000000000000000     
  -9.9745780656874915E-003  0.11218857300404239        0.0000000000000000     
  -1.0248704067207553E-002  0.11928317124270592        0.0000000000000000     
  -1.0507986427954683E-002  0.12651081683753146        0.0000000000000000     
  -1.0752425147928884E-002  0.13387150978851900        0.0000000000000000     
  -1.4576984030197701E-002  0.10533477523802018        0.0000000000000000     
  -1.5010105423959244E-002  0.11229105212924534        0.0000000000000000     
  -1.5421208133752161E-002  0.11938017741556455        0.0000000000000000     
  -1.5810292159576456E-002  0.12660215109697784        0.0000000000000000     
  -1.6177357501432128E-002  0.13395697317348518        0.0000000000000000     
  -1.9500740567071580E-002  0.10548562960109120        0.0000000000000000     
  -2.0077791665849717E-002  0.11243452290452946        0.0000000000000000     
  -2.0625813555590723E-002  0.11951598605756662        0.0000000000000000     
  -2.1144806236294583E-002  0.12673001906020273        0.0000000000000000     
  -2.1634769707961309E-002  0.13407662191243772        0.0000000000000000     
  -2.1380466841414147E-016  0.13380313908054606        0.0000000000000000     
  -2.2074356231804870E-016  0.14129190794859209        0.0000000000000000     
  -2.1684043449710089E-016  0.14889422872657024        0.0000000000000000     
  -2.0339632755828063E-016  0.15661010141448051        0.0000000000000000     
  -1.7737547541862853E-016  0.16443952601232284        0.0000000000000000     
  -5.3599726474515795E-003  0.13382023175753932        0.0000000000000000     
  -5.4749612953255093E-003  0.14130779174350130        0.0000000000000000     
  -5.5832641063527227E-003  0.14890887401723313        0.0000000000000000     
  -5.6848810805332261E-003  0.15662347857873471        0.0000000000000000     
  -5.7798122178670096E-003  0.16445160542800610        0.0000000000000000     
  -1.0752425147928884E-002  0.13387150978851900        0.0000000000000000     
  -1.0982737228063351E-002  0.14135544312822898        0.0000000000000000     
  -1.1199639669291281E-002  0.14895280988922180        0.0000000000000000     
  -1.1403132471612676E-002  0.15666361007149746        0.0000000000000000     
  -1.1593215635027533E-002  0.16448784367505589        0.0000000000000000     
  -1.6177357501432128E-002  0.13395697317348518        0.0000000000000000     
  -1.6523327798213746E-002  0.14143486210277509        0.0000000000000000     
  -1.6849126688815896E-002  0.14902603634253628        0.0000000000000000     
  -1.7154754173238560E-002  0.15673049589276866        0.0000000000000000     
  -1.7440210251481750E-002  0.16454824075347224        0.0000000000000000     
  -2.1634769707961309E-002  0.13407662191243772        0.0000000000000000     
  -2.2096733005776699E-002  0.14154604866713966        0.0000000000000000     
  -2.2531725164926551E-002  0.14912855337717651        0.0000000000000000     
  -2.2939746185410871E-002  0.15682413604254833        0.0000000000000000     
  -2.3320796067229661E-002  0.16463279666325512        0.0000000000000000     
  -1.7737547541862853E-016  0.16443952601232284        0.0000000000000000     
  -1.4831885719601701E-016  0.17236899764758393        0.0000000000000000     
  -1.2197274440461925E-016  0.18038501144775021        0.0000000000000000     
  -9.6846359057267684E-017  0.18848756741282177        0.0000000000000000     
  -7.5894152073985310E-017  0.19667666554279856        0.0000000000000000     
  -5.7798122178670096E-003  0.16445160542800610        0.0000000000000000     
  -5.8674049332246760E-003  0.17237979951946172        0.0000000000000000     
  -5.9470066414768138E-003  0.18039460580751596        0.0000000000000000     
  -6.0186173426234352E-003  0.18849602429216883        0.0000000000000000     
  -6.0822370366645272E-003  0.19668405497342031        0.0000000000000000     
  -1.1593215635027533E-002  0.16448784367505589        0.0000000000000000     
  -1.1768746206232349E-002  0.17241220513509517        0.0000000000000000     
  -1.1928581231923616E-002  0.18042338888681322        0.0000000000000000     
  -1.2072720712101338E-002  0.18852139493021003        0.0000000000000000     
  -1.2201164646765517E-002  0.19670622326528556        0.0000000000000000     
  -1.7440210251481750E-002  0.16454824075347224        0.0000000000000000     
  -1.7704023819023171E-002  0.17246621449448424        0.0000000000000000     
  -1.7944723771340525E-002  0.18047136068564196        0.0000000000000000     
  -1.8162310108433818E-002  0.18856367932694526        0.0000000000000000     
  -1.8356782830303051E-002  0.19674317041839429        0.0000000000000000     
  -2.3320796067229661E-002  0.16463279666325512        0.0000000000000000     
  -2.3673237771597144E-002  0.17254182759762898        0.0000000000000000     
  -2.3995434259727548E-002  0.18053852120400221        0.0000000000000000     
  -2.4287385531620870E-002  0.18862287748237466        0.0000000000000000     
  -2.4549091587277121E-002  0.19679489643274650        0.0000000000000000     
  -7.5894152073985310E-017  0.19667666554279856        0.0000000000000000     
  -6.0498481224691147E-017  0.20493435680932368        0.0000000000000000     
  -5.6378512969246231E-017  0.21324269218404007        0.0000000000000000     
  -6.3100566438656358E-017  0.22160167166694777        0.0000000000000000     
  -8.1098322501915732E-017  0.23001129525804678        0.0000000000000000     
  -6.0822370366645272E-003  0.19668405497342031        0.0000000000000000     
  -6.1384472596128468E-003  0.20494092794588017        0.0000000000000000     
  -6.1878295474811322E-003  0.21324887330415807        0.0000000000000000     
  -6.2303839002693902E-003  0.22160789104825396        0.0000000000000000     
  -6.2661103179776174E-003  0.23001798117816785        0.0000000000000000     
  -1.2201164646765517E-002  0.19670622326528556        0.0000000000000000     
  -1.2314778939904635E-002  0.20496064135554962        0.0000000000000000     
  -1.2414429495507169E-002  0.21326741666451188        0.0000000000000000     
  -1.2500116313573121E-002  0.22162654919217240        0.0000000000000000     
  -1.2571839394102495E-002  0.23003803893853106        0.0000000000000000     
  -1.8356782830303051E-002  0.19674317041839429        0.0000000000000000     
  -1.8528995040875431E-002  0.20499349703833208        0.0000000000000000     
  -1.8679799844078165E-002  0.21329832226510165        0.0000000000000000     
  -1.8809197239911254E-002  0.22165764609870306        0.0000000000000000     
  -1.8917187228374713E-002  0.23007146853913632        0.0000000000000000     
  -2.4549091587277121E-002  0.19679489643274650        0.0000000000000000     
  -2.4781095562525227E-002  0.20503949499422741        0.0000000000000000     
  -2.4983940593194118E-002  0.21334159010592726        0.0000000000000000     
  -2.5157626679283802E-002  0.22170118176784601        0.0000000000000000     
  -2.5302153820794274E-002  0.23011826997998366        0.0000000000000000     
  -8.1098322501915732E-017  0.23001129525804678        0.0000000000000000     
  -9.2157184661267877E-017  0.23844015701092344        0.0000000000000000     
  -8.0989902284667181E-017  0.24685685097916404        0.0000000000000000     
  -4.7352529883304406E-017  0.25526137716276859        0.0000000000000000     
   8.6736173798840355E-018  0.26365373556173705        0.0000000000000000     
  -6.2661103179776174E-003  0.23001798117816785        0.0000000000000000     
  -6.2961701977804988E-003  0.23844797913252833        0.0000000000000000     
  -6.3217249368527090E-003  0.24686672034996371        0.0000000000000000     
  -6.3427745351942533E-003  0.25527420483047397        0.0000000000000000     
  -6.3593189928051325E-003  0.26367043257405931        0.0000000000000000     
  -1.2571839394102495E-002  0.23003803893853106        0.0000000000000000     
  -1.2632196050925875E-002  0.23847144549734284        0.0000000000000000     
  -1.2683783597873843E-002  0.24689632846236259        0.0000000000000000     
  -1.2726602034946397E-002  0.25531268783359035        0.0000000000000000     
  -1.2760651362143544E-002  0.26372052361102605        0.0000000000000000     
  -1.8917187228374713E-002  0.23007146853913632        0.0000000000000000     
  -1.9008077559436221E-002  0.23851055610536701        0.0000000000000000     
  -1.9086175983063478E-002  0.24694567531636075        0.0000000000000000     
  -1.9151482499256477E-002  0.25537682617211760        0.0000000000000000     
  -1.9203997108015222E-002  0.26380400867263737        0.0000000000000000     
  -2.5302153820794274E-002  0.23011826997998366        0.0000000000000000     
  -2.5423814723311542E-002  0.23856531095660088        0.0000000000000000     
  -2.5528902092421618E-002  0.24701476091195818        0.0000000000000000     
  -2.5617415928124495E-002  0.25546661984605562        0.0000000000000000     
  -2.5689356230420176E-002  0.26392088775889327        0.0000000000000000     
   8.6736173798840355E-018  0.26365373556173705        0.0000000000000000     
   6.5485811218124468E-017  0.27197382424011646        0.0000000000000000     
   1.0191500421363742E-016  0.28016154126195392        0.0000000000000000     
   1.1850329745266563E-016  0.28821688662724920        0.0000000000000000     
   1.1275702593849246E-016  0.29613986033600248        0.0000000000000000     
  -6.3593189928051325E-003  0.26367043257405931        0.0000000000000000     
  -6.3752639911290919E-003  0.27199561251121052        0.0000000000000000     
  -6.3945152116098797E-003  0.28018995357241872        0.0000000000000000     
  -6.4170726542474993E-003  0.28825345575768396        0.0000000000000000     
  -6.4429363190419454E-003  0.29618611906700620        0.0000000000000000     
  -1.2760651362143544E-002  0.26372052361102605        0.0000000000000000     
  -1.2793170947311543E-002  0.27206097732449280        0.0000000000000000     
  -1.2831400158296667E-002  0.28027519050381355        0.0000000000000000     
  -1.2875338995098911E-002  0.28836316314898841        0.0000000000000000     
  -1.2924987457718279E-002  0.29632489526001737        0.0000000000000000     
  -1.9203997108015222E-002  0.26380400867263737        0.0000000000000000     
  -1.9253720868547295E-002  0.27216991867996332        0.0000000000000000     
  -1.9310654840060261E-002  0.28041725205613832        0.0000000000000000     
  -1.9374799022554123E-002  0.28854600880116249        0.0000000000000000     
  -1.9446153416028893E-002  0.29655618891503588        0.0000000000000000     
  -2.5689356230420176E-002  0.26392088775889327        0.0000000000000000     
  -2.5756913754836339E-002  0.27232243657762206        0.0000000000000000     
  -2.5832279256900660E-002  0.28061613822939308        0.0000000000000000     
  -2.5915452736613137E-002  0.28880199271420637        0.0000000000000000     
  -2.6006434193973776E-002  0.29688000003206183        0.0000000000000000     
  -1.3996751104771716E-002   5.5780244720994819E-002   0.0000000000000000     
  -1.4791120121575383E-002   6.1375495504635481E-002   0.0000000000000000     
  -1.5551230981062470E-002   6.7152951166812663E-002   0.0000000000000000     
  -1.6277083683232975E-002   7.3112611707526379E-002   0.0000000000000000     
  -1.6968678228086898E-002   7.9254477126776607E-002   0.0000000000000000     
  -1.7592168804036898E-002   5.6039107500594314E-002   0.0000000000000000     
  -1.8598311189162539E-002   6.1628570680992874E-002   0.0000000000000000     
  -1.9556414645068139E-002   6.7399353477780477E-002   0.0000000000000000     
  -2.0466479171753687E-002   7.3351455890957123E-002   0.0000000000000000     
  -2.1328504769219193E-002   7.9484877920522848E-002   0.0000000000000000     
  -2.1281642500940112E-002   5.6357057510410632E-002   0.0000000000000000     
  -2.2486050931117448E-002   6.1939020820261675E-002   0.0000000000000000     
  -2.3634027425266779E-002   6.7701304410245841E-002   0.0000000000000000     
  -2.4725571983388091E-002   7.3643908280363102E-002   0.0000000000000000     
  -2.5760684605481404E-002   7.9766832430613471E-002   0.0000000000000000     
  -2.5065172195481364E-002   5.6734094750443761E-002   0.0000000000000000     
  -2.6454339347440105E-002   6.2306845922441893E-002   0.0000000000000000     
  -2.7784069321658375E-002   6.8058803964208728E-002   0.0000000000000000     
  -2.9054362118136185E-002   7.3989968875744244E-002   0.0000000000000000     
  -3.0265217736873528E-002   8.0100340657048477E-002   0.0000000000000000     
  -2.8942757887660653E-002   5.7170219220693722E-002   0.0000000000000000     
  -3.0503176438130518E-002   6.2732045987533527E-002   0.0000000000000000     
  -3.2006540334242960E-002   6.8471852139669151E-002   0.0000000000000000     
  -3.3452849575997971E-002   7.4389637677100606E-002   0.0000000000000000     
  -3.4842104163395560E-002   8.0485402599827865E-002   0.0000000000000000     
  -1.6968678228086898E-002   7.9254477126776607E-002   0.0000000000000000     
  -1.7632781223920167E-002   8.5568650050310155E-002   0.0000000000000000     
  -1.8276159279028703E-002   9.2045233103873761E-002   0.0000000000000000     
  -1.8898812393412505E-002   9.8684226287467453E-002   0.0000000000000000     
  -1.9500740567071580E-002  0.10548562960109120        0.0000000000000000     
  -2.1328504769219193E-002   7.9484877920522848E-002   0.0000000000000000     
  -2.2154133390710897E-002   8.5790141863537700E-002   0.0000000000000000     
  -2.2955006989475044E-002   9.2257770017061758E-002   0.0000000000000000     
  -2.3731125565511640E-002   9.8887762381095076E-002   0.0000000000000000     
  -2.4482489118820679E-002  0.10568011895563759        0.0000000000000000     
  -2.5760684605481404E-002   7.9766832430613471E-002   0.0000000000000000     
  -2.6752554356338887E-002   8.6061142186846740E-002   0.0000000000000000     
  -2.7714370300752737E-002   9.2517902874912766E-002   0.0000000000000000     
  -2.8646132438722955E-002   9.9137114494811496E-002   0.0000000000000000     
  -2.9547840770249533E-002  0.10591877704654297        0.0000000000000000     
  -3.0265217736873528E-002   8.0100340657048477E-002   0.0000000000000000     
  -3.1428044120804140E-002   8.6381651020237329E-002   0.0000000000000000     
  -3.2554249212861777E-002   9.2825631677426759E-002   0.0000000000000000     
  -3.3643833013046451E-002   9.9432282628616753E-002   0.0000000000000000     
  -3.4696795521358147E-002  0.10620160387380732        0.0000000000000000     
  -3.4842104163395560E-002   8.0485402599827865E-002   0.0000000000000000     
  -3.6180602684106646E-002   8.6751668363709414E-002   0.0000000000000000     
  -3.7474643725802170E-002   9.3180956424603750E-002   0.0000000000000000     
  -3.8724227288482120E-002   9.9773266782510819E-002   0.0000000000000000     
  -3.9929353372146509E-002  0.10652859943743068        0.0000000000000000     
  -1.9500740567071580E-002  0.10548562960109120        0.0000000000000000     
  -2.0077791665849717E-002  0.11243452290452946        0.0000000000000000     
  -2.0625813555590723E-002  0.11951598605756662        0.0000000000000000     
  -2.1144806236294583E-002  0.12673001906020273        0.0000000000000000     
  -2.1634769707961309E-002  0.13407662191243772        0.0000000000000000     
  -2.4482489118820679E-002  0.10568011895563759        0.0000000000000000     
  -2.5203541144960911E-002  0.11261974041422267        0.0000000000000000     
  -2.5888725139491083E-002  0.11969152743038364        0.0000000000000000     
  -2.6538041102411199E-002  0.12689548000412049        0.0000000000000000     
  -2.7151489033721256E-002  0.13423159813543320        0.0000000000000000     
  -2.9547840770249533E-002  0.10591877704654297        0.0000000000000000     
  -3.0413258214894809E-002  0.11284745974265291        0.0000000000000000     
  -3.1236147692221113E-002  0.11990773179568706        0.0000000000000000     
  -3.2016509202228448E-002  0.12709959320564543        0.0000000000000000     
  -3.2754342744916808E-002  0.13442304397252802        0.0000000000000000     
  -3.4696795521358147E-002  0.10620160387380732        0.0000000000000000     
  -3.5706942875651404E-002  0.11311768088982015        0.0000000000000000     
  -3.6668081213780797E-002  0.12016459915347689        0.0000000000000000     
  -3.7580210535746318E-002  0.12734235866477761        0.0000000000000000     
  -3.8443330841547968E-002  0.13465095942372221        0.0000000000000000     
  -3.9929353372146509E-002  0.10652859943743068        0.0000000000000000     
  -4.1084595127230721E-002  0.11343040385572441        0.0000000000000000     
  -4.2184525704170167E-002  0.12046212950375319        0.0000000000000000     
  -4.3229145102964828E-002  0.12762377638151698        0.0000000000000000     
  -4.4218453323614716E-002  0.13491534448901582        0.0000000000000000     
  -2.1634769707961309E-002  0.13407662191243772        0.0000000000000000     
  -2.2096733005776699E-002  0.14154604866713966        0.0000000000000000     
  -2.2531725164926551E-002  0.14912855337717651        0.0000000000000000     
  -2.2939746185410871E-002  0.15682413604254833        0.0000000000000000     
  -2.3320796067229661E-002  0.16463279666325512        0.0000000000000000     
  -2.7151489033721256E-002  0.13423159813543320        0.0000000000000000     
  -2.7730207282884719E-002  0.14169024095143379        0.0000000000000000     
  -2.8275334199365038E-002  0.14926176757923429        0.0000000000000000     
  -2.8786869783162229E-002  0.15694617801883468        0.0000000000000000     
  -2.9264814034276280E-002  0.16474347227023495        0.0000000000000000     
  -3.2754342744916808E-002  0.13442304397252802        0.0000000000000000     
  -3.3451005061670328E-002  0.14186867708576870        0.0000000000000000     
  -3.4107852893873143E-002  0.14942708553480130        0.0000000000000000     
  -3.4724886241525241E-002  0.15709826931962584        0.0000000000000000     
  -3.5302105104626634E-002  0.16488222844024228        0.0000000000000000     
  -3.8443330841547968E-002  0.13465095942372221        0.0000000000000000     
  -3.9259126342133542E-002  0.14208135707014435        0.0000000000000000     
  -4.0029281248450850E-002  0.14962450724387755        0.0000000000000000     
  -4.0753795560499920E-002  0.15728040994492179        0.0000000000000000     
  -4.1432669278280723E-002  0.16504906517327703        0.0000000000000000     
  -4.4218453323614716E-002  0.13491534448901582        0.0000000000000000     
  -4.5154571124274331E-002  0.14232828090456079        0.0000000000000000     
  -4.6039619263098172E-002  0.14985403270646303        0.0000000000000000     
  -4.6873597740086238E-002  0.15749259989472253        0.0000000000000000     
  -4.7656506555238537E-002  0.16524398246933927        0.0000000000000000     
  -2.3320796067229661E-002  0.16463279666325512        0.0000000000000000     
  -2.3673237771597144E-002  0.17254182759762898        0.0000000000000000     
  -2.3995434259727548E-002  0.18053852120400221        0.0000000000000000     
  -2.4287385531620870E-002  0.18862287748237466        0.0000000000000000     
  -2.4549091587277121E-002  0.19679489643274650        0.0000000000000000     
  -2.9264814034276280E-002  0.16474347227023495        0.0000000000000000     
  -2.9707410838031009E-002  0.17264126322859885        0.0000000000000000     
  -3.0112904079750220E-002  0.18062716378909005        0.0000000000000000     
  -3.0481293759433915E-002  0.18870117395170860        0.0000000000000000     
  -3.0812579877082094E-002  0.19686329371645447        0.0000000000000000     
  -3.5302105104626634E-002  0.16488222844024228        0.0000000000000000     
  -3.5837565792401521E-002  0.17276674017146335        0.0000000000000000     
  -3.6329324614074100E-002  0.18073958178810171        0.0000000000000000     
  -3.6777381569644364E-002  0.18880075329015747        0.0000000000000000     
  -3.7181736659112327E-002  0.19695025467763050        0.0000000000000000     
  -4.1432669278280723E-002  0.16504906517327703        0.0000000000000000     
  -4.2063702634708676E-002  0.17291825842622249        0.0000000000000000     
  -4.2644695862699172E-002  0.18087577520103726        0.0000000000000000     
  -4.3175648962252219E-002  0.18892161549772124        0.0000000000000000     
  -4.3656561933367831E-002  0.19705577931627460        0.0000000000000000     
  -4.7656506555238537E-002  0.16524398246933927        0.0000000000000000     
  -4.8385821364952467E-002  0.17309581799287627        0.0000000000000000     
  -4.9059017825625453E-002  0.18103574402789654        0.0000000000000000     
  -4.9676095937257504E-002  0.18906376057440002        0.0000000000000000     
  -5.0237055699848598E-002  0.19717986763238671        0.0000000000000000     
  -2.4549091587277121E-002  0.19679489643274650        0.0000000000000000     
  -2.4781095562525227E-002  0.20503949499422741        0.0000000000000000     
  -2.4983940593194118E-002  0.21334159010592726        0.0000000000000000     
  -2.5157626679283802E-002  0.22170118176784601        0.0000000000000000     
  -2.5302153820794274E-002  0.23011826997998366        0.0000000000000000     
  -3.0812579877082094E-002  0.19686329371645447        0.0000000000000000     
  -3.1106786777986974E-002  0.20509994697108086        0.0000000000000000     
  -3.1363938807440782E-002  0.21339755760334089        0.0000000000000000     
  -3.1584035965443506E-002  0.22175612561323460        0.0000000000000000     
  -3.1767078251995151E-002  0.23017565100076198        0.0000000000000000     
  -3.7181736659112327E-002  0.19695025467763050        0.0000000000000000     
  -3.7541774960393626E-002  0.20517616471673736        0.0000000000000000     
  -3.7856881551403897E-002  0.21346656217369459        0.0000000000000000     
  -3.8127056432143133E-002  0.22182144704850212        0.0000000000000000     
  -3.8352299602611335E-002  0.23024081934115997        0.0000000000000000     
  -4.3656561933367831E-002  0.19705577931627460        0.0000000000000000     
  -4.4086060109745182E-002  0.20526814823119705        0.0000000000000000     
  -4.4462768825083467E-002  0.21354860381698837        0.0000000000000000     
  -4.4786688079382686E-002  0.22189714607364866        0.0000000000000000     
  -4.5057817872642826E-002  0.23031377500117778        0.0000000000000000     
  -5.0237055699848598E-002  0.19717986763238671        0.0000000000000000     
  -5.0739642226041631E-002  0.20537589751445978        0.0000000000000000     
  -5.1181600628479484E-002  0.21364368253322225        0.0000000000000000     
  -5.1562930907162137E-002  0.22198322268867407        0.0000000000000000     
  -5.1883633062089610E-002  0.23039451798081534        0.0000000000000000     
  -2.5302153820794274E-002  0.23011826997998366        0.0000000000000000     
  -2.5423814723311542E-002  0.23856531095660088        0.0000000000000000     
  -2.5528902092421618E-002  0.24701476091195818        0.0000000000000000     
  -2.5617415928124495E-002  0.25546661984605562        0.0000000000000000     
  -2.5689356230420176E-002  0.26392088775889327        0.0000000000000000     
  -3.1767078251995151E-002  0.23017565100076198        0.0000000000000000     
  -3.1921062561178513E-002  0.23863123202432698        0.0000000000000000     
  -3.2053985787076376E-002  0.24709796694233371        0.0000000000000000     
  -3.2165847929688740E-002  0.25557585575478214        0.0000000000000000     
  -3.2256648989015611E-002  0.26406489846167219        0.0000000000000000     
  -3.8352299602611335E-002  0.23024081934115997        0.0000000000000000     
  -3.8541476091663820E-002  0.23870384128182803        0.0000000000000000     
  -3.8703450928155879E-002  0.24718967510066622        0.0000000000000000     
  -3.8838224112087531E-002  0.25569832079767441        0.0000000000000000     
  -3.8945795643458743E-002  0.26422977837285272        0.0000000000000000     
  -4.5057817872642826E-002  0.23031377500117778        0.0000000000000000     
  -4.5285055314767453E-002  0.23878313872910406        0.0000000000000000     
  -4.5477297515660126E-002  0.24728988538695565        0.0000000000000000     
  -4.5634544475320817E-002  0.25583401497473257        0.0000000000000000     
  -4.5756796193749567E-002  0.26441552749243469        0.0000000000000000     
  -5.1883633062089610E-002  0.23039451798081534        0.0000000000000000     
  -5.2151800230489424E-002  0.23886912436615498        0.0000000000000000     
  -5.2375525549589109E-002  0.24739859780120205        0.0000000000000000     
  -5.2554809019388665E-002  0.25598293828595647        0.0000000000000000     
  -5.2689650639888091E-002  0.26462214582041838        0.0000000000000000     
  -2.5689356230420176E-002  0.26392088775889327        0.0000000000000000     
  -2.5756913754836339E-002  0.27232243657762206        0.0000000000000000     
  -2.5832279256900660E-002  0.28061613822939308        0.0000000000000000     
  -2.5915452736613137E-002  0.28880199271420637        0.0000000000000000     
  -2.6006434193973776E-002  0.29688000003206183        0.0000000000000000     
  -3.2256648989015611E-002  0.26406489846167219        0.0000000000000000     
  -3.2341172811788756E-002  0.27251220254613534        0.0000000000000000     
  -3.2434203244739945E-002  0.28086487549130301        0.0000000000000000     
  -3.2535740287869208E-002  0.28912291729717510        0.0000000000000000     
  -3.2645783941176502E-002  0.29728632796375165        0.0000000000000000     
  -3.8945795643458743E-002  0.26422977837285272        0.0000000000000000     
  -3.9044921245014609E-002  0.27273288811416951        0.0000000000000000     
  -3.9154356639500225E-002  0.28115649030959333        0.0000000000000000     
  -3.9274101826915576E-002  0.28950058495912412        0.0000000000000000     
  -3.9404156807260657E-002  0.29776517206276187        0.0000000000000000     
  -4.5756796193749567E-002  0.26441552749243469        0.0000000000000000     
  -4.5868159054513934E-002  0.27298449328172453        0.0000000000000000     
  -4.5992739441181485E-002  0.28149098268426404        0.0000000000000000     
  -4.6130537353752249E-002  0.28993499570005338        0.0000000000000000     
  -4.6281552792226219E-002  0.29831653232909239        0.0000000000000000     
  -5.2689650639888091E-002  0.26462214582041838        0.0000000000000000     
  -5.2810886240286667E-002  0.27326701804880038        0.0000000000000000     
  -5.2949351649783725E-002  0.28186835261531518        0.0000000000000000     
  -5.3105046868379233E-002  0.29042614951996282        0.0000000000000000     
  -5.3277971896073209E-002  0.29894040876274330        0.0000000000000000     
  -2.8942757887660653E-002   5.7170219220693722E-002   0.0000000000000000     
  -3.0503176438130518E-002   6.2732045987533527E-002   0.0000000000000000     
  -3.2006540334242960E-002   6.8471852139669151E-002   0.0000000000000000     
  -3.3452849575997971E-002   7.4389637677100606E-002   0.0000000000000000     
  -3.4842104163395560E-002   8.0485402599827865E-002   0.0000000000000000     
  -3.2938585131534144E-002   5.7666157176653771E-002   0.0000000000000000     
  -3.4669298986173373E-002   6.3214593968129285E-002   0.0000000000000000     
  -3.6345479094160228E-002   6.8940032622191685E-002   0.0000000000000000     
  -3.7967125455494723E-002   7.4842473138840959E-002   0.0000000000000000     
  -3.9534238070176850E-002   8.0921915518077106E-002   0.0000000000000000     
  -3.7076839481157989E-002   5.8222634873817153E-002   0.0000000000000000     
  -3.8989443774553351E-002   6.3754462816821886E-002   0.0000000000000000     
  -4.0844924232549935E-002   6.9462929097340878E-002   0.0000000000000000     
  -4.2643280855147729E-002   7.5348033715374158E-002   0.0000000000000000     
  -4.4384513642346746E-002   8.1409776670921682E-002   0.0000000000000000     
  -4.1357520936532201E-002   5.8839652312183903E-002   0.0000000000000000     
  -4.3463610803270471E-002   6.4351652533611317E-002   0.0000000000000000     
  -4.5504875749412060E-002   7.0040541565116757E-002   0.0000000000000000     
  -4.7481315774956991E-002   7.5906319406700160E-002   0.0000000000000000     
  -4.9392930879905234E-002   8.1948986058361539E-002   0.0000000000000000     
  -4.5780629497656780E-002   5.9517209491753993E-002   0.0000000000000000     
  -4.8091800072324713E-002   6.5006163118497606E-002   0.0000000000000000     
  -5.0325333644746624E-002   7.0672870025519266E-002   0.0000000000000000     
  -5.2481230214922479E-002   7.6517330212818979E-002   0.0000000000000000     
  -5.4559489782852327E-002   8.2539543680396732E-002   0.0000000000000000     
  -3.4842104163395560E-002   8.0485402599827865E-002   0.0000000000000000     
  -3.6180602684106646E-002   8.6751668363709414E-002   0.0000000000000000     
  -3.7474643725802170E-002   9.3180956424603750E-002   0.0000000000000000     
  -3.8724227288482120E-002   9.9773266782510819E-002   0.0000000000000000     
  -3.9929353372146509E-002  0.10652859943743068        0.0000000000000000     
  -3.9534238070176850E-002   8.0921915518077106E-002   0.0000000000000000     
  -4.1048006173703480E-002   8.7171491962231562E-002   0.0000000000000000     
  -4.2509619001571498E-002   9.3584334673635763E-002   0.0000000000000000     
  -4.3919076553780897E-002  0.10016044365228970        0.0000000000000000     
  -4.5276378830331684E-002  0.10689981889819335        0.0000000000000000     
  -4.4384513642346746E-002   8.1409776670921682E-002   0.0000000000000000     
  -4.6068030717051706E-002   8.7641419560772302E-002   0.0000000000000000     
  -4.7693240202167364E-002   9.4036223981714850E-002   0.0000000000000000     
  -4.9260142097693700E-002  0.10059418993374931        0.0000000000000000     
  -5.0768736403630721E-002  0.10731531741687571        0.0000000000000000     
  -4.9392930879905234E-002   8.1948986058361539E-002   0.0000000000000000     
  -5.1240676314151329E-002   8.8161451159331605E-002   0.0000000000000000     
  -5.3025507327589746E-002   9.4536624348840970E-002   0.0000000000000000     
  -5.4747423920220514E-002  0.10107450562688969        0.0000000000000000     
  -5.6406426092043625E-002  0.10777509499347772        0.0000000000000000     
  -5.4559489782852327E-002   8.2539543680396732E-002   0.0000000000000000     
  -5.6565942965002322E-002   8.8731586757909486E-002   0.0000000000000000     
  -5.8506420377838667E-002   9.5085535775014204E-002   0.0000000000000000     
  -6.0380922021361347E-002  0.10160139073171083        0.0000000000000000     
  -6.2189447895570391E-002  0.10827915162799942        0.0000000000000000     
  -3.9929353372146509E-002  0.10652859943743068        0.0000000000000000     
  -4.1084595127230721E-002  0.11343040385572441        0.0000000000000000     
  -4.2184525704170167E-002  0.12046212950375319        0.0000000000000000     
  -4.3229145102964828E-002  0.12762377638151698        0.0000000000000000     
  -4.4218453323614716E-002  0.13491534448901582        0.0000000000000000     
  -4.5276378830331684E-002  0.10689981889819335        0.0000000000000000     
  -4.6576842549033659E-002  0.11378540451757348        0.0000000000000000     
  -4.7815784427696628E-002  0.12080014461665681        0.0000000000000000     
  -4.8993204466320599E-002  0.12794403919544334        0.0000000000000000     
  -5.0109102664905564E-002  0.13521708825393308        0.0000000000000000     
  -5.0768736403630721E-002  0.10731531741687571        0.0000000000000000     
  -5.2214312720461134E-002  0.11418245875257514        0.0000000000000000     
  -5.3592160648667661E-002  0.12117846626232870        0.0000000000000000     
  -5.4902280188250246E-002  0.12830333994613644        0.0000000000000000     
  -5.6144671339208960E-002  0.13555707980399836        0.0000000000000000     
  -5.6406426092043625E-002  0.10777509499347772        0.0000000000000000     
  -5.7997005641513173E-002  0.11462156656072935        0.0000000000000000     
  -5.9513654367083238E-002  0.12159709444076888        0.0000000000000000     
  -6.0956372268753826E-002  0.12870167863359630        0.0000000000000000     
  -6.2325159346524946E-002  0.13593531913921159        0.0000000000000000     
  -6.2189447895570391E-002  0.10827915162799942        0.0000000000000000     
  -6.3924921312189742E-002  0.11510272794203619        0.0000000000000000     
  -6.5580265582943373E-002  0.12205602915197733        0.0000000000000000     
  -6.7155480707831297E-002  0.12913905525782288        0.0000000000000000     
  -6.8650566686853487E-002  0.13635180625957283        0.0000000000000000     
  -4.4218453323614716E-002  0.13491534448901582        0.0000000000000000     
  -4.5154571124274331E-002  0.14232828090456079        0.0000000000000000     
  -4.6039619263098172E-002  0.14985403270646303        0.0000000000000000     
  -4.6873597740086238E-002  0.15749259989472253        0.0000000000000000     
  -4.7656506555238537E-002  0.16524398246933927        0.0000000000000000     
  -5.0109102664905564E-002  0.13521708825393308        0.0000000000000000     
  -5.1166164993832940E-002  0.14261110034640506        0.0000000000000000     
  -5.2167077423484177E-002  0.15011788402713830        0.0000000000000000     
  -5.3111839953859249E-002  0.15773743929613279        0.0000000000000000     
  -5.4000452584958170E-002  0.16546976615338851        0.0000000000000000     
  -5.6144671339208960E-002  0.13555707980399836        0.0000000000000000     
  -5.7322733536549576E-002  0.14293146715306421        0.0000000000000000     
  -5.8439866215277907E-002  0.15041828331048382        0.0000000000000000     
  -5.9496069375393958E-002  0.15801752827625723        0.0000000000000000     
  -6.0491343016897722E-002  0.16572920205038438        0.0000000000000000     
  -6.2325159346524946E-002  0.13593531913921159        0.0000000000000000     
  -6.3624276752424241E-002  0.14328938132453820        0.0000000000000000     
  -6.4857985638479373E-002  0.15075523055649964        0.0000000000000000     
  -6.6026286004690363E-002  0.15833286683509581        0.0000000000000000     
  -6.7129177851057195E-002  0.16602229016032682        0.0000000000000000     
  -6.8650566686853487E-002  0.13635180625957283        0.0000000000000000     
  -7.0070794641456921E-002  0.14368484286082711        0.0000000000000000     
  -7.1421435693088592E-002  0.15112872576518571        0.0000000000000000     
  -7.2702489841748472E-002  0.15868345497264863        0.0000000000000000     
  -7.3913957087436560E-002  0.16634903048321581        0.0000000000000000     
  -4.7656506555238537E-002  0.16524398246933927        0.0000000000000000     
  -4.8385821364952467E-002  0.17309581799287627        0.0000000000000000     
  -4.9059017825625453E-002  0.18103574402789654        0.0000000000000000     
  -4.9676095937257504E-002  0.18906376057440002        0.0000000000000000     
  -5.0237055699848598E-002  0.19717986763238671        0.0000000000000000     
  -5.4000452584958170E-002  0.16546976615338851        0.0000000000000000     
  -5.4830108148501894E-002  0.17330243454547425        0.0000000000000000     
  -5.5597999476211343E-002  0.18122301441895861        0.0000000000000000     
  -5.6304126568086539E-002  0.18923150577384154        0.0000000000000000     
  -5.6948489424127474E-002  0.19732790861012320        0.0000000000000000     
  -6.0491343016897722E-002  0.16572920205038438        0.0000000000000000     
  -6.1422749150725917E-002  0.17354112375806593        0.0000000000000000     
  -6.2287349787815249E-002  0.18144111252450237        0.0000000000000000     
  -6.3085144928165707E-002  0.18942916834969384        0.0000000000000000     
  -6.3816134571777289E-002  0.19750529123364025        0.0000000000000000     
  -6.7129177851057195E-002  0.16602229016032682        0.0000000000000000     
  -6.8163744371624549E-002  0.17381188563065128        0.0000000000000000     
  -6.9127068760437158E-002  0.18169003834452790        0.0000000000000000     
  -7.0019151017494979E-002  0.18965674830195681        0.0000000000000000     
  -7.0839991142798070E-002  0.19771201550293782        0.0000000000000000     
  -7.3913957087436560E-002  0.16634903048321581        0.0000000000000000     
  -7.5053093811197805E-002  0.17411472016323035        0.0000000000000000     
  -7.6117156394077068E-002  0.18196979187903523        0.0000000000000000     
  -7.7106144836074406E-002  0.18991424563063042        0.0000000000000000     
  -7.8020059137189790E-002  0.19794808141801598        0.0000000000000000     
  -5.0237055699848598E-002  0.19717986763238671        0.0000000000000000     
  -5.0739642226041631E-002  0.20537589751445978        0.0000000000000000     
  -5.1181600628479484E-002  0.21364368253322225        0.0000000000000000     
  -5.1562930907162137E-002  0.22198322268867407        0.0000000000000000     
  -5.1883633062089610E-002  0.23039451798081534        0.0000000000000000     
  -5.6948489424127474E-002  0.19732790861012320        0.0000000000000000     
  -5.7528328563826142E-002  0.20550564475761771        0.0000000000000000     
  -5.8040884506674523E-002  0.21375813604613930        0.0000000000000000     
  -5.8486157252672644E-002  0.22208538247568807        0.0000000000000000     
  -5.8864146801820491E-002  0.23048738404626387        0.0000000000000000     
  -6.3816134571777289E-002  0.19750529123364025        0.0000000000000000     
  -6.4477926377641839E-002  0.20566362215176279        0.0000000000000000     
  -6.5068128004751188E-002  0.21389830207948274        0.0000000000000000     
  -6.5586739453105308E-002  0.22220933101680004        0.0000000000000000     
  -6.6033760722704227E-002  0.23059670896371470        0.0000000000000000     
  -7.0839991142798070E-002  0.19771201550293782        0.0000000000000000     
  -7.1588435667488778E-002  0.20584982969689505        0.0000000000000000     
  -7.2263331122709454E-002  0.21406418063325244        0.0000000000000000     
  -7.2864677508460138E-002  0.22235506831201002        0.0000000000000000     
  -7.3392474824740817E-002  0.23072249273316778        0.0000000000000000     
  -7.8020059137189790E-002  0.19794808141801598        0.0000000000000000     
  -7.8859856433366862E-002  0.20606426739301448        0.0000000000000000     
  -7.9626493860549319E-002  0.21425577170744850        0.0000000000000000     
  -8.0319971418737104E-002  0.22252259436131805        0.0000000000000000     
  -8.0940289107930288E-002  0.23086473535462312        0.0000000000000000     
  -5.1883633062089610E-002  0.23039451798081534        0.0000000000000000     
  -5.2151800230489424E-002  0.23886912436615498        0.0000000000000000     
  -5.2375525549589109E-002  0.24739859780120205        0.0000000000000000     
  -5.2554809019388665E-002  0.25598293828595647        0.0000000000000000     
  -5.2689650639888091E-002  0.26462214582041838        0.0000000000000000     
  -5.8864146801820491E-002  0.23048738404626387        0.0000000000000000     
  -5.9180857145712772E-002  0.23896322686937937        0.0000000000000000     
  -5.9442292275944213E-002  0.24751199705654717        0.0000000000000000     
  -5.9648452192514800E-002  0.25613369460776714        0.0000000000000000     
  -5.9799336895424535E-002  0.26482831952303931        0.0000000000000000     
  -6.6033760722704227E-002  0.23059670896371470        0.0000000000000000     
  -6.6411372367320504E-002  0.23906687491517595        0.0000000000000000     
  -6.6721754940726768E-002  0.24762626786613276        0.0000000000000000     
  -6.6964908442922980E-002  0.25627488781658525        0.0000000000000000     
  -6.7140832873909165E-002  0.26501273476653336        0.0000000000000000     
  -7.3392474824740817E-002  0.23072249273316778        0.0000000000000000     
  -7.3843345895312648E-002  0.23918006850354445        0.0000000000000000     
  -7.4213913543936777E-002  0.24774141022995885        0.0000000000000000     
  -7.4504177770613203E-002  0.25640651791241087        0.0000000000000000     
  -7.4714138575341940E-002  0.26517539155090053        0.0000000000000000     
  -8.0940289107930288E-002  0.23086473535462312        0.0000000000000000     
  -8.1476777729689198E-002  0.23930280763448514        0.0000000000000000     
  -8.1918768085574287E-002  0.24785742414802545        0.0000000000000000     
  -8.2266260175585512E-002  0.25652858489524399        0.0000000000000000     
  -8.2519253999722902E-002  0.26531628987614087        0.0000000000000000     
  -5.2689650639888091E-002  0.26462214582041838        0.0000000000000000     
  -5.2810886240286667E-002  0.27326701804880038        0.0000000000000000     
  -5.2949351649783725E-002  0.28186835261531518        0.0000000000000000     
  -5.3105046868379233E-002  0.29042614951996282        0.0000000000000000     
  -5.3277971896073209E-002  0.29894040876274330        0.0000000000000000     
  -5.9799336895424535E-002  0.26482831952303931        0.0000000000000000     
  -5.9931856715850072E-002  0.27355175119998165        0.0000000000000000     
  -6.0082921984968028E-002  0.28225986903621203        0.0000000000000000     
  -6.0252532702778389E-002  0.29095267303173034        0.0000000000000000     
  -6.0440688869281167E-002  0.29963016318653679        0.0000000000000000     
  -6.7140832873909165E-002  0.26501273476653336        0.0000000000000000     
  -6.7289824394721323E-002  0.27380998151985292        0.0000000000000000     
  -6.7452179166395454E-002  0.28263680088041976        0.0000000000000000     
  -6.7627897188931585E-002  0.29149319284823377        0.0000000000000000     
  -6.7816978462329675E-002  0.30037915742329496        0.0000000000000000     
  -7.4714138575341940E-002  0.26517539155090053        0.0000000000000000     
  -7.4884789276900413E-002  0.27404170900841424        0.0000000000000000     
  -7.5057123194066031E-002  0.28299914814793842        0.0000000000000000     
  -7.5231140326838822E-002  0.29204770896947291        0.0000000000000000     
  -7.5406840675218731E-002  0.30118739147301782        0.0000000000000000     
  -8.2519253999722902E-002  0.26531628987614087        0.0000000000000000     
  -8.2716751362387361E-002  0.27424693366566560        0.0000000000000000     
  -8.2897754067979751E-002  0.28334691083876801        0.0000000000000000     
  -8.3062262116500071E-002  0.29261622139544791        0.0000000000000000     
  -8.3210275507948323E-002  0.30205486533570547        0.0000000000000000     
  -4.5780629497656780E-002   5.9517209491753993E-002   0.0000000000000000     
  -4.8091800072324713E-002   6.5006163118497606E-002   0.0000000000000000     
  -5.0325333644746624E-002   7.0672870025519266E-002   0.0000000000000000     
  -5.2481230214922479E-002   7.6517330212818979E-002   0.0000000000000000     
  -5.4559489782852327E-002   8.2539543680396732E-002   0.0000000000000000     
  -5.0374376111566928E-002   6.0252503618899840E-002   0.0000000000000000     
  -5.2888013761567744E-002   6.5716893467263379E-002   0.0000000000000000     
  -5.5312188600158997E-002   7.1359767577639246E-002   0.0000000000000000     
  -5.7646900627340687E-002   7.7181125950027407E-002   0.0000000000000000     
  -5.9892149843112828E-002   8.3180968584427875E-002   0.0000000000000000     
  -5.5166971725297886E-002   6.1042731899993839E-002   0.0000000000000000     
  -5.7866254050851197E-002   6.6482742475691303E-002   0.0000000000000000     
  -6.0471331297254585E-002   7.2101087320567400E-002   0.0000000000000000     
  -6.2982203464508044E-002   7.7897766434622179E-002   0.0000000000000000     
  -6.5398870552611552E-002   8.3872779817855639E-002   0.0000000000000000     
  -6.0158416338849642E-002   6.1887894335036012E-002   0.0000000000000000     
  -6.3026520940175093E-002   6.7303710143781365E-002   0.0000000000000000     
  -6.5802761736033374E-002   7.2896829254303783E-002   0.0000000000000000     
  -6.8487138726424521E-002   7.8667251666603349E-002   0.0000000000000000     
  -7.1079651911348504E-002   8.4614977380679982E-002   0.0000000000000000     
  -6.5348709952222195E-002   6.2787990924026330E-002   0.0000000000000000     
  -6.8368814429539404E-002   6.8179796471533549E-002   0.0000000000000000     
  -7.1306479916495386E-002   7.3746993378848380E-002   0.0000000000000000     
  -7.4161706413090139E-002   7.9489581645970864E-002   0.0000000000000000     
  -7.6934493919323679E-002   8.5407561272900959E-002   0.0000000000000000     
  -5.4559489782852327E-002   8.2539543680396732E-002   0.0000000000000000     
  -5.6565942965002322E-002   8.8731586757909486E-002   0.0000000000000000     
  -5.8506420377838667E-002   9.5085535775014204E-002   0.0000000000000000     
  -6.0380922021361347E-002  0.10160139073171083        0.0000000000000000     
  -6.2189447895570391E-002  0.10827915162799942        0.0000000000000000     
  -5.9892149843112828E-002   8.3180968584427875E-002   0.0000000000000000     
  -6.2057998040566296E-002   8.9350691034126864E-002   0.0000000000000000     
  -6.4154507012791934E-002   9.5681688852410518E-002   0.0000000000000000     
  -6.6181676759789795E-002  0.10217396203927886        0.0000000000000000     
  -6.8139507281559833E-002  0.10882751059473192        0.0000000000000000     
  -6.5398870552611552E-002   8.3872779817855639E-002   0.0000000000000000     
  -6.7731008911804794E-002   9.0017628665604643E-002   0.0000000000000000     
  -6.9988294892327427E-002   9.6323814173206082E-002   0.0000000000000000     
  -7.2170728494179423E-002  0.10279133634065998        0.0000000000000000     
  -7.4278309717360796E-002  0.10942019516796632        0.0000000000000000     
  -7.1079651911348504E-002   8.4614977380679982E-002   0.0000000000000000     
  -7.3584975578717876E-002   9.0732399652342824E-002   0.0000000000000000     
  -7.6007784016445104E-002   9.7011911737400869E-002   0.0000000000000000     
  -7.8348077224530258E-002  0.10345351363585413        0.0000000000000000     
  -8.0605855202973281E-002  0.11005720534770265        0.0000000000000000     
  -7.6934493919323679E-002   8.5407561272900959E-002   0.0000000000000000     
  -7.9619898041305467E-002   9.1495003994341378E-002   0.0000000000000000     
  -8.2212974385144993E-002   9.7745981544994837E-002   0.0000000000000000     
  -8.4713722950842271E-002  0.10416049392486135        0.0000000000000000     
  -8.7122143738397273E-002  0.11073854113394088        0.0000000000000000     
  -6.2189447895570391E-002  0.10827915162799942        0.0000000000000000     
  -6.3924921312189742E-002  0.11510272794203619        0.0000000000000000     
  -6.5580265582943373E-002  0.12205602915197733        0.0000000000000000     
  -6.7155480707831297E-002  0.12913905525782288        0.0000000000000000     
  -6.8650566686853487E-002  0.13635180625957283        0.0000000000000000     
  -6.8139507281559833E-002  0.10882751059473192        0.0000000000000000     
  -7.0019539332826966E-002  0.11562685722118141        0.0000000000000000     
  -7.1813313668316087E-002  0.12255652462103910        0.0000000000000000     
  -7.3520830288027195E-002  0.12961651279430503        0.0000000000000000     
  -7.5142089191960248E-002  0.13680682174097913        0.0000000000000000     
  -7.4278309717360796E-002  0.10942019516796632        0.0000000000000000     
  -7.6302339303760985E-002  0.11619486872285083        0.0000000000000000     
  -7.8234117995269400E-002  0.12309983507303922        0.0000000000000000     
  -8.0073645791886042E-002  0.13013509421853148        0.0000000000000000     
  -8.1820922693610909E-002  0.13730064615932763        0.0000000000000000     
  -8.0605855202973281E-002  0.11005720534770265        0.0000000000000000     
  -8.2773321224991772E-002  0.11680676244704447        0.0000000000000000     
  -8.4842678563803314E-002  0.12368596050797769        0.0000000000000000     
  -8.6813927219407852E-002  0.13069479953050225        0.0000000000000000     
  -8.8687067191805441E-002  0.13783327951461827        0.0000000000000000     
  -8.7122143738397273E-002  0.11073854113394088        0.0000000000000000     
  -8.9432485096519340E-002  0.11746253839376231        0.0000000000000000     
  -9.1638995373917786E-002  0.12431490092585448        0.0000000000000000     
  -9.3741674570592626E-002  0.13129562873021744        0.0000000000000000     
  -9.5740522686543844E-002  0.13840472180685112        0.0000000000000000     
  -6.8650566686853487E-002  0.13635180625957283        0.0000000000000000     
  -7.0070794641456921E-002  0.14368484286082711        0.0000000000000000     
  -7.1421435693088592E-002  0.15112872576518571        0.0000000000000000     
  -7.2702489841748472E-002  0.15868345497264863        0.0000000000000000     
  -7.3913957087436560E-002  0.16634903048321581        0.0000000000000000     
  -7.5142089191960248E-002  0.13680682174097913        0.0000000000000000     
  -7.6683322738343690E-002  0.14411734985968180        0.0000000000000000     
  -7.8150763285405864E-002  0.15153799554903327        0.0000000000000000     
  -7.9544410833146770E-002  0.15906875880903354        0.0000000000000000     
  -8.0864265381566408E-002  0.16670963963968269        0.0000000000000000     
  -8.1820922693610909E-002  0.13730064615932763        0.0000000000000000     
  -8.3482896577780547E-002  0.14458640041885312        0.0000000000000000     
  -8.5066515321731498E-002  0.15198226652053351        0.0000000000000000     
  -8.6571778925463722E-002  0.15948824446436866        0.0000000000000000     
  -8.7998687388977259E-002  0.16710433425035864        0.0000000000000000     
  -8.8687067191805441E-002  0.13783327951461827        0.0000000000000000     
  -9.0469516159767505E-002  0.14509199453834115        0.0000000000000000     
  -9.2168691802065481E-002  0.15246153867968634        0.0000000000000000     
  -9.3784594118699341E-002  0.15994191193865387        0.0000000000000000     
  -9.5317223109669114E-002  0.16753311431524373        0.0000000000000000     
  -9.5740522686543844E-002  0.13840472180685112        0.0000000000000000     
  -9.7643181484304536E-002  0.14563413221814583        0.0000000000000000     
  -9.9457292726407812E-002  0.15297581202649191        0.0000000000000000     
 -0.10118285641285363       0.16042976123188926        0.0000000000000000     
 -0.10281987254364201       0.16799597983433792        0.0000000000000000     
  -7.3913957087436560E-002  0.16634903048321581        0.0000000000000000     
  -7.5053093811197805E-002  0.17411472016323035        0.0000000000000000     
  -7.6117156394077068E-002  0.18196979187903523        0.0000000000000000     
  -7.7106144836074406E-002  0.18991424563063042        0.0000000000000000     
  -7.8020059137189790E-002  0.19794808141801598        0.0000000000000000     
  -8.0864265381566408E-002  0.16670963963968269        0.0000000000000000     
  -8.2107990455807009E-002  0.17445063177317136        0.0000000000000000     
  -8.3273249581010789E-002  0.18228172894169031        0.0000000000000000     
  -8.4360042757177733E-002  0.19020293114523956        0.0000000000000000     
  -8.5368369984307843E-002  0.19821423838381907        0.0000000000000000     
  -8.7998687388977259E-002  0.16710433425035864        0.0000000000000000     
  -8.9345627291813570E-002  0.17482062487784250        0.0000000000000000     
  -9.0610985213514059E-002  0.18262720534615925        0.0000000000000000     
  -9.1794761154078752E-002  0.19052407565530899        0.0000000000000000     
  -9.2896955113507679E-002  0.19851123580529156        0.0000000000000000     
  -9.5317223109669114E-002  0.16753311431524373        0.0000000000000000     
  -9.6766004319217461E-002  0.17522469947724384        0.0000000000000000     
  -9.8130363291586892E-002  0.18300622109244213        0.0000000000000000     
  -9.9410300026777490E-002  0.19087767916083864        0.0000000000000000     
 -0.10060581452478923       0.19883907368243331        0.0000000000000000     
 -0.10281987254364201       0.16799597983433792        0.0000000000000000     
 -0.10436912153801867       0.17566285557137534        0.0000000000000000     
 -0.10583138381522932       0.18341877618053889        0.0000000000000000     
 -0.10720665937527393       0.19126374166182861        0.0000000000000000     
 -0.10849494821815256       0.19919775201524448        0.0000000000000000     
  -7.8020059137189790E-002  0.19794808141801598        0.0000000000000000     
  -7.8859856433366862E-002  0.20606426739301448        0.0000000000000000     
  -7.9626493860549319E-002  0.21425577170744850        0.0000000000000000     
  -8.0319971418737104E-002  0.22252259436131805        0.0000000000000000     
  -8.0940289107930288E-002  0.23086473535462312        0.0000000000000000     
  -8.5368369984307843E-002  0.19821423838381907        0.0000000000000000     
  -8.6301410649678209E-002  0.20630773713440348        0.0000000000000000     
  -8.7162344140565867E-002  0.21447551387396732        0.0000000000000000     
  -8.7951170456970790E-002  0.22271756860251063        0.0000000000000000     
  -8.8667889598893032E-002  0.23103390132003340        0.0000000000000000     
  -9.2896955113507679E-002  0.19851123580529156        0.0000000000000000     
  -9.3922320290824798E-002  0.20658104081534451        0.0000000000000000     
  -9.4875609885054127E-002  0.21472584570470549        0.0000000000000000     
  -9.5756823896195692E-002  0.22294565047337439        0.0000000000000000     
  -9.6565962324249466E-002  0.23124045512135127        0.0000000000000000     
 -0.10060581452478923       0.19883907368243331        0.0000000000000000     
 -0.10172258535680662       0.20688417843583762        0.0000000000000000     
 -0.10276629109401415       0.21500676719966297        0.0000000000000000     
 -0.10373693173641181       0.22320683997390930        0.0000000000000000     
 -0.10463450728399959       0.23148439675857668        0.0000000000000000     
 -0.10849494821815256       0.19919775201524448        0.0000000000000000     
 -0.10970220584762369       0.20721714999588275        0.0000000000000000     
 -0.11083438776744589       0.21531827835883971        0.0000000000000000     
 -0.11189149397761913       0.22350113710411540        0.0000000000000000     
 -0.11287352447814344       0.23176572623170971        0.0000000000000000     
  -8.0940289107930288E-002  0.23086473535462312        0.0000000000000000     
  -8.1476777729689198E-002  0.23930280763448514        0.0000000000000000     
  -8.1918768085574287E-002  0.24785742414802545        0.0000000000000000     
  -8.2266260175585512E-002  0.25652858489524399        0.0000000000000000     
  -8.2519253999722902E-002  0.26531628987614087        0.0000000000000000     
  -8.8667889598893032E-002  0.23103390132003340        0.0000000000000000     
  -8.9298128655826259E-002  0.23945005550417098        0.0000000000000000     
  -8.9827514717264259E-002  0.24799157463255878        0.0000000000000000     
  -9.0256047783207005E-002  0.25665845870519671        0.0000000000000000     
  -9.0583727853654497E-002  0.26545070772208490        0.0000000000000000     
  -9.6565962324249466E-002  0.23124045512135127        0.0000000000000000     
  -9.7293859459099977E-002  0.23963677530877511        0.0000000000000000     
  -9.7931349590631808E-002  0.24816112669578511        0.0000000000000000     
  -9.8478432718844836E-002  0.25681350928238122        0.0000000000000000     
  -9.8935108843739211E-002  0.26559392306856344        0.0000000000000000     
 -0.10463450728399959       0.23148439675857668        0.0000000000000000     
 -0.10546397013951034       0.23986296704829760        0.0000000000000000     
 -0.10623027270567681       0.24836608033770452        0.0000000000000000     
 -0.10693341498249906       0.25699373662679748        0.0000000000000000     
 -0.10757339696997702       0.26574593591557638        0.0000000000000000     
 -0.11287352447814344       0.23176572623170971        0.0000000000000000     
 -0.11380846069705736       0.24012863072273838        0.0000000000000000     
 -0.11472428406239941       0.24860643555831693        0.0000000000000000     
 -0.11562099457416959       0.25719914073844546        0.0000000000000000     
 -0.11649859223236794       0.26590674626312383        0.0000000000000000     
  -8.2519253999722902E-002  0.26531628987614087        0.0000000000000000     
  -8.2716751362387361E-002  0.27424693366566560        0.0000000000000000     
  -8.2897754067979751E-002  0.28334691083876801        0.0000000000000000     
  -8.3062262116500071E-002  0.29261622139544791        0.0000000000000000     
  -8.3210275507948323E-002  0.30205486533570547        0.0000000000000000     
  -9.0583727853654497E-002  0.26545070772208490        0.0000000000000000     
  -9.0840892803168677E-002  0.27443134370336192        0.0000000000000000     
  -9.1057880506311445E-002  0.28366338866916646        0.0000000000000000     
  -9.1234690963082801E-002  0.29314684261949847        0.0000000000000000     
  -9.1371324173482760E-002  0.30288170555435801        0.0000000000000000     
  -9.8935108843739211E-002  0.26559392306856344        0.0000000000000000     
  -9.9312395751230909E-002  0.27460062733325813        0.0000000000000000     
  -9.9621311227235984E-002  0.28393188135539177        0.0000000000000000     
  -9.9861855271754452E-002  0.29358768513496442        0.0000000000000000     
 -0.10003402788478633       0.30356803867197579        0.0000000000000000     
 -0.10757339696997702       0.26574593591557638        0.0000000000000000     
 -0.10813126020657401       0.27475478455535429        0.0000000000000000     
 -0.10858804623075334       0.28415238889744399        0.0000000000000000     
 -0.10894375504251501       0.29393874894184557        0.0000000000000000     
 -0.10919838664185902       0.30411386468855883        0.0000000000000000     
 -0.11649859223236794       0.26590674626312383        0.0000000000000000     
 -0.11729748616919805       0.27489381536965035        0.0000000000000000     
 -0.11795808551686357       0.28432491129532311        0.0000000000000000     
 -0.11848039027536450       0.29420003404014200        0.0000000000000000     
 -0.11886440044470083       0.30451918360410712        0.0000000000000000     
 </DataArray>
 <DataArray  type="Float64" Name="stress" NumberOfComponents="3" format="ascii">
   5871939951.2089901       -19340253.288280249        10627757.037351415     
   5713142051.5756674       -21057047.087319374        34112815.773945644     
   5555833162.1072760       -17810473.669923306        48022549.599130861     
   5400013282.8038120       -9600533.0360896587        52356958.512904502     
   5245682413.6652765        3572774.8141713142        47116042.515271686     
   5595951086.6725931        3336662.9310135841        174494802.01486331     
   5417384648.8941011       -3956441.3405191898        186969061.13734141     
   5239749593.4221363       -8144937.9236161709        195098918.24551418     
   5063045920.2567081       -9228826.8182573318        198884373.33938998     
   4887273629.3978062       -7208108.0244784355        198325426.41895917     
   5276996060.2189980        13123730.575141191        338823380.28325796     
   5093606578.2870626        4737964.0286464691        339636273.95682305     
   4910590850.8032589       -2401954.3574066162        341335688.51318520     
   4727948877.7675924       -8296024.5830249786        343921623.95235890     
   4545680659.1800480       -12944246.648211002        347394080.27432585     
   4915074871.8481922        10020949.644105673        503613491.84254676     
   4741807839.7545519        5026169.0201666355        492114454.23238951     
   4568356934.2506371       -581522.97133588791        486732860.40214008     
   4394722155.3364620       -6802126.3304054737        487468710.35180765     
   4220903503.0120149       -13635641.057028055        494322004.08137870     
   4510187521.5601816       -5971679.8620884418        668865136.69271457     
   4361988433.2965670       -3091826.3659553528        644403601.96404505     
   4213047843.7642746       -2683643.7653880119        631290433.91238582     
   4063365752.9633217       -4747132.0603823662        629525632.53774691     
   3912942160.8937001       -9282291.2509288788        639109197.84012508     
   5245682413.6652765        3572774.8141713142        47116042.515271686     
   5070664988.8814201        11079138.977139235        32351834.305611044     
   4894513953.7170048        14806801.871587753        25627550.229663402     
   4717229308.1720371        14755763.497520208        26943190.287435807     
   4538811052.2465038        10926023.854912281        36298754.478922494     
   4887273629.3978062       -7208108.0244784355        198325426.41895917     
   4731343655.1828308        1122780.9675717354        187585930.05060378     
   4574717996.5987473        7134722.0625979900        183298888.87174278     
   4417396653.6455536        10827715.260587931        185464302.88234892     
   4259379626.3232536        12201760.561555624        194082172.08244628     
   4545680659.1800480       -12944246.648211002        347394080.27432585     
   4404302509.9790030       -5149520.4935655594        341190209.42730856     
   4262666602.4202952        1786011.1355443001        339851324.82554239     
   4120772936.5039315        7862348.2391209602        343377426.46902448     
   3978621512.2299013        13079490.817165613        351768514.35775316     
   4220903503.0120149       -13635641.057028055        494322004.08137870     
   4089541553.2699399       -7737765.4062745571        493164672.43572241     
   3958359771.1816535       -1239330.9095640182        495284858.09108013     
   3827358156.7471590        5859662.4331192970        500682561.04745007     
   3696536709.9664450        13559214.621742010        509357781.30483443     
   3912942160.8937001       -9282291.2509288788        639109197.84012508     
   3787060785.0556417       -6641953.7705519199        643509319.07584679     
   3661797502.8828192       -1941304.0727286339        649599488.66835237     
   3537152314.3752356        4819657.8425586224        657379706.61763418     
   3413125219.5328884        13640931.975295544        666849972.92369688     
   4538811052.2465038        10926023.854912281        36298754.478922494     
   4336057741.4329948       -399428.89150285721        25790805.622959688     
   4134309339.9204059       -8375183.9681820869        19458636.792186905     
   3933565847.7087550       -13001241.375071287        17302247.986595809     
   3733827264.7980313       -14277601.112195015        19321639.206198577     
   4259379626.3232536        12201760.561555624        194082172.08244628     
   4068419297.9942560        3562905.3232810497        184101920.31398076     
   3878068998.9329033       -3042519.0228657722        178397429.46807030     
   3688328729.1391931       -7614512.4768431187        176968699.54472834     
   3499198488.6131248       -10153075.038705349        179815730.54395038     
   3978621512.2299013        13079490.817165613        351768514.35775316     
   3799739826.0922227        7212930.9990999699        341855266.30459577     
   3621073289.1888995        2063535.2955217361        336317760.07138187     
   3442621901.5199356       -2368696.2935097218        335155995.65811461     
   3264385663.0853086       -6083763.7680788040        338369973.06479084     
   3696536709.9664450        13559214.621742010        509357781.30483443     
   3530019325.7268867        10550648.135923147        499050843.59482169     
   3363322210.6883883        6942978.9869499207        493219628.60213888     
   3196445364.8509531        2736207.1748725176        491864136.32677943     
   3029388788.2145810       -2069667.3003437519        494984366.76873064     
   3413125219.5328884        13640931.975295544        666849972.92369688     
   3259257796.8982387        13576056.733742356        655688652.18466139     
   3104815763.4313679        11595812.051427245        649103035.06033051     
   2949799119.1322722        7700197.9283642769        647093121.55069685     
   2794207864.0009413        1889214.3645275831        649658911.65576577     
   3733827264.7980313       -14277601.112195015        19321639.206198577     
   3566267460.8030052       -6105924.8882105350        13555874.959819265     
   3397567188.5750217       -1735809.4407858849        11816389.310839938     
   3227726448.1140714       -1167254.7699007988        14103182.259253554     
   3056745239.4201293       -4400260.8756545782        20416253.805078685     
   3499198488.6131248       -10153075.038705349        179815730.54395038     
   3341332821.5971417       -3422680.8419303894        172790495.46229044     
   3182784324.0205073        1031611.4860095978        169528613.77337998     
   3023552995.8832316        3209801.9451445341        170030085.47723177     
   2863638837.1853013        3111890.5354301929        174294910.57384074     
   3264385663.0853086       -6083763.7680788040        338369973.06479084     
   3115462918.1779499       -1020016.0596687794        330619177.76555073     
   2966314980.3822780        3293088.6876914501        326368810.65443170     
   2816941849.6982760        6855550.4739551544        325618871.73142809     
   2667343526.1259522        9667369.2991451025        328369360.99654394     
   3029388788.2145810       -2069667.3003437519        494984366.76873064     
   2888657750.5454545        1102069.4586251974        487041921.86963248     
   2748159157.6603327        5048622.1642649174        482336979.95400697     
   2607893009.5592022        9769990.8165434599        480869541.02186471     
   2467859306.2420778        15266175.415508986        482639605.07318276     
   2794207864.0009413        1889214.3645275831        649658911.65576577     
   2660917318.6996431        2943575.7129077911        642058727.77451169     
   2528316855.8546662        6298211.9156976938        637433121.67209315     
   2396406475.4660115        11953122.972895861        635782093.34851074     
   2265186177.5336819        19908308.884503365        637105642.80375576     
   3056745239.4201293       -4400260.8756545782        20416253.805078685     
   2888854329.6944766       -7321636.7651348114        12488018.658911411     
   2721698090.7462249       -7794110.0632901192        6351728.3441637792     
   2555276522.5754075       -5817680.7699931860        2007382.8608524469     
   2389589625.1819997       -1392348.8853302002       -545017.79101618228     
   2863638837.1853013        3111890.5354301929        174294910.57384074     
   2701156192.2019496        1805391.8689968586        166010780.67446971     
   2539067559.2928381        1812266.7833735943        159722245.61704141     
   2377372938.4579463        3132515.2784615755        155429305.40155393     
   2216072329.6972923        5766137.3543634415        153131960.02801046     
   2667343526.1259522        9667369.2991451025        328369360.99654394     
   2510851003.0578051        10150305.007686734        319331901.19025689     
   2354411833.3607035        10811085.286371350        312493686.23641449     
   2198026017.0346332        11649710.135173321        307854716.13503057     
   2041693554.0796134        12666179.554125428        305414990.88609713     
   2467859306.2420778        15266175.415508986        482639605.07318276     
   2317938762.2620211        17713102.650869727        472451380.20625049     
   2167730912.9498205        19202345.445745468        464666050.20228243     
   2017235758.3054786        19733903.800153017        459283615.06128556     
   1866453298.3289709        19307777.714018464        456304074.78324795     
   2265186177.5336819        19908308.884503365        637105642.80375576     
   2122419469.8146071        24493784.798567176        625369217.72246778     
   1979024798.0602078        26986047.261537313        616239337.51465094     
   1835002162.2704465        27385096.273311853        609716002.18030620     
   1690351562.4453661        25690931.834022760        605799211.71944284     
   2389589625.1819997       -1392348.8853302002       -545017.79101618228     
   2247778213.3458195        6387486.7472048998       -6672023.2151100505     
   2102721267.9283049        3348877.1086341143       -10937244.222541088     
   1954418788.9294183       -10508177.801175952       -13340680.813318260     
   1802870776.3492122       -35183677.982062340       -13882332.987419793     
   2216072329.6972923        5766137.3543634415        153131960.02801046     
   2077866002.7044425        12694987.494669080        143190631.54359338     
   1937529582.4510274        12523526.766424298        134357042.09712270     
   1795063068.9370999        5251755.1697938442        126631191.68861255     
   1650466462.1625919       -9120327.2954165936        120013080.31804624     
   2041693554.0796134        12666179.554125428        305414990.88609713     
   1904937896.5623448        18097719.591843843        292960686.38228416     
   1767167586.1053379        20147083.163755774        280860075.53770566     
   1628382622.7085714        18814270.269820392        269113158.35237861     
   1488583006.3720636        14099280.910063446        257719934.82629699     
   1866453298.3289709        19307777.714018464        456304074.78324795     
   1728993894.9195676        22595683.038871408        442638141.30095810     
   1591635278.8912034        26219546.300534785        428571856.09921241     
   1454377450.2438908        30179367.499041319        414105219.17799592     
   1317220408.9776256        34475146.634360492        399238230.53732634     
   1690351562.4453661        25690931.834022760        605799211.71944284     
   1550033997.7760770        26188877.835664988        592222996.29962265     
   1410932660.8086295        30740916.176785111        577492383.78163552     
   1273047551.5430284        39347046.857395351        561607374.16547179     
   1136378669.9792745        52007269.877496958        544567967.45113981     
   1802870776.3492122       -35183677.982062340       -13882332.987419793     
   1771801106.7597759       -16426980.420141697       -8363691.9225740572     
   1748782703.6169176        29167271.963694930       -41575731.476574719     
   1733815566.9206293        101599079.16944253       -113518451.64942048     
   1726899696.6709361        200868441.19716287       -224191852.44112545     
   1650466462.1625919       -9120327.2954165936        120013080.31804624     
   1527780709.4382195       -13846984.573349237        135538095.20128191     
   1409250655.8901796       -4721311.2635186911        124739116.33184607     
   1294876301.5183952        18256692.633857965        87616143.709726572     
   1184657646.3229320        55087027.118949533        24169177.334939420     
   1488583006.3720636        14099280.910063446        257719934.82629699     
   1309728847.2732418       -3476428.1795567274        278706495.04594731     
   1131134820.0804582       -20185030.915708959        285775748.37907994     
   952800924.79368973       -36026527.298481762        278927694.82569063     
   774727161.41294122       -51000917.327859789        258162334.38580987     
   1317220408.9776256        34475146.634360492        399238230.53732634     
   1117645520.2648296        14684688.761205554        421141507.61139178     
   914435196.18779325       -17223886.992754936        441534164.66511357     
   707589436.74650145       -61250580.627586156        460416201.69848555     
   497108241.94095695       -117395392.14324051        477787618.71151984     
   1136378669.9792745        52007269.877496958        544567967.45113981     
   951530728.41298330        40636366.248927653        562843132.89762712     
   759151784.21217823        4162120.5053008497        592014365.18994462     
   559241837.37683535       -57415467.353443921        632081664.32808518     
   351800887.90697652       -144096397.32724673        683045030.31204951     
   1726899696.6709361        200868441.19716287       -224191852.44112545     
   1456470559.9203174        184523356.01602685       -96608640.121772423     
   1153884354.1350701        60988040.719483852        60123993.481227160     
   819141079.31516862       -169737504.69260019        246006048.36786559     
   452240735.46063066       -507653280.22010696        461037524.53816080     
   1184657646.3229320        55087027.118949533        24169177.334939420     
   977610039.41131639        11822496.887074649        155580023.59401694     
   732749911.87148547       -157483768.77218512        312808651.14965159     
   450077263.70341909       -452831769.85890734        495855060.00178319     
   129592094.90711427       -874221506.37309134        704719250.15046430     
   774727161.41294122       -51000917.327859789        258162334.38580987     
   621542112.94858563       -124040584.02794322        386802787.72543931     
   424889092.26241350       -341973491.46742034        537929382.37447894     
   184768099.35439584       -704799639.64638996        711542118.33293235     
  -98820865.775445044       -1212519028.5647619        907640995.60079598     
   497108241.94095695       -117395392.14324051        477787618.71151984     
   388266780.53210282       -223065886.72907332        597059652.27248263     
   230301895.30782297       -492481127.36632442        735486187.15573847     
   23213586.268095374       -925641114.05503237        893067223.36130738     
  -232998146.58703402       -1522545846.7951546        1069802760.8891649     
   351800887.90697652       -144096397.32724673        683045030.31204951     
   277784042.16184276       -285253411.21638328        786350617.23516273     
   148988321.00770509       -609006676.46889353        905479065.49345982     
  -34586275.555478036       -1115356193.0848751        1040430375.0869434     
  -272939747.52768391       -1804301961.0642657        1191204546.0155852     
   4510187521.5601816       -5971679.8620884418        668865136.69271457     
   4361988433.2965670       -3091826.3659553528        644403601.96404505     
   4213047843.7642746       -2683643.7653880119        631290433.91238582     
   4063365752.9633217       -4747132.0603823662        629525632.53774691     
   3912942160.8937001       -9282291.2509288788        639109197.84012508     
   4102293382.3565426       -12103618.512706995        791380289.08721316     
   3979088937.8923311       -7905608.2412688732        774842937.29028928     
   3855531632.4215693       -4883801.3249988556        765879677.86774731     
   3731621465.9442568       -3038197.7639033794        764490510.81959045     
   3607358438.4603891       -2368797.5579805374        770675436.14581108     
   3724255523.3727245       -9278673.0973794460        911291720.67579925     
   3615262081.8432631       -6997598.3100285530        903131965.44975591     
   3506304419.5693669       -4597259.3374621868        898772028.29546344     
   3397382536.5510302       -2077656.1796731949        898211909.21292090     
   3288496432.7882643        561211.16333031654        901451608.20212770     
   3376073944.6087503        2503156.3839004040        1028599431.4584553     
   3270507865.1493640       -367796.57223987579        1029270686.4424348     
   3165366205.2076635       -1824017.8027689457        1029967485.1955260     
   3060648964.7836394       -1865507.3077005148        1030689827.7177433     
   2956356143.8773017       -492265.08701539040        1031437714.0090685     
   3057748646.0645990        23241869.931128860        1143303421.4351969     
   2944826287.8106308        11983796.972099185        1153259100.2683308     
   2832716989.3364577        3435923.2790651321        1159466048.5679479     
   2721420750.6420908       -2401751.1479614973        1161924266.3340511     
   2610937571.7275181       -5529226.3090003729        1160633753.5666401     
   3912942160.8937001       -9282291.2509288788        639109197.84012508     
   3787060785.0556417       -6641953.7705519199        643509319.07584679     
   3661797502.8828192       -1941304.0727286339        649599488.66835237     
   3537152314.3752356        4819657.8425586224        657379706.61763418     
   3413125219.5328884        13640931.975295544        666849972.92369688     
   3607358438.4603891       -2368797.5579805374        770675436.14581108     
   3487148612.0896769       -415925.62475419044        771591154.16439676     
   3367336159.7321248        2861526.3523416519        775338200.08119035     
   3247921081.3877335        7463558.3733130693        781916573.89619350     
   3128903377.0565019        13390170.438146472        791326275.60940874     
   3288496432.7882643        561211.16333031654        901451608.20212770     
   3177218954.5746970        2804857.1563518047        898625416.74281311     
   3066118130.7222128        5637351.0196497440        899771832.72314405     
   2955193961.2308173        9058692.7532466650        904890856.14311492     
   2844446446.1005082        13068882.357125401        913982487.00272965     
   2956356143.8773017       -492265.08701539040        1031437714.0090685     
   2857271812.5106869        3020394.5727357864        1024612106.8111064     
   2758143415.8530855        6386169.9291998148        1022900386.5942191     
   2658970953.9044924        9605060.9823565483        1026302553.3584048     
   2559754426.6649103        12677067.732218027        1034818607.1036674     
   2610937571.7275181       -5529226.3090003729        1160633753.5666401     
   2527307185.8976612        230686.62442851067        1149551224.3692701     
   2443412015.1247354        5107983.0809689760        1144723861.6944079     
   2359252059.4087515        9102663.0606424809        1146151665.5420539     
   2274827318.7496991        12214726.563426614        1153834635.9122033     
   3413125219.5328884        13640931.975295544        666849972.92369688     
   3259257796.8982387        13576056.733742356        655688652.18466139     
   3104815763.4313679        11595812.051427245        649103035.06033051     
   2949799119.1322722        7700197.9283642769        647093121.55069685     
   2794207864.0009413        1889214.3645275831        649658911.65576577     
   3128903377.0565019        13390170.438146472        791326275.60940874     
   2986705074.1464214        12553100.361206412        779590469.74609828     
   2844234999.9255123        10810125.914831400        772433405.01822424     
   2701493154.3937774        8161247.0990387201        769855081.42578614     
   2558479537.5512128        4606463.9138165712        771855498.96878624     
   2844446446.1005082        13068882.357125401        913982487.00272965     
   2713925941.5456691        11462221.033994675        902025508.79010987     
   2583436505.2014003        9959120.4127724171        894650309.23366082     
   2452978137.0677047        8559580.4934500456        891856888.33338749     
   2322550837.1445775        7263601.2760348320        893645246.08928680     
   2559754426.6649103        12677067.732218027        1034818607.1036674     
   2440920399.0959864        10303418.752104878        1022993769.3166922     
   2322420279.2590332        9042795.5452232361        1015753747.7066379     
   2204254067.1540542        8895198.1115895510        1013098542.2734952     
   2086421762.7810404        9860626.4511753321        1015028153.0172578     
   2274827318.7496991        12214726.563426614        1153834635.9122033     
   2167688446.7973671        9076693.5155273676        1142495251.3258548     
   2061186322.0984104        8061151.3122090101        1135743720.4371588     
   1955320944.6528182        9168099.9534428120        1133580043.2461109     
   1850092314.4606023        12397539.439258575        1136004219.7527082     
   2794207864.0009413        1889214.3645275831        649658911.65576577     
   2660917318.6996431        2943575.7129077911        642058727.77451169     
   2528316855.8546662        6298211.9156976938        637433121.67209315     
   2396406475.4660115        11953122.972895861        635782093.34851074     
   2265186177.5336819        19908308.884503365        637105642.80375576     
   2558479537.5512128        4606463.9138165712        771855498.96878624     
   2433561578.5061426        6827794.0994727612        764990884.57129610     
   2309144456.2872663        10718580.372439384        761322842.86039042     
   2185228170.8945832        16278822.732714891        760851373.83607078     
   2061812722.3280907        23508521.180288076        763576477.49833870     
   2322550837.1445775        7263601.2760348320        893645246.08928680     
   2206639735.5207481        10842181.648461342        887295414.60707164     
   2091040225.0929811        15459399.341105819        884364150.71919179     
   1975752305.8612747        21115254.353946805        884851454.42564952     
   1860775977.8256323        27809746.687005758        888757325.72645760     
   2086421762.7810404        9860626.4511753321        1015028153.0172578     
   1980151789.7434604        14986738.359896064        1008972317.8818334     
   1874004162.2718093        20520668.821714401        1006557045.2484950     
   1767978880.3660893        26462417.836637378        1007782335.1172519     
   1662075944.0262990        32811985.404657483        1012648187.4881089     
   1850092314.4606023        12397539.439258575        1136004219.7527082     
   1754097741.1742704        19261464.233736753        1130021594.3955817     
   1658036267.8237505        25902388.814246953        1127901526.4483070     
   1561907894.4090264        32320313.180746913        1129644015.9108760     
   1465712620.9301078        38515237.333265305        1135249062.7832928     
   2265186177.5336819        19908308.884503365        637105642.80375576     
   2122419469.8146071        24493784.798567176        625369217.72246778     
   1979024798.0602078        26986047.261537313        616239337.51465094     
   1835002162.2704465        27385096.273311853        609716002.18030620     
   1690351562.4453661        25690931.834022760        605799211.71944284     
   2061812722.3280907        23508521.180288076        763576477.49833870     
   1926131327.8214755        27186849.388567686        752272070.30003500     
   1790033764.7586181        29477949.076021910        744020700.93917418     
   1653520033.1395018        30381820.242617309        738822369.41576040     
   1516590132.9641428        29898462.888403654        736677075.72978115     
   1860775977.8256323        27809746.687005758        888757325.72645760     
   1733455590.7142484        30963635.444331050        878132031.13673949     
   1605930830.5256982        33436280.611107767        871006267.34843457     
   1478201697.2599819        35227682.187330365        867380034.36154556     
   1350268190.9171081        36337840.173021197        867253332.17606664     
   1662075944.0262990        32811985.404657483        1012648187.4881089     
   1544392258.4929128        35824142.965859473        1002949100.2325807     
   1426715995.3614528        38861041.866809130        997196036.74243593     
   1309047154.6319106        41922682.107494593        995388997.01767516     
   1191385736.3042927        45009063.687914312        997527981.05829692     
   1465712620.9301078        38515237.333265305        1135249062.7832928     
   1358941331.1574864        41768371.953167319        1126723277.5875559     
   1252389259.2658703        45752232.843089402        1122590009.1211736     
   1146056405.2552669        50466820.003055513        1122849257.3841417     
   1039942769.1256775        55912133.433067679        1127501022.3764553     
   1690351562.4453661        25690931.834022760        605799211.71944284     
   1550033997.7760770        26188877.835664988        592222996.29962265     
   1410932660.8086295        30740916.176785111        577492383.78163552     
   1273047551.5430284        39347046.857395351        561607374.16547179     
   1136378669.9792745        52007269.877496958        544567967.45113981     
   1516590132.9641428        29898462.888403654        736677075.72978115     
   1374747858.4995840        27804925.948135972        727471412.15606105     
   1233231774.1522028        26798689.398446262        718845326.51689255     
   1092041879.9219811        26879753.239293218        710798818.81228471     
   951178175.80892861        28048117.470707417        703331889.04224384     
   1350268190.9171081        36337840.173021197        867253332.17606664     
   1211855421.0365283        33139084.604641438        861379843.26631761     
   1072878803.6884316        28060837.477875650        857819907.32384777     
   933338338.87282836        21103098.792759001        856573524.34867370     
   793234026.58970785        12265868.549248725        857640694.34079218     
   1191385736.3042927        45009063.687914312        997527981.05829692     
   1061356685.3869113        42191353.805183470        993948289.63038111     
   929873749.41733253        34527360.415134192        994416126.20249140     
   796936928.39556563        22017083.517785281        998931490.77461934     
   662546222.32160342        4660523.1131249070        1007494383.3467762     
   1039942769.1256775        55912133.433067679        1127501022.3764553     
   923251651.55071795        54961733.549735993        1125176751.2482648     
   804216611.33889341        46198258.210174054        1128633983.1528251     
   682837648.49019778        29621707.414382637        1137872718.0901282     
   559114763.00462532        5232081.1623456478        1152892956.0601935     
   1136378669.9792745        52007269.877496958        544567967.45113981     
   951530728.41298330        40636366.248927653        562843132.89762712     
   759151784.21217823        4162120.5053008497        592014365.18994462     
   559241837.37683535       -57415467.353443921        632081664.32808518     
   351800887.90697652       -144096397.32724673        683045030.31204951     
   951178175.80892861        28048117.470707417        703331889.04224384     
   791903898.09583259        11075758.892107427        721296788.09432006     
   623984166.04798925       -34714780.802305341        749330312.86841238     
   447418979.66540027       -109323501.61253455        787432463.36452687     
   262208338.94807822       -212750403.53855732        835603239.58266068     
   793234026.58970785        12265868.549248725        857640694.34079218     
   657169295.23321998       -11017180.228353024        873995133.34818721     
   511344657.84176368       -66833249.122509181        899590756.95380616     
   355760114.41534895       -155182338.13319680        934427565.15763772     
   190415664.95396590       -276064447.26044548        978505557.95969260     
   662546222.32160342        4660523.1131249070        1007494383.3467762     
   547326919.82514334       -25642451.112455130        1020938168.6592431     
   421233259.59349591       -92193284.455325633        1042795697.4461292     
   284265241.62666595       -194991976.91546845        1073066969.7074180     
   136422865.92465296       -334038528.49289382        1111751985.4431379     
   559114763.00462532        5232081.1623456478        1152892956.0601935     
   462376771.87160969       -32800053.760194391        1162125894.0274830     
   353649971.30318201       -110794886.80076928        1178945134.3453720     
   232934361.29936418       -228752417.95930582        1203350677.0138762     
   100229941.86013716       -386672647.23588967        1235342522.0329981     
   351800887.90697652       -144096397.32724673        683045030.31204951     
   277784042.16184276       -285253411.21638328        786350617.23516273     
   148988321.00770509       -609006676.46889353        905479065.49345982     
  -34586275.555478036       -1115356193.0848751        1040430375.0869434     
  -272939747.52768391       -1804301961.0642657        1191204546.0155852     
   262208338.94807822       -212750403.53855732        835603239.58266068     
   223541775.80362168       -352411527.23898852        884983247.76796114     
   140643230.69971156       -639512590.80427337        945387714.26734746     
   13512703.636307001       -1074053594.2345161        1016816639.0808345     
  -157849805.38654160       -1656034537.5296228        1099270022.2084241     
   190415664.95396590       -276064447.26044548        978505557.95969260     
   173389661.49281695       -418342597.64736557        986264696.43164754     
   122678569.52176160       -672904376.40063357        1000249890.1966237     
   38282389.040779889       -1039749783.5203247        1020461139.2546071     
  -79798879.950105608       -1518878819.0063648        1046898443.6056269     
   136422865.92465296       -334038528.49289382        1111751985.4431379     
   127327699.22942743       -483046622.44152641        1090194963.2262430     
   95094337.473851979       -709182033.25799179        1070065593.2812742     
   39722780.657902658       -1012444760.9423449        1051363875.6082475     
  -38786971.218384504       -1392834805.4945414        1034089810.2071671     
   100229941.86013716       -386672647.23588967        1235342522.0329981     
   85355889.013456792       -546523601.62146151        1196774048.1517241     
   57890534.555989712       -748345561.37632227        1154834823.5213139     
   17833878.487710118       -992138526.50056624        1109524848.1417544     
  -34814079.191362262       -1277902496.9941142        1060844122.0130537     
   3057748646.0645990        23241869.931128860        1143303421.4351969     
   2944826287.8106308        11983796.972099185        1153259100.2683308     
   2832716989.3364577        3435923.2790651321        1159466048.5679479     
   2721420750.6420908       -2401751.1479614973        1161924266.3340511     
   2610937571.7275181       -5529226.3090003729        1160633753.5666401     
   2736340714.0989790        40266972.357781649        1220374186.1563818     
   2617307684.5665817        23888144.788841724        1221261676.3391206     
   2499015509.6640129        9978832.6526582241        1222379093.2896416     
   2381464189.3912706       -1460964.0507684946        1223726437.0079422     
   2264653723.7483478       -10431245.321454048        1225303707.4940245     
   2380750018.2095714        47037245.607291579        1296222626.9997766     
   2266973909.6881671        28947941.115274787        1287957689.1904848     
   2153866450.6466193        13087468.222769260        1283901335.4502718     
   2041427641.0849204       -544173.07023441792        1284053565.7791359     
   1929657481.0030751       -11946982.763726592        1288414380.1770766     
   1990976558.3963764        43552689.679668903        1370848743.9653833     
   1893824963.1753871        27163185.951399922        1353347138.8224235     
   1797269812.2842772        12761829.989392877        1344032775.0498395     
   1701311105.7230456        348621.79364383221        1342905652.6476328     
   1605948843.4916918       -10076438.635836542        1349965771.6157970     
   1567020334.6593950        29813304.574909985        1444252537.0532045     
   1497860845.0282395        18533879.297211289        1417430025.2349396     
   1429225594.5769899        9001917.9525338411        1402773412.0883477     
   1361114583.3056436        1217420.5408667326        1400282697.6134324     
   1293527811.2142034       -4819612.9377779961        1409957881.8101845     
   2610937571.7275181       -5529226.3090003729        1160633753.5666401     
   2527307185.8976612        230686.62442851067        1149551224.3692701     
   2443412015.1247354        5107983.0809689760        1144723861.6944079     
   2359252059.4087515        9102663.0606424809        1146151665.5420539     
   2274827318.7496991        12214726.563426614        1153834635.9122033     
   2264653723.7483478       -10431245.321454048        1225303707.4940245     
   2196262283.5298958       -4026444.7292959690        1217443455.7330878     
   2127690015.6500645        1775596.9916015863        1214901483.0756335     
   2058936920.1088660        6974879.8412706852        1217677789.5216646     
   1990002996.9062955        11571403.819699883        1225772375.0711746     
   1929657481.0030751       -11946982.763726592        1288414380.1770766     
   1873828165.1988180       -5700340.8720222712        1283874356.0145419     
   1817901979.0148802        223399.75408709049        1283715723.5364704     
   1761878922.4512606        5824239.1145898104        1287938482.7428634     
   1705758995.5079594        11102177.209486604        1296542633.6337161     
   1605948843.4916918       -10076438.635836542        1349965771.6157970     
   1560004830.9044268       -4791001.8037349582        1348843925.2136400     
   1514047905.2191732        451391.36840891838        1351166583.0769229     
   1468078066.4359305        5650740.8805848360        1356933745.2056470     
   1422095314.5546980        10807046.732800841        1366145411.5998092     
   1293527811.2142034       -4819612.9377779961        1409957881.8101845     
   1254792280.6467223       -1298427.5244485736        1412352163.3303754     
   1216127794.2629533        2459571.8345861435        1417254061.6969881     
   1177534352.0628753        6454385.1392578483        1424663576.9100213     
   1139011954.0465081        10686012.389633179        1434580708.9694705     
   2274827318.7496991        12214726.563426614        1153834635.9122033     
   2167688446.7973671        9076693.5155273676        1142495251.3258548     
   2061186322.0984104        8061151.3122090101        1135743720.4371588     
   1955320944.6528182        9168099.9534428120        1133580043.2461109     
   1850092314.4606023        12397539.439258575        1136004219.7527082     
   1990002996.9062955        11571403.819699883        1225772375.0711746     
   1895105890.2870007        8905418.5374965668        1215381551.0154276     
   1800736718.4264870        7999215.7845479250        1209710681.7261295     
   1706895481.3247442        8852795.5608379841        1208759767.2032840     
   1613582178.9817746        11466157.866376162        1212528807.4468918     
   1705758995.5079594        11102177.209486604        1296542633.6337161     
   1623481085.8468640        9021469.1805313826        1286973422.1981936     
   1541622298.4499462        8337835.3654991984        1282256266.5979364     
   1460182633.3172040        9051275.7643902302        1282391166.8329282     
   1379162090.4486392        11161790.377201378        1287378122.9031792     
   1422095314.5546980        10807046.732800841        1366145411.5998092     
   1352814033.4769542        9424845.4446341991        1357270864.8741620     
   1283843062.1687906        9077010.0550689697        1353380475.0525720     
   1215182400.6302097        9763540.5641077161        1354474242.1350465     
   1146832048.8612061        11484436.971747279        1360552166.1215825     
   1139011954.0465081        10686012.389633179        1434580708.9694705     
   1083104733.1772742        10115547.329812706        1426273879.0433245     
   1027399009.5830200        10216739.853259146        1423083307.0900440     
   971894783.26374876        10989589.959985733        1425008993.1096377     
   916592054.21946239        12434097.649986684        1432050937.1020892     
   1850092314.4606023        12397539.439258575        1136004219.7527082     
   1754097741.1742704        19261464.233736753        1130021594.3955817     
   1658036267.8237505        25902388.814246953        1127901526.4483070     
   1561907894.4090264        32320313.180746913        1129644015.9108760     
   1465712620.9301078        38515237.333265305        1135249062.7832928     
   1613582178.9817746        11466157.866376162        1212528807.4468918     
   1527633506.3898151        17070385.876658916        1207377879.7112586     
   1441672158.4540975        22632362.741082132        1206382709.7424219     
   1355698135.1746273        28152088.459660172        1209543297.5403748     
   1269711436.5513949        33629563.032370448        1216859643.1051161     
   1379162090.4486392        11161790.377201378        1287378122.9031792     
   1304097033.8566086        15757636.194950759        1283122154.9628904     
   1229073526.6412599        20491979.934975266        1283315145.1463358     
   1154091568.8026013        25364821.597292006        1287957093.4535224     
   1079151160.3406165        30376161.181862414        1297047999.8844402     
   1146832048.8612061        11484436.971747279        1360552166.1215825     
   1083488323.5746553        15323215.188614309        1357254420.1504781     
   1020240372.3852363        19481240.395912647        1358698832.6600597     
   957088195.29293752        23958512.593612611        1364885403.6503212     
   894031792.29776382        28755031.781735539        1375814133.1212676     
   916592054.21946239        12434097.649986684        1432050937.1020892     
   865807375.54395831        15767122.857658207        1429774675.2740226     
   815172695.68601918        19600144.123876899        1432533772.2835810     
   764688014.64565349        23933161.448674977        1440328228.1307707     
   714353332.42283785        28766174.831973284        1453158042.8155866     
   1465712620.9301078        38515237.333265305        1135249062.7832928     
   1358941331.1574864        41768371.953167319        1126723277.5875559     
   1252389259.2658703        45752232.843089402        1122590009.1211736     
   1146056405.2552669        50466820.003055513        1122849257.3841417     
   1039942769.1256775        55912133.433067679        1127501022.3764553     
   1269711436.5513949        33629563.032370448        1216859643.1051161     
   1174473745.5767894        36427415.116666079        1210506260.3849342     
   1079311812.5066020        39477793.549026430        1208737425.2113185     
   984225637.34083390        42780698.329446256        1211553137.5842726     
   889215220.07946837        46336129.457880199        1218953397.5037906     
   1079151160.3406165        30376161.181862414        1297047999.8844402     
   995995727.64179683        32883328.573899567        1292699649.6671081     
   912772592.87079465        35164822.391995072        1293127877.8135676     
   829481756.02761388        37220642.636160910        1298332684.3238122     
   746123217.11225343        39050789.306397647        1308314069.1978464     
   894031792.29776382        28755031.781735539        1375814133.1212676     
   823507277.35248923        31136112.324820191        1373303445.4340947     
   752771600.35844696        32813319.372001618        1375761366.9279311     
   681824761.31563091        33786652.923273414        1383187897.6027744     
   610666760.22403038        34056112.978602648        1395583037.4586225     
   714353332.42283785        28766174.831973284        1453158042.8155866     
   657008394.70888329        31185766.369454622        1452317647.6858835     
   599308834.96956420        32423284.489057660        1456637892.5544076     
   541254653.20486927        32478729.190736353        1466118777.4211533     
   482845849.41480178        31352100.474512652        1480760302.2861223     
   1039942769.1256775        55912133.433067679        1127501022.3764553     
   923251651.55071795        54961733.549735993        1125176751.2482648     
   804216611.33889341        46198258.210174054        1128633983.1528251     
   682837648.49019778        29621707.414382637        1137872718.0901282     
   559114763.00462532        5232081.1623456478        1152892956.0601935     
   889215220.07946837        46336129.457880199        1218953397.5037906     
   787291835.49789619        44444064.835895181        1216599594.4857421     
   683068337.70131457        34884956.163873643        1220041390.2926209     
   576544726.68973768        17658803.441864699        1229278784.9244275     
   467721002.46314895       -7234393.3301782310        1244311778.3811610     
   746123217.11225343        39050789.306397647        1308314069.1978464     
   659007839.21599448        36229142.053312093        1305981845.2821164     
   569636157.52659869        25886482.156427056        1309459315.9834921     
   478008172.04406607        8022809.6157637537        1318746481.3019769     
   384123882.76840025       -17361875.568683833        1333843341.2375622     
   610666760.22403038        34056112.978602648        1395583037.4586225     
   538399662.70502341        30316965.202007324        1393323503.6373932     
   463920070.81474125        19202836.187830508        1396887760.2254488     
   387227984.55319798        713725.93611362576        1406275807.2227871     
   308323403.92038298       -25150365.553166658        1421487644.6294055     
   482845849.41480178        31352100.474512652        1480760302.2861223     
   425467305.96498340        26707534.281998545        1478624569.5515778     
   365920077.56575346        14834018.258118168        1482326723.0184822     
   304204164.21712494       -4268447.5970938057        1491866762.6868567     
   240319565.91909713       -30599863.283636719        1507244688.5566843     
   559114763.00462532        5232081.1623456478        1152892956.0601935     
   462376771.87160969       -32800053.760194391        1162125894.0274830     
   353649971.30318201       -110794886.80076928        1178945134.3453720     
   232934361.29936418       -228752417.95930582        1203350677.0138762     
   100229941.86013716       -386672647.23588967        1235342522.0329981     
   467721002.46314895       -7234393.3301782310        1244311778.3811610     
   390218603.30839306       -41606179.961314484        1242751845.0285101     
   302571270.74402237       -109794411.29117772        1247557522.7797494     
   204779004.77004045       -211799087.31974530        1258728811.6348739     
   96841805.386448503       -347620208.04700172        1276265711.5938680     
   384123882.76840025       -17361875.568683833        1333843341.2375622     
   322369386.31554008       -49119620.691348776        1323641725.2617404     
   252313832.47886336       -108547557.09340596        1318585029.1430738     
   173957221.25836587       -195645684.77486333        1318673252.8815622     
   87299552.654040396       -310414003.73574299        1323906396.4772069     
   308323403.92038298       -25150365.553166658        1421487644.6294055     
   258829120.89306307       -55340375.950245306        1404795534.7271564     
   202877656.50771236       -107054324.20742846        1392027653.4353464     
   140469010.76433522       -180292210.32470152        1383184000.7539647     
   71603183.662923843       -275054034.30208337        1378264576.6830058     
   240319565.91909713       -30599863.283636719        1507244688.5566843     
   199597807.04095086       -60268445.738049045        1486213273.4247789     
   154262742.83057201       -105314712.63323945        1467885395.6565700     
   104314373.28794900       -165738663.96924096        1452261055.2520692     
   49752698.413085476       -241540299.74604708        1439340252.2112689     
   100229941.86013716       -386672647.23588967        1235342522.0329981     
   85355889.013456792       -546523601.62146151        1196774048.1517241     
   57890534.555989712       -748345561.37632227        1154834823.5213139     
   17833878.487710118       -992138526.50056624        1109524848.1417544     
  -34814079.191362262       -1277902496.9941142        1060844122.0130537     
   96841805.386448503       -347620208.04700172        1276265711.5938680     
   79863842.154989690       -488805584.59894562        1221965611.0364530     
   51502003.539521962       -667937212.43092752        1165110427.5859816     
   11756289.540052533       -885015091.54290509        1105700161.2424448     
  -39373299.843422294       -1140039221.9349065        1043734812.0058451     
   87299552.654040396       -310414003.73574299        1323906396.4772069     
   70548158.626605928       -432234658.57744455        1255283333.1749117     
   43620315.441957533       -587976810.60984814        1184920854.8356304     
   6516023.1001021266       -777640459.83295512        1112818961.4593759     
  -40764718.398966432       -1001225606.2467571        1038977653.0461452     
   71603183.662923843       -275054034.30208337        1378264576.6830058     
   57408838.428320348       -376810823.55690074        1296727214.5670879     
   34245470.263301581       -508464355.91310310        1214266105.2702715     
   2113079.1678765416       -670014631.37066936        1130881248.7925608     
  -38988334.857972413       -861461649.92963970        1046572645.1339581     
   49752698.413085476       -241540299.74604708        1439340252.2112689     
   40445881.560132936       -322534079.53731418        1346297255.2129796     
   23377468.003554225       -429399848.34067708        1253146178.8898809     
  -1452542.2566466331       -562137606.15610409        1159887023.2419829     
  -34044149.220456243       -720747352.98356569        1066519788.2692720     
   1567020334.6593950        29813304.574909985        1444252537.0532045     
   1497860845.0282395        18533879.297211289        1417430025.2349396     
   1429225594.5769899        9001917.9525338411        1402773412.0883477     
   1361114583.3056436        1217420.5408667326        1400282697.6134324     
   1293527811.2142034       -4819612.9377779961        1409957881.8101845     
   1137461558.7122803        11018870.746500134        1465338309.0204773     
   1098109046.7370372        6314433.3626740575        1446411490.6186092     
   1059149714.1467191        2920593.9285985231        1436729912.9971890     
   1020583560.9413300        837352.44428682327        1436293576.1562114     
   982410587.12086487        64708.909721016884        1445102480.0956745     
   733105244.28666592       -214824.62545946240        1485590107.3798661     
   715214973.13525617       -847695.16503679752        1474406079.3002520     
   697586821.57379341       -606833.73812362552        1469546634.1098545     
   680220789.60227764        507759.65527677536        1471011771.8086720     
   663116877.22070992        2496085.0151734948        1478801492.3967109     
   353951391.38254964       -3887781.5409689099        1505007932.1313596     
   349178624.22289491       -2952506.2859233320        1501413791.2798569     
   344536916.85820669       -1580365.0476504862        1501223575.4263432     
   340026269.28848839        228642.17385324836        1504437284.5708196     
   335646681.51373720        2474515.3785797656        1511054918.7132840     
  -6.5057849217732387E-005  -2.9509361986946126E-005   1523591783.2749612     
  -4.4927431738265261E-005   1.8163126680337382E-005   1527434626.5574274     
  -3.5365483435518374E-005   3.2689052929725596E-005   1531760736.9466591     
  -3.9185687661735435E-005   1.5669699969812474E-006   1536570114.4426489     
  -4.9594028517596277E-005  -5.1515568367909050E-005   1541862759.0454004     
   1293527811.2142034       -4819612.9377779961        1409957881.8101845     
   1254792280.6467223       -1298427.5244485736        1412352163.3303754     
   1216127794.2629533        2459571.8345861435        1417254061.6969881     
   1177534352.0628753        6454385.1392578483        1424663576.9100213     
   1139011954.0465081        10686012.389633179        1434580708.9694705     
   982410587.12086487        64708.909721016884        1445102480.0956745     
   950533526.21680450        1857974.0761733055        1445037147.3684998     
   918709748.45052826        3828849.7019050717        1448138694.5160496     
   886939253.82202876        5977335.7868934274        1454407121.5383172     
   855222042.33131146        8303432.3311556578        1463842428.4353089     
   663116877.22070992        2496085.0151734948        1478801492.3967109     
   639981894.63236511        3126512.5304302871        1476255824.2019236     
   616882434.13588202        3875347.0185613632        1477536298.9101615     
   593818495.73125601        4742588.4795478284        1482642916.5214272     
   570790079.41848862        5728236.9133968949        1491575677.0357194     
   335646681.51373720        2474515.3785797656        1511054918.7132840     
   323137385.89340854        2507187.8383429646        1506008193.8306437     
   310645851.31901586        2599063.7845598608        1505446874.8793342     
   298172077.79055697        2750143.2172226012        1509370961.8593533     
   285716065.30803651        2960426.1363461018        1517780454.7707083     
  -4.9594028517596277E-005  -5.1515568367909050E-005   1541862759.0454004     
  -7.1691736796193151E-005  -1.1476625510737109E-004   1534294256.2546613     
  -7.9789654736796956E-005  -1.3135097405352300E-004   1531870422.4235597     
  -6.7093766440087587E-005  -7.8623005541964209E-005   1534591257.5520942     
  -4.4652926045363437E-005   6.5881366296437885E-006   1542456761.6402590     
   1139011954.0465081        10686012.389633179        1434580708.9694705     
   1083104733.1772742        10115547.329812706        1426273879.0433245     
   1027399009.5830200        10216739.853259146        1423083307.0900440     
   971894783.26374876        10989589.959985733        1425008993.1096377     
   916592054.21946239        12434097.649986684        1432050937.1020892     
   855222042.33131146        8303432.3311556578        1463842428.4353089     
   812770953.92524135        7719381.7100659907        1455577320.8795233     
   770470988.47540426        7639074.2764198482        1452549961.6059020     
   728322145.98180234        8062510.0302233100        1454760350.6144526     
   686324426.44443226        8989688.9714656472        1462208487.9051704     
   570790079.41848862        5728236.9133968949        1491575677.0357194     
   542142238.64501762        5234735.2818704545        1483293521.8117518     
   513595146.50903219        5077062.4419595301        1480370605.1792493     
   485148803.01052630        5255218.3936483860        1482806927.1382184     
   456803208.14950979        5769203.1369668841        1490602487.6886613     
   285716065.30803651        2960426.1363461018        1517780454.7707083     
   271218587.33659822        2661608.0452070087        1509422481.8400092     
   256771483.68389815        2530704.3498609960        1506545237.8100867     
   242374754.34992778        2567715.0502801985        1509148722.6809330     
   228028399.33469695        2772640.1464993656        1517232936.4525554     
  -4.4652926045363437E-005   6.5881366296437885E-006   1542456761.6402590     
  -1.1895246692412395E-005   9.6351498208540367E-005   1533964200.9642973     
   9.1044388145771767E-006   1.4761543635795609E-004   1531073859.4984109     
   6.0391252438401344E-006   1.1796882152455904E-004   1533785737.2426000     
  -1.9215398503127725E-006   7.2698257670166495E-005   1542099834.1968606     
   916592054.21946239        12434097.649986684        1432050937.1020892     
   865807375.54395831        15767122.857658207        1429774675.2740226     
   815172695.68601918        19600144.123876899        1432533772.2835810     
   764688014.64565349        23933161.448674977        1440328228.1307707     
   714353332.42283785        28766174.831973284        1453158042.8155866     
   686324426.44443226        8989688.9714656472        1462208487.9051704     
   648356071.07932615        11525503.969665051        1460332575.2632294     
   610500214.82739067        14436316.011765182        1463463985.6092308     
   572756857.68863547        17722125.097801417        1471602718.9431717     
   535125999.66305721        21382931.227755249        1484748775.2650495     
   456803208.14950979        5769203.1369668841        1490602487.6886613     
   431571073.66711730        7483777.1973771900        1489083174.5777276     
   406413938.59351188        9448349.2870758176        1492543148.6050465     
   381331802.92869598        11662919.406071603        1500982409.7706175     
   356324666.67266560        14127487.554353967        1514400958.0744381     
   228028399.33469695        2772640.1464993656        1517232936.4525554     
   215452383.30734265        3641942.5408271328        1516026473.2175112     
   202913866.98438674        4636243.9498171583        1519771261.2710254     
   190412850.36582619        5755544.3734592795        1528467300.6131098     
   177949333.45166460        6999843.8117632046        1542114591.2437549     
  -1.9215398503127725E-006   7.2698257670166495E-005   1542099834.1968606     
   7.3201518107153178E-007   1.3542280849823337E-005   1541162471.1825802     
   8.0064160429698786E-006  -3.0904765925863729E-005   1545148323.6071775     
   2.7679324034267294E-005  -3.3329566213163180E-005   1554057391.4706447     
   5.7463191714115241E-005  -2.7450569290182469E-006   1567889674.7729931     
   714353332.42283785        28766174.831973284        1453158042.8155866     
   657008394.70888329        31185766.369454622        1452317647.6858835     
   599308834.96956420        32423284.489057660        1456637892.5544076     
   541254653.20486927        32478729.190736353        1466118777.4211533     
   482845849.41480178        31352100.474512652        1480760302.2861223     
   535125999.66305721        21382931.227755249        1484748775.2650495     
   491210670.17010659        22925637.018631727        1483801243.1279447     
   447029374.15812230        23581787.746061325        1488225897.1041405     
   402582111.62712151        23351383.410103157        1498022737.1936483     
   357868882.57708764        22234424.010698721        1513191763.3964524     
   356324666.67266560        14127487.554353967        1514400958.0744381     
   326443362.87237543        14974632.840114132        1513449720.3539960     
   296384748.05940163        15230741.416928008        1518082214.8619351     
   266148822.23373920        14895813.284779549        1528298441.5982590     
   235735585.39539105        13969848.443680018        1544098400.5629697     
   177949333.45166460        6999843.8117632046        1542114591.2437549     
   162706472.81568846        7332753.8338939697        1541263079.3640411     
   147374956.67337656        7370145.5015733913        1546206845.8277855     
   131954785.02471834        7112018.8147643879        1556945890.6349950     
   116445957.86971521        6558373.7734725624        1573480213.7856729     
   5.7463191714115241E-005  -2.7450569290182469E-006   1567889674.7729931     
   6.0757260028937138E-005   2.4888516156432079E-005   1567241320.1580713     
   6.3959826446125092E-005   5.0829304135654484E-005   1572599790.0016873     
   6.1100392145064421E-005   5.6216478358852792E-005   1583965084.3038511     
   5.8378210690454655E-005   6.4142830241392979E-005   1601337203.0645576     
   482845849.41480178        31352100.474512652        1480760302.2861223     
   425467305.96498340        26707534.281998545        1478624569.5515778     
   365920077.56575346        14834018.258118168        1482326723.0184822     
   304204164.21712494       -4268447.5970938057        1491866762.6868567     
   240319565.91909713       -30599863.283636719        1507244688.5566843     
   357868882.57708764        22234424.010698721        1513191763.3964524     
   315809324.48898339        19043304.216071844        1509723775.0474133     
   272123252.68882906        10430472.047950312        1511866324.6833417     
   226810667.17662677       -3604072.4936685562        1519619412.3042293     
   179871567.95237407       -23060329.408788852        1532983037.9100811     
   235735585.39539105        13969848.443680018        1544098400.5629697     
   208345446.33616284        12037305.147120610        1539930689.7096899     
   179870964.80223662        6490286.9349003434        1541146168.6248734     
   150312140.79360619       -2671206.1930004805        1547744837.3085217     
   119668974.31028029       -15447174.236552216        1559726695.7606401     
   116445957.86971521        6558373.7734725624        1573480213.7856729     
   103075671.50651437        5689537.0751168281        1569245313.5383859     
   89163213.905965701        3013462.9189376980        1570166254.8430681     
   74708585.068067148       -1469848.6950743906        1576243037.6997211     
   59711784.992819637       -7760397.7669189647        1587475662.1083417     
   5.8378210690454655E-005   6.4142830241392979E-005   1601337203.0645576     
   3.3306690738754696E-005   4.9960036108132044E-005   1597667646.5335114     
   1.9444153247212563E-005   7.2446627451673156E-005   1598926583.3379416     
  -2.9738116731030955E-006   6.5721237975578455E-005   1605114013.4778433     
  -1.5097813109600343E-005   9.5390728283383991E-005   1616229936.9532166     
   240319565.91909713       -30599863.283636719        1507244688.5566843     
   199597807.04095086       -60268445.738049045        1486213273.4247789     
   154262742.83057201       -105314712.63323945        1467885395.6565700     
   104314373.28794900       -165738663.96924096        1452261055.2520692     
   49752698.413085476       -241540299.74604708        1439340252.2112689     
   179871567.95237407       -23060329.408788852        1532983037.9100811     
   148566980.47797889       -45540746.744331256        1507417146.4019718     
   113802414.00440520       -79554427.410462990        1484732888.1979215     
   75577868.531641811       -125101371.40722992        1464930263.2979176     
   33893344.059697747       -182181578.73460183        1448009271.7019870     
   119668974.31028029       -15447174.236552216        1559726695.7606401     
   98290403.783501014       -30586772.790063553        1530971875.2648983     
   74605180.590598419       -53415213.563986033        1505276784.0135617     
   48613304.731565863       -83932496.558343083        1482641422.0066373     
   20314776.206407271       -122138621.77311745        1463065789.2441247     
   59711784.992819637       -7760397.7669189647        1587475662.1083417     
   48768076.957521647       -15406523.875243817        1556877460.0135398     
   36671042.589149430       -26897071.093814634        1529517083.1034887     
   23420681.887713801       -42232039.422598936        1505394531.3782110     
   9016994.8532092087       -61411428.861610353        1484509804.8376935     
  -1.5097813109600343E-005   9.5390728283383991E-005   1616229936.9532166     
   3.5319732486701405E-005   1.2050799918390092E-004   1585133900.6479025     
   7.2927012414251350E-005   1.0014882696034893E-004   1557453785.4677081     
   9.6648879375850675E-005   3.5239668326271711E-005   1533189591.4126313     
   1.0714872212934545E-004  -7.4436793725211387E-005   1512341318.4826674     
   49752698.413085476       -241540299.74604708        1439340252.2112689     
   40445881.560132936       -322534079.53731418        1346297255.2129796     
   23377468.003554225       -429399848.34067708        1253146178.8898809     
  -1452542.2566466331       -562137606.15610409        1159887023.2419829     
  -34044149.220456243       -720747352.98356569        1066519788.2692720     
   33893344.059697747       -182181578.73460183        1448009271.7019870     
   29770503.145195931       -242069732.06050673        1347507904.9758496     
   19826464.702977538       -321361877.14547378        1246231762.1890147     
   4061228.7330602407       -420058013.98943102        1144180843.3414793     
  -17525204.764565289       -538158142.59242129        1041355148.4332565     
   20314776.206407271       -122138621.77311745        1463065789.2441247     
   19471063.413536914       -161492602.97870922        1357369851.8287051     
   14746552.268864125       -213782578.69030568        1250232441.6166899     
   6141242.7723960578       -279008548.90788949        1141653558.6080999     
  -6344865.0758694261       -357170513.63146186        1031633202.8029174     
   9016994.8532092087       -61411428.861610353        1484509804.8376935     
   9547562.3651490360       -80802692.291933686        1375883095.7715375     
   8137730.7012058496       -106661952.97520064        1265148217.1729176     
   4787499.8613666072       -138989210.91145414        1152305169.0418243     
  -503130.15435537696       -177784466.10065049        1037353951.3782668     
   1.0714872212934545E-004  -7.4436793725211387E-005   1512341318.4826674     
   3.6875264746478418E-005  -1.7545488871308277E-004   1403047636.8043537     
  -3.2940683148218909E-006  -1.7751368140984646E-004   1290979088.8576927     
  -2.8365588266521857E-005  -1.2924643040794232E-004   1176135674.6426656     
  -2.3241481999021133E-005   1.9672907991297415E-005   1058517394.1592734     
  -6.5057849217732387E-005  -2.9509361986946126E-005   1523591783.2749612     
  -4.4927431738265261E-005   1.8163126680337382E-005   1527434626.5574274     
  -3.5365483435518374E-005   3.2689052929725596E-005   1531760736.9466591     
  -3.9185687661735435E-005   1.5669699969812474E-006   1536570114.4426489     
  -4.9594028517596277E-005  -5.1515568367909050E-005   1541862759.0454004     
  -353951391.38267469        3887781.5409122407        1505007932.1313808     
  -349178624.22298789        2952506.2859387249        1501413791.2798615     
  -344536916.85828406        1580365.0476882756        1501223575.4263296     
  -340026269.28856403       -228642.17384196818        1504437284.5707839     
  -335646681.51382422       -2474515.3786399961        1511054918.7132280     
  -733105244.28677595        214824.62540483475        1485590107.3798997     
  -715214973.13534701        847695.16502779722        1474406079.3002551     
  -697586821.57386935        606833.73814451694        1469546634.1098287     
  -680220789.60234940       -507759.65526199341        1471011771.8086178     
  -663116877.22078228       -2496085.0151785314        1478801492.3966186     
  -1137461558.7123652       -11018870.746547341        1465338309.0205104     
  -1098109046.7371178       -6314433.3627023697        1446411490.6186149     
  -1059149714.1467922       -2920593.9286013842        1436729912.9971590     
  -1020583560.9413953       -837352.44425928593        1436293576.1561465     
  -982410587.12092328       -64708.909669458866        1445102480.0955720     
  -1567020334.6594467       -29813304.574948788        1444252537.0532200     
  -1497860845.0283010       -18533879.297254801        1417430025.2349346     
  -1429225594.5770526       -9001917.9525492191        1402773412.0883183     
  -1361114583.3057034       -1217420.5408414006        1400282697.6133697     
  -1293527811.2142510        4819612.9378769398        1409957881.8100896     
  -4.9594028517596277E-005  -5.1515568367909050E-005   1541862759.0454004     
  -7.1691736796193151E-005  -1.1476625510737109E-004   1534294256.2546613     
  -7.9789654736796956E-005  -1.3135097405352300E-004   1531870422.4235597     
  -6.7093766440087587E-005  -7.8623005541964209E-005   1534591257.5520942     
  -4.4652926045363437E-005   6.5881366296437885E-006   1542456761.6402590     
  -335646681.51382422       -2474515.3786399961        1511054918.7132280     
  -323137385.89351952       -2507187.8384645283        1506008193.8306148     
  -310645851.31913316       -2599063.7846835107        1505446874.8793328     
  -298172077.79066545       -2750143.2172985077        1509370961.8593819     
  -285716065.30811816       -2960426.1363140047        1517780454.7707627     
  -663116877.22078228       -2496085.0151785314        1478801492.3966186     
  -639981894.63244867       -3126512.5304619968        1476255824.2018750     
  -616882434.13596880       -3875347.0185899436        1477536298.9101596     
  -593818495.73133731       -4742588.4795469940        1482642916.5214717     
  -570790079.41855681       -5728236.9133408070        1491575677.0358124     
  -982410587.12092328       -64708.909669458866        1445102480.0955720     
  -950533526.21685982       -1857974.0761107206        1445037147.3684433     
  -918709748.45057726       -3828849.7018200755        1448138694.5160387     
  -886939253.82208228       -5977335.7868208289        1454407121.5383573     
  -855222042.33136487       -8303432.3310800791        1463842428.4354010     
  -1293527811.2142510        4819612.9378769398        1409957881.8100896     
  -1254792280.6467471        1298427.5246109366        1412352163.3303204     
  -1216127794.2629611       -2459571.8343803883        1417254061.6969714     
  -1177534352.0628941       -6454385.1391032338        1424663576.9100430     
  -1139011954.0465386       -10686012.389529049        1434580708.9695373     
  -4.4652926045363437E-005   6.5881366296437885E-006   1542456761.6402590     
  -1.1895246692412395E-005   9.6351498208540367E-005   1533964200.9642973     
   9.1044388145771767E-006   1.4761543635795609E-004   1531073859.4984109     
   6.0391252438401344E-006   1.1796882152455904E-004   1533785737.2426000     
  -1.9215398503127725E-006   7.2698257670166495E-005   1542099834.1968606     
  -285716065.30811816       -2960426.1363140047        1517780454.7707627     
  -271218587.33663350       -2661608.0450602174        1509422481.8400381     
  -256771483.68390268       -2530704.3496504128        1506545237.8100898     
  -242374754.34992379       -2567715.0500803143        1509148722.6809099     
  -228028399.33470559       -2772640.1463803947        1517232936.4525087     
  -570790079.41855681       -5728236.9133408070        1491575677.0358124     
  -542142238.64505422       -5234735.2817498446        1483293521.8117948     
  -513595146.50904679       -5077062.4418106973        1480370605.1792524     
  -485148803.01053220       -5255218.3935119212        1482806927.1381826     
  -456803208.14951134       -5769203.1368607879        1490602487.6885774     
  -855222042.33136487       -8303432.3310800791        1463842428.4354010     
  -812770953.92527723       -7719381.7099835277        1455577320.8795676     
  -770470988.47542548       -7639074.2763366997        1452549961.6059046     
  -728322145.98180711       -8062510.0301353037        1454760350.6144106     
  -686324426.44442225       -8989688.9713777006        1462208487.9050832     
  -1139011954.0465386       -10686012.389529049        1434580708.9695373     
  -1083104733.1773021       -10115547.329759359        1426273879.0433540     
  -1027399009.5830438       -10216739.853249609        1423083307.0900388     
  -971894783.26375008       -10989589.959957004        1425008993.1095915     
  -916592054.21943343       -12434097.649918079        1432050937.1020098     
  -1.9215398503127725E-006   7.2698257670166495E-005   1542099834.1968606     
   7.3201518107153178E-007   1.3542280849823337E-005   1541162471.1825802     
   8.0064160429698786E-006  -3.0904765925863729E-005   1545148323.6071775     
   2.7679324034267294E-005  -3.3329566213163180E-005   1554057391.4706447     
   5.7463191714115241E-005  -2.7450569290182469E-006   1567889674.7729931     
  -228028399.33470559       -2772640.1463803947        1517232936.4525087     
  -215452383.30733165       -3641942.5407763720        1516026473.2174821     
  -202913866.98434934       -4636243.9498113543        1519771261.2710161     
  -190412850.36575234       -5755544.3734647036        1528467300.6131151     
  -177949333.45153910       -6999843.8117288873        1542114591.2437744     
  -456803208.14951134       -5769203.1368607879        1490602487.6885774     
  -431571073.66709232       -7483777.1973014176        1489083174.5776768     
  -406413938.59346062       -9448349.2870313078        1492543148.6050258     
  -381331802.92860729       -11662919.406021893        1500982409.7706246     
  -356324666.67253572       -14127487.554285035        1514400958.0744720     
  -686324426.44442225       -8989688.9713777006        1462208487.9050832     
  -648356071.07928216       -11525503.969561934        1460332575.2631776     
  -610500214.82731640       -14436316.011657953        1463463985.6092081     
  -572756857.68853724       -17722125.097709924        1471602718.9431760     
  -535125999.66292685       -21382931.227657884        1484748775.2650852     
  -916592054.21943343       -12434097.649918079        1432050937.1020098     
  -865807375.54389167       -15767122.857528299        1429774675.2739737     
  -815172695.68592691       -19600144.123725981        1432533772.2835643     
  -764688014.64553595       -23933161.448507309        1440328228.1307769     
  -714353332.42271233       -28766174.831842393        1453158042.8156123     
   5.7463191714115241E-005  -2.7450569290182469E-006   1567889674.7729931     
   6.0757260028937138E-005   2.4888516156432079E-005   1567241320.1580713     
   6.3959826446125092E-005   5.0829304135654484E-005   1572599790.0016873     
   6.1100392145064421E-005   5.6216478358852792E-005   1583965084.3038511     
   5.8378210690454655E-005   6.4142830241392979E-005   1601337203.0645576     
  -177949333.45153910       -6999843.8117288873        1542114591.2437744     
  -162706472.81557110       -7332753.8338546008        1541263079.3640521     
  -147374956.67325389       -7370145.5014824644        1546206845.8277919     
  -131954785.02460332       -7112018.8146655560        1556945890.6349967     
  -116445957.86960419       -6558373.7733543254        1573480213.7856636     
  -356324666.67253572       -14127487.554285035        1514400958.0744720     
  -326443362.87225336       -14974632.840039194        1513449720.3540187     
  -296384748.05928218       -15230741.416828066        1518082214.8619535     
  -266148822.23363256       -14895813.284689888        1528298441.5982699     
  -235735585.39529037       -13969848.443576552        1544098400.5629716     
  -535125999.66292685       -21382931.227657884        1484748775.2650852     
  -491210670.16999292       -22925637.018552661        1483801243.1279697     
  -447029374.15802735       -23581787.746009111        1488225897.1041598     
  -402582111.62702924       -23351383.410024568        1498022737.1936572     
  -357868882.57700104       -22234424.010604441        1513191763.3964541     
  -714353332.42271233       -28766174.831842393        1453158042.8156123     
  -657008394.70878065       -31185766.369363934        1452317647.6859052     
  -599308834.96946919       -32423284.488957554        1456637892.5544217     
  -541254653.20479584       -32478729.190676481        1466118777.4211628     
  -482845849.41473836       -31352100.474447012        1480760302.2861249     
   5.8378210690454655E-005   6.4142830241392979E-005   1601337203.0645576     
   3.3306690738754696E-005   4.9960036108132044E-005   1597667646.5335114     
   1.9444153247212563E-005   7.2446627451673156E-005   1598926583.3379416     
  -2.9738116731030955E-006   6.5721237975578455E-005   1605114013.4778433     
  -1.5097813109600343E-005   9.5390728283383991E-005   1616229936.9532166     
  -116445957.86960419       -6558373.7733543254        1573480213.7856636     
  -103075671.50644158       -5689537.0750025660        1569245313.5383828     
  -89163213.905927241       -3013462.9188120849        1570166254.8430784     
  -74708585.068069562        1469848.6951879524        1576243037.6997411     
  -59711784.992857046        7760397.7670409679        1587475662.1083794     
  -235735585.39529037       -13969848.443576552        1544098400.5629716     
  -208345446.33608884       -12037305.147020131        1539930689.7096872     
  -179870964.80218783       -6490286.9347974509        1541146168.6248817     
  -150312140.79358822        2671206.1930878758        1547744837.3085396     
  -119668974.31029440        15447174.236617923        1559726695.7606812     
  -357868882.57700104       -22234424.010604441        1513191763.3964541     
  -315809324.48890084       -19043304.215970472        1509723775.0474138     
  -272123252.68875486       -10430472.047854766        1511866324.6833475     
  -226810667.17656827        3604072.4937327504        1519619412.3042526     
  -179871567.95233124        23060329.408820018        1532983037.9101293     
  -482845849.41473836       -31352100.474447012        1480760302.2861249     
  -425467305.96488613       -26707534.281889424        1478624569.5515702     
  -365920077.56564736       -14834018.258048013        1482326723.0184810     
  -304204164.21699822        4268447.5971613973        1491866762.6868658     
  -240319565.91897559        30599863.283619881        1507244688.5567150     
  -1.5097813109600343E-005   9.5390728283383991E-005   1616229936.9532166     
   3.5319732486701405E-005   1.2050799918390092E-004   1585133900.6479025     
   7.2927012414251350E-005   1.0014882696034893E-004   1557453785.4677081     
   9.6648879375850675E-005   3.5239668326271711E-005   1533189591.4126313     
   1.0714872212934545E-004  -7.4436793725211387E-005   1512341318.4826674     
  -59711784.992857046        7760397.7670409679        1587475662.1083794     
  -48768076.957468949        15406523.875395354        1556877460.0135479     
  -36671042.589032814        26897071.093913317        1529517083.1034861     
  -23420681.887531977        42232039.422646090        1505394531.3781729     
  -9016994.8529844098        61411428.861532897        1484509804.8376286     
  -119668974.31029440        15447174.236617923        1559726695.7606812     
  -98290403.783451423        30586772.790131725        1530971875.2649207     
  -74605180.590487719        53415213.564049214        1505276784.0135598     
  -48613304.731402218        83932496.558371335        1482641422.0066009     
  -20314776.206188396        122138621.77311985        1463065789.2440472     
  -179871567.95233124        23060329.408820018        1532983037.9101293     
  -148566980.47791535        45540746.744321175        1507417146.4020116     
  -113802414.00430351        79554427.410469770        1484732888.1979403     
  -75577868.531499326        125101371.40726173        1464930263.2979131     
  -33893344.059508041        182181578.73467875        1448009271.7019279     
  -240319565.91897559        30599863.283619881        1507244688.5567150     
  -199597807.04085717        60268445.737967253        1486213273.4248250     
  -154262742.83048040        105314712.63317370        1467885395.6566186     
  -104314373.28784961        165738663.96922749        1452261055.2520988     
  -49752698.412953407        241540299.74616662        1439340252.2112586     
   1.0714872212934545E-004  -7.4436793725211387E-005   1512341318.4826674     
   3.6875264746478418E-005  -1.7545488871308277E-004   1403047636.8043537     
  -3.2940683148218909E-006  -1.7751368140984646E-004   1290979088.8576927     
  -2.8365588266521857E-005  -1.2924643040794232E-004   1176135674.6426656     
  -2.3241481999021133E-005   1.9672907991297415E-005   1058517394.1592734     
  -9016994.8529844098        61411428.861532897        1484509804.8376286     
  -9547562.3650342822        80802692.291744977        1375883095.7715240     
  -8137730.7011805996        106661952.97496715        1265148217.1729379     
  -4787499.8614193797        138989210.91121483        1152305169.0418882     
   503130.15426369756        177784466.10053641        1037353951.3783802     
  -20314776.206188396        122138621.77311985        1463065789.2440472     
  -19471063.413402610        161492602.97865626        1357369851.8286712     
  -14746552.268824592        213782578.69016683        1250232441.6167095     
  -6141242.7724421918        279008548.90768641        1141653558.6081848     
   6344865.0757352859        357170513.63119519        1031633202.8030609     
  -33893344.059508041        182181578.73467875        1448009271.7019279     
  -29770503.145057976        242069732.06059146        1347507904.9758110     
  -19826464.702926055        321361877.14544505        1246231762.1890218     
  -4061228.7331110239        420058013.98924237        1144180843.3415241     
   17525204.764400065        538158142.59202516        1041355148.4333621     
  -49752698.412953407        241540299.74616662        1439340252.2112586     
  -40445881.560004666        322534079.53753918        1346297255.2129564     
  -23377468.003500015        429399848.34075993        1253146178.8898501     
   1452542.2565901279        562137606.15593719        1159887023.2419419     
   34044149.220246345        720747352.98299634        1066519788.2692413     
  -1567020334.6594467       -29813304.574948788        1444252537.0532200     
  -1497860845.0283010       -18533879.297254801        1417430025.2349346     
  -1429225594.5770526       -9001917.9525492191        1402773412.0883183     
  -1361114583.3057034       -1217420.5408414006        1400282697.6133697     
  -1293527811.2142510        4819612.9378769398        1409957881.8100896     
  -1990976558.3964088       -43552689.679745197        1370848743.9654164     
  -1893824963.1754384       -27163185.951481938        1353347138.8224351     
  -1797269812.2843432       -12761829.989465714        1344032775.0498300     
  -1701311105.7231188       -348621.79368519783        1342905652.6475985     
  -1605948843.4917650        10076438.635850370        1349965771.6157410     
  -2380750018.2096000       -47037245.607406855        1296222626.9998178     
  -2266973909.6882195       -28947941.115403056        1287957689.1905105     
  -2153866450.6466875       -13087468.222892642        1283901335.4502792     
  -2041427641.0850029        544173.07012689114        1284053565.7791271     
  -1929657481.0031664        11946982.763655901        1288414380.1770556     
  -2736340714.0990238       -40266972.357940793        1220374186.1564379     
  -2617307684.5666394       -23888144.789016962        1221261676.3391583     
  -2499015509.6640892       -9978832.6528377533        1222379093.2896636     
  -2381464189.3913555        1460964.0506036282        1223726437.0079532     
  -2264653723.7484460        10431245.321297050        1225303707.4940271     
  -3057748646.0646691       -23241869.931339622        1143303421.4352634     
  -2944826287.8107109       -11983796.972326279        1153259100.2683809     
  -2832716989.3365455       -3435923.2793002129        1159466048.5679832     
  -2721420750.6421814        2401751.1477264166        1161924266.3340790     
  -2610937571.7276115        5529226.3087725639        1160633753.5666606     
  -1293527811.2142510        4819612.9378769398        1409957881.8100896     
  -1254792280.6467471        1298427.5246109366        1412352163.3303204     
  -1216127794.2629611       -2459571.8343803883        1417254061.6969714     
  -1177534352.0628941       -6454385.1391032338        1424663576.9100430     
  -1139011954.0465386       -10686012.389529049        1434580708.9695373     
  -1605948843.4917650        10076438.635850370        1349965771.6157410     
  -1560004830.9044800        4791001.8037931919        1348843925.2136123     
  -1514047905.2192063       -451391.36831247807        1351166583.0769262     
  -1468078066.4359550       -5650740.8804914951        1356933745.2056797     
  -1422095314.5547206       -10807046.732726038        1366145411.5998781     
  -1929657481.0031664        11946982.763655901        1288414380.1770556     
  -1873828165.1988859        5700340.8719902039        1283874356.0145457     
  -1817901979.0149257       -223399.75407648087        1283715723.5364981     
  -1761878922.4512930       -5824239.1145626307        1287938482.7429154     
  -1705758995.5079792       -11102177.209449291        1296542633.6337905     
  -2264653723.7484460        10431245.321297050        1225303707.4940271     
  -2196262283.5299730        4026444.7291810513        1217443455.7331169     
  -2127690015.6501236       -1775596.9916894436        1214901483.0756886     
  -2058936920.1089041       -6974879.8413226604        1217677789.5217454     
  -1990002996.9063077       -11571403.819696903        1225772375.0712860     
  -2610937571.7276115        5529226.3087725639        1160633753.5666606     
  -2527307185.8977427       -230686.62464439869        1149551224.3693290     
  -2443412015.1247997       -5107983.0811448097        1144723861.6944983     
  -2359252059.4087906       -9102663.0607584715        1146151665.5421731     
  -2274827318.7497077       -12214726.563459277        1153834635.9123521     
  -1139011954.0465386       -10686012.389529049        1434580708.9695373     
  -1083104733.1773021       -10115547.329759359        1426273879.0433540     
  -1027399009.5830438       -10216739.853249609        1423083307.0900388     
  -971894783.26375008       -10989589.959957004        1425008993.1095915     
  -916592054.21943343       -12434097.649918079        1432050937.1020098     
  -1422095314.5547206       -10807046.732726038        1366145411.5998781     
  -1352814033.4769661       -9424845.4445810914        1357270864.8741989     
  -1283843062.1687889       -9077010.0550355315        1353380475.0525804     
  -1215182400.6301785       -9763540.5640443563        1354474242.1350222     
  -1146832048.8611457       -11484436.971642554        1360552166.1215310     
  -1705758995.5079792       -11102177.209449291        1296542633.6337905     
  -1623481085.8468618       -9021469.1804816723        1286973422.1982503     
  -1541622298.4499240       -8337835.3654392362        1282256266.5979619     
  -1460182633.3171570       -9051275.7643004060        1282391166.8329313     
  -1379162090.4485655       -11161790.377079308        1287378122.9031556     
  -1990002996.9063077       -11571403.819696903        1225772375.0712860     
  -1895105890.2869918       -8905418.5374511480        1215381551.0155089     
  -1800736718.4264517       -7999215.7844604254        1209710681.7261858     
  -1706895481.3246863       -8852795.5607231855        1208759767.2033069     
  -1613582178.9816978       -11466157.866229832        1212528807.4468830     
  -2274827318.7497077       -12214726.563459277        1153834635.9123521     
  -2167688446.7973485       -9076693.5154802799        1142495251.3259726     
  -2061186322.0983689       -8061151.3121000528        1135743720.4372458     
  -1955320944.6527658       -9168099.9533063173        1133580043.2461553     
  -1850092314.4605367       -12397539.439095736        1136004219.7527146     
  -916592054.21943343       -12434097.649918079        1432050937.1020098     
  -865807375.54389167       -15767122.857528299        1429774675.2739737     
  -815172695.68592691       -19600144.123725981        1432533772.2835643     
  -764688014.64553595       -23933161.448507309        1440328228.1307769     
  -714353332.42271233       -28766174.831842393        1453158042.8156123     
  -1146832048.8611457       -11484436.971642554        1360552166.1215310     
  -1083488323.5745759       -15323215.188474774        1357254420.1504483     
  -1020240372.3851373       -19481240.395753801        1358698832.6600454     
  -957088195.29282784       -23958512.593460858        1364885403.6503227     
  -894031792.29765272       -28755031.781612217        1375814133.1212811     
  -1379162090.4485655       -11161790.377079308        1287378122.9031556     
  -1304097033.8565207       -15757636.194806159        1283122154.9628749     
  -1229073526.6411610       -20491979.934818149        1283315145.1463294     
  -1154091568.8024924       -25364821.597129226        1287957093.4535182     
  -1079151160.3405128       -30376161.181744635        1297047999.8844516     
  -1613582178.9816978       -11466157.866229832        1212528807.4468830     
  -1527633506.3897259       -17070385.876498938        1207377879.7112515     
  -1441672158.4540014       -22632362.740927994        1206382709.7424116     
  -1355698135.1745212       -28152088.459508777        1209543297.5403676     
  -1269711436.5512960       -33629563.032260716        1216859643.1051152     
  -1850092314.4605367       -12397539.439095736        1136004219.7527146     
  -1754097741.1741977       -19261464.233595133        1130021594.3955805     
  -1658036267.8236611       -25902388.814096093        1127901526.4482963     
  -1561907894.4089200       -32320313.180590689        1129644015.9108641     
  -1465712620.9300005       -38515237.333146572        1135249062.7832825     
  -714353332.42271233       -28766174.831842393        1453158042.8156123     
  -657008394.70878065       -31185766.369363934        1452317647.6859052     
  -599308834.96946919       -32423284.488957554        1456637892.5544217     
  -541254653.20479584       -32478729.190676481        1466118777.4211628     
  -482845849.41473836       -31352100.474447012        1480760302.2861249     
  -894031792.29765272       -28755031.781612217        1375814133.1212811     
  -823507277.35240054       -31136112.324732006        1373303445.4341154     
  -752771600.35836637       -32813319.371920854        1375761366.9279580     
  -681824761.31556237       -33786652.923203647        1383187897.6028030     
  -610666760.22397196       -34056112.978541851        1395583037.4586611     
  -1079151160.3405128       -30376161.181744635        1297047999.8844516     
  -995995727.64170277       -32883328.573806405        1292699649.6671267     
  -912772592.87071371       -35164822.391926646        1293127877.8135982     
  -829481756.02754200       -37220642.636108339        1298332684.3238599     
  -746123217.11218512       -39050789.306343853        1308314069.1979058     
  -1269711436.5512960       -33629563.032260716        1216859643.1051152     
  -1174473745.5766952       -36427415.116593659        1210506260.3849511     
  -1079311812.5065017       -39477793.548957586        1208737425.2113543     
  -984225637.34072602       -42780698.329374194        1211553137.5843329     
  -889215220.07935739       -46336129.457820237        1218953397.5038886     
  -1465712620.9300005       -38515237.333146572        1135249062.7832825     
  -1358941331.1573632       -41768371.953067064        1126723277.5875700     
  -1252389259.2657394       -45752232.843025208        1122590009.1212184     
  -1146056405.2551215       -50466820.003008962        1122849257.3842199     
  -1039942769.1255085       -55912133.433003604        1127501022.3765860     
  -482845849.41473836       -31352100.474447012        1480760302.2861249     
  -425467305.96488613       -26707534.281889424        1478624569.5515702     
  -365920077.56564736       -14834018.258048013        1482326723.0184810     
  -304204164.21699822        4268447.5971613973        1491866762.6868658     
  -240319565.91897559        30599863.283619881        1507244688.5567150     
  -610666760.22397196       -34056112.978541851        1395583037.4586611     
  -538399662.70491874       -30316965.201923460        1393323503.6374166     
  -463920070.81459469       -19202836.187754050        1396887760.2254636     
  -387227984.55301052       -713725.93604429066        1406275807.2227950     
  -308323403.92016721        25150365.553194746        1421487644.6294165     
  -746123217.11218512       -39050789.306343853        1308314069.1979058     
  -659007839.21586907       -36229142.053221166        1305981845.2821701     
  -569636157.52642512       -25886482.156339198        1309459315.9835289     
  -478008172.04384726       -8022809.6156774759        1318746481.3019972     
  -384123882.76814020        17361875.568748489        1333843341.2375627     
  -889215220.07935739       -46336129.457820237        1218953397.5038886     
  -787291835.49774539       -44444064.835802466        1216599594.4858246     
  -683068337.70112920       -34884956.163779318        1220041390.2926788     
  -576544726.68952084       -17658803.441774964        1229278784.9244566     
  -467721002.46290302        7234393.3302553296        1244311778.3811495     
  -1039942769.1255085       -55912133.433003604        1127501022.3765860     
  -923251651.55054843       -54961733.549665153        1125176751.2483776     
  -804216611.33871305       -46198258.210086673        1128633983.1529124     
  -682837648.49001968       -29621707.414310873        1137872718.0901768     
  -559114763.00444841       -5232081.1622726321        1152892956.0601809     
  -240319565.91897559        30599863.283619881        1507244688.5567150     
  -199597807.04085717        60268445.737967253        1486213273.4248250     
  -154262742.83048040        105314712.63317370        1467885395.6566186     
  -104314373.28784961        165738663.96922749        1452261055.2520988     
  -49752698.412953407        241540299.74616662        1439340252.2112586     
  -308323403.92016721        25150365.553194746        1421487644.6294165     
  -258829120.89290607        55340375.950220779        1404795534.7271938     
  -202877656.50759539        107054324.20740692        1392027653.4353886     
  -140469010.76425073        180292210.32470852        1383184000.7540123     
  -71603183.662850097        275054034.30219883        1378264576.6830482     
  -384123882.76814020        17361875.568748489        1333843341.2375627     
  -322369386.31534797        49119620.691363126        1323641725.2617595     
  -252313832.47872531        108547557.09342325        1318585029.1431162     
  -173957221.25827205        195645684.77491707        1318673252.8816276     
  -87299552.653986722        310414003.73584902        1323906396.4772999     
  -467721002.46290302        7234393.3302553296        1244311778.3811495     
  -390218603.30819273        41606179.961381227        1242751845.0285199     
  -302571270.74386448        109794411.29123634        1247557522.7797801     
  -204779004.76991683        211799087.31981850        1258728811.6349442     
  -96841805.386352450        347620208.04712880        1276265711.5939898     
  -559114763.00444841       -5232081.1622726321        1152892956.0601809     
  -462376771.87143439        32800053.760273635        1162125894.0274804     
  -353649971.30300677        110794886.80086519        1178945134.3454027     
  -232934361.29918700        228752417.95943314        1203350677.0139556     
  -100229941.85995233        386672647.23604500        1235342522.0331390     
  -49752698.412953407        241540299.74616662        1439340252.2112586     
  -40445881.560004666        322534079.53753918        1346297255.2129564     
  -23377468.003500015        429399848.34075993        1253146178.8898501     
   1452542.2565901279        562137606.15593719        1159887023.2419419     
   34044149.220246345        720747352.98299634        1066519788.2692413     
  -71603183.662850097        275054034.30219883        1378264576.6830482     
  -57408838.428246811        376810823.55707937        1296727214.5670757     
  -34245470.263261229        508464355.91323173        1214266105.2702196     
  -2113079.1678869128        670014631.37067866        1130881248.7924569     
   38988334.857866079        861461649.92938805        1046572645.1338210     
  -87299552.653986722        310414003.73584902        1323906396.4772999     
  -70548158.626543492        432234658.57762980        1255283333.1749322     
  -43620315.441910267        587976810.61003804        1184920854.8355899     
  -6516023.1000816524        777640459.83309841        1112818961.4592698     
   40764718.398938417        1001225606.2468022        1038977653.0459634     
  -96841805.386352450        347620208.04712880        1276265711.5939898     
  -79863842.154892206        488805584.59916472        1221965611.0365143     
  -51502003.539440811        667937212.43117952        1165110427.5859694     
  -11756289.539980292        885015091.54322362        1105700161.2423608     
   39373299.843480885        1140039221.9352639        1043734812.0056823     
  -100229941.85995233        386672647.23604500        1235342522.0331390     
  -85355889.013309091        546523601.62167907        1196774048.1518290     
  -57890534.555860519        748345561.37665582        1154834823.5213637     
  -17833878.487605989        992138526.50100112        1109524848.1417499     
   34814079.191480100        1277902496.9947624        1060844122.0129614     
  -3057748646.0646691       -23241869.931339622        1143303421.4352634     
  -2944826287.8107109       -11983796.972326279        1153259100.2683809     
  -2832716989.3365455       -3435923.2793002129        1159466048.5679832     
  -2721420750.6421814        2401751.1477264166        1161924266.3340790     
  -2610937571.7276115        5529226.3087725639        1160633753.5666606     
  -3376073944.6088347       -2503156.3841564655        1028599431.4585203     
  -3270507865.1494503        367796.57199072838        1029270686.4424957     
  -3165366205.2077374        1824017.8025376797        1029967485.1955812     
  -3060648964.7837090        1865507.3074898720        1030689827.7177868     
  -2956356143.8773589        492265.08684980869        1031437714.0091070     
  -3724255523.3727965        9278673.0970911980        911291720.67586458     
  -3615262081.8433356        6997598.3097605705        903131965.44983304     
  -3506304419.5694346        4597259.3372261524        898772028.29554415     
  -3397382536.5510926        2077656.1794953346        898211909.21299803     
  -3288496432.7883101       -561211.16343545914        901451608.20219648     
  -4102293382.3565507        12103618.512398958        791380289.08728778     
  -3979088937.8923693        7905608.2409839630        774842937.29039466     
  -3855531632.4216247        4883801.3247640133        765879677.86786497     
  -3731621465.9443245        3038197.7637469769        764490510.81970644     
  -3607358438.4604626        2368797.5579211712        770675436.14592028     
  -4510187521.5601034        5971679.8617684841        668865136.69280159     
  -4361988433.2965498        3091826.3656671047        644403601.96417964     
  -4213047843.7643223        2683643.7651503086        631290433.91255236     
  -4063365752.9634066        4747132.0602412224        629525632.53792369     
  -3912942160.8938227        9282291.2509124279        639109197.84028780     
  -2610937571.7276115        5529226.3087725639        1160633753.5666606     
  -2527307185.8977427       -230686.62464439869        1149551224.3693290     
  -2443412015.1247997       -5107983.0811448097        1144723861.6944983     
  -2359252059.4087906       -9102663.0607584715        1146151665.5421731     
  -2274827318.7497077       -12214726.563459277        1153834635.9123521     
  -2956356143.8773589        492265.08684980869        1031437714.0091070     
  -2857271812.5107250       -3020394.5728584528        1024612106.8111718     
  -2758143415.8531027       -6386169.9292705059        1022900386.5943117     
  -2658970953.9044967       -9605060.9824050665        1026302553.3585244     
  -2559754426.6649046       -12677067.732244611        1034818607.1038163     
  -3288496432.7883101       -561211.16343545914        901451608.20219648     
  -3177218954.5747104       -2804857.1563839912        898625416.74289322     
  -3066118130.7222047       -5637351.0196497440        899771832.72323692     
  -2955193961.2307954       -9058692.7532331944        904890856.14322507     
  -2844446446.1004834       -13068882.357142925        913982487.00286126     
  -3607358438.4604626        2368797.5579211712        770675436.14592028     
  -3487148612.0896964        415925.62479043007        771591154.16448867     
  -3367336159.7321072       -2861526.3522636890        775338200.08127749     
  -3247921081.3876929       -7463558.3732424974        781916573.89627993     
  -3128903377.0564651       -13390170.438159943        791326275.60949814     
  -3912942160.8938227        9282291.2509124279        639109197.84028780     
  -3787060785.0556831        6641953.7706711292        643509319.07596135     
  -3661797502.8828039        1941304.0728821754        649599488.66842604     
  -3537152314.3751841       -4819657.8424293995        657379706.61767483     
  -3413125219.5328326       -13640931.975298882        666849972.92371607     
  -2274827318.7497077       -12214726.563459277        1153834635.9123521     
  -2167688446.7973485       -9076693.5154802799        1142495251.3259726     
  -2061186322.0983689       -8061151.3121000528        1135743720.4372458     
  -1955320944.6527658       -9168099.9533063173        1133580043.2461553     
  -1850092314.4605367       -12397539.439095736        1136004219.7527146     
  -2559754426.6649046       -12677067.732244611        1034818607.1038163     
  -2440920399.0959778       -10303418.752111554        1022993769.3168154     
  -2322420279.2590208       -9042795.5452072620        1015753747.7067242     
  -2204254067.1540318       -8895198.1115297079        1013098542.2735416     
  -2086421762.7810140       -9860626.4510915279        1015028153.0172709     
  -2844446446.1004834       -13068882.357142925        913982487.00286126     
  -2713925941.5456629       -11462221.034050226        902025508.79021263     
  -2583436505.2014022       -9959120.4128258228        894650309.23373842     
  -2452978137.0677052       -8559580.4934817553        891856888.33343947     
  -2322550837.1445756       -7263601.2760108709        893645246.08931434     
  -3128903377.0564651       -13390170.438159943        791326275.60949814     
  -2986705074.1464148       -12553100.361305475        779590469.74617553     
  -2844234999.9255238       -10810125.914970279        772433405.01829147     
  -2701493154.3937855       -8161247.0991492271        769855081.42584670     
  -2558479537.5512033       -4606463.9138511419        771855498.96884131     
  -3413125219.5328326       -13640931.975298882        666849972.92371607     
  -3259257796.8982325       -13576056.733893633        655688652.18469465     
  -3104815763.4313803       -11595812.051643252        649103035.06037796     
  -2949799119.1322718       -7700197.9285455942        647093121.55076599     
  -2794207864.0009165       -1889214.3646166325        649658911.65585673     
  -1850092314.4605367       -12397539.439095736        1136004219.7527146     
  -1754097741.1741977       -19261464.233595133        1130021594.3955805     
  -1658036267.8236611       -25902388.814096093        1127901526.4482963     
  -1561907894.4089200       -32320313.180590689        1129644015.9108641     
  -1465712620.9300005       -38515237.333146572        1135249062.7832825     
  -2086421762.7810140       -9860626.4510915279        1015028153.0172709     
  -1980151789.7434022       -14986738.359762907        1008972317.8818344     
  -1874004162.2717285       -20520668.821577191        1006557045.2484900     
  -1767978880.3659863       -26462417.836491942        1007782335.1172404     
  -1662075944.0261946       -32811985.404566228        1012648187.4880893     
  -2322550837.1445756       -7263601.2760108709        893645246.08931434     
  -2206639735.5207009       -10842181.648380518        887295414.60708356     
  -2091040225.0928991       -15459399.340983033        884364150.71919203     
  -1975752305.8611684       -21115254.353821278        884851454.42564154     
  -1860775977.8255110       -27809746.686912656        888757325.72643197     
  -2558479537.5512033       -4606463.9138511419        771855498.96884131     
  -2433561578.5060954       -6827794.0994261503        764990884.57132876     
  -2309144456.2871799       -10718580.372338414        761322842.86040246     
  -2185228170.8944740       -16278822.732597589        760851373.83606005     
  -2061812722.3279684       -23508521.180199742        763576477.49830723     
  -2794207864.0009165       -1889214.3646166325        649658911.65585673     
  -2660917318.6995683       -2943575.7128821611        642058727.77457309     
  -2528316855.8545594       -6298211.9156066179        637433121.67212331     
  -2396406475.4658837       -11953122.972779512        635782093.34850538     
  -2265186177.5335560       -19908308.884439111        637105642.80371213     
  -1465712620.9300005       -38515237.333146572        1135249062.7832825     
  -1358941331.1573632       -41768371.953067064        1126723277.5875700     
  -1252389259.2657394       -45752232.843025208        1122590009.1212184     
  -1146056405.2551215       -50466820.003008962        1122849257.3842199     
  -1039942769.1255085       -55912133.433003604        1127501022.3765860     
  -1662075944.0261946       -32811985.404566228        1012648187.4880893     
  -1544392258.4927816       -35824142.965785980        1002949100.2325906     
  -1426715995.3612878       -38861041.866747141        997196036.74247849     
  -1309047154.6317232       -41922682.107456923        995388997.01775146     
  -1191385736.3040652       -45009063.687876105        997527981.05841160     
  -1860775977.8255110       -27809746.686912656        888757325.72643197     
  -1733455590.7140980       -30963635.444269180        878132031.13674176     
  -1605930830.5255170       -33436280.611079276        871006267.34847295     
  -1478201697.2597666       -35227682.187323868        867380034.36161816     
  -1350268190.9168520       -36337840.173017561        867253332.17617869     
  -2061812722.3279684       -23508521.180199742        763576477.49830723     
  -1926131327.8213203       -27186849.388516784        752272070.30003345     
  -1790033764.7584236       -29477949.076008201        744020700.93920231     
  -1653520033.1392741       -30381820.242650211        738822369.41582155     
  -1516590132.9638615       -29898462.888425827        736677075.72988009     
  -2265186177.5335560       -19908308.884439111        637105642.80371213     
  -2122419469.8144488       -24493784.798549652        625369217.72245371     
  -1979024798.0600085       -26986047.261544108        616239337.51466620     
  -1835002162.2702241       -27385096.273395061        609716002.18035746     
  -1690351562.4450989       -25690931.834109247        605799211.71951973     
  -1039942769.1255085       -55912133.433003604        1127501022.3765860     
  -923251651.55054843       -54961733.549665153        1125176751.2483776     
  -804216611.33871305       -46198258.210086673        1128633983.1529124     
  -682837648.49001968       -29621707.414310873        1137872718.0901768     
  -559114763.00444841       -5232081.1622726321        1152892956.0601809     
  -1191385736.3040652       -45009063.687876105        997527981.05841160     
  -1061356685.3867202       -42191353.805141091        993948289.63048971     
  -929873749.41717505       -34527360.415099442        994416126.20257521     
  -796936928.39544249       -22017083.517743111        998931490.77467096     
  -662546222.32149994       -4660523.1130405962        1007494383.3467785     
  -1350268190.9168520       -36337840.173017561        867253332.17617869     
  -1211855421.0363333       -33139084.604661107        861379843.26641619     
  -1072878803.6882923       -28060837.477887154        857819907.32393551     
  -933338338.87273431       -21103098.792729139        856573524.34873831     
  -793234026.58964980       -12265868.549147993        857640694.34082937     
  -1516590132.9638615       -29898462.888425827        736677075.72988009     
  -1374747858.4993837       -27804925.948189914        727471412.15615487     
  -1233231774.1520653       -26798689.398482382        718845326.51699102     
  -1092041879.9218965       -26879753.239266336        710798818.81238389     
  -951178175.80887699       -28048117.470563650        703331889.04233515     
  -1690351562.4450989       -25690931.834109247        605799211.71951973     
  -1550033997.7758911       -26188877.835789084        592222996.29972005     
  -1410932660.8085005       -30740916.176876247        577492383.78174698     
  -1273047551.5429418       -39347046.857395172        561607374.16561329     
  -1136378669.9792078       -52007269.877330422        544567967.45130634     
  -559114763.00444841       -5232081.1622726321        1152892956.0601809     
  -462376771.87143439        32800053.760273635        1162125894.0274804     
  -353649971.30300677        110794886.80086519        1178945134.3454027     
  -232934361.29918700        228752417.95943314        1203350677.0139556     
  -100229941.85995233        386672647.23604500        1235342522.0331390     
  -662546222.32149994       -4660523.1130405962        1007494383.3467785     
  -547326919.82498622        25642451.112599730        1020938168.6592634     
  -421233259.59329188        92193284.455513418        1042795697.4461766     
  -284265241.62642944        194991976.91564769        1073066969.7075114     
  -136422865.92437485        334038528.49309719        1111751985.4432759     
  -793234026.58964980       -12265868.549147993        857640694.34082937     
  -657169295.23307061        11017180.228556007        873995133.34824109     
  -511344657.84153980        66833249.122777820        899590756.95387661     
  -355760114.41506380        155182338.13347760        934427565.15773606     
  -190415664.95363015        276064447.26070273        978505557.95981491     
  -951178175.80887699       -28048117.470563650        703331889.04233515     
  -791903898.09568381       -11075758.891857952        721296788.09440875     
  -623984166.04774690        34714780.802655339        749330312.86850476     
  -447418979.66509789        109323501.61287779        787432463.36461103     
  -262208338.94772235        212750403.53885561        835603239.58275568     
  -1136378669.9792078       -52007269.877330422        544567967.45130634     
  -951530728.41281426       -40636366.248597145        562843132.89776802     
  -759151784.21192074       -4162120.5048588812        592014365.19005859     
  -559241837.37653875        57415467.353843898        632081664.32816148     
  -351800887.90665227        144096397.32755047        683045030.31207764     
  -100229941.85995233        386672647.23604500        1235342522.0331390     
  -85355889.013309091        546523601.62167907        1196774048.1518290     
  -57890534.555860519        748345561.37665582        1154834823.5213637     
  -17833878.487605989        992138526.50100112        1109524848.1417499     
   34814079.191480100        1277902496.9947624        1060844122.0129614     
  -136422865.92437485        334038528.49309719        1111751985.4432759     
  -127327699.22922507        483046622.44171536        1090194963.2263482     
  -95094337.473703653        709182033.25825262        1070065593.2813578     
  -39722780.657813251        1012444760.9427048        1051363875.6082861     
   38786971.218477726        1392834805.4951088        1034089810.2071531     
  -190415664.95363015        276064447.26070273        978505557.95981491     
  -173389661.49257594        418342597.64756107        986264696.43176150     
  -122678569.52158770        672904376.40086985        1000249890.1967176     
  -38282389.040664077        1039749783.5206287        1020461139.2547001     
   79798879.950206041        1518878819.0068746        1046898443.6057038     
  -262208338.94772235        212750403.53885561        835603239.58275568     
  -223541775.80336615        352411527.23916841        884983247.76805127     
  -140643230.69951499        639512590.80446446        945387714.26745546     
  -13512703.636157870        1074053594.2347662        1016816639.0809613     
   157849805.38668829        1656034537.5300596        1099270022.2085912     
  -351800887.90665227        144096397.32755047        683045030.31207764     
  -277784042.16160083        285253411.21652913        786350617.23522425     
  -148988321.00748897        609006676.46903658        905479065.49357128     
   34586275.555679739        1115356193.0850782        1040430375.0870913     
   272939747.52792257        1804301961.0646837        1191204546.0158312     
  -4510187521.5601034        5971679.8617684841        668865136.69280159     
  -4361988433.2965498        3091826.3656671047        644403601.96417964     
  -4213047843.7643223        2683643.7651503086        631290433.91255236     
  -4063365752.9634066        4747132.0602412224        629525632.53792369     
  -3912942160.8938227        9282291.2509124279        639109197.84028780     
  -4915074871.8479710       -10020949.644129038        503613491.84257752     
  -4741807839.7545052       -5026169.0204095840        492114454.23245519     
  -4568356934.2507343        581522.97098827362        486732860.40223682     
  -4394722155.3366585        6802126.3300824165        487468710.35191476     
  -4220903503.0122733        13635641.056860209        494322004.08149672     
  -5276996060.2187738       -13123730.574912548        338823380.28314555     
  -5093606578.2870941       -4737964.0288791656        339636273.95675641     
  -4910590850.8034840        2401954.3569281101        341335688.51317388     
  -4727948877.7679396        8296024.5825214386        343921623.95239311     
  -4545680659.1804581        12944246.647887945        347394080.27442163     
  -5595951086.6724958       -3336662.9305605888        174494802.01449829     
  -5417384648.8943100        3956441.3402714729        186969061.13707194     
  -5239749593.4225645        8144937.9229638577        195098918.24536413     
  -5063045920.2572565        9228826.8175532818        198884373.33935338     
  -4887273629.3983898        7208108.0239834785        198325426.41906181     
  -5871939951.2091503        19340253.288897991        10627757.036636602     
  -5713142051.5761528        21057047.087033749        34112815.773410179     
  -5555833162.1079817        17810473.669100046        48022549.598804839     
  -5400013282.8046074        9600533.0351722240        52356958.512803778     
  -5245682413.6660519       -3572774.8148238659        47116042.515420280     
  -3912942160.8938227        9282291.2509124279        639109197.84028780     
  -3787060785.0556831        6641953.7706711292        643509319.07596135     
  -3661797502.8828039        1941304.0728821754        649599488.66842604     
  -3537152314.3751841       -4819657.8424293995        657379706.61767483     
  -3413125219.5328326       -13640931.975298882        666849972.92371607     
  -4220903503.0122733        13635641.056860209        494322004.08149672     
  -4089541553.2700472        7737765.4063236713        493164672.43575525     
  -3958359771.1816473        1239330.9097261429        495284858.09104884     
  -3827358156.7470598       -5859662.4329359531        500682561.04737574     
  -3696536709.9663005       -13559214.621670485        509357781.30473930     
  -4545680659.1804581        12944246.647887945        347394080.27442163     
  -4404302509.9791679        5149520.4935493469        341190209.42728311     
  -4262666602.4202485       -1786011.1353704929        339851324.82542121     
  -4120772936.5037031       -7862348.2388696671        343377426.46883982     
  -3978621512.2295418       -13079490.816964149        351768514.35754752     
  -4887273629.3983898        7208108.0239834785        198325426.41906181     
  -4731343655.1830263       -1122780.9676260948        187585930.05053768     
  -4574717996.5986071       -7134722.0623874664        183298888.87154102     
  -4417396653.6451139       -10827715.260236740        185464302.88207075     
  -4259379626.3225551       -12201760.561194658        194082172.08213130     
  -5245682413.6660519       -3572774.8148238659        47116042.515420280     
  -5070664988.8816433       -11079138.977262974        32351834.305535462     
  -4894513953.7167196       -14806801.871327400        25627550.229409117     
  -4717229308.1712847       -14755763.497020960        26943190.287067991     
  -4538811052.2453461       -10926023.854358196        36298754.478499755     
  -3413125219.5328326       -13640931.975298882        666849972.92371607     
  -3259257796.8982325       -13576056.733893633        655688652.18469465     
  -3104815763.4313803       -11595812.051643252        649103035.06037796     
  -2949799119.1322718       -7700197.9285455942        647093121.55076599     
  -2794207864.0009165       -1889214.3646166325        649658911.65585673     
  -3696536709.9663005       -13559214.621670485        509357781.30473930     
  -3530019325.7267942       -10550648.135976791        499050843.59480727     
  -3363322210.6883297       -6942978.9870944023        493219628.60218596     
  -3196445364.8509026       -2736207.1749979258        491864136.32687509     
  -3029388788.2145243        2069667.3002624512        494984366.76888198     
  -3978621512.2295418       -13079490.816964149        351768514.35754752     
  -3799739826.0919652       -7212930.9990508556        341855266.30452818     
  -3621073289.1887288       -2063535.2955896854        336317760.07142639     
  -3442621901.5198183        2368696.2934377193        335155995.65825039     
  -3264385663.0852537        6083763.7680051327        338369973.06498873     
  -4259379626.3225551       -12201760.561194658        194082172.08213130     
  -4068419297.9937482       -3562905.3231043816        184101920.31385154     
  -3878068998.9325747        3042519.0228791237        178397429.46809921     
  -3688328729.1390243        7614512.4767866135        176968699.54487100     
  -3499198488.6130953        10153075.038607836        179815730.54417729     
  -4538811052.2453461       -10926023.854358196        36298754.478499755     
  -4336057741.4321423        399428.89185833931        25790805.622785471     
  -4134309339.9198642        8375183.9683213234        19458636.792209964     
  -3933565847.7084904        13001241.375095129        17302247.986758500     
  -3733827264.7980571        14277601.112087488        19321639.206444535     
  -2794207864.0009165       -1889214.3646166325        649658911.65585673     
  -2660917318.6995683       -2943575.7128821611        642058727.77457309     
  -2528316855.8545594       -6298211.9156066179        637433121.67212331     
  -2396406475.4658837       -11953122.972779512        635782093.34850538     
  -2265186177.5335560       -19908308.884439111        637105642.80371213     
  -3029388788.2145243        2069667.3002624512        494984366.76888198     
  -2888657750.5453706       -1102069.4586299658        487041921.86972886     
  -2748159157.6602125       -5048622.1642000675        482336979.95405114     
  -2607893009.5590725       -9769990.8164824247        480869541.02184963     
  -2467859306.2419415       -15266175.415464997        482639605.07312286     
  -3264385663.0852537        6083763.7680051327        338369973.06498873     
  -3115462918.1778626        1020016.0596249104        330619177.76567656     
  -2966314980.3821516       -3293088.6876760721        326368810.65448993     
  -2816941849.6981273       -6855550.4739352465        325618871.73141849     
  -2667343526.1257839       -9667369.2991279364        328369360.99647087     
  -3499198488.6130953        10153075.038607836        179815730.54417729     
  -3341332821.5970640        3422680.8418753147        172790495.46242166     
  -3182784324.0203915       -1031611.4860639572        169528613.77343667     
  -3023552995.8830657       -3209801.9451582432        170030085.47721788     
  -2863638837.1850963       -3111890.5354319811        174294910.57376933     
  -3733827264.7980571        14277601.112087488        19321639.206444535     
  -3566267460.8029766        6105924.8880863190        13555874.959962739     
  -3397567188.5749059        1735809.4407057762        11816389.310902709     
  -3227726448.1138692        1167254.7698860168        14103182.259246510     
  -3056745239.4198685        4400260.8756128550        20416253.805001825     
  -2265186177.5335560       -19908308.884439111        637105642.80371213     
  -2122419469.8144488       -24493784.798549652        625369217.72245371     
  -1979024798.0600085       -26986047.261544108        616239337.51466620     
  -1835002162.2702241       -27385096.273395061        609716002.18035746     
  -1690351562.4450989       -25690931.834109247        605799211.71951973     
  -2467859306.2419415       -15266175.415464997        482639605.07312286     
  -2317938762.2618575       -17713102.650865674        472451380.20623124     
  -2167730912.9496279       -19202345.445777535        464666050.20229650     
  -2017235758.3052454       -19733903.800175309        459283615.06131864     
  -1866453298.3287070       -19307777.714065909        456304074.78330404     
  -2667343526.1257839       -9667369.2991279364        328369360.99647087     
  -2510851003.0576291       -10150305.007694006        319331901.19022775     
  -2354411833.3605137       -10811085.286397696        312493686.23642665     
  -2198026017.0344305       -11649710.135198236        307854716.13507080     
  -2041693554.0793836       -12666179.554126501        305414990.88615155     
  -2863638837.1850963       -3111890.5354319811        174294910.57376933     
  -2701156192.2017775       -1805391.8690636158        166010780.67444736     
  -2539067559.2926722       -1812266.7834030390        159722245.61706567     
  -2377372938.4577985       -3132515.2785158157        155429305.40160292     
  -2216072329.6971421       -5766137.3543531895        153131960.02806953     
  -3056745239.4198685        4400260.8756128550        20416253.805001825     
  -2888854329.6942806        7321636.7651003599        12488018.658898599     
  -2721698090.7460909        7794110.0632271767        6351728.3442060538     
  -2555276522.5753183        5817680.7699741125        2007382.8609200211     
  -2389589625.1819587        1392348.8853558302       -545017.79094700678     
  -1690351562.4450989       -25690931.834109247        605799211.71951973     
  -1550033997.7758911       -26188877.835789084        592222996.29972005     
  -1410932660.8085005       -30740916.176876247        577492383.78174698     
  -1273047551.5429418       -39347046.857395172        561607374.16561329     
  -1136378669.9792078       -52007269.877330422        544567967.45130634     
  -1866453298.3287070       -19307777.714065909        456304074.78330404     
  -1728993894.9193664       -22595683.038944244        442638141.30104172     
  -1591635278.8910587       -26219546.300590336        428571856.09932625     
  -1454377450.2437825       -30179367.499023676        414105219.17815393     
  -1317220408.9775577       -34475146.634283483        399238230.53752202     
  -2041693554.0793836       -12666179.554126501        305414990.88615155     
  -1904937896.5621603       -18097719.591861844        292960686.38235205     
  -1767167586.1051941       -20147083.163777590        280860075.53781134     
  -1628382622.7084625       -18814270.269810617        269113158.35252470     
  -1488583006.3719854       -14099280.910033345        257719934.82649106     
  -2216072329.6971421       -5766137.3543531895        153131960.02806953     
  -2077866002.7042899       -12694987.494609952        143190631.54365036     
  -1937529582.4508955       -12523526.766401410        134357042.09720814     
  -1795063068.9369681       -5251755.1697452068        126631191.68872070     
  -1650466462.1625066        9120327.2953588963        120013080.31820540     
  -2389589625.1819587        1392348.8853558302       -545017.79094700678     
  -2247778213.3457427       -6387486.7471485138       -6672023.2150613712     
  -2102721267.9281969       -3348877.1085617542       -10937244.222492408     
  -1954418788.9293032        10508177.801193833       -13340680.813252928     
  -1802870776.3491066        35183677.981947422       -13882332.987330120     
  -1136378669.9792078       -52007269.877330422        544567967.45130634     
  -951530728.41281426       -40636366.248597145        562843132.89776802     
  -759151784.21192074       -4162120.5048588812        592014365.19005859     
  -559241837.37653875        57415467.353843898        632081664.32816148     
  -351800887.90665227        144096397.32755047        683045030.31207764     
  -1317220408.9775577       -34475146.634283483        399238230.53752202     
  -1117645520.2646904       -14684688.760997295        421141507.61153752     
  -914435196.18760049        17223886.993036747        441534164.66519988     
  -707589436.74627221        61250580.627870828        460416201.69851464     
  -497108241.94071531        117395392.14347285        477787618.71147311     
  -1488583006.3719854       -14099280.910033345        257719934.82649106     
  -1309728847.2731454        3476428.1796104908        278706495.04607928     
  -1131134820.0803332        20185030.915817201        285775748.37914813     
  -952800924.79353857        36026527.298644781        278927694.82569718     
  -774727161.41278625        51000917.327996224        258162334.38573238     
  -1650466462.1625066        9120327.2953588963        120013080.31820540     
  -1527780709.4381630        13846984.573248744        135538095.20140168     
  -1409250655.8901167        4721311.2634754777        124739116.33190235     
  -1294876301.5183425       -18256692.633872688        87616143.709720761     
  -1184657646.3228621       -55087027.118856966        24169177.334846064     
  -1802870776.3491066        35183677.981947422       -13882332.987330120     
  -1771801106.7597435        16426980.419938207       -8363691.9224971961     
  -1748782703.6169479       -29167271.963973761       -41575731.476538204     
  -1733815566.9206672       -101599079.16960800       -113518451.64942609     
  -1726899696.6709726       -200868441.19717383       -224191852.44116646     
  -351800887.90665227        144096397.32755047        683045030.31207764     
  -277784042.16160083        285253411.21652913        786350617.23522425     
  -148988321.00748897        609006676.46903658        905479065.49357128     
   34586275.555679739        1115356193.0850782        1040430375.0870913     
   272939747.52792257        1804301961.0646837        1191204546.0158312     
  -497108241.94071531        117395392.14347285        477787618.71147311     
  -388266780.53187144        223065886.72928929        597059652.27248967     
  -230301895.30757692        492481127.36660814        735486187.15580511     
  -23213586.267842591        925641114.05540705        893067223.36142075     
   232998146.58736363        1522545846.7957730        1069802760.8893046     
  -774727161.41278625        51000917.327996224        258162334.38573238     
  -621542112.94846213        124040584.02812013        386802787.72542077     
  -424889092.26227760        341973491.46778333        537929382.37450290     
  -184768099.35425636        704799639.64690197        711542118.33297646     
   98820865.775606871        1212519028.5654900        907640995.60083187     
  -1184657646.3228621       -55087027.118856966        24169177.334846064     
  -977610039.41135025       -11822496.886895001        155580023.59400350     
  -732749911.87159491        157483768.77254653        312808651.14964592     
  -450077263.70359606        452831769.85945570        495855060.00177634     
  -129592094.90735984        874221506.37384355        704719250.15039313     
  -1726899696.6709726       -200868441.19717383       -224191852.44116646     
  -1456470559.9205518       -184523356.01583064       -96608640.121749356     
  -1153884354.1354976       -60988040.719032586        60123993.481250219     
  -819141079.31581199        169737504.69319826        246006048.36781755     
  -452240735.46149725        507653280.22085953        461037524.53799683     
 </DataArray>
 <DataArray  type="Float64" Name="VM" NumberOfComponents="1" format="ascii">
   5881662731.7120438     
   5724004581.9785042     
   5565381375.4496174     
   5405580670.3742037     
   5244531902.0989141     
   5602441717.9465275     
   5429031031.5517321     
   5254703639.6600571     
   5079361191.8940430     
   4902929981.7544985     
   5303018916.2787600     
   5125112242.0577478     
   4947245035.8989954     
   4769448484.3838129     
   4591760943.4105129     
   4986951708.7109451     
   4815336294.8045816     
   4645779660.4627218     
   4478437202.5888186     
   4313563465.2461824     
   4659495922.2906485     
   4504021222.0994339     
   4353925641.4433317     
   4209413341.2535152     
   4070983331.3963990     
   5244531902.0989141     
   5065444452.1896362     
   4887328953.5424194     
   4710099952.7512436     
   4533793862.4172878     
   4902929981.7544985     
   4741926530.9500217     
   4582166710.1086264     
   4423671681.4009666     
   4266555451.6867557     
   4591760943.4105129     
   4446326510.7311687     
   4302233530.6400042     
   4159586112.8154807     
   4018555104.7863932     
   4313563465.2461824     
   4181589181.6998606     
   4050856774.0206366     
   3921520986.7683682     
   3793781940.7486348     
   4070983331.3963990     
   3950865692.3678303     
   3831685251.9773545     
   3713605538.5995917     
   3596820580.6599212     
   4533793862.4172878     
   4336487557.9535151     
   4138640523.0220513     
   3940196524.6602807     
   3741136186.6117806     
   4266555451.6867557     
   4079121650.1842823     
   3891876725.2612381     
   3704843503.0343971     
   3518099183.2704911     
   4018555104.7863932     
   3842038857.2326250     
   3666610521.7944288     
   3492390917.0597873     
   3319577267.7821813     
   3793781940.7486348     
   3629195365.0693355     
   3466760711.1750855     
   3306707623.3587570     
   3149364874.1665773     
   3596820580.6599212     
   3445066131.8774467     
   3296667526.1596484     
   3151959489.4430523     
   3011393764.2265801     
   3741136186.6117806     
   3569401564.7984700     
   3398497053.7410593     
   3228402649.0945625     
   3059152132.1692333     
   3518099183.2704911     
   3356415159.2477002     
   3195786847.2804246     
   3036265585.4450126     
   2877961412.2952013     
   3319577267.7821813     
   3168156432.2652345     
   3018081654.0762043     
   2869491182.2488647     
   2722592158.4409747     
   3149364874.1665773     
   3008785604.4981861     
   2869926255.8256216     
   2733025586.7302313     
   2598405434.8009572     
   3011393764.2265801     
   2882598699.0447650     
   2755987095.3140993     
   2631904052.6162405     
   2510792610.6761994     
   3059152132.1692333     
   2892602969.3787794     
   2725625706.7250671     
   2558192687.0507355     
   2390286290.1746860     
   2877961412.2952013     
   2715520231.2972894     
   2553193975.0830894     
   2391012244.0181370     
   2229031142.1996317     
   2722592158.4409747     
   2566107650.5266871     
   2410575683.3829427     
   2256140797.9288626     
   2103009152.0718906     
   2598405434.8009572     
   2449842217.8467550     
   2303376681.7081323     
   2159316075.1358600     
   2018074296.3818264     
   2510792610.6761994     
   2372032512.6398211     
   2236764204.0799313     
   2105467163.8626442     
   1978762182.9399734     
   2390286290.1746860     
   2244621034.9437647     
   2101134231.8827357     
   1959830228.8072691     
   1820876357.6245968     
   2229031142.1996317     
   2086341409.2300563     
   1945268223.7399094     
   1805812323.2405081     
   1668048241.4369156     
   2103009152.0718906     
   1962681527.0488157     
   1823274816.3984919     
   1684818324.9044659     
   1547368379.2289727     
   2018074296.3818264     
   1881129508.5502446     
   1744499893.4513595     
   1608316439.0438538     
   1472759406.3461602     
   1978762182.9399734     
   1847939888.7987137     
   1717205571.4399159     
   1586920327.2612491     
   1457609035.0477831     
   1820876357.6245968     
   1780130389.5270555     
   1735877322.2336700     
   1696745132.4610441     
   1681201059.6475232     
   1668048241.4369156     
   1552601853.9151466     
   1428055585.1686842     
   1294769303.9070270     
   1158853527.8704007     
   1547368379.2289727     
   1397493058.4254117     
   1244069428.5567615     
   1084829755.4484379     
   917746390.23899066     
   1472759406.3461602     
   1328538814.1643429     
   1198789295.2854736     
   1087990783.4299419     
   1002047666.0740565     
   1457609035.0477831     
   1348618725.5667217     
   1274602722.1396039     
   1243679537.1637781     
   1262882582.5391355     
   1681201059.6475232     
   1383691516.6371138     
   1129442420.6790431     
   1010147919.1760818     
   1153031580.5001938     
   1158853527.8704007     
   1008423918.8789959     
   985224616.60555458     
   1161487047.0997500     
   1544097540.4064641     
   917746390.23899066     
   963143966.97441030     
   1144937324.5827742     
   1476476491.8253841     
   1957442798.3105619     
   1002047666.0740565     
   1164714231.6847689     
   1425417747.6518373     
   1808741271.9340780     
   2334762830.1665568     
   1262882582.5391355     
   1446656216.2368989     
   1715662713.9769325     
   2110479975.6178014     
   2663539142.2145147     
   4659495922.2906485     
   4504021222.0994339     
   4353925641.4433317     
   4209413341.2535152     
   4070983331.3963990     
   4330988151.9696999     
   4203071867.6944914     
   4079668211.2061667     
   3961020401.7569485     
   3847519655.6000385     
   4049207236.8793321     
   3942386216.4533587     
   3838448213.1138573     
   3737596140.6624250     
   3640083593.5869751     
   3816212923.2265034     
   3724999214.8683062     
   3634256359.4361749     
   3544044270.5532451     
   3454430267.9777975     
   3633280516.4355459     
   3553431430.8108358     
   3470972328.0865884     
   3385687056.9994578     
   3297373829.3177013     
   4070983331.3963990     
   3950865692.3678303     
   3831685251.9773545     
   3713605538.5995917     
   3596820580.6599212     
   3847519655.6000385     
   3734663939.0730209     
   3623916838.6332641     
   3515535036.4694543     
   3409825642.6870627     
   3640083593.5869751     
   3536721564.6780777     
   3436945655.6636596     
   3341102452.6169062     
   3249609915.6803007     
   3454430267.9777975     
   3362271725.0912108     
   3275478211.7610183     
   3194459266.5788708     
   3119711829.8740573     
   3297373829.3177013     
   3217312962.9380679     
   3144675757.2938509     
   3079881261.1855311     
   3023442613.4936585     
   3596820580.6599212     
   3445066131.8774467     
   3296667526.1596484     
   3151959489.4430523     
   3011393764.2265801     
   3409825642.6870627     
   3272056887.2304773     
   3138312149.9792132     
   3009005625.6531982     
   2884672590.3955116     
   3249609915.6803007     
   3126558465.0247402     
   3008273945.7516537     
   2895238275.3999028     
   2788051388.5820112     
   3119711829.8740573     
   3012075278.9946623     
   2909979996.8126416     
   2813949859.1071348     
   2724614841.1822991     
   3023442613.4936585     
   2931751412.2076607     
   2846345006.7197189     
   2767751545.2313766     
   2696585885.9794211     
   3011393764.2265801     
   2882598699.0447650     
   2755987095.3140993     
   2631904052.6162405     
   2510792610.6761994     
   2884672590.3955116     
   2767902794.2105675     
   2654496123.6935735     
   2544916237.5451632     
   2439733857.5007997     
   2788051388.5820112     
   2684647303.6108398     
   2585858047.7935553     
   2492230086.6496015     
   2404408797.4336791     
   2724614841.1822991     
   2635455389.6282616     
   2552122280.6312795     
   2475184900.1726794     
   2405287116.6139693     
   2696585885.9794211     
   2621886689.0264339     
   2554073933.7734857     
   2493673260.2737498     
   2441252945.6928859     
   2510792610.6761994     
   2372032512.6398211     
   2236764204.0799313     
   2105467163.8626442     
   1978762182.9399734     
   2439733857.5007997     
   2314323956.9566345     
   2193860459.2302098     
   2079035855.2049692     
   1970704233.8710501     
   2404408797.4336791     
   2294667848.9606304     
   2191435880.1213727     
   2095540980.2248781     
   2007950154.4685347     
   2405287116.6139693     
   2312752684.8369436     
   2228179716.5066986     
   2152412823.4958072     
   2086381760.6046879     
   2441252945.6928859     
   2366478692.9559107     
   2300847127.5316310     
   2245111517.5097280     
   2200053948.7093415     
   1978762182.9399734     
   1847939888.7987137     
   1717205571.4399159     
   1586920327.2612491     
   1457609035.0477831     
   1970704233.8710501     
   1854757124.9266667     
   1743199814.6012404     
   1636957255.0476940     
   1537164630.1712070     
   2007950154.4685347     
   1911925125.1694586     
   1824641181.2911069     
   1747290494.5261872     
   1681155450.8551898     
   2086381760.6046879     
   2011784694.2210860     
   1949446469.7807653     
   1900431362.2648690     
   1865753521.4040399     
   2200053948.7093415     
   2145399510.0267069     
   2105514007.1084199     
   2081148925.5774355     
   2072968370.1068707     
   1457609035.0477831     
   1348618725.5667217     
   1274602722.1396039     
   1243679537.1637781     
   1262882582.5391355     
   1537164630.1712070     
   1476235309.5488973     
   1448002272.9207439     
   1456433463.6349041     
   1504825305.1916757     
   1681155450.8551898     
   1652523976.4592166     
   1651637205.0746343     
   1680868563.2809334     
   1742829905.8342874     
   1865753521.4040399     
   1855048066.4727659     
   1867361919.4592800     
   1904908450.4308305     
   1970720898.9761400     
   2072968370.1068707     
   2069213349.6513755     
   2084768885.7692235     
   2122269761.2175672     
   2185527715.3460217     
   1262882582.5391355     
   1446656216.2368989     
   1715662713.9769325     
   2110479975.6178014     
   2663539142.2145147     
   1504825305.1916757     
   1613235740.7281828     
   1788847053.2288728     
   2066406377.4802330     
   2476115095.5210881     
   1742829905.8342874     
   1787670254.6597545     
   1884648722.1856139     
   2060672722.5703394     
   2340970942.4088259     
   1970720898.9761400     
   1968915125.4004982     
   2003632303.2656901     
   2093546610.7139668     
   2257320222.6851902     
   2185527715.3460217     
   2156253011.5434513     
   2146537893.1330357     
   2166907184.6401649     
   2228436350.1867137     
   3633280516.4355459     
   3553431430.8108358     
   3470972328.0865884     
   3385687056.9994578     
   3297373829.3177013     
   3441938006.3436689     
   3356007714.6083527     
   3271524534.5572267     
   3188631717.7175431     
   3107490303.2387056     
   3255576527.2193666     
   3170313784.2631335     
   3091331626.9578061     
   3019092360.1684208     
   2954117322.3477383     
   3084939374.6310945     
   3005081354.0833917     
   2937120612.4175620     
   2881675426.1372666     
   2839467946.8351679     
   2944031195.5221014     
   2871148389.2263923     
   2816597379.8483672     
   2780890548.3414001     
   2764672750.2299013     
   3297373829.3177013     
   3217312962.9380679     
   3144675757.2938509     
   3079881261.1855311     
   3023442613.4936585     
   3107490303.2387056     
   3046134117.6531849     
   2991863445.4448152     
   2945017257.9461684     
   2905989064.5468135     
   2954117322.3477383     
   2909801716.9475517     
   2871957470.5978661     
   2840835486.4359775     
   2816712227.5695586     
   2839467946.8351679     
   2810560765.3739405     
   2787222854.4858522     
   2769620367.1099639     
   2757927316.3591995     
   2764672750.2299013     
   2749609155.8822083     
   2738943032.2648716     
   2732769194.6585813     
   2731182227.1885853     
   3023442613.4936585     
   2931751412.2076607     
   2846345006.7197189     
   2767751545.2313766     
   2696585885.9794211     
   2905989064.5468135     
   2829502760.9811468     
   2760165218.8605666     
   2698473695.2292490     
   2644986892.1745071     
   2816712227.5695586     
   2755000509.3939881     
   2701177231.7538610     
   2655669415.9603066     
   2618939868.1784301     
   2757927316.3591995     
   2709981028.6442513     
   2670505209.6497803     
   2639829640.0878463     
   2618299354.6231136     
   2731182227.1885853     
   2695372613.2505450     
   2668455496.1651511     
   2650654901.5291467     
   2642197620.3342876     
   2696585885.9794211     
   2621886689.0264339     
   2554073933.7734857     
   2493673260.2737498     
   2441252945.6928859     
   2644986892.1745071     
   2584794434.3283463     
   2532267781.2896276     
   2487876445.0529089     
   2452109380.0816593     
   2618939868.1784301     
   2572853529.4220433     
   2535063863.1741371     
   2505952477.6695251     
   2485902252.7966027     
   2618299354.6231136     
   2585342899.2232113     
   2561168081.5267677     
   2546055362.6360459     
   2540276632.8845353     
   2642197620.3342876     
   2620875157.0063515     
   2608710833.5956812     
   2605888594.7979884     
   2612581837.1305957     
   2441252945.6928859     
   2366478692.9559107     
   2300847127.5316310     
   2245111517.5097280     
   2200053948.7093415     
   2452109380.0816593     
   2394558145.5126238     
   2346700263.1802144     
   2309113996.5017376     
   2282365025.3232274     
   2485902252.7966027     
   2444085575.5797415     
   2412225530.5118580     
   2390722650.8645902     
   2379946476.2247095     
   2540276632.8845353     
   2512245994.7184162     
   2494233124.1269169     
   2486486727.6376438     
   2489223336.3083277     
   2612581837.1305957     
   2596116892.9347935     
   2589627895.7164192     
   2593249893.9905105     
   2607093794.8980999     
   2200053948.7093415     
   2145399510.0267069     
   2105514007.1084199     
   2081148925.5774355     
   2072968370.1068707     
   2282365025.3232274     
   2242132239.5585322     
   2215733171.4808097     
   2203613749.8219862     
   2206158279.8491259     
   2379946476.2247095     
   2351275044.4982605     
   2335478684.6255951     
   2332809048.1852536     
   2343487973.0827017     
   2489223336.3083277     
   2469518541.8834348     
   2461822138.9656324     
   2466273420.5092473     
   2483008594.4498601     
   2607093794.8980999     
   2594101846.7318053     
   2592405644.8549719     
   2602086890.4659953     
   2623242887.1160665     
   2072968370.1068707     
   2069213349.6513755     
   2084768885.7692235     
   2122269761.2175672     
   2185527715.3460217     
   2206158279.8491259     
   2191696507.9539928     
   2192264614.2992015     
   2209832564.7468977     
   2247319472.7541165     
   2343487973.0827017     
   2319105791.2286520     
   2306259380.3794699     
   2306354216.5221076     
   2321478302.5417919     
   2483008594.4498601     
   2450455111.8226500     
   2426429860.1117525     
   2411878154.5399289     
   2408176947.8693700     
   2623242887.1160665     
   2584954680.8488364     
   2552488378.6805739     
   2526425584.8680482     
   2507575604.8413501     
   2185527715.3460217     
   2156253011.5434513     
   2146537893.1330357     
   2166907184.6401649     
   2228436350.1867137     
   2247319472.7541165     
   2182646762.1992426     
   2134394435.4795685     
   2112229380.5315385     
   2127087128.3402174     
   2321478302.5417919     
   2224748512.0027728     
   2141349922.9128213     
   2079647179.0851130     
   2049810597.9737928     
   2408176947.8693700     
   2282853225.7163830     
   2168051631.6897888     
   2070511304.4670708     
   1998997802.3769326     
   2507575604.8413501     
   2357171647.3689904     
   2214970666.6182957     
   2085952537.7060657     
   1976990616.2659290     
   2944031195.5221014     
   2871148389.2263923     
   2816597379.8483672     
   2780890548.3414001     
   2764672750.2299013     
   2779038637.8773346     
   2734093636.7971172     
   2703940056.5330753     
   2688783112.9725289     
   2688871608.8895769     
   2675543820.5801311     
   2652123549.2886205     
   2639271299.1600585     
   2637040403.5874076     
   2645493638.0454645     
   2630935083.8300257     
   2624060879.4245901     
   2623026753.3863301     
   2627838427.5595365     
   2638502445.9464116     
   2638938378.6267023     
   2645594378.4374590     
   2653087421.4307594     
   2661417507.6065922     
   2670584636.9649630     
   2764672750.2299013     
   2749609155.8822083     
   2738943032.2648716     
   2732769194.6585813     
   2731182227.1885853     
   2688871608.8895769     
   2676966275.7876220     
   2670550822.6029935     
   2669699544.9516292     
   2674486189.1928616     
   2645493638.0454645     
   2635446729.6068268     
   2632016121.9394927     
   2635245095.8107696     
   2645176460.5847507     
   2638502445.9464116     
   2628268618.2511802     
   2625797229.5941181     
   2631101715.4144840     
   2644195363.3274980     
   2670584636.9649630     
   2657475605.5941763     
   2653277402.2496037     
   2657990026.9312439     
   2671613479.6390858     
   2731182227.1885853     
   2695372613.2505450     
   2668455496.1651511     
   2650654901.5291467     
   2642197620.3342876     
   2674486189.1928616     
   2647734528.6751766     
   2630114519.8095837     
   2621760683.3858747     
   2622806355.0366430     
   2645176460.5847507     
   2625183165.7654300     
   2614515171.5926781     
   2613234885.1522956     
   2621403134.4091210     
   2644195363.3274980     
   2628290968.4341154     
   2621893179.9926195     
   2625017974.5881152     
   2637680751.7422047     
   2671613479.6390858     
   2656903933.0619588     
   2651897714.7918205     
   2656594824.8286710     
   2670995263.1725039     
   2642197620.3342876     
   2620875157.0063515     
   2608710833.5956812     
   2605888594.7979884     
   2612581837.1305957     
   2622806355.0366430     
   2609739353.4222918     
   2605625847.4737978     
   2610566549.6722293     
   2624654506.7432189     
   2621403134.4091210     
   2614418849.2318172     
   2616195094.2702975     
   2626775039.6354504     
   2646197964.4653544     
   2637680751.7422047     
   2634512693.1762867     
   2639956218.1483898     
   2654021687.4389887     
   2676718435.5343375     
   2670995263.1725039     
   2669371702.8066349     
   2676275401.7175088     
   2691706359.9051132     
   2715664577.3694673     
   2612581837.1305957     
   2596116892.9347935     
   2589627895.7164192     
   2593249893.9905105     
   2607093794.8980999     
   2624654506.7432189     
   2614488588.0649357     
   2614249141.2813206     
   2624010891.3482265     
   2643833473.7054076     
   2646197964.4653544     
   2640736887.1981134     
   2645237714.8659225     
   2659733249.3020544     
   2684249028.0057578     
   2676718435.5343375     
   2674286768.1860061     
   2681968372.7216754     
   2699771416.3025618     
   2727702133.0745864     
   2715664577.3694673     
   2714541594.2351007     
   2723822736.2550693     
   2743508003.4293904     
   2773597395.7580543     
   2607093794.8980999     
   2594101846.7318053     
   2592405644.8549719     
   2602086890.4659953     
   2623242887.1160665     
   2643833473.7054076     
   2632846701.7012930     
   2632212156.4484253     
   2641969527.6301050     
   2662169123.2749300     
   2684249028.0057578     
   2674921380.4035330     
   2675186500.5699959     
   2685059521.4965720     
   2704560948.1959291     
   2727702133.0745864     
   2719864532.3288860     
   2721021255.5541873     
   2731175513.4272981     
   2750331987.5248518     
   2773597395.7580543     
   2767241537.4050360     
   2769422079.9138274     
   2780139023.2844200     
   2799392367.5168142     
   2623242887.1160665     
   2584954680.8488364     
   2552488378.6805739     
   2526425584.8680482     
   2507575604.8413501     
   2662169123.2749300     
   2616836127.5278368     
   2577135741.5020866     
   2543399160.8317041     
   2516089462.2679710     
   2704560948.1959291     
   2654284760.3356280     
   2609593600.3784003     
   2570635118.4400139     
   2537616256.0162702     
   2750331987.5248518     
   2697215102.5353322     
   2649777742.3689370     
   2608056606.3574872     
   2572103127.4633451     
   2799392367.5168142     
   2745532452.7220039     
   2697589086.8705487     
   2655562269.9624448     
   2619452001.9976845     
   2507575604.8413501     
   2357171647.3689904     
   2214970666.6182957     
   2085952537.7060657     
   1976990616.2659290     
   2516089462.2679710     
   2348195740.9198742     
   2183877018.0496426     
   2026233102.8735044     
   1879827551.4262643     
   2537616256.0162702     
   2357320970.8907166     
   2176767438.6435070     
   1997427217.2243242     
   1821577895.6110382     
   2572103127.4633451     
   2384649781.3017073     
   2194108250.6043911     
   2000856801.3564098     
   1805499316.5662193     
   2619452001.9976845     
   2430149792.3845859     
   2236041373.4105000     
   2037126745.0753953     
   1833405907.3792732     
   2638938378.6267023     
   2645594378.4374590     
   2653087421.4307594     
   2661417507.6065922     
   2670584636.9649630     
   2630935083.8300753     
   2624060879.4246111     
   2623026753.3863196     
   2627838427.5594859     
   2638502445.9463224     
   2675543820.5802097     
   2652123549.2886486     
   2639271299.1600380     
   2637040403.5873375     
   2645493638.0453277     
   2779038637.8774118     
   2734093636.7971530     
   2703940056.5330553     
   2688783112.9724550     
   2688871608.8894424     
   2944031195.5221419     
   2871148389.2264056     
   2816597379.8483515     
   2780890548.3413410     
   2764672750.2298021     
   2670584636.9649630     
   2657475605.5941763     
   2653277402.2496037     
   2657990026.9312439     
   2671613479.6390858     
   2638502445.9463224     
   2628268618.2511368     
   2625797229.5941224     
   2631101715.4145412     
   2644195363.3276019     
   2645493638.0453277     
   2635446729.6067619     
   2632016121.9395065     
   2635245095.8108630     
   2645176460.5849285     
   2688871608.8894424     
   2676966275.7875609     
   2670550822.6030073     
   2669699544.9517241     
   2674486189.1930413     
   2764672750.2298021     
   2749609155.8821721     
   2738943032.2648950     
   2732769194.6586561     
   2731182227.1887245     
   2671613479.6390858     
   2656903933.0619588     
   2651897714.7918205     
   2656594824.8286710     
   2670995263.1725039     
   2644195363.3276019     
   2628290968.4341760     
   2621893179.9926353     
   2625017974.5880837     
   2637680751.7421298     
   2645176460.5849285     
   2625183165.7655225     
   2614515171.5927005     
   2613234885.1522479     
   2621403134.4089870     
   2674486189.1930413     
   2647734528.6752734     
   2630114519.8096066     
   2621760683.3858180     
   2622806355.0365057     
   2731182227.1887245     
   2695372613.2506137     
   2668455496.1651540     
   2650654901.5290780     
   2642197620.3341599     
   2670995263.1725039     
   2669371702.8066349     
   2676275401.7175088     
   2691706359.9051132     
   2715664577.3694673     
   2637680751.7421298     
   2634512693.1762376     
   2639956218.1483717     
   2654021687.4389920     
   2676718435.5343642     
   2621403134.4089870     
   2614418849.2317324     
   2616195094.2702575     
   2626775039.6354532     
   2646197964.4653997     
   2622806355.0365057     
   2609739353.4222064     
   2605625847.4737544     
   2610566549.6722245     
   2624654506.7432628     
   2642197620.3341599     
   2620875157.0062704     
   2608710833.5956473     
   2605888594.7979879     
   2612581837.1306210     
   2715664577.3694673     
   2714541594.2351007     
   2723822736.2550693     
   2743508003.4293904     
   2773597395.7580543     
   2676718435.5343642     
   2674286768.1860185     
   2681968372.7216821     
   2699771416.3025613     
   2727702133.0745678     
   2646197964.4653997     
   2640736887.1981421     
   2645237714.8659458     
   2659733249.3020668     
   2684249028.0057564     
   2624654506.7432628     
   2614488588.0649638     
   2614249141.2813420     
   2624010891.3482332     
   2643833473.7054048     
   2612581837.1306210     
   2596116892.9348149     
   2589627895.7164316     
   2593249893.9905171     
   2607093794.8980985     
   2773597395.7580543     
   2767241537.4050360     
   2769422079.9138274     
   2780139023.2844200     
   2799392367.5168142     
   2727702133.0745678     
   2719864532.3288798     
   2721021255.5542059     
   2731175513.4273343     
   2750331987.5249195     
   2684249028.0057564     
   2674921380.4035258     
   2675186500.5700107     
   2685059521.4966044     
   2704560948.1960020     
   2643833473.7054048     
   2632846701.7012897     
   2632212156.4484324     
   2641969527.6301432     
   2662169123.2750115     
   2607093794.8980985     
   2594101846.7317848     
   2592405644.8549595     
   2602086890.4660001     
   2623242887.1161065     
   2799392367.5168142     
   2745532452.7220039     
   2697589086.8705487     
   2655562269.9624448     
   2619452001.9976845     
   2750331987.5249195     
   2697215102.5353475     
   2649777742.3689318     
   2608056606.3574195     
   2572103127.4632273     
   2704560948.1960020     
   2654284760.3356667     
   2609593600.3783946     
   2570635118.4399462     
   2537616256.0161295     
   2662169123.2750115     
   2616836127.5279007     
   2577135741.5021133     
   2543399160.8316908     
   2516089462.2678657     
   2623242887.1161065     
   2584954680.8489017     
   2552488378.6806459     
   2526425584.8680906     
   2507575604.8413363     
   2619452001.9976845     
   2430149792.3845859     
   2236041373.4105000     
   2037126745.0753953     
   1833405907.3792732     
   2572103127.4632273     
   2384649781.3016748     
   2194108250.6044135     
   2000856801.3565052     
   1805499316.5664079     
   2537616256.0161295     
   2357320970.8906484     
   2176767438.6435246     
   1997427217.2244444     
   1821577895.6112430     
   2516089462.2678657     
   2348195740.9198079     
   2183877018.0496459     
   2026233102.8735464     
   1879827551.4263504     
   2507575604.8413363     
   2357171647.3689723     
   2214970666.6182542     
   2085952537.7059600     
   1976990616.2657115     
   2944031195.5221419     
   2871148389.2264056     
   2816597379.8483515     
   2780890548.3413410     
   2764672750.2298021     
   3084939374.6311355     
   3005081354.0834146     
   2937120612.4175677     
   2881675426.1372499     
   2839467946.8351336     
   3255576527.2193961     
   3170313784.2631574     
   3091331626.9578199     
   3019092360.1684289     
   2954117322.3477473     
   3441938006.3437028     
   3356007714.6083713     
   3271524534.5572419     
   3188631717.7175579     
   3107490303.2387228     
   3633280516.4355803     
   3553431430.8108578     
   3470972328.0865998     
   3385687056.9994645     
   3297373829.3177066     
   2764672750.2298021     
   2749609155.8821721     
   2738943032.2648950     
   2732769194.6586561     
   2731182227.1887245     
   2839467946.8351336     
   2810560765.3739462     
   2787222854.4859014     
   2769620367.1100497     
   2757927316.3593326     
   2954117322.3477473     
   2909801716.9475899     
   2871957470.5979352     
   2840835486.4360762     
   2816712227.5696845     
   3107490303.2387228     
   3046134117.6532345     
   2991863445.4448934     
   2945017257.9462776     
   2905989064.5469642     
   3297373829.3177066     
   3217312962.9381104     
   3144675757.2939315     
   3079881261.1856499     
   3023442613.4938231     
   2731182227.1887245     
   2695372613.2506137     
   2668455496.1651540     
   2650654901.5290780     
   2642197620.3341599     
   2757927316.3593326     
   2709981028.6443262     
   2670505209.6498003     
   2639829640.0878091     
   2618299354.6230297     
   2816712227.5696845     
   2755000509.3940811     
   2701177231.7539020     
   2655669415.9603100     
   2618939868.1783881     
   2905989064.5469642     
   2829502760.9812608     
   2760165218.8606462     
   2698473695.2292790     
   2644986892.1744924     
   3023442613.4938231     
   2931751412.2078018     
   2846345006.7198324     
   2767751545.2314420     
   2696585885.9794397     
   2642197620.3341599     
   2620875157.0062704     
   2608710833.5956473     
   2605888594.7979879     
   2612581837.1306210     
   2618299354.6230297     
   2585342899.2231598     
   2561168081.5267363     
   2546055362.6360345     
   2540276632.8845391     
   2618939868.1783881     
   2572853529.4220119     
   2535063863.1741166     
   2505952477.6695046     
   2485902252.7966003     
   2644986892.1744924     
   2584794434.3283300     
   2532267781.2896013     
   2487876445.0528808     
   2452109380.0816345     
   2696585885.9794397     
   2621886689.0264306     
   2554073933.7734609     
   2493673260.2737150     
   2441252945.6928420     
   2612581837.1306210     
   2596116892.9348149     
   2589627895.7164316     
   2593249893.9905171     
   2607093794.8980985     
   2540276632.8845391     
   2512245994.7184353     
   2494233124.1269493     
   2486486727.6376820     
   2489223336.3083854     
   2485902252.7966003     
   2444085575.5797515     
   2412225530.5118890     
   2390722650.8646512     
   2379946476.2247939     
   2452109380.0816345     
   2394558145.5126209     
   2346700263.1802392     
   2309113996.5018015     
   2282365025.3233528     
   2441252945.6928420     
   2366478692.9558883     
   2300847127.5316429     
   2245111517.5097837     
   2200053948.7094784     
   2607093794.8980985     
   2594101846.7317848     
   2592405644.8549595     
   2602086890.4660001     
   2623242887.1161065     
   2489223336.3083854     
   2469518541.8834600     
   2461822138.9656372     
   2466273420.5092373     
   2483008594.4498525     
   2379946476.2247939     
   2351275044.4983268     
   2335478684.6256251     
   2332809048.1852517     
   2343487973.0826650     
   2282365025.3233528     
   2242132239.5586295     
   2215733171.4808626     
   2203613749.8219900     
   2206158279.8490629     
   2200053948.7094784     
   2145399510.0268271     
   2105514007.1085083     
   2081148925.5774686     
   2072968370.1068118     
   2623242887.1161065     
   2584954680.8489017     
   2552488378.6806459     
   2526425584.8680906     
   2507575604.8413363     
   2483008594.4498525     
   2450455111.8226943     
   2426429860.1118116     
   2411878154.5400043     
   2408176947.8694515     
   2343487973.0826650     
   2319105791.2286572     
   2306259380.3795261     
   2306354216.5222154     
   2321478302.5419617     
   2206158279.8490629     
   2191696507.9539790     
   2192264614.2992353     
   2209832564.7470107     
   2247319472.7543344     
   2072968370.1068118     
   2069213349.6513407     
   2084768885.7692544     
   2122269761.2176940     
   2185527715.3462667     
   2507575604.8413363     
   2357171647.3689723     
   2214970666.6182542     
   2085952537.7059600     
   1976990616.2657115     
   2408176947.8694515     
   2282853225.7163858     
   2168051631.6897273     
   2070511304.4669051     
   1998997802.3766320     
   2321478302.5419617     
   2224748512.0028386     
   2141349922.9128008     
   2079647179.0849926     
   2049810597.9735441     
   2247319472.7543344     
   2182646762.1993842     
   2134394435.4796159     
   2112229380.5315254     
   2127087128.3401515     
   2185527715.3462667     
   2156253011.5436611     
   2146537893.1332107     
   2166907184.6403341     
   2228436350.1869164     
   3633280516.4355803     
   3553431430.8108578     
   3470972328.0865998     
   3385687056.9994645     
   3297373829.3177066     
   3816212923.2265172     
   3724999214.8683238     
   3634256359.4361854     
   3544044270.5532522     
   3454430267.9778099     
   4049207236.8793097     
   3942386216.4533548     
   3838448213.1138678     
   3737596140.6624560     
   3640083593.5870199     
   4330988151.9696016     
   4203071867.6944499     
   4079668211.2061739     
   3961020401.7570057     
   3847519655.6001458     
   4659495922.2904558     
   4504021222.0993357     
   4353925641.4433346     
   4209413341.2536082     
   4070983331.3965859     
   3297373829.3177066     
   3217312962.9381104     
   3144675757.2939315     
   3079881261.1856499     
   3023442613.4938231     
   3454430267.9778099     
   3362271725.0912509     
   3275478211.7610898     
   3194459266.5789700     
   3119711829.8741899     
   3640083593.5870199     
   3536721564.6781359     
   3436945655.6637244     
   3341102452.6169820     
   3249609915.6803827     
   3847519655.6001458     
   3734663939.0731139     
   3623916838.6333399     
   3515535036.4695072     
   3409825642.6870852     
   4070983331.3965859     
   3950865692.3679829     
   3831685251.9774508     
   3713605538.5996256     
   3596820580.6598778     
   3023442613.4938231     
   2931751412.2078018     
   2846345006.7198324     
   2767751545.2314420     
   2696585885.9794397     
   3119711829.8741899     
   3012075278.9947777     
   2909979996.8127279     
   2813949859.1071906     
   2724614841.1823249     
   3249609915.6803827     
   3126558465.0248003     
   3008273945.7517014     
   2895238275.3999381     
   2788051388.5820460     
   3409825642.6870852     
   3272056887.2304821     
   3138312149.9792113     
   3009005625.6532025     
   2884672590.3955321     
   3596820580.6598778     
   3445066131.8773880     
   3296667526.1595879     
   3151959489.4430103     
   3011393764.2265754     
   2696585885.9794397     
   2621886689.0264306     
   2554073933.7734609     
   2493673260.2737150     
   2441252945.6928420     
   2724614841.1823249     
   2635455389.6282682     
   2552122280.6312642     
   2475184900.1726427     
   2405287116.6139035     
   2788051388.5820460     
   2684647303.6108456     
   2585858047.7935386     
   2492230086.6495576     
   2404408797.4335923     
   2884672590.3955321     
   2767902794.2105737     
   2654496123.6935525     
   2544916237.5451102     
   2439733857.5007038     
   3011393764.2265754     
   2882598699.0447488     
   2755987095.3140640     
   2631904052.6161733     
   2510792610.6760817     
   2441252945.6928420     
   2366478692.9558883     
   2300847127.5316429     
   2245111517.5097837     
   2200053948.7094784     
   2405287116.6139035     
   2312752684.8368931     
   2228179716.5066705     
   2152412823.4958119     
   2086381760.6047351     
   2404408797.4335923     
   2294667848.9605427     
   2191435880.1212969     
   2095540980.2248206     
   2007950154.4685111     
   2439733857.5007038     
   2314323956.9565253     
   2193860459.2300863     
   2079035855.2048423     
   1970704233.8709388     
   2510792610.6760817     
   2372032512.6396766     
   2236764204.0797658     
   2105467163.8624611     
   1978762182.9397814     
   2200053948.7094784     
   2145399510.0268271     
   2105514007.1085083     
   2081148925.5774686     
   2072968370.1068118     
   2086381760.6047351     
   2011784694.2211587     
   1949446469.7808275     
   1900431362.2649078     
   1865753521.4040215     
   2007950154.4685111     
   1911925125.1694639     
   1824641181.2911465     
   1747290494.5262403     
   1681155450.8552425     
   1970704233.8709388     
   1854757124.9266112     
   1743199814.6012535     
   1636957255.0477757     
   1537164630.1713426     
   1978762182.9397814     
   1847939888.7986026     
   1717205571.4398875     
   1586920327.2613311     
   1457609035.0479779     
   2072968370.1068118     
   2069213349.6513407     
   2084768885.7692544     
   2122269761.2176940     
   2185527715.3462667     
   1865753521.4040215     
   1855048066.4727752     
   1867361919.4593389     
   1904908450.4309728     
   1970720898.9763722     
   1681155450.8552425     
   1652523976.4592841     
   1651637205.0747283     
   1680868563.2810795     
   1742829905.8344848     
   1537164630.1713426     
   1476235309.5490131     
   1448002272.9208636     
   1456433463.6350148     
   1504825305.1918149     
   1457609035.0479779     
   1348618725.5668879     
   1274602722.1397400     
   1243679537.1638627     
   1262882582.5391495     
   2185527715.3462667     
   2156253011.5436611     
   2146537893.1332107     
   2166907184.6403341     
   2228436350.1869164     
   1970720898.9763722     
   1968915125.4006875     
   2003632303.2658892     
   2093546610.7141790     
   2257320222.6854887     
   1742829905.8344848     
   1787670254.6599467     
   1884648722.1858132     
   2060672722.5706024     
   2340970942.4092216     
   1504825305.1918149     
   1613235740.7283194     
   1788847053.2290692     
   2066406377.4805110     
   2476115095.5215492     
   1262882582.5391495     
   1446656216.2369716     
   1715662713.9771090     
   2110479975.6180758     
   2663539142.2150502     
   4659495922.2904558     
   4504021222.0993357     
   4353925641.4433346     
   4209413341.2536082     
   4070983331.3965859     
   4986951708.7107258     
   4815336294.8044357     
   4645779660.4626770     
   4478437202.5888882     
   4313563465.2463932     
   5303018916.2786303     
   5125112242.0576506     
   4947245035.8989782     
   4769448484.3839140     
   4591760943.4107809     
   5602441717.9466228     
   5429031031.5517883     
   5254703639.6601410     
   5079361191.8942337     
   4902929981.7548456     
   5881662731.7125111     
   5724004581.9788370     
   5565381375.4499016     
   5405580670.3745365     
   5244531902.0993671     
   4070983331.3965859     
   3950865692.3679829     
   3831685251.9774508     
   3713605538.5996256     
   3596820580.6598778     
   4313563465.2463932     
   4181589181.7000012     
   4050856774.0206985     
   3921520986.7683325     
   3793781940.7484903     
   4591760943.4107809     
   4446326510.7313185     
   4302233530.6400146     
   4159586112.8153324     
   4018555104.7860823     
   4902929981.7548456     
   4741926530.9501820     
   4582166710.1085672     
   4423671681.4006681     
   4266555451.6861954     
   5244531902.0993671     
   5065444452.1897974     
   4887328953.5422602     
   4710099952.7507343     
   4533793862.4163961     
   3596820580.6598778     
   3445066131.8773880     
   3296667526.1595879     
   3151959489.4430103     
   3011393764.2265754     
   3793781940.7484903     
   3629195365.0692139     
   3466760711.1749792     
   3306707623.3586903     
   3149364874.1665549     
   4018555104.7860823     
   3842038857.2323771     
   3666610521.7942390     
   3492390917.0596747     
   3319577267.7821517     
   4266555451.6861954     
   4079121650.1838460     
   3891876725.2609215     
   3704843503.0342207     
   3518099183.2704473     
   4533793862.4163961     
   4336487557.9528370     
   4138640523.0215802     
   3940196524.6600308     
   3741136186.6117563     
   3011393764.2265754     
   2882598699.0447488     
   2755987095.3140640     
   2631904052.6161733     
   2510792610.6760817     
   3149364874.1665549     
   3008785604.4981503     
   2869926255.8255601     
   2733025586.7301283     
   2598405434.8008156     
   3319577267.7821517     
   3168156432.2651668     
   3018081654.0761065     
   2869491182.2487254     
   2722592158.4407921     
   3518099183.2704473     
   3356415159.2476158     
   3195786847.2802911     
   3036265585.4448380     
   2877961412.2949839     
   3741136186.6117563     
   3569401564.7983809     
   3398497053.7409043     
   3228402649.0943527     
   3059152132.1689491     
   2510792610.6760817     
   2372032512.6396766     
   2236764204.0797658     
   2105467163.8624611     
   1978762182.9397814     
   2598405434.8008156     
   2449842217.8465915     
   2303376681.7079453     
   2159316075.1356535     
   2018074296.3816001     
   2722592158.4407921     
   2566107650.5265007     
   2410575683.3827496     
   2256140797.9286699     
   2103009152.0716913     
   2877961412.2949839     
   2715520231.2970810     
   2553193975.0829148     
   2391012244.0179729     
   2229031142.1995001     
   3059152132.1689491     
   2892602969.3785658     
   2725625706.7249017     
   2558192687.0506368     
   2390286290.1746583     
   1978762182.9397814     
   1847939888.7986026     
   1717205571.4398875     
   1586920327.2613311     
   1457609035.0479779     
   2018074296.3816001     
   1881129508.5500872     
   1744499893.4512880     
   1608316439.0438867     
   1472759406.3462918     
   2103009152.0716913     
   1962681527.0486591     
   1823274816.3983915     
   1684818324.9044359     
   1547368379.2290092     
   2229031142.1995001     
   2086341409.2299457     
   1945268223.7398074     
   1805812323.2404239     
   1668048241.4368362     
   2390286290.1746583     
   2244621034.9437151     
   2101134231.8826632     
   1959830228.8071618     
   1820876357.6244299     
   1457609035.0479779     
   1348618725.5668879     
   1274602722.1397400     
   1243679537.1638627     
   1262882582.5391495     
   1472759406.3462918     
   1328538814.1644504     
   1198789295.2855320     
   1087990783.4299321     
   1002047666.0739404     
   1547368379.2290092     
   1397493058.4254255     
   1244069428.5567451     
   1084829755.4483850     
   917746390.23885524     
   1668048241.4368362     
   1552601853.9150720     
   1428055585.1686153     
   1294769303.9069664     
   1158853527.8703682     
   1820876357.6244299     
   1780130389.5269189     
   1735877322.2335618     
   1696745132.4610083     
   1681201059.6475706     
   1262882582.5391495     
   1446656216.2369716     
   1715662713.9771090     
   2110479975.6180758     
   2663539142.2150502     
   1002047666.0739404     
   1164714231.6847579     
   1425417747.6519792     
   1808741271.9343722     
   2334762830.1670465     
   917746390.23885524     
   963143966.97438002     
   1144937324.5829132     
   1476476491.8256736     
   1957442798.3110025     
   1158853527.8703682     
   1008423918.8791075     
   985224616.60583150     
   1161487047.1001644     
   1544097540.4069142     
   1681201059.6475706     
   1383691516.6374171     
   1129442420.6796780     
   1010147919.1769654     
   1153031580.5010068     
 </DataArray>
 <DataArray  type="Float64" Name="strain" NumberOfComponents="3" format="ascii">
   9.7962367119924565E-002  -2.9682037310849618E-002   4.6053613828522799E-004
   9.5324319428364390E-002  -2.8916661042666991E-002   1.4782220168709781E-003
   9.2686271736804215E-002  -2.8076007038368433E-002   2.0809771492956708E-003
   9.0048224045243985E-002  -2.7160075297953890E-002   2.2688015355591951E-003
   8.7410176353683755E-002  -2.6168865821423526E-002   2.0416951756617729E-003
   9.3249168129888149E-002  -2.7924144384512739E-002   7.5614414206440772E-003
   9.0309526354937608E-002  -2.7152863933479154E-002   8.1019926492847949E-003
   8.7369884579987012E-002  -2.6334496932504281E-002   8.4542864573056153E-003
   8.4430242805036415E-002  -2.5469043381587828E-002   8.6183228447068994E-003
   8.1490601030085819E-002  -2.4556503280730335E-002   8.5941018114882306E-003
   8.7884315684107595E-002  -2.6166251458175971E-002   1.4682346478941177E-002
   8.4869753151307820E-002  -2.5389066824291207E-002   1.4717571871462332E-002
   8.1855190618508017E-002  -2.4592986826639740E-002   1.4791213168904693E-002
   7.8840628085708325E-002  -2.3778011465221710E-002   1.4903270371268887E-002
   7.5826065552908523E-002  -2.2944140740037089E-002   1.5053743478554121E-002
   8.1867809782582679E-002  -2.4408358531839203E-002   2.1823251313177028E-002
   7.9004999817475025E-002  -2.3625269715103314E-002   2.1324959683403547E-002
   7.6142189852367301E-002  -2.2851476720775449E-002   2.1091757284092738E-002
   7.3279379887259716E-002  -2.2086979548855731E-002   2.1123644115244998E-002
   7.0416569922152047E-002  -2.1331778199343870E-002   2.1420620176859743E-002
   7.5199650425313458E-002  -2.2650465605502379E-002   2.8984155923350963E-002
   7.2715266353439223E-002  -2.1861472605915422E-002   2.7924156085108620E-002
   7.0230882281564849E-002  -2.1109966614911171E-002   2.7355918802870055E-002
   6.7746498209690600E-002  -2.0395947632489645E-002   2.7279444076635698E-002
   6.5262114137816324E-002  -1.9719415658650652E-002   2.7694731906405423E-002
   8.7410176353683755E-002  -2.6168865821423526E-002   2.0416951756617729E-003
   8.4455687453137973E-002  -2.5168672628121447E-002   1.4019128199098119E-003
   8.1501198552592136E-002  -2.4225789737391895E-002   1.1105271766187474E-003
   7.8546709652046354E-002  -2.3340217149234850E-002   1.1675382457888850E-003
   7.5592220751500516E-002  -2.2511954863650652E-002   1.5729460274199747E-003
   8.1490601030085819E-002  -2.4556503280730335E-002   8.5941018114882306E-003
   7.8850113681542655E-002  -2.3638005259787959E-002   8.1287236355261638E-003
   7.6209626332999464E-002  -2.2754677948617102E-002   7.9429518511088537E-003
   7.3569138984456287E-002  -2.1906521347217968E-002   8.0367864582351206E-003
   7.0928651635913109E-002  -2.1093535455590340E-002   8.4102274569060054E-003
   7.5826065552908523E-002  -2.2944140740037089E-002   1.5053743478554121E-002
   7.3430789435451213E-002  -2.2107337891454443E-002   1.4784909075183372E-002
   7.1035513317993876E-002  -2.1283566159842407E-002   1.4726890742440171E-002
   6.8640237200536580E-002  -2.0472825545200971E-002   1.4879688480324393E-002
   6.6244961083079201E-002  -1.9675116047530083E-002   1.5243302288835969E-002
   7.0416569922152047E-002  -2.1331778199343870E-002   2.1420620176859743E-002
   6.8197714714863703E-002  -2.0576670523120941E-002   2.1370469138881305E-002
   6.5978859507575371E-002  -1.9812454371067663E-002   2.1462343850613474E-002
   6.3760004300287054E-002  -1.9039129743183808E-002   2.1696244312056169E-002
   6.1541149092998702E-002  -1.8256696639469855E-002   2.2072170523209492E-002
   6.5262114137816324E-002  -1.9719415658650652E-002   2.7694731906405423E-002
   6.3150889519780123E-002  -1.9046003154787411E-002   2.7885403826620025E-002
   6.1039664901743965E-002  -1.8341342582292905E-002   2.8149311175628605E-002
   5.8928440283707799E-002  -1.7605433941166867E-002   2.8486453953430815E-002
   5.6817215665671661E-002  -1.6838277231409515E-002   2.8896832160026864E-002
   7.5592220751500516E-002  -2.2511954863650652E-002   1.5729460274199747E-003
   7.2269626168340761E-002  -2.1686945855356687E-002   1.1176015769949199E-003
   6.8947031585181007E-002  -2.0811133099071732E-002   8.4320759432809922E-004
   6.5624437002021280E-002  -1.9884516594794968E-002   7.4976407941915180E-004
   6.2301842418861497E-002  -1.8907096342526741E-002   8.3727103226860500E-004
   7.0928651635913109E-002  -2.1093535455590340E-002   8.4102274569060054E-003
   6.7789173773287859E-002  -2.0282714734583263E-002   7.9777498802725000E-003
   6.4649695910662719E-002  -1.9441053645045614E-002   7.7305552769497132E-003
   6.1510218048037441E-002  -1.8568552186976686E-002   7.6686436469382280E-003
   5.8370740185412273E-002  -1.7665210360377381E-002   7.7920149902378499E-003
   6.6244961083079201E-002  -1.9675116047530083E-002   1.5243302288835969E-002
   6.3292932446541550E-002  -1.8878483613809449E-002   1.4813728206532484E-002
   6.0340903810004051E-002  -1.8070974191019135E-002   1.4573769603093215E-002
   5.7388875173466476E-002  -1.7252587779158175E-002   1.4523426478518300E-002
   5.4436846536928873E-002  -1.6423324378227855E-002   1.4662698832807602E-002
   6.1541149092998702E-002  -1.8256696639469855E-002   2.2072170523209492E-002
   5.8780902188101836E-002  -1.7474252493035719E-002   2.1625536555775607E-002
   5.6020655283205059E-002  -1.6700894736992780E-002   2.1372850572759353E-002
   5.3260408378308192E-002  -1.5936623371340223E-002   2.1314112574160441E-002
   5.0500161473411402E-002  -1.5181438396078634E-002   2.1449322559978327E-002
   5.6817215665671661E-002  -1.6838277231409515E-002   2.8896832160026864E-002
   5.4253082997968605E-002  -1.6070021372262155E-002   2.8413174928001994E-002
   5.1688950330265659E-002  -1.5330815282966384E-002   2.8127798185947656E-002
   4.9124817662562714E-002  -1.4620658963521955E-002   2.8040701933863529E-002
   4.6560684994859713E-002  -1.3939552413929246E-002   2.8151886171749851E-002
   6.2301842418861497E-002  -1.8907096342526741E-002   8.3727103226860500E-004
   5.9468320637824479E-002  -1.7933102718818539E-002   5.8742124825883479E-004
   5.6634798856787627E-002  -1.7016766100221542E-002   5.1204353680306403E-004
   5.3801277075750692E-002  -1.6158086486735369E-002   6.1113789790098738E-004
   5.0967755294713757E-002  -1.5357063878361554E-002   8.8470433155340977E-004
   5.8370740185412273E-002  -1.7665210360377381E-002   7.7920149902378499E-003
   5.5705993764162021E-002  -1.6763708788684550E-002   7.4875881366992525E-003
   5.3041247342911740E-002  -1.5896728095335710E-002   7.3462399301797987E-003
   5.0376500921661474E-002  -1.5064268280330417E-002   7.3679703706800437E-003
   4.7711754500411208E-002  -1.4266329343669337E-002   7.5527794581997654E-003
   5.4436846536928873E-002  -1.6423324378227855E-002   1.4662698832807602E-002
   5.1929482049930836E-002  -1.5594314858550895E-002   1.4326831036507198E-002
   4.9422117562932841E-002  -1.4776690090449865E-002   1.4142648461692039E-002
   4.6914753075934824E-002  -1.3970450073925462E-002   1.4110151108361883E-002
   4.4407388588936808E-002  -1.3175594808977342E-002   1.4229338976516903E-002
   5.0500161473411402E-002  -1.5181438396078634E-002   2.1449322559978327E-002
   4.8138785495131113E-002  -1.4424920928416851E-002   2.1105149947684074E-002
   4.5777409516850887E-002  -1.3656652085563915E-002   2.0901269131340303E-002
   4.3416033538570653E-002  -1.2876631867520286E-002   2.0837680110947471E-002
   4.1054657560290413E-002  -1.2084860274285236E-002   2.0914382886504587E-002
   4.6560684994859713E-002  -1.3939552413929246E-002   2.8151886171749851E-002
   4.4333904099762844E-002  -1.3255526998283085E-002   2.7822544870228838E-002
   4.2107123204665947E-002  -1.2536614080678368E-002   2.7622101939124039E-002
   3.9880342309569050E-002  -1.1782813661115128E-002   2.7550557378435467E-002
   3.7653561414472181E-002  -1.0994125739593352E-002   2.7607911188162748E-002
   5.0967755294713757E-002  -1.5357063878361554E-002   8.8470433155340977E-004
   4.8184180345400285E-002  -1.4566298927891297E-002   5.4114747521949447E-004
   4.5400605396086868E-002  -1.3738392288119294E-002   2.7524156158043045E-004
   4.2617030446773424E-002  -1.2873343959043590E-002   8.6986590636939365E-005
   3.9833455497459980E-002  -1.1971153940665502E-002  -2.3617437610701231E-005
   4.7711754500411208E-002  -1.4266329343669337E-002   7.5527794581997654E-003
   4.5010242910687503E-002  -1.3475691096526465E-002   7.1938004958936874E-003
   4.2308731320963772E-002  -1.2665133350074631E-002   6.9212973100717945E-003
   3.9607219731240137E-002  -1.1834656104315375E-002   6.7352699007340033E-003
   3.6905708141516391E-002  -1.0984259359247073E-002   6.6357182678804527E-003
   4.4407388588936808E-002  -1.3175594808977342E-002   1.4229338976516903E-002
   4.1796765192591651E-002  -1.2385083265160912E-002   1.3837715718244464E-002
   3.9186141796246535E-002  -1.1591874412030662E-002   1.3541393070244628E-002
   3.6575518399901356E-002  -1.0795968249586944E-002   1.3340371032517992E-002
   3.3964895003556261E-002  -9.9973647778293095E-003   1.3234649605064208E-002
   4.1054657560290413E-002  -1.2084860274285236E-002   2.0914382886504587E-002
   3.8543747191112664E-002  -1.1294475433795609E-002   2.0472893142270854E-002
   3.6032836821934949E-002  -1.0518615473986678E-002   2.0135528842098904E-002
   3.3521926452757214E-002  -9.7572803948581775E-003   1.9902289985989041E-002
   3.1011016083579424E-002  -9.0104701964112133E-003   1.9773176573940746E-002
   3.7653561414472181E-002  -1.0994125739593352E-002   2.7607911188162748E-002
   3.5251188906250619E-002  -1.0203867602430250E-002   2.7099332767973605E-002
   3.2848816398029113E-002  -9.4453565359420844E-003   2.6703704625634872E-002
   3.0446443889807551E-002  -8.7185925401303682E-003   2.6421026761146604E-002
   2.8044071381585989E-002  -8.0235756149931170E-003   2.6251299174509191E-002
   3.9833455497459980E-002  -1.1971153940665502E-002  -2.3617437610701231E-005
   3.7431032788694307E-002  -1.1132432954275684E-002  -2.8912100598810220E-004
   3.5028610079928579E-002  -1.0457791721164289E-002  -4.7394724964344714E-004
   3.2626187371162851E-002  -9.9472302413333574E-003  -5.7809616857712465E-004
   3.0223764662397179E-002  -9.6007485147804328E-003  -6.0156776278819102E-004
   3.6905708141516391E-002  -1.0984259359247073E-002   6.6357182678804527E-003
   3.4567625107600697E-002  -1.0177746888611061E-002   6.2049273668890459E-003
   3.2229542073685002E-002  -9.4789224661480653E-003   5.8221384908753171E-003
   2.9891459039769364E-002  -8.8877860918556012E-003   5.4873516398398769E-003
   2.7553376005853614E-002  -8.4043377657365692E-003   5.2005668137820038E-003
   3.3964895003556261E-002  -9.9973647778293095E-003   1.3234649605064208E-002
   3.1658476344746528E-002  -9.2230608229476596E-003   1.2694963076565646E-002
   2.9352057685936850E-002  -8.5000532111307592E-003   1.2170603273300579E-002
   2.7045639027127089E-002  -7.8283419423791842E-003   1.1661570195269741E-002
   2.4739220368317411E-002  -7.2079270166925946E-003   1.1167863842472869E-002
   3.1011016083579424E-002  -9.0104701964112133E-003   1.9773176573940746E-002
   2.8703586500131772E-002  -8.2683747572833144E-003   1.9180986123041519E-002
   2.6396156916684052E-002  -7.5211839561137722E-003   1.8571447097632539E-002
   2.4088727333236304E-002  -6.7688977929020976E-003   1.7944559497713158E-002
   2.1781297749788625E-002  -6.0115162676487865E-003   1.7300323323284142E-002
   2.8044071381585989E-002  -8.0235756149931170E-003   2.6251299174509191E-002
   2.5702955573756292E-002  -7.3136886916193022E-003   2.5662996506316982E-002
   2.3361839765926568E-002  -6.5423147010967297E-003   2.5024669963870871E-002
   2.1020723958096829E-002  -5.7094536434252191E-003   2.4336319547170443E-002
   1.8679608150267091E-002  -4.8151055186047564E-003   2.3597945256216057E-002
   3.0223764662397179E-002  -9.6007485147804328E-003  -6.0156776278819102E-004
   2.9612153348096970E-002  -9.1327885408012399E-003  -3.6242664997820917E-004
   2.9000542033796817E-002  -8.2577923186896718E-003  -1.8016150306515710E-003
   2.8388930719496608E-002  -6.9757598484457700E-003  -4.9191329048082211E-003
   2.7777319405196454E-002  -5.2866911300686326E-003  -9.7149802724487699E-003
   2.7553376005853614E-002  -8.4043377657365692E-003   5.2005668137820038E-003
   2.5532246746837073E-002  -7.8696866234135854E-003   5.8733174587222159E-003
   2.3511117487820588E-002  -7.1249418005095433E-003   5.4053617077133298E-003
   2.1489988228803963E-002  -6.1701032970276765E-003   3.7966995607548182E-003
   1.9468858969787450E-002  -5.0051711129655008E-003   1.0473310178473749E-003
   2.4739220368317411E-002  -7.2079270166925946E-003   1.1167863842472869E-002
   2.1846196262118478E-002  -6.6065847060254868E-003   1.2077281451991051E-002
   1.8953172155919518E-002  -5.9920912823307748E-003   1.2383615763093464E-002
   1.6060148049720571E-002  -5.3644467456098119E-003   1.2086866775779928E-002
   1.3167123943521652E-002  -4.7236510958623690E-003   1.1187034490051762E-002
   2.1781297749788625E-002  -6.0115162676487865E-003   1.7300323323284142E-002
   1.8554001893941130E-002  -5.3434827886373881E-003   1.8249465329826978E-002
   1.5326706038093663E-002  -4.8592407641515484E-003   1.9133147135488256E-002
   1.2099410182246289E-002  -4.5587901941922769E-003   1.9951368740267709E-002
   8.8721143263988181E-003  -4.4421310787587931E-003   2.0704130144165861E-002
   1.8679608150267091E-002  -4.8151055186047564E-003   2.3597945256216057E-002
   1.5655663642305084E-002  -4.0803808712494560E-003   2.4389869092230509E-002
   1.2631719134343133E-002  -3.7263902459725440E-003   2.5653955824897601E-002
   9.6077746263811409E-003  -3.7531336427749085E-003   2.7390205454217026E-002
   6.5838301184191761E-003  -4.1606110616556613E-003   2.9598617980188813E-002
   2.7777319405196454E-002  -5.2866911300686326E-003  -9.7149802724487699E-003
   2.3351892551925157E-002  -4.2069635326678068E-003  -4.1863744052768048E-003
   1.8926465698653749E-002  -4.7529544253506195E-003   2.6053730508531769E-003
   1.4501038845382480E-002  -6.9246638081191803E-003   1.0660262095940842E-002
   1.0075611992111044E-002  -1.0722091680971602E-002   1.9978292729986968E-002
   1.9468858969787450E-002  -5.0051711129655008E-003   1.0473310178473749E-003
   1.6234388172419900E-002  -4.6910085822720049E-003   6.7418010224074010E-003
   1.2999917375052350E-002  -6.2884790388938461E-003   1.3555041549818236E-002
   9.7654465776848554E-003  -9.7975824828322178E-003   2.1487052600077272E-002
   6.5309757803173607E-003  -1.5218318914087092E-002   3.0537834173186784E-002
   1.3167123943521652E-002  -4.7236510958623690E-003   1.1187034490051762E-002
   1.0979238135949476E-002  -5.1750536318753149E-003   1.6761454134769038E-002
   8.7913523283773276E-003  -7.8240036524357404E-003   2.3310273236227419E-002
   6.6034665208052137E-003  -1.2670501157545144E-002   3.0833491794427070E-002
   4.4155807132330582E-003  -1.9714546147202139E-002   3.9331109809367826E-002
   8.8721143263988181E-003  -4.4421310787587931E-003   2.0704130144165861E-002
   7.5864424425137467E-003  -5.6590986814784028E-003   2.5872584931807580E-002
   6.3007705586286718E-003  -9.3595282659778567E-003   3.1871068110082001E-002
   5.0150986747434182E-003  -1.5543419832257682E-002   3.8699579678989987E-002
   3.7294267908585393E-003  -2.4210773380317407E-002   4.6358119638530482E-002
   6.5838301184191761E-003  -4.1606110616556613E-003   2.9598617980188813E-002
   6.0560010921126284E-003  -6.1431437310822679E-003   3.4075193413523719E-002
   5.5281720658062194E-003  -1.0895052879520084E-002   3.9237426171383261E-002
   5.0003430394997411E-003  -1.8416338506970525E-002   4.5085316253767549E-002
   4.4725140131932628E-003  -2.8707000613432676E-002   5.1618863660675363E-002
   7.5199650425313458E-002  -2.2650465605502379E-002   2.8984155923350963E-002
   7.2715266353439223E-002  -2.1861472605915422E-002   2.7924156085108620E-002
   7.0230882281564849E-002  -2.1109966614911171E-002   2.7355918802870055E-002
   6.7746498209690600E-002  -2.0395947632489645E-002   2.7279444076635698E-002
   6.5262114137816324E-002  -1.9719415658650652E-002   2.7694731906405423E-002
   6.8432074465172577E-002  -2.0713193886994496E-002   3.4293145860445906E-002
   6.6357677006078530E-002  -2.0027204826816136E-002   3.3576527282579205E-002
   6.4283279546984484E-002  -1.9359054850857829E-002   3.3188119374269048E-002
   6.2208882087890466E-002  -1.8708743959119676E-002   3.3127922135515589E-002
   6.0134484628796392E-002  -1.8076272151601624E-002   3.3395935566318480E-002
   6.2117318755032305E-002  -1.8775922168486614E-002   3.9489307895951301E-002
   6.0289356022271201E-002  -1.8192937047716795E-002   3.9135718502822756E-002
   5.8461393289510090E-002  -1.7608143086804535E-002   3.8946787892803418E-002
   5.6633430556748868E-002  -1.7021540285749703E-002   3.8922516065893240E-002
   5.4805467823987757E-002  -1.6433128644552486E-002   3.9062903022092199E-002
   5.6255383294893005E-002  -1.6838650449978745E-002   4.4572642029866397E-002
   5.4510303402017263E-002  -1.6358669268617482E-002   4.4601729745838842E-002
   5.2765223509141569E-002  -1.5857231322751134E-002   4.4631924358472796E-002
   5.1020143616265827E-002  -1.5334336612379873E-002   4.4663225867768878E-002
   4.9275063723390106E-002  -1.4789985137503431E-002   4.4695634273726303E-002
   5.0846268084754342E-002  -1.4901378731470849E-002   4.9543148262191861E-002
   4.9020519145316688E-002  -1.4524401489518168E-002   4.9974561011627672E-002
   4.7194770205878978E-002  -1.4106319558697872E-002   5.0243528771277746E-002
   4.5369021266441323E-002  -1.3647132939009814E-002   5.0350051541142221E-002
   4.3543272327003640E-002  -1.3146841630454265E-002   5.0294129321221070E-002
   6.5262114137816324E-002  -1.9719415658650652E-002   2.7694731906405423E-002
   6.3150889519780123E-002  -1.9046003154787411E-002   2.7885403826620025E-002
   6.1039664901743965E-002  -1.8341342582292905E-002   2.8149311175628605E-002
   5.8928440283707799E-002  -1.7605433941166867E-002   2.8486453953430815E-002
   5.6817215665671661E-002  -1.6838277231409515E-002   2.8896832160026864E-002
   6.0134484628796392E-002  -1.8076272151601624E-002   3.3395935566318480E-002
   5.8121223162951721E-002  -1.7442675154194287E-002   3.3435616680457192E-002
   5.6107961697107037E-002  -1.6788988692788262E-002   3.3597988670184917E-002
   5.4094700231262324E-002  -1.6115212767383449E-002   3.3883051535501717E-002
   5.2081438765417626E-002  -1.5421347377980066E-002   3.4290805276407710E-002
   5.4805467823987757E-002  -1.6433128644552486E-002   3.9062903022092199E-002
   5.2939624957129859E-002  -1.5839347153600955E-002   3.8940434725521902E-002
   5.1073782090271969E-002  -1.5236634803283571E-002   3.8990112751336244E-002
   4.9207939223414057E-002  -1.4624991593599977E-002   3.9211937099534980E-002
   4.7342096356556174E-002  -1.4004417524550450E-002   3.9605907770118284E-002
   4.9275063723390106E-002  -1.4789985137503431E-002   4.4695634273726303E-002
   4.7606094902314440E-002  -1.4236019153007838E-002   4.4399857961814615E-002
   4.5937126081238761E-002  -1.3684280913778765E-002   4.4325683419082829E-002
   4.4268157260163088E-002  -1.3134770419816519E-002   4.4473110645530875E-002
   4.2599188439087415E-002  -1.2587487671120917E-002   4.4842139641158921E-002
   4.3543272327003640E-002  -1.3146841630454265E-002   5.0294129321221070E-002
   4.2120632998505547E-002  -1.2632691152414499E-002   4.9813886389335038E-002
   4.0697993670007412E-002  -1.2131927024274194E-002   4.9604700673424346E-002
   3.9275354341509312E-002  -1.1644549246033049E-002   4.9666572173489007E-002
   3.7852715013011184E-002  -1.1170557817691384E-002   4.9999500889528814E-002
   5.6817215665671661E-002  -1.6838277231409515E-002   2.8896832160026864E-002
   5.4253082997968605E-002  -1.6070021372262155E-002   2.8413174928001994E-002
   5.1688950330265659E-002  -1.5330815282966384E-002   2.8127798185947656E-002
   4.9124817662562714E-002  -1.4620658963521955E-002   2.8040701933863529E-002
   4.6560684994859713E-002  -1.3939552413929246E-002   2.8151886171749851E-002
   5.2081438765417626E-002  -1.5421347377980066E-002   3.4290805276407710E-002
   4.9715652400634330E-002  -1.4724307031378669E-002   3.3782253688997593E-002
   4.7349866035851049E-002  -1.4041006234380371E-002   3.3472114217456383E-002
   4.4984079671067760E-002  -1.3371444986984907E-002   3.3360386861784067E-002
   4.2618293306284472E-002  -1.2715623289192457E-002   3.3447071621980740E-002
   4.7342096356556174E-002  -1.4004417524550450E-002   3.9605907770118284E-002
   4.5174787920591181E-002  -1.3378592690495100E-002   3.9087772047571426E-002
   4.3007479484626146E-002  -1.2751197185794129E-002   3.8768180066791967E-002
   4.0840171048661167E-002  -1.2122231010447690E-002   3.8647131827780123E-002
   3.8672862612696118E-002  -1.1491694164455640E-002   3.8724627330535763E-002
   4.2599188439087415E-002  -1.2587487671120917E-002   4.4842139641158921E-002
   4.0630489557839246E-002  -1.2032878349611517E-002   4.4329730003723332E-002
   3.8661790676591104E-002  -1.1461388137208112E-002   4.4015995733954309E-002
   3.6693091795342955E-002  -1.0873017033910446E-002   4.3900936831851457E-002
   3.4724392914094800E-002  -1.0267765039718948E-002   4.3984553297414505E-002
   3.7852715013011184E-002  -1.1170557817691384E-002   4.9999500889528814E-002
   3.6082757312378477E-002  -1.0687164008728045E-002   4.9508127557453707E-002
   3.4312799611745798E-002  -1.0171579088621902E-002   4.9215561218943549E-002
   3.2542841911113091E-002  -9.6238030573733771E-003   4.9121801873998144E-002
   3.0772884210480411E-002  -9.0438359149820347E-003   4.9226849522617355E-002
   4.6560684994859713E-002  -1.3939552413929246E-002   2.8151886171749851E-002
   4.4333904099762844E-002  -1.3255526998283085E-002   2.7822544870228838E-002
   4.2107123204665947E-002  -1.2536614080678368E-002   2.7622101939124039E-002
   3.9880342309569050E-002  -1.1782813661115128E-002   2.7550557378435467E-002
   3.7653561414472181E-002  -1.0994125739593352E-002   2.7607911188162748E-002
   4.2618293306284472E-002  -1.2715623289192457E-002   3.3447071621980740E-002
   4.0525220671271678E-002  -1.2054011324206165E-002   3.3149604998089499E-002
   3.8432148036258912E-002  -1.1367079275229008E-002   3.2990656523950251E-002
   3.6339075401246146E-002  -1.0654827142261000E-002   3.2970226199563066E-002
   3.4246002766233408E-002  -9.9172549253023212E-003   3.3088314024928012E-002
   3.8672862612696118E-002  -1.1491694164455640E-002   3.8724627330535763E-002
   3.6723118017103498E-002  -1.0852495650129385E-002   3.8449467966306439E-002
   3.4773373421510823E-002  -1.0197544469779808E-002   3.8322446531164976E-002
   3.2823628825918175E-002  -9.5268406234072598E-003   3.8343563025111480E-002
   3.0873884230325513E-002  -8.8403841110114012E-003   3.8512817448146497E-002
   3.4724392914094800E-002  -1.0267765039718948E-002   4.3984553297414505E-002
   3.2927596137258194E-002  -9.6509799760523679E-003   4.3722133774879449E-002
   3.1130799360421582E-002  -9.0280096643304726E-003   4.3617471960768116E-002
   2.9334002583584970E-002  -8.3988541045531585E-003   4.3670567855080916E-002
   2.7537205806748365E-002  -7.7635132967205367E-003   4.3881421457818051E-002
   3.0772884210480411E-002  -9.0438359149820347E-003   4.9226849522617355E-002
   2.9138655031735822E-002  -8.4494643019757398E-003   4.8967602423808543E-002
   2.7504425852991274E-002  -7.8584748588813036E-003   4.8875732812759975E-002
   2.5870196674246705E-002  -7.2708675856993504E-003   4.8951240689471293E-002
   2.4235967495502136E-002  -6.6866424824294501E-003   4.9194126053942688E-002
   3.7653561414472181E-002  -1.0994125739593352E-002   2.7607911188162748E-002
   3.5251188906250619E-002  -1.0203867602430250E-002   2.7099332767973605E-002
   3.2848816398029113E-002  -9.4453565359420844E-003   2.6703704625634872E-002
   3.0446443889807551E-002  -8.7185925401303682E-003   2.6421026761146604E-002
   2.8044071381585989E-002  -8.0235756149931170E-003   2.6251299174509191E-002
   3.4246002766233408E-002  -9.9172549253023212E-003   3.3088314024928012E-002
   3.1966254550081757E-002  -9.1775424826312513E-003   3.2598456379668184E-002
   2.9686506333930190E-002  -8.4588696725260565E-003   3.2240897040697547E-002
   2.7406758117778610E-002  -7.7612364949872191E-003   3.2015636008016282E-002
   2.5127009901627029E-002  -7.0846429500139863E-003   3.1922673281623848E-002
   3.0873884230325513E-002  -8.8403841110114012E-003   3.8512817448146497E-002
   2.8736108334682486E-002  -8.1512173628323914E-003   3.8052388015925379E-002
   2.6598332439039432E-002  -7.4723828091100286E-003   3.7743604918432164E-002
   2.4460556543396378E-002  -6.8038804498444030E-003   3.7586468155666977E-002
   2.2322780647753365E-002  -6.1457102850351886E-003   3.7580977727629555E-002
   2.7537205806748365E-002  -7.7635132967205367E-003   4.3881421457818051E-002
   2.5560750260052584E-002  -7.1248922430335732E-003   4.3461127676745162E-002
   2.3584294713356834E-002  -6.4858959456937787E-003   4.3211828258838889E-002
   2.1607839166661036E-002  -5.8465244047013094E-003   4.3133523204099258E-002
   1.9631383619965307E-002  -5.2067776200562244E-003   4.3226212512526202E-002
   2.4235967495502136E-002  -6.6866424824294501E-003   4.9194126053942688E-002
   2.2440180326192272E-002  -6.0985671232346439E-003   4.8824675362127423E-002
   2.0644393156882393E-002  -5.4994090822778618E-003   4.8645567061917527E-002
   1.8848605987572507E-002  -4.8891683595587432E-003   4.8656801153312806E-002
   1.7052818818262622E-002  -4.2678449550772601E-003   4.8858377636313066E-002
   2.8044071381585989E-002  -8.0235756149931170E-003   2.6251299174509191E-002
   2.5702955573756292E-002  -7.3136886916193022E-003   2.5662996506316982E-002
   2.3361839765926568E-002  -6.5423147010967297E-003   2.5024669963870871E-002
   2.1020723958096829E-002  -5.7094536434252191E-003   2.4336319547170443E-002
   1.8679608150267091E-002  -4.8151055186047564E-003   2.3597945256216057E-002
   2.5127009901627029E-002  -7.0846429500139863E-003   3.1922673281623848E-002
   2.2773439678585722E-002  -6.4103238600289880E-003   3.1523761193429312E-002
   2.0419869455544484E-002  -5.7195140474535777E-003   3.1149964149065346E-002
   1.8066299232503219E-002  -5.0122135122883521E-003   3.0801282148532338E-002
   1.5712729009461940E-002  -4.2884222545328532E-003   3.0477715191830568E-002
   2.2322780647753365E-002  -6.1457102850351886E-003   3.7580977727629555E-002
   2.0031894927585600E-002  -5.5069590284386183E-003   3.7326459874873763E-002
   1.7741009207417814E-002  -4.8967133938108975E-003   3.7172195984033402E-002
   1.5450123487250011E-002  -4.3149733811514920E-003   3.7118186055109192E-002
   1.3159237767082221E-002  -3.7617389904610610E-003   3.7164430088100997E-002
   1.9631383619965307E-002  -5.2067776200562244E-003   4.3226212512526202E-002
   1.7478321320755937E-002  -4.6035941968481653E-003   4.3071092550649850E-002
   1.5325259021546538E-002  -4.0739127401677594E-003   4.3091365468774630E-002
   1.3172196722337166E-002  -3.6177332500147395E-003   4.3287031266900172E-002
   1.1019134423127765E-002  -3.2350557263892687E-003   4.3658089945026970E-002
   1.7052818818262622E-002  -4.2678449550772601E-003   4.8858377636313066E-002
   1.5112718858096619E-002  -3.7002293652579898E-003   4.8757659220758143E-002
   1.3172618897930685E-002  -3.2511120865248988E-003   4.8907472603289093E-002
   1.1232518937764717E-002  -2.9204931188779454E-003   4.9307817783905555E-002
   9.2924189775986932E-003  -2.7083724623173655E-003   4.9958694762608391E-002
   1.8679608150267091E-002  -4.8151055186047564E-003   2.3597945256216057E-002
   1.5655663642305084E-002  -4.0803808712494560E-003   2.4389869092230509E-002
   1.2631719134343133E-002  -3.7263902459725440E-003   2.5653955824897601E-002
   9.6077746263811409E-003  -3.7531336427749085E-003   2.7390205454217026E-002
   6.5838301184191761E-003  -4.1606110616556613E-003   2.9598617980188813E-002
   1.5712729009461940E-002  -4.2884222545328532E-003   3.0477715191830568E-002
   1.3143019507136672E-002  -3.7749235089440392E-003   3.1256194150753869E-002
   1.0573310004811348E-002  -3.6985005102783686E-003   3.2470980224297868E-002
   8.0036005024860107E-003  -4.0591532585359108E-003   3.4122073412462831E-002
   5.4338910001607565E-003  -4.8568817537163467E-003   3.6209473715248630E-002
   1.3159237767082221E-002  -3.7617389904610610E-003   3.7164430088100997E-002
   1.1007907488362098E-002  -3.4694661466386501E-003   3.7873122445088114E-002
   8.8565772096419401E-003  -3.6706107745839711E-003   3.8982266134664934E-002
   6.7052469309217995E-003  -4.3651728742966911E-003   4.0491861156830969E-002
   4.5539166522016589E-003  -5.5531524457772541E-003   4.2401907511586678E-002
   1.1019134423127765E-002  -3.2350557263892687E-003   4.3658089945026970E-002
   9.2503275859813321E-003  -3.1640087843333026E-003   4.4240653975233871E-002
   7.4815207488348936E-003  -3.6427210388895737E-003   4.5187813555998935E-002
   5.7127139116884421E-003  -4.6711924900578045E-003   4.6499568687321448E-002
   3.9439070745420184E-003  -6.2494231378381615E-003   4.8175919369202638E-002
   9.2924189775986932E-003  -2.7083724623173655E-003   4.9958694762608391E-002
   7.8702797999944674E-003  -2.8585514220279551E-003   5.0358788741190930E-002
   6.4481406223902138E-003  -3.6148313031953982E-003   5.1087622488299456E-002
   5.0260014447859325E-003  -4.9772121058185848E-003   5.2145196003934635E-002
   3.6038622671817344E-003  -6.9456938298988469E-003   5.3531509288096579E-002
   6.5838301184191761E-003  -4.1606110616556613E-003   2.9598617980188813E-002
   6.0560010921126284E-003  -6.1431437310822679E-003   3.4075193413523719E-002
   5.5281720658062194E-003  -1.0895052879520084E-002   3.9237426171383261E-002
   5.0003430394997411E-003  -1.8416338506970525E-002   4.5085316253767549E-002
   4.4725140131932628E-003  -2.8707000613432676E-002   5.1618863660675363E-002
   5.4338910001607565E-003  -4.8568817537163467E-003   3.6209473715248630E-002
   5.4877538995886377E-003  -6.9912343330012505E-003   3.8349274069944983E-002
   5.5416167990165605E-003  -1.1361759333569782E-002   4.0966800951585058E-002
   5.5954796984443653E-003  -1.7968456755423474E-002   4.4062054360169495E-002
   5.6493425978724199E-003  -2.6811326598561003E-002   4.7635034295698375E-002
   4.5539166522016589E-003  -5.5531524457772541E-003   4.2401907511586678E-002
   4.9815406797837775E-003  -7.8393249349201777E-003   4.2738136845371394E-002
   5.4091647073658614E-003  -1.1828465787619369E-002   4.3344161908520362E-002
   5.8367887349479557E-003  -1.7520575003875979E-002   4.4219982701032973E-002
   6.2644127625300638E-003  -2.4915652583688885E-002   4.5365599222910502E-002
   3.9439070745420184E-003  -6.2494231378381615E-003   4.8175919369202638E-002
   4.5373614326980893E-003  -8.6874155368392436E-003   4.7241781739803861E-002
   5.1308157908541586E-003  -1.2295172241669122E-002   4.6369509042188548E-002
   5.7242701490101021E-003  -1.7072693252328595E-002   4.5559101276357393E-002
   6.3177245071662988E-003  -2.3019978568817101E-002   4.4810558442310577E-002
   3.6038622671817344E-003  -6.9456938298988469E-003   5.3531509288096579E-002
   4.1552161583315872E-003  -9.5355061387583095E-003   5.1860208753241377E-002
   4.7065700494814400E-003  -1.2761878695718654E-002   5.0042842352590267E-002
   5.2579239406313344E-003  -1.6624811500781322E-002   4.8079410086142693E-002
   5.8092778317812011E-003  -2.1124304553945095E-002   4.5969911953898990E-002
   5.0846268084754342E-002  -1.4901378731470849E-002   4.9543148262191861E-002
   4.9020519145316688E-002  -1.4524401489518168E-002   4.9974561011627672E-002
   4.7194770205878978E-002  -1.4106319558697872E-002   5.0243528771277746E-002
   4.5369021266441323E-002  -1.3647132939009814E-002   5.0350051541142221E-002
   4.3543272327003640E-002  -1.3146841630454265E-002   5.0294129321221070E-002
   4.5404343706527406E-002  -1.3010587364531867E-002   5.2882881400109882E-002
   4.3502354018832151E-002  -1.2688402676352212E-002   5.2921339308028559E-002
   4.1600364331136924E-002  -1.2328763670775761E-002   5.2969760709217800E-002
   3.9698374643441683E-002  -1.1931670347802494E-002   5.3028145603677496E-002
   3.7796384955746401E-002  -1.1497122707432639E-002   5.3096493991407728E-002
   3.9443980742123061E-002  -1.1119795997592996E-002   5.6169647169990317E-002
   3.7638158789226411E-002  -1.0852403863186255E-002   5.5811499864921010E-002
   3.5832336836329803E-002  -1.0551207782853608E-002   5.5635724536178446E-002
   3.4026514883433182E-002  -1.0216207756595177E-002   5.5642321183762562E-002
   3.2220692930536553E-002  -9.8474037844108187E-003   5.5831289807673323E-002
   3.2965179191541266E-002  -9.2290046306540696E-003   5.9403445571833281E-002
   3.1427933456499454E-002  -9.0164050500202708E-003   5.8645042682305019E-002
   2.9890687721457657E-002  -8.7736518949315043E-003   5.8241420252159712E-002
   2.8353441986415873E-002  -8.5007451653878307E-003   5.8192578281397428E-002
   2.6816196251374047E-002  -8.1976848613890679E-003   5.8498516770017869E-002
   2.5967939054782035E-002  -7.3382132637151432E-003   6.2584276605638867E-002
   2.4871678020651267E-002  -7.1804062368543420E-003   6.1421967760180718E-002
   2.3775416986520498E-002  -6.9960960070093864E-003   6.0786847857161735E-002
   2.2679155952389729E-002  -6.7852825741804394E-003   6.0678916896582072E-002
   2.1582894918258946E-002  -6.5479659383673172E-003   6.1098174878441325E-002
   4.3543272327003640E-002  -1.3146841630454265E-002   5.0294129321221070E-002
   4.2120632998505547E-002  -1.2632691152414499E-002   4.9813886389335038E-002
   4.0697993670007412E-002  -1.2131927024274194E-002   4.9604700673424346E-002
   3.9275354341509312E-002  -1.1644549246033049E-002   4.9666572173489007E-002
   3.7852715013011184E-002  -1.1170557817691384E-002   4.9999500889528814E-002
   3.7796384955746401E-002  -1.1497122707432639E-002   5.3096493991407728E-002
   3.6624503615811405E-002  -1.1048418829804410E-002   5.2755883081767138E-002
   3.5452622275876401E-002  -1.0608856795056965E-002   5.2645730933277457E-002
   3.4280740935941412E-002  -1.0178436603189817E-002   5.2766037545938796E-002
   3.3108859596006429E-002  -9.7571582542031465E-003   5.3116802919750905E-002
   3.2220692930536553E-002  -9.8474037844108187E-003   5.5831289807673323E-002
   3.1258971124340409E-002  -9.4641465071944597E-003   5.5634555427296811E-002
   3.0297249318144235E-002  -9.0857865658396167E-003   5.5627681353247048E-002
   2.9335527511948060E-002  -8.7123239603464717E-003   5.5810667585524082E-002
   2.8373805705751889E-002  -8.3437586907150196E-003   5.6183514124127698E-002
   2.6816196251374047E-002  -8.1976848613890679E-003   5.8498516770017869E-002
   2.6024035524092458E-002  -7.8798741845843845E-003   5.8449903425924404E-002
   2.5231874796810841E-002  -7.5627163366223833E-003   5.8550551933333327E-002
   2.4439714069529252E-002  -7.2462113175032388E-003   5.8800462292244705E-002
   2.3647553342247631E-002  -6.9303591272268095E-003   5.9199634502658395E-002
   2.1582894918258946E-002  -6.5479659383673172E-003   6.1098174878441325E-002
   2.0919696815067612E-002  -6.2956018619744203E-003   6.1201927077649598E-002
   2.0256498711876292E-002  -6.0396461074049973E-003   6.1414342673536154E-002
   1.9593300608684965E-002  -5.7800986746600787E-003   6.1735421666100923E-002
   1.8930102505493637E-002  -5.5169595637386548E-003   6.2165164055343725E-002
   3.7852715013011184E-002  -1.1170557817691384E-002   4.9999500889528814E-002
   3.6082757312378477E-002  -1.0687164008728045E-002   4.9508127557453707E-002
   3.4312799611745798E-002  -1.0171579088621902E-002   4.9215561218943549E-002
   3.2542841911113091E-002  -9.6238030573733771E-003   4.9121801873998144E-002
   3.0772884210480411E-002  -9.0438359149820347E-003   4.9226849522617355E-002
   3.3108859596006429E-002  -9.7571582542031465E-003   5.3116802919750905E-002
   3.1540571078762528E-002  -9.3271058091433934E-003   5.2666533877335192E-002
   2.9972282561518709E-002  -8.8703633290566353E-003   5.2420796208132281E-002
   2.8403994044274877E-002  -8.3869308139430873E-003   5.2379589912142310E-002
   2.6835705527031031E-002  -7.8768082638026038E-003   5.2542914989365308E-002
   2.8373805705751889E-002  -8.3437586907150196E-003   5.6183514124127698E-002
   2.7012910751545077E-002  -7.9670476095587972E-003   5.5768848295255052E-002
   2.5652015797338272E-002  -7.5691475694914107E-003   5.5564438219243908E-002
   2.4291120843131449E-002  -7.1500585705128496E-003   5.5570283896093552E-002
   2.2930225888924648E-002  -6.7097806126231729E-003   5.5786385325804433E-002
   2.3647553342247631E-002  -6.9303591272268095E-003   5.9199634502658395E-002
   2.2499776330726067E-002  -6.6069894099742010E-003   5.8815070811213684E-002
   2.1351999319204500E-002  -6.2679318099261375E-003   5.8646487252278126E-002
   2.0204222307682956E-002  -5.9131863270825858E-003   5.8693883825852014E-002
   1.9056445296161365E-002  -5.5427529614435755E-003   5.8957260531935243E-002
   1.8930102505493637E-002  -5.5169595637386548E-003   6.2165164055343725E-002
   1.8001167816305508E-002  -5.2469312103894938E-003   6.1805201425210732E-002
   1.7072233127117371E-002  -4.9667160503607810E-003   6.1666943307235239E-002
   1.6143298437929218E-002  -4.6763140836523151E-003   6.1750389701417635E-002
   1.5214363748741105E-002  -4.3757253102642002E-003   6.2055540607757198E-002
   3.0772884210480411E-002  -9.0438359149820347E-003   4.9226849522617355E-002
   2.9138655031735822E-002  -8.4494643019757398E-003   4.8967602423808543E-002
   2.7504425852991274E-002  -7.8584748588813036E-003   4.8875732812759975E-002
   2.5870196674246705E-002  -7.2708675856993504E-003   4.8951240689471293E-002
   2.4235967495502136E-002  -6.6866424824294501E-003   4.9194126053942688E-002
   2.6835705527031031E-002  -7.8768082638026038E-003   5.2542914989365308E-002
   2.5375206510446960E-002  -7.3536611006714270E-003   5.2319708120821207E-002
   2.3914707493862881E-002  -6.8311547465857853E-003   5.2276584088838285E-002
   2.2454208477278820E-002  -6.3092892015454670E-003   5.2413542893416237E-002
   2.0993709460694732E-002  -5.7880644655508018E-003   5.2730584534555036E-002
   2.2930225888924648E-002  -6.7097806126231729E-003   5.5786385325804433E-002
   2.1656162383302056E-002  -6.2578578993671974E-003   5.5601960048391921E-002
   2.0382098877679455E-002  -5.8038346342900449E-003   5.5610322956341218E-002
   1.9108035372056895E-002  -5.3477108173914725E-003   5.5811474049652643E-002
   1.7833971866434296E-002  -4.8894864486720424E-003   5.6205413328325737E-002
   1.9056445296161365E-002  -5.5427529614435755E-003   5.8957260531935243E-002
   1.7981522650301181E-002  -5.1620546980630372E-003   5.8814358206520714E-002
   1.6906600004441042E-002  -4.7765145219943045E-003   5.8876949415269254E-002
   1.5831677358580896E-002  -4.3861324332378111E-003   5.9145034158180593E-002
   1.4756754712720721E-002  -3.9909084317932275E-003   5.9618612435254931E-002
   1.5214363748741105E-002  -4.3757253102642002E-003   6.2055540607757198E-002
   1.4351287311444347E-002  -4.0662514967588215E-003   6.1956902595207641E-002
   1.3488210874147602E-002  -3.7491944096988139E-003   6.2076463465621845E-002
   1.2625134436850850E-002  -3.4245540490836848E-003   6.2414223219000059E-002
   1.1762057999554099E-002  -3.0923304149146347E-003   6.2970181855342089E-002
   2.4235967495502136E-002  -6.6866424824294501E-003   4.9194126053942688E-002
   2.2440180326192272E-002  -6.0985671232346439E-003   4.8824675362127423E-002
   2.0644393156882393E-002  -5.4994090822778618E-003   4.8645567061917527E-002
   1.8848605987572507E-002  -4.8891683595587432E-003   4.8656801153312806E-002
   1.7052818818262622E-002  -4.2678449550772601E-003   4.8858377636313066E-002
   2.0993709460694732E-002  -5.7880644655508018E-003   5.2730584534555036E-002
   1.9392425350696491E-002  -5.2652451426061786E-003   5.2455271283347149E-002
   1.7791141240698236E-002  -4.7385958367159031E-003   5.2378621759157140E-002
   1.6189857130700001E-002  -4.2081165478800656E-003   5.2500635961985148E-002
   1.4588573020701739E-002  -3.6738072760993390E-003   5.2821313891830923E-002
   1.7833971866434296E-002  -4.8894864486720424E-003   5.6205413328325737E-002
   1.6435512151160452E-002  -4.4319231619773247E-003   5.6016984818908017E-002
   1.5037052435886603E-002  -3.9777825911540554E-003   5.6035541371921266E-002
   1.3638592720612760E-002  -3.5270647362020541E-003   5.6261082987365194E-002
   1.2240133005338903E-002  -3.0797695971213068E-003   5.6693609665240008E-002
   1.4756754712720721E-002  -3.9909084317932275E-003   5.9618612435254931E-002
   1.3569440727584052E-002  -3.5986011813487762E-003   5.9509815968810768E-002
   1.2382126742447441E-002  -3.2169693455922077E-003   5.9616325900210348E-002
   1.1194812757310817E-002  -2.8460129245235985E-003   5.9938142229453560E-002
   1.0007498772174160E-002  -2.4857319181434412E-003   6.0475264956540306E-002
   1.1762057999554099E-002  -3.0923304149146347E-003   6.2970181855342089E-002
   1.0794211079967447E-002  -2.7652792007201721E-003   6.2933764733054953E-002
   9.8263641603807822E-003  -2.4561561000301935E-003   6.3120975344024333E-002
   8.8585172407941379E-003  -2.1649611128454066E-003   6.3531813688249977E-002
   7.8906703212074658E-003  -1.8916942391654645E-003   6.4166279765731971E-002
   1.7052818818262622E-002  -4.2678449550772601E-003   4.8858377636313066E-002
   1.5112718858096619E-002  -3.7002293652579898E-003   4.8757659220758143E-002
   1.3172618897930685E-002  -3.2511120865248988E-003   4.8907472603289093E-002
   1.1232518937764717E-002  -2.9204931188779454E-003   4.9307817783905555E-002
   9.2924189775986932E-003  -2.7083724623173655E-003   4.9958694762608391E-002
   1.4588573020701739E-002  -3.6738072760993390E-003   5.2821313891830923E-002
   1.2899310267452127E-002  -3.1957247635578945E-003   5.2719315761048824E-002
   1.1210047514202542E-002  -2.8339257524420125E-003   5.2868460246013577E-002
   9.5207847609529717E-003  -2.5884102427509437E-003   5.3268747346725195E-002
   7.8315220077033731E-003  -2.4591782344853819E-003   5.3920177063183639E-002
   1.2240133005338903E-002  -3.0797695971213068E-003   5.6693609665240008E-002
   1.0802318276666681E-002  -2.6912201618581044E-003   5.6592546628891710E-002
   9.3645035479945106E-003  -2.4167394183592095E-003   5.6743237025951326E-002
   7.9266888193222831E-003  -2.2563273666242681E-003   5.7145680856418996E-002
   6.4888740906500902E-003  -2.2099840066533982E-003   5.7799878120294357E-002
   1.0007498772174160E-002  -2.4857319181434412E-003   6.0475264956540306E-002
   8.8217428857403531E-003  -2.1867155601583282E-003   6.0377351824287037E-002
   7.6359869993065351E-003  -1.9995530842765313E-003   6.0531802943102779E-002
   6.4502311128727310E-003  -1.9242444904974294E-003   6.0938618312987441E-002
   5.2644752264388826E-003  -1.9607897788213591E-003   6.1597797933940907E-002
   7.8906703212074658E-003  -1.8916942391654645E-003   6.4166279765731971E-002
   6.9575840946730638E-003  -1.6822109584582745E-003   6.4073731347235041E-002
   6.0244978681386341E-003  -1.5823667501934646E-003   6.4234157997467567E-002
   5.0914116416042182E-003  -1.5921616143705214E-003   6.4647559716430464E-002
   4.1583254150698024E-003  -1.7115955509894309E-003   6.5313936504122982E-002
   9.2924189775986932E-003  -2.7083724623173655E-003   4.9958694762608391E-002
   7.8702797999944674E-003  -2.8585514220279551E-003   5.0358788741190930E-002
   6.4481406223902138E-003  -3.6148313031953982E-003   5.1087622488299456E-002
   5.0260014447859325E-003  -4.9772121058185848E-003   5.2145196003934635E-002
   3.6038622671817344E-003  -6.9456938298988469E-003   5.3531509288096579E-002
   7.8315220077033731E-003  -2.4591782344853819E-003   5.3920177063183639E-002
   6.7116742882797897E-003  -2.6445293492305399E-003   5.3852579951235435E-002
   5.5918265688562618E-003  -3.3427632085730741E-003   5.4060825987122474E-002
   4.4719788494327339E-003  -4.5538798125126234E-003   5.4544915170844532E-002
   3.3521311300091505E-003  -6.2778791610489382E-003   5.5304847502400944E-002
   6.4888740906500902E-003  -2.2099840066533982E-003   5.7799878120294357E-002
   5.6184212087157445E-003  -2.4305072764335134E-003   5.7357808094675417E-002
   4.7479683267814196E-003  -3.0706951139510830E-003   5.7138684596199862E-002
   3.8775154448470808E-003  -4.1305475192062180E-003   5.7142507624867694E-002
   3.0070625629127212E-003  -5.6100644921992515E-003   5.7369277180678968E-002
   5.2644752264388826E-003  -1.9607897788213591E-003   6.1597797933940907E-002
   4.5905205613022779E-003  -2.2164852036360705E-003   6.0874473171510110E-002
   3.9165658961656819E-003  -2.7986270193290363E-003   6.0321198315531677E-002
   3.2426112310290946E-003  -3.7072152259000346E-003   5.9937973366005134E-002
   2.5686565658924812E-003  -4.9422498233493428E-003   5.9724798322930248E-002
   4.1583254150698024E-003  -1.7115955509894309E-003   6.5313936504122982E-002
   3.6279723460394264E-003  -2.0024631308389051E-003   6.4402575181740418E-002
   3.0976192770090644E-003  -2.5265589247068510E-003   6.3608367145118028E-002
   2.5672662079786884E-003  -3.2838829325937610E-003   6.2931312394256339E-002
   2.0369131389483264E-003  -4.2744351544995451E-003   6.2371410929154991E-002
   3.6038622671817344E-003  -6.9456938298988469E-003   5.3531509288096579E-002
   4.1552161583315872E-003  -9.5355061387583095E-003   5.1860208753241377E-002
   4.7065700494814400E-003  -1.2761878695718654E-002   5.0042842352590267E-002
   5.2579239406313344E-003  -1.6624811500781322E-002   4.8079410086142693E-002
   5.8092778317812011E-003  -2.1124304553945095E-002   4.5969911953898990E-002
   3.3521311300091505E-003  -6.2778791610489382E-003   5.5304847502400944E-002
   3.7750919589112225E-003  -8.5460789540907078E-003   5.2951843144912969E-002
   4.1980527878133361E-003  -1.1389796891546400E-002   5.0488118528725867E-002
   4.6210136167154012E-003  -1.4809032973415348E-002   4.7913673653839278E-002
   5.0439744456174940E-003  -1.8803787199697997E-002   4.5228508520253285E-002
   3.0070625629127212E-003  -5.6100644921992515E-003   5.7369277180678968E-002
   3.3369759366639884E-003  -7.5566517694237723E-003   5.4395611104246178E-002
   3.6668893104152001E-003  -1.0017715087373924E-002   5.1346570376210654E-002
   3.9968026841664776E-003  -1.2993254446049762E-002   4.8222154996572952E-002
   4.3267160579176789E-003  -1.6483269845451121E-002   4.5022364965332962E-002
   2.5686565658924812E-003  -4.9422498233493428E-003   5.9724798322930248E-002
   2.8408680915898432E-003  -6.5672245847566146E-003   5.6191512631240476E-002
   3.1130796172872087E-003  -8.6456332832015592E-003   5.2618197895045099E-002
   3.3852911429846219E-003  -1.1177475918683871E-002   4.9004854114344298E-002
   3.6575026686819917E-003  -1.4162752491204134E-002   4.5351481289138185E-002
   2.0369131389483264E-003  -4.2744351544995451E-003   6.2371410929154991E-002
   2.2867684236887870E-003  -5.5777974000892350E-003   5.8339547725895780E-002
   2.5366237084292892E-003  -7.2735514790290556E-003   5.4303001085228175E-002
   2.7864789931697428E-003  -9.3616973913185006E-003   5.0261771007152595E-002
   3.0363342779102243E-003  -1.1842235136957147E-002   4.6215857491668455E-002
   2.5967939054782035E-002  -7.3382132637151432E-003   6.2584276605638867E-002
   2.4871678020651267E-002  -7.1804062368543420E-003   6.1421967760180718E-002
   2.3775416986520498E-002  -6.9960960070093864E-003   6.0786847857161735E-002
   2.2679155952389729E-002  -6.7852825741804394E-003   6.0678916896582072E-002
   2.1582894918258946E-002  -6.5479659383673172E-003   6.1098174878441325E-002
   1.8902598291472172E-002  -5.5036599477863990E-003   6.3497993390887353E-002
   1.8270245278803915E-002  -5.3853046776406177E-003   6.2677831260139732E-002
   1.7637892266135657E-002  -5.2470720052569531E-003   6.2258296229878191E-002
   1.7005539253467400E-002  -5.0889619306352038E-003   6.2239388300102491E-002
   1.6373186240799142E-002  -4.9109744537756406E-003   6.2621107470812565E-002
   1.2219494861238397E-002  -3.6691066318576548E-003   6.4375571319794198E-002
   1.1924488028079452E-002  -3.5902031184268934E-003   6.3890930103010918E-002
   1.1629481194920507E-002  -3.4980480035043601E-003   6.3680354144760365E-002
   1.1334474361761576E-002  -3.3926412870901087E-003   6.3743843445042456E-002
   1.1039467528602631E-002  -3.2739829691839917E-003   6.4081398003857468E-002
   5.9186287640806724E-003  -1.8345533159288968E-003   6.5217010392358915E-002
   5.8344062684778653E-003  -1.7951015592131969E-003   6.5061264288793802E-002
   5.7501837728750303E-003  -1.7490240017518748E-003   6.5053021601808203E-002
   5.6659612772722067E-003  -1.6963206435448878E-003   6.5192282331402188E-002
   5.5817387816693882E-003  -1.6369914845923567E-003   6.5479046477575645E-002
  -9.3675067702747583E-016  -1.6653345369377348E-016   6.6022310608581658E-002
  -8.3960616237277463E-016   5.2735593669694936E-016   6.6188833817488524E-002
  -7.5286998857393428E-016   7.2164496600635175E-016   6.6376298601021899E-002
  -6.6092964434716350E-016   2.2204460492503131E-016   6.6584704959181451E-002
  -5.6898930012039273E-016  -6.1062266354383610E-016   6.6814052891967346E-002
   2.1582894918258946E-002  -6.5479659383673172E-003   6.1098174878441325E-002
   2.0919696815067612E-002  -6.2956018619744203E-003   6.1201927077649598E-002
   2.0256498711876292E-002  -6.0396461074049973E-003   6.1414342673536154E-002
   1.9593300608684965E-002  -5.7800986746600787E-003   6.1735421666100923E-002
   1.8930102505493637E-002  -5.5169595637386548E-003   6.2165164055343725E-002
   1.6373186240799142E-002  -4.9109744537756406E-003   6.2621107470812565E-002
   1.5832935566565877E-002  -4.7217013964811344E-003   6.2618276385968327E-002
   1.5292684892332611E-002  -4.5297345805542233E-003   6.2752676762362153E-002
   1.4752434218099346E-002  -4.3350740059952542E-003   6.3024308599993750E-002
   1.4212183543866080E-002  -4.1377196728039634E-003   6.3433171898863383E-002
   1.1039467528602631E-002  -3.2739829691839917E-003   6.4081398003857468E-002
   1.0650732347887267E-002  -3.1478009309879873E-003   6.3971085715416695E-002
   1.0261997167171893E-002  -3.0198230537033868E-003   6.4026572952773669E-002
   9.8732619864565288E-003  -2.8900493373304834E-003   6.4247859715928515E-002
   9.4845268057411579E-003  -2.7584797818691609E-003   6.4634946004881177E-002
   5.5817387816693882E-003  -1.6369914845923567E-003   6.5479046477575645E-002
   5.3730871590317603E-003  -1.5739004654946598E-003   6.5260355065994563E-002
   5.1644355363941324E-003  -1.5099115268524151E-003   6.5236031244771148E-002
   4.9557839137565028E-003  -1.4450246686657413E-003   6.5406075013905315E-002
   4.7471322911188775E-003  -1.3792398909344139E-003   6.5770486373397358E-002
  -5.6898930012039273E-016  -6.1062266354383610E-016   6.6814052891967346E-002
  -6.2103100439969694E-016  -1.5543122344752192E-015   6.6486084437701987E-002
  -6.7307270867900115E-016  -1.7902346272080649E-015   6.6381051638354255E-002
  -7.2511441295830537E-016  -9.7491459349896559E-016   6.6498954493924081E-002
  -7.7715611723760958E-016   3.3306690738754696E-016   6.6839793004411230E-002
   1.8930102505493637E-002  -5.5169595637386548E-003   6.2165164055343725E-002
   1.8001167816305508E-002  -5.2469312103894938E-003   6.1805201425210732E-002
   1.7072233127117371E-002  -4.9667160503607810E-003   6.1666943307235239E-002
   1.6143298437929218E-002  -4.6763140836523151E-003   6.1750389701417635E-002
   1.5214363748741105E-002  -4.3757253102642002E-003   6.2055540607757198E-002
   1.4212183543866080E-002  -4.1377196728039634E-003   6.3433171898863383E-002
   1.3507585656870359E-002  -3.9351984077917734E-003   6.3075017238112679E-002
   1.2802987769874638E-002  -3.7250370377700237E-003   6.2943831669589084E-002
   1.2098389882878924E-002  -3.5072355627386240E-003   6.3039615193292944E-002
   1.1393791995883210E-002  -3.2817939826977338E-003   6.3362367809224052E-002
   9.4845268057411579E-003  -2.7584797818691609E-003   6.4634946004881177E-002
   9.0095303010076094E-003  -2.6234656051939143E-003   6.4276052611842577E-002
   8.5345337962740731E-003  -2.4833580251791693E-003   6.4149392891100804E-002
   8.0595372915405299E-003  -2.3381570418251583E-003   6.4254966842656136E-002
   7.5845407868069953E-003  -2.1878626551314340E-003   6.4592774466508657E-002
   4.7471322911188775E-003  -1.3792398909344139E-003   6.5770486373397358E-002
   4.5070017487172688E-003  -1.3117328025962077E-003   6.5408307546400396E-002
   4.2668712063156644E-003  -1.2416790125884744E-003   6.5283626971770425E-002
   4.0267406639140618E-003  -1.1690785209116355E-003   6.5396444649507099E-002
   3.7866101215124522E-003  -1.0939313275651619E-003   6.5746760579610736E-002
  -7.7715611723760958E-016   3.3306690738754696E-016   6.6839793004411230E-002
  -6.8001160258290838E-016   1.6653345369377348E-015   6.6471782041786220E-002
  -5.8633653488016080E-016   2.4147350785597155E-015   6.6346533911597810E-002
  -4.8919202022545960E-016   1.9359513991901167E-015   6.6464048613846000E-002
  -3.9551695252271202E-016   1.2212453270876722E-015   6.6824326148530622E-002
   1.5214363748741105E-002  -4.3757253102642002E-003   6.2055540607757198E-002
   1.4351287311444347E-002  -4.0662514967588215E-003   6.1956902595207641E-002
   1.3488210874147602E-002  -3.7491944096988139E-003   6.2076463465621845E-002
   1.2625134436850850E-002  -3.4245540490836848E-003   6.2414223219000059E-002
   1.1762057999554099E-002  -3.0923304149146347E-003   6.2970181855342089E-002
   1.1393791995883210E-002  -3.2817939826977338E-003   6.3362367809224052E-002
   1.0748306998140444E-002  -3.0496886225688802E-003   6.3281078261406609E-002
   1.0102822000397686E-002  -2.8118958072742006E-003   6.3416772709733338E-002
   9.4573370026549176E-003  -2.5684155368131539E-003   6.3769451154204113E-002
   8.8118520049121768E-003  -2.3192478111860315E-003   6.4339113594818809E-002
   7.5845407868069953E-003  -2.1878626551314340E-003   6.4592774466508657E-002
   7.1554323417984018E-003  -2.0331257483792997E-003   6.4526937565034859E-002
   6.7263238967898188E-003  -1.8745972048496290E-003   6.4676869772885351E-002
   6.2972154517812410E-003  -1.7122770245422865E-003   6.5042571090060092E-002
   5.8681070067726562E-003  -1.5461652074574284E-003   6.5624041516558984E-002
   3.7866101215124522E-003  -1.0939313275651619E-003   6.5746760579610736E-002
   3.5726633424182416E-003  -1.0165628741895943E-003   6.5694480506092154E-002
   3.3587165633240266E-003  -9.3729860242498103E-004   6.5856754655077773E-002
   3.1447697842298069E-003  -8.5613851227147632E-004   6.6233583026568094E-002
   2.9308230051355941E-003  -7.7308260372893622E-004   6.6824965620562712E-002
  -3.9551695252271202E-016   1.2212453270876722E-015   6.6824326148530622E-002
  -5.5511151231257827E-017   2.2204460492503131E-016   6.6783707084578481E-002
   2.8796409701214998E-016  -5.5511151231257827E-016   6.6956427356311021E-002
   6.2796989830360417E-016  -6.9388939039072284E-016   6.7342486963727938E-002
   9.7144514654701197E-016  -3.3306690738754696E-016   6.7941885906829702E-002
   1.1762057999554099E-002  -3.0923304149146347E-003   6.2970181855342089E-002
   1.0794211079967447E-002  -2.7652792007201721E-003   6.2933764733054953E-002
   9.8263641603807822E-003  -2.4561561000301935E-003   6.3120975344024333E-002
   8.8585172407941379E-003  -2.1649611128454066E-003   6.3531813688249977E-002
   7.8906703212074658E-003  -1.8916942391654645E-003   6.4166279765731971E-002
   8.8118520049121768E-003  -2.3192478111860315E-003   6.4339113594818809E-002
   8.0722163177419509E-003  -2.0739594005400042E-003   6.4298053868877603E-002
   7.3325806305717320E-003  -1.8421170750229227E-003   6.4489788874512760E-002
   6.5929449434015096E-003  -1.6237208346338884E-003   6.4914318611724767E-002
   5.8533092562313010E-003  -1.4187706793737931E-003   6.5571643080512942E-002
   5.8681070067726562E-003  -1.5461652074574284E-003   6.5624041516558984E-002
   5.3658495503390198E-003  -1.3826396003599750E-003   6.5582821215339829E-002
   4.8635920939053869E-003  -1.2280780500148747E-003   6.5783562644017191E-002
   4.3613346374717556E-003  -1.0824805564223702E-003   6.6226265802591222E-002
   3.8590771810381175E-003  -9.4584711958228818E-004   6.6910930691062021E-002
   2.9308230051355941E-003  -7.7308260372893622E-004   6.6824965620562712E-002
   2.6751107777586713E-003  -6.9131980018020955E-004   6.6788066772441784E-002
   2.4193985503817425E-003  -6.1403902500732632E-004   6.7002296652537374E-002
   2.1636863230048175E-003  -5.4124027821085205E-004   6.7467655260849788E-002
   1.9079740956278908E-003  -4.7292355979070000E-004   6.8184142597379163E-002
   9.7144514654701197E-016  -3.3306690738754696E-016   6.7941885906829702E-002
   8.8817841970012523E-016   1.1102230246251565E-016   6.7913790540183094E-002
   8.1185058675714572E-016   5.2735593669694936E-016   6.8145990900073117E-002
   7.3725747729014302E-016   6.3143934525555778E-016   6.8638486986500213E-002
   6.5225602696727947E-016   7.7715611723760958E-016   6.9391278799464162E-002
   7.8906703212074658E-003  -1.8916942391654645E-003   6.4166279765731971E-002
   6.9575840946730638E-003  -1.6822109584582745E-003   6.4073731347235041E-002
   6.0244978681386341E-003  -1.5823667501934646E-003   6.4234157997467567E-002
   5.0914116416042182E-003  -1.5921616143705214E-003   6.4647559716430464E-002
   4.1583254150698024E-003  -1.7115955509894309E-003   6.5313936504122982E-002
   5.8533092562313010E-003  -1.4187706793737931E-003   6.5571643080512942E-002
   5.1682722204026976E-003  -1.2616582188437198E-003   6.5421363585387915E-002
   4.4832351845740664E-003  -1.1867750626449736E-003   6.5514207402944807E-002
   3.7981981487454561E-003  -1.1941212107776100E-003   6.5850174533183273E-002
   3.1131611129168457E-003  -1.2836966632416846E-003   6.6429264976103519E-002
   3.8590771810381175E-003  -9.4584711958228818E-004   6.6910930691062021E-002
   3.4122375798671112E-003  -8.4110547922880419E-004   6.6730329887419892E-002
   2.9653979786961084E-003  -7.9118337509617720E-004   6.6783000640411178E-002
   2.5185583775251055E-003  -7.9608080718470559E-004   6.7068942950035945E-002
   2.0717187763540992E-003  -8.5579777549393832E-004   6.7588156816294404E-002
   1.9079740956278908E-003  -4.7292355979070000E-004   6.8184142597379163E-002
   1.6894801730663218E-003  -4.2055273961395800E-004   6.8000630253330058E-002
   1.4709862505047399E-003  -3.9559168754753349E-004   6.8040537709866289E-002
   1.2524923279431579E-003  -3.9804040359157564E-004   6.8303864966987912E-002
   1.0339984053815889E-003  -4.2789888774608098E-004   6.8790612024694803E-002
   6.5225602696727947E-016   7.7715611723760958E-016   6.9391278799464162E-002
   3.0531133177191805E-016   6.6613381477509392E-016   6.9232264683118827E-002
  -3.8163916471489756E-017   1.1102230246251565E-015   6.9286818611310808E-002
  -3.7816971776294395E-016   1.1102230246251565E-015   6.9554940584039882E-002
  -7.2858385991025898E-016   1.6653345369377348E-015   7.0036630601306049E-002
   4.1583254150698024E-003  -1.7115955509894309E-003   6.5313936504122982E-002
   3.6279723460394264E-003  -2.0024631308389051E-003   6.4402575181740418E-002
   3.0976192770090644E-003  -2.5265589247068510E-003   6.3608367145118028E-002
   2.5672662079786884E-003  -3.2838829325937610E-003   6.2931312394256339E-002
   2.0369131389483264E-003  -4.2744351544995451E-003   6.2371410929154991E-002
   3.1131611129168457E-003  -1.2836966632416846E-003   6.6429264976103519E-002
   2.7038200750213043E-003  -1.5018473481287486E-003   6.5321409677418785E-002
   2.2944790371257351E-003  -1.8949191935297427E-003   6.4338425155243267E-002
   1.8851379992301798E-003  -2.4629121994453745E-003   6.3480311409576426E-002
   1.4757969613346383E-003  -3.2058263658751862E-003   6.2747068440419440E-002
   2.0717187763540992E-003  -8.5579777549393832E-004   6.7588156816294404E-002
   1.7911072603420015E-003  -1.0012315654185644E-003   6.6342114594812263E-002
   1.5104957443299039E-003  -1.2632794623527593E-003   6.5228660640587674E-002
   1.2298842283178131E-003  -1.6419414662968805E-003   6.4247794953620957E-002
   9.4927271230570848E-004  -2.1372175772506607E-003   6.3399517533912070E-002
   1.0339984053815889E-003  -4.2789888774608098E-004   6.8790612024694803E-002
   8.8983390200157979E-004  -5.0061578270833851E-004   6.7464689933920061E-002
   7.4566939862156373E-004  -6.3163973117599109E-004   6.6279073601151178E-002
   6.0150489524155807E-004  -8.2097073314855128E-004   6.5233763026389141E-002
   4.5734039186153853E-004  -1.0686087886262186E-003   6.4328758209633380E-002
  -7.2858385991025898E-016   1.6653345369377348E-015   7.0036630601306049E-002
  -1.3877787807814457E-017   1.8318679906315083E-015   6.8689135694742443E-002
   7.1470607210244452E-016   1.3045120539345589E-015   6.7489664036934016E-002
   1.4346163146328195E-015   1.0408340855860843E-016   6.6438215627880687E-002
   2.1579960041151480E-015  -1.7763568394002505E-015   6.5534790467582260E-002
   2.0369131389483264E-003  -4.2744351544995451E-003   6.2371410929154991E-002
   2.2867684236887870E-003  -5.5777974000892350E-003   5.8339547725895780E-002
   2.5366237084292892E-003  -7.2735514790290556E-003   5.4303001085228175E-002
   2.7864789931697428E-003  -9.3616973913185006E-003   5.0261771007152595E-002
   3.0363342779102243E-003  -1.1842235136957147E-002   4.6215857491668455E-002
   1.4757969613346383E-003  -3.2058263658751862E-003   6.2747068440419440E-002
   1.7065237127224658E-003  -4.1833480500677589E-003   5.8392009215620155E-002
   1.9372504641103280E-003  -5.4551636092727840E-003   5.4003376361523969E-002
   2.1679772154981590E-003  -7.0212730434891513E-003   4.9581169878130771E-002
   2.3987039668860177E-003  -8.8816763527175269E-003   4.5125389765441115E-002
   9.4927271230570848E-004  -2.1372175772506607E-003   6.3399517533912070E-002
   1.1319807384524948E-003  -2.7888987000461718E-003   5.8819360245910557E-002
   1.3146887645992637E-003  -3.6367757395160821E-003   5.4176739136723231E-002
   1.4973967907460483E-003  -4.6808486956601385E-003   4.9471654206351003E-002
   1.6801048168928190E-003  -5.9211175684783512E-003   4.4704105454793086E-002
   4.5734039186153853E-004  -1.0686087886262186E-003   6.4328758209633380E-002
   5.6313950087881915E-004  -1.3944493500246402E-003   5.9621600816766623E-002
   6.6893860989610063E-004  -1.8183878697593733E-003   5.4823089410826434E-002
   7.7473771891338082E-004  -2.3404243478310684E-003   4.9933223991812388E-002
   8.8053682793066274E-004  -2.9605587842390646E-003   4.4952004559724895E-002
   2.1579960041151480E-015  -1.7763568394002505E-015   6.5534790467582260E-002
   1.4918621893400541E-015  -3.1086244689504383E-015   6.0798730928188660E-002
   8.3266726846886741E-016  -2.9420910152566648E-015   5.5942427183833354E-002
   1.7347234759768071E-016  -2.0122792321330962E-015   5.0965879234515510E-002
  -4.8572257327350599E-016   4.4408920985006262E-016   4.5869087080235182E-002
  -9.3675067702747583E-016  -1.6653345369377348E-016   6.6022310608581658E-002
  -8.3960616237277463E-016   5.2735593669694936E-016   6.6188833817488524E-002
  -7.5286998857393428E-016   7.2164496600635175E-016   6.6376298601021899E-002
  -6.6092964434716350E-016   2.2204460492503131E-016   6.6584704959181451E-002
  -5.6898930012039273E-016  -6.1062266354383610E-016   6.6814052891967346E-002
  -5.9186287640824731E-003   1.8345533159285776E-003   6.5217010392359831E-002
  -5.8344062684794924E-003   1.7951015592139186E-003   6.5061264288793996E-002
  -5.7501837728765083E-003   1.7490240017528913E-003   6.5053021601807620E-002
  -5.6659612772735242E-003   1.6963206435454542E-003   6.5192282331400633E-002
  -5.5817387816705366E-003   1.6369914845917877E-003   6.5479046477573216E-002
  -1.2219494861239957E-002   3.6691066318572940E-003   6.4375571319795655E-002
  -1.1924488028080923E-002   3.5902031184271987E-003   6.3890930103011057E-002
  -1.1629481194921878E-002   3.4980480035050887E-003   6.3680354144759241E-002
  -1.1334474361762848E-002   3.3926412870907141E-003   6.3743843445040110E-002
  -1.1039467528603811E-002   3.2739829691842692E-003   6.4081398003853471E-002
  -1.8902598291473352E-002   5.5036599477860382E-003   6.3497993390888782E-002
  -1.8270245278805115E-002   5.3853046776405483E-003   6.2677831260139982E-002
  -1.7637892266136865E-002   5.2470720052572722E-003   6.2258296229876886E-002
  -1.7005539253468625E-002   5.0889619306359879E-003   6.2239388300099688E-002
  -1.6373186240800374E-002   4.9109744537767924E-003   6.2621107470808124E-002
  -2.5967939054782702E-002   7.3382132637147546E-003   6.2584276605639533E-002
  -2.4871678020652079E-002   7.1804062368539257E-003   6.1421967760180496E-002
  -2.3775416986521462E-002   6.9960960070094419E-003   6.0786847857160459E-002
  -2.2679155952390853E-002   6.7852825741811611E-003   6.0678916896579352E-002
  -2.1582894918260237E-002   6.5479659383692046E-003   6.1098174878437217E-002
  -5.6898930012039273E-016  -6.1062266354383610E-016   6.6814052891967346E-002
  -6.2103100439969694E-016  -1.5543122344752192E-015   6.6486084437701987E-002
  -6.7307270867900115E-016  -1.7902346272080649E-015   6.6381051638354255E-002
  -7.2511441295830537E-016  -9.7491459349896559E-016   6.6498954493924081E-002
  -7.7715611723760958E-016   3.3306690738754696E-016   6.6839793004411230E-002
  -5.5817387816705366E-003   1.6369914845917877E-003   6.5479046477573216E-002
  -5.3730871590330024E-003   1.5739004654931887E-003   6.5260355065993314E-002
  -5.1644355363954682E-003   1.5099115268509405E-003   6.5236031244771092E-002
  -4.9557839137579322E-003   1.4450246686650188E-003   6.5406075013906551E-002
  -4.7471322911203997E-003   1.3792398909353576E-003   6.5770486373399717E-002
  -1.1039467528603811E-002   3.2739829691842692E-003   6.4081398003853471E-002
  -1.0650732347888501E-002   3.1478009309878763E-003   6.3971085715414586E-002
  -1.0261997167173197E-002   3.0198230537033452E-003   6.4026572952773586E-002
  -9.8732619864578871E-003   2.8900493373309032E-003   6.4247859715930444E-002
  -9.4845268057425769E-003   2.7584797818704376E-003   6.4634946004885202E-002
  -1.6373186240800374E-002   4.9109744537767924E-003   6.2621107470808124E-002
  -1.5832935566567109E-002   4.7217013964824528E-003   6.2618276385965871E-002
  -1.5292684892333853E-002   4.5297345805558852E-003   6.2752676762361681E-002
  -1.4752434218100602E-002   4.3350740059967313E-003   6.3024308599995485E-002
  -1.4212183543867348E-002   4.1377196728054899E-003   6.3433171898867380E-002
  -2.1582894918260237E-002   6.5479659383692046E-003   6.1098174878437217E-002
  -2.0919696815068840E-002   6.2956018619772514E-003   6.1201927077647211E-002
  -2.0256498711877451E-002   6.0396461074084667E-003   6.1414342673535433E-002
  -1.9593300608686054E-002   5.7800986746627502E-003   6.1735421666101867E-002
  -1.8930102505494664E-002   5.5169595637405422E-003   6.2165164055346611E-002
  -7.7715611723760958E-016   3.3306690738754696E-016   6.6839793004411230E-002
  -6.8001160258290838E-016   1.6653345369377348E-015   6.6471782041786220E-002
  -5.8633653488016080E-016   2.4147350785597155E-015   6.6346533911597810E-002
  -4.8919202022545960E-016   1.9359513991901167E-015   6.6464048613846000E-002
  -3.9551695252271202E-016   1.2212453270876722E-015   6.6824326148530622E-002
  -4.7471322911203997E-003   1.3792398909353576E-003   6.5770486373399717E-002
  -4.5070017487185907E-003   1.3117328025988306E-003   6.5408307546401645E-002
  -4.2668712063167920E-003   1.2416790125920063E-003   6.5283626971770564E-002
  -4.0267406639149950E-003   1.1690785209149471E-003   6.5396444649506100E-002
  -3.7866101215131912E-003   1.0939313275671880E-003   6.5746760579608710E-002
  -9.4845268057425769E-003   2.7584797818704376E-003   6.4634946004885202E-002
  -9.0095303010088203E-003   2.6234656051961069E-003   6.4276052611844436E-002
  -8.5345337962750602E-003   2.4833580251817228E-003   6.4149392891100943E-002
  -8.0595372915413105E-003   2.3381570418274621E-003   6.4254966842654582E-002
  -7.5845407868075521E-003   2.1878626551332103E-003   6.4592774466505021E-002
  -1.4212183543867348E-002   4.1377196728054899E-003   6.3433171898867380E-002
  -1.3507585656871371E-002   3.9351984077933277E-003   6.3075017238114595E-002
  -1.2802987769875408E-002   3.7250370377715156E-003   6.2943831669589195E-002
  -1.2098389882879442E-002   3.5072355627401141E-003   6.3039615193291126E-002
  -1.1393791995883482E-002   3.2817939826991493E-003   6.3362367809220277E-002
  -1.8930102505494664E-002   5.5169595637405422E-003   6.2165164055346611E-002
  -1.8001167816306240E-002   5.2469312103905208E-003   6.1805201425212009E-002
  -1.7072233127117815E-002   4.9667160503610586E-003   6.1666943307235017E-002
  -1.6143298437929384E-002   4.6763140836528008E-003   6.1750389701415637E-002
  -1.5214363748740967E-002   4.3757253102651994E-003   6.2055540607753756E-002
  -3.9551695252271202E-016   1.2212453270876722E-015   6.6824326148530622E-002
  -5.5511151231257827E-017   2.2204460492503131E-016   6.6783707084578481E-002
   2.8796409701214998E-016  -5.5511151231257827E-016   6.6956427356311021E-002
   6.2796989830360417E-016  -6.9388939039072284E-016   6.7342486963727938E-002
   9.7144514654701197E-016  -3.3306690738754696E-016   6.7941885906829702E-002
  -3.7866101215131912E-003   1.0939313275671880E-003   6.5746760579608710E-002
  -3.5726633424183127E-003   1.0165628741903854E-003   6.5694480506090891E-002
  -3.3587165633234325E-003   9.3729860242489083E-004   6.5856754655077371E-002
  -3.1447697842285488E-003   8.5613851227101662E-004   6.6233583026568316E-002
  -2.9308230051336738E-003   7.7308260372888071E-004   6.6824965620563559E-002
  -7.5845407868075521E-003   2.1878626551332103E-003   6.4592774466505021E-002
  -7.1554323417983645E-003   2.0331257483804377E-003   6.4526937565032666E-002
  -6.7263238967891874E-003   1.8745972048501147E-003   6.4676869772884449E-002
  -6.2972154517800119E-003   1.7122770245426716E-003   6.5042571090060397E-002
  -5.8681070067708365E-003   1.5461652074579280E-003   6.5624041516560455E-002
  -1.1393791995883482E-002   3.2817939826991493E-003   6.3362367809220277E-002
  -1.0748306998140228E-002   3.0496886225703790E-003   6.3281078261404361E-002
  -1.0102822000396984E-002   2.8118958072756162E-003   6.3416772709732352E-002
  -9.4573370026537380E-003   2.5684155368141878E-003   6.3769451154204293E-002
  -8.8118520049104924E-003   2.3192478111870030E-003   6.4339113594820363E-002
  -1.5214363748740967E-002   4.3757253102651994E-003   6.2055540607753756E-002
  -1.4351287311443885E-002   4.0662514967606533E-003   6.1956902595205532E-002
  -1.3488210874146818E-002   3.7491944097008678E-003   6.2076463465621123E-002
  -1.2625134436849730E-002   3.4245540490858914E-003   6.2414223219000337E-002
  -1.1762057999552662E-002   3.0923304149161890E-003   6.2970181855343199E-002
   9.7144514654701197E-016  -3.3306690738754696E-016   6.7941885906829702E-002
   8.8817841970012523E-016   1.1102230246251565E-016   6.7913790540183094E-002
   8.1185058675714572E-016   5.2735593669694936E-016   6.8145990900073117E-002
   7.3725747729014302E-016   6.3143934525555778E-016   6.8638486986500213E-002
   6.5225602696727947E-016   7.7715611723760958E-016   6.9391278799464162E-002
  -2.9308230051336738E-003   7.7308260372888071E-004   6.6824965620563559E-002
  -2.6751107777569123E-003   6.9131980018027894E-004   6.6788066772442256E-002
  -2.4193985503801526E-003   6.1403902500822838E-004   6.7002296652537652E-002
  -2.1636863230033946E-003   5.4124027821192411E-004   6.7467655260849857E-002
  -1.9079740956266314E-003   4.7292355979211553E-004   6.8184142597378761E-002
  -5.8681070067708365E-003   1.5461652074579280E-003   6.5624041516560455E-002
  -5.3658495503373597E-003   1.3826396003606134E-003   6.5582821215340814E-002
  -4.8635920939038967E-003   1.2280780500159433E-003   6.5783562644017982E-002
  -4.3613346374704268E-003   1.0824805564233313E-003   6.6226265802591694E-002
  -3.8590771810369569E-003   9.4584711958350942E-004   6.6910930691062104E-002
  -8.8118520049104924E-003   2.3192478111870030E-003   6.4339113594820363E-002
  -8.0722163177404521E-003   2.0739594005407536E-003   6.4298053868878685E-002
  -7.3325806305704101E-003   1.8421170750233182E-003   6.4489788874513593E-002
  -6.5929449434003647E-003   1.6237208346347367E-003   6.4914318611725141E-002
  -5.8533092562303279E-003   1.4187706793749311E-003   6.5571643080513012E-002
  -1.1762057999552662E-002   3.0923304149161890E-003   6.2970181855343199E-002
  -1.0794211079966191E-002   2.7652792007211713E-003   6.2933764733055897E-002
  -9.8263641603796997E-003   2.4561561000313870E-003   6.3120975344024943E-002
  -8.8585172407932150E-003   2.1649611128460380E-003   6.3531813688250394E-002
  -7.8906703212067372E-003   1.8916942391662417E-003   6.4166279765732082E-002
   6.5225602696727947E-016   7.7715611723760958E-016   6.9391278799464162E-002
   3.0531133177191805E-016   6.6613381477509392E-016   6.9232264683118827E-002
  -3.8163916471489756E-017   1.1102230246251565E-015   6.9286818611310808E-002
  -3.7816971776294395E-016   1.1102230246251565E-015   6.9554940584039882E-002
  -7.2858385991025898E-016   1.6653345369377348E-015   7.0036630601306049E-002
  -1.9079740956266314E-003   4.7292355979211553E-004   6.8184142597378761E-002
  -1.6894801730656800E-003   4.2055273961549844E-004   6.8000630253329919E-002
  -1.4709862505047269E-003   3.9559168754943475E-004   6.8040537709866733E-002
  -1.2524923279437659E-003   3.9804040359348036E-004   6.8303864966988787E-002
  -1.0339984053828223E-003   4.2789888774830143E-004   6.8790612024696440E-002
  -3.8590771810369569E-003   9.4584711958350942E-004   6.6910930691062104E-002
  -3.4122375798663800E-003   8.4110547923010870E-004   6.6730329887419781E-002
  -2.9653979786958100E-003   7.9118337509764824E-004   6.6783000640411538E-002
  -2.5185583775252434E-003   7.9608080718607255E-004   6.7068942950036722E-002
  -2.0717187763546630E-003   8.5579777549510405E-004   6.7588156816296180E-002
  -5.8533092562303279E-003   1.4187706793749311E-003   6.5571643080513012E-002
  -5.1682722204018285E-003   1.2616582188449965E-003   6.5421363585387929E-002
  -4.4832351845733075E-003   1.1867750626461948E-003   6.5514207402945057E-002
  -3.7981981487448012E-003   1.1941212107783872E-003   6.5850174533184286E-002
  -3.1131611129162876E-003   1.2836966632419899E-003   6.6429264976105601E-002
  -7.8906703212067372E-003   1.8916942391662417E-003   6.4166279765732082E-002
  -6.9575840946719883E-003   1.6822109584596068E-003   6.4073731347234708E-002
  -6.0244978681372151E-003   1.5823667501941030E-003   6.4234157997467511E-002
  -5.0914116416024436E-003   1.5921616143710141E-003   6.4647559716430852E-002
  -4.1583254150676929E-003   1.7115955509885428E-003   6.5313936504124315E-002
  -7.2858385991025898E-016   1.6653345369377348E-015   7.0036630601306049E-002
  -1.3877787807814457E-017   1.8318679906315083E-015   6.8689135694742443E-002
   7.1470607210244452E-016   1.3045120539345589E-015   6.7489664036934016E-002
   1.4346163146328195E-015   1.0408340855860843E-016   6.6438215627880687E-002
   2.1579960041151480E-015  -1.7763568394002505E-015   6.5534790467582260E-002
  -1.0339984053828223E-003   4.2789888774830143E-004   6.8790612024696440E-002
  -8.8983390200145923E-004   5.0061578271060059E-004   6.7464689933920408E-002
  -7.4566939862011350E-004   6.3163973117705274E-004   6.6279073601151067E-002
  -6.0150489523876343E-004   8.2097073314842811E-004   6.5233763026387490E-002
  -4.5734039185740469E-004   1.0686087886238038E-003   6.4328758209630577E-002
  -2.0717187763546630E-003   8.5579777549510405E-004   6.7588156816296180E-002
  -1.7911072603415158E-003   1.0012315654194526E-003   6.6342114594813234E-002
  -1.5104957443283747E-003   1.2632794623532589E-003   6.5228660640587591E-002
  -1.2298842283152271E-003   1.6419414662965336E-003   6.4247794953619375E-002
  -9.4927271230207250E-004   2.1372175772496060E-003   6.3399517533908711E-002
  -3.1131611129162876E-003   1.2836966632419899E-003   6.6429264976105601E-002
  -2.7038200750201949E-003   1.5018473481282629E-003   6.5321409677420506E-002
  -2.2944790371240741E-003   1.8949191935293472E-003   6.4338425155244086E-002
  -1.8851379992279641E-003   2.4629121994451924E-003   6.3480311409576232E-002
  -1.4757969613318610E-003   3.2058263658755193E-003   6.2747068440416873E-002
  -4.1583254150676929E-003   1.7115955509885428E-003   6.5313936504124315E-002
  -3.6279723460374558E-003   2.0024631308370733E-003   6.4402575181742416E-002
  -3.0976192770072082E-003   2.5265589247052966E-003   6.3608367145120137E-002
  -2.5672662079769641E-003   3.2838829325930394E-003   6.2931312394257616E-002
  -2.0369131389467235E-003   4.2744351545008774E-003   6.2371410929154547E-002
   2.1579960041151480E-015  -1.7763568394002505E-015   6.5534790467582260E-002
   1.4918621893400541E-015  -3.1086244689504383E-015   6.0798730928188660E-002
   8.3266726846886741E-016  -2.9420910152566648E-015   5.5942427183833354E-002
   1.7347234759768071E-016  -2.0122792321330962E-015   5.0965879234515510E-002
  -4.8572257327350599E-016   4.4408920985006262E-016   4.5869087080235182E-002
  -4.5734039185740469E-004   1.0686087886238038E-003   6.4328758209630577E-002
  -5.6313950087596293E-004   1.3944493500209210E-003   5.9621600816766041E-002
  -6.6893860989451250E-004   1.8183878697553557E-003   5.4823089410827308E-002
  -7.7473771891306380E-004   2.3404243478273440E-003   4.9933223991815157E-002
  -8.8053682793162030E-004   2.9605587842376213E-003   4.4952004559729808E-002
  -9.4927271230207250E-004   2.1372175772496060E-003   6.3399517533908711E-002
  -1.1319807384499916E-003   2.7888987000446175E-003   5.8819360245909086E-002
  -1.3146887645979106E-003   3.6367757395135702E-003   5.4176739136724078E-002
  -1.4973967907458020E-003   4.6808486956569847E-003   4.9471654206354673E-002
  -1.6801048168937210E-003   5.9211175684745765E-003   4.4704105454799303E-002
  -1.4757969613318610E-003   3.2058263658755193E-003   6.2747068440416873E-002
  -1.7065237127205902E-003   4.1833480500684805E-003   5.8392009215618476E-002
  -1.9372504641093262E-003   5.4551636092720485E-003   5.4003376361524282E-002
  -2.1679772154980623E-003   7.0212730434862612E-003   4.9581169878132714E-002
  -2.3987039668867914E-003   8.8816763527117537E-003   4.5125389765445695E-002
  -2.0369131389467235E-003   4.2744351545008774E-003   6.2371410929154547E-002
  -2.2867684236877739E-003   5.5777974000923436E-003   5.8339547725894780E-002
  -2.5366237084288000E-003   7.2735514790301659E-003   5.4303001085226843E-002
  -2.7864789931698504E-003   9.3616973913160026E-003   5.0261771007150818E-002
  -3.0363342779108765E-003   1.1842235136948709E-002   4.6215857491667123E-002
  -2.5967939054782702E-002   7.3382132637147546E-003   6.2584276605639533E-002
  -2.4871678020652079E-002   7.1804062368539257E-003   6.1421967760180496E-002
  -2.3775416986521462E-002   6.9960960070094419E-003   6.0786847857160459E-002
  -2.2679155952390853E-002   6.7852825741811611E-003   6.0678916896579352E-002
  -2.1582894918260237E-002   6.5479659383692046E-003   6.1098174878437217E-002
  -3.2965179191541426E-002   9.2290046306529594E-003   5.9403445571834718E-002
  -3.1427933456499899E-002   9.0164050500191606E-003   5.8645042682305526E-002
  -2.9890687721458396E-002   8.7736518949306230E-003   5.8241420252159296E-002
  -2.8353441986416886E-002   8.5007451653875063E-003   5.8192578281395936E-002
  -2.6816196251375338E-002   8.1976848613896647E-003   5.8498516770015441E-002
  -3.9443980742122971E-002   1.1119795997591220E-002   5.6169647169992107E-002
  -3.7638158789226647E-002   1.0852403863184382E-002   5.5811499864922121E-002
  -3.5832336836330331E-002   1.0551207782851894E-002   5.5635724536178773E-002
  -3.4026514883434021E-002   1.0216207756593798E-002   5.5642321183762181E-002
  -3.2220692930537718E-002   9.8474037844100970E-003   5.5831289807672407E-002
  -4.5404343706527357E-002   1.3010587364529438E-002   5.2882881400112311E-002
  -4.3502354018832241E-002   1.2688402676349582E-002   5.2921339308030189E-002
  -4.1600364331137292E-002   1.2328763670773148E-002   5.2969760709218751E-002
  -3.9698374643442280E-002   1.1931670347800172E-002   5.3028145603677967E-002
  -3.7796384955747254E-002   1.1497122707430515E-002   5.3096493991407839E-002
  -5.0846268084754453E-002   1.4901378731467685E-002   4.9543148262194747E-002
  -4.9020519145316882E-002   1.4524401489514782E-002   4.9974561011629837E-002
  -4.7194770205879255E-002   1.4106319558694388E-002   5.0243528771279272E-002
  -4.5369021266441656E-002   1.3647132939006348E-002   5.0350051541143429E-002
  -4.3543272327004057E-002   1.3146841630450934E-002   5.0294129321221959E-002
  -2.1582894918260237E-002   6.5479659383692046E-003   6.1098174878437217E-002
  -2.0919696815068840E-002   6.2956018619772514E-003   6.1201927077647211E-002
  -2.0256498711877451E-002   6.0396461074084667E-003   6.1414342673535433E-002
  -1.9593300608686054E-002   5.7800986746627502E-003   6.1735421666101867E-002
  -1.8930102505494664E-002   5.5169595637405422E-003   6.2165164055346611E-002
  -2.6816196251375338E-002   8.1976848613896647E-003   5.8498516770015441E-002
  -2.6024035524093631E-002   7.8798741845856196E-003   5.8449903425923197E-002
  -2.5231874796811875E-002   7.5627163366241562E-003   5.8550551933333472E-002
  -2.4439714069530126E-002   7.2462113175049171E-003   5.8800462292246114E-002
  -2.3647553342248381E-002   6.9303591272281695E-003   5.9199634502661386E-002
  -3.2220692930537718E-002   9.8474037844100970E-003   5.5831289807672407E-002
  -3.1258971124341381E-002   9.4641465071942654E-003   5.5634555427296978E-002
  -3.0297249318145047E-002   9.0857865658400191E-003   5.5627681353248255E-002
  -2.9335527511948734E-002   8.7123239603470858E-003   5.5810667585526330E-002
  -2.8373805705752406E-002   8.3437586907157413E-003   5.6183514124130918E-002
  -3.7796384955747254E-002   1.1497122707430515E-002   5.3096493991407839E-002
  -3.6624503615812126E-002   1.1048418829802883E-002   5.2755883081768401E-002
  -3.5452622275876949E-002   1.0608856795055795E-002   5.2645730933279844E-002
  -3.4280740935941786E-002   1.0178436603189144E-002   5.2766037545942307E-002
  -3.3108859596006644E-002   9.7571582542032576E-003   5.3116802919755728E-002
  -4.3543272327004057E-002   1.3146841630450934E-002   5.0294129321221959E-002
  -4.2120632998505825E-002   1.2632691152411307E-002   4.9813886389337592E-002
  -4.0697993670007607E-002   1.2131927024271585E-002   4.9604700673428259E-002
  -3.9275354341509389E-002   1.1644549246031314E-002   4.9666572173494170E-002
  -3.7852715013011171E-002   1.1170557817690885E-002   4.9999500889535253E-002
  -1.8930102505494664E-002   5.5169595637405422E-003   6.2165164055346611E-002
  -1.8001167816306240E-002   5.2469312103905208E-003   6.1805201425212009E-002
  -1.7072233127117815E-002   4.9667160503610586E-003   6.1666943307235017E-002
  -1.6143298437929384E-002   4.6763140836528008E-003   6.1750389701415637E-002
  -1.5214363748740967E-002   4.3757253102651994E-003   6.2055540607753756E-002
  -2.3647553342248381E-002   6.9303591272281695E-003   5.9199634502661386E-002
  -2.2499776330726529E-002   6.6069894099751447E-003   5.8815070811215286E-002
  -2.1351999319204638E-002   6.2679318099266856E-003   5.8646487252278487E-002
  -2.0204222307682752E-002   5.9131863270834861E-003   5.8693883825850966E-002
  -1.9056445296160882E-002   5.5427529614450188E-003   5.8957260531933009E-002
  -2.8373805705752406E-002   8.3437586907157413E-003   5.6183514124130918E-002
  -2.7012910751545292E-002   7.9670476095596160E-003   5.5768848295257509E-002
  -2.5652015797338203E-002   7.5691475694922988E-003   5.5564438219245019E-002
  -2.4291120843131116E-002   7.1500585705141124E-003   5.5570283896093690E-002
  -2.2930225888924027E-002   6.7097806126248383E-003   5.5786385325803406E-002
  -3.3108859596006644E-002   9.7571582542032576E-003   5.3116802919755728E-002
  -3.1540571078762611E-002   9.3271058091441081E-003   5.2666533877338717E-002
  -2.9972282561518560E-002   8.8703633290579190E-003   5.2420796208134723E-002
  -2.8403994044274489E-002   8.3869308139447128E-003   5.2379589912143303E-002
  -2.6835705527030480E-002   7.8768082638046577E-003   5.2542914989364926E-002
  -3.7852715013011171E-002   1.1170557817690885E-002   4.9999500889535253E-002
  -3.6082757312378408E-002   1.0687164008728739E-002   4.9508127557458814E-002
  -3.4312799611745652E-002   1.0171579088623511E-002   4.9215561218947323E-002
  -3.2542841911112896E-002   9.6238030573753894E-003   4.9121801874000059E-002
  -3.0772884210480134E-002   9.0438359149844216E-003   4.9226849522617633E-002
  -1.5214363748740967E-002   4.3757253102651994E-003   6.2055540607753756E-002
  -1.4351287311443885E-002   4.0662514967606533E-003   6.1956902595205532E-002
  -1.3488210874146818E-002   3.7491944097008678E-003   6.2076463465621123E-002
  -1.2625134436849730E-002   3.4245540490858914E-003   6.2414223219000337E-002
  -1.1762057999552662E-002   3.0923304149161890E-003   6.2970181855343199E-002
  -1.9056445296160882E-002   5.5427529614450188E-003   5.8957260531933009E-002
  -1.7981522650300556E-002   5.1620546980649662E-003   5.8814358206519424E-002
  -1.6906600004440185E-002   4.7765145219964555E-003   5.8876949415268637E-002
  -1.5831677358579828E-002   4.3861324332397922E-003   5.9145034158180648E-002
  -1.4756754712719485E-002   3.9909084317947263E-003   5.9618612435255514E-002
  -2.2930225888924027E-002   6.7097806126248383E-003   5.5786385325803406E-002
  -2.1656162383301314E-002   6.2578578993691680E-003   5.5601960048391241E-002
  -2.0382098877678591E-002   5.8038346342921682E-003   5.5610322956340941E-002
  -1.9108035372055892E-002   5.3477108173936409E-003   5.5811474049652456E-002
  -1.7833971866433155E-002   4.8894864486734857E-003   5.6205413328326237E-002
  -2.6835705527030480E-002   7.8768082638046577E-003   5.2542914989364926E-002
  -2.5375206510446273E-002   7.3536611006736474E-003   5.2319708120820901E-002
  -2.3914707493862052E-002   6.8311547465878739E-003   5.2276584088837841E-002
  -2.2454208477277811E-002   6.3092892015474602E-003   5.2413542893415925E-002
  -2.0993709460693628E-002   5.7880644655521341E-003   5.2730584534554988E-002
  -3.0772884210480134E-002   9.0438359149844216E-003   4.9226849522617633E-002
  -2.9138655031735322E-002   8.4494643019777382E-003   4.8967602423808487E-002
  -2.7504425852990538E-002   7.8584748588833714E-003   4.8875732812759504E-002
  -2.5870196674245713E-002   7.2708675857014217E-003   4.8951240689470779E-002
  -2.4235967495500943E-002   6.6866424824308934E-003   4.9194126053942244E-002
  -1.1762057999552662E-002   3.0923304149161890E-003   6.2970181855343199E-002
  -1.0794211079966191E-002   2.7652792007211713E-003   6.2933764733055897E-002
  -9.8263641603796997E-003   2.4561561000313870E-003   6.3120975344024943E-002
  -8.8585172407932150E-003   2.1649611128460380E-003   6.3531813688250394E-002
  -7.8906703212067372E-003   1.8916942391662417E-003   6.4166279765732082E-002
  -1.4756754712719485E-002   3.9909084317947263E-003   5.9618612435255514E-002
  -1.3569440727583017E-002   3.5986011813498031E-003   5.9509815968811663E-002
  -1.2382126742446504E-002   3.2169693455931514E-003   5.9616325900211514E-002
  -1.1194812757310020E-002   2.8460129245244173E-003   5.9938142229454802E-002
  -1.0007498772173492E-002   2.4857319181441628E-003   6.0475264956541985E-002
  -1.7833971866433155E-002   4.8894864486734857E-003   5.6205413328326237E-002
  -1.6435512151159348E-002   4.4319231619784072E-003   5.6016984818908822E-002
  -1.5037052435885595E-002   3.9777825911547909E-003   5.6035541371922584E-002
  -1.3638592720611825E-002   3.5270647362025710E-003   5.6261082987367268E-002
  -1.2240133005338034E-002   3.0797695971218619E-003   5.6693609665242589E-002
  -2.0993709460693628E-002   5.7880644655521341E-003   5.2730584534554988E-002
  -1.9392425350695283E-002   5.2652451426069141E-003   5.2455271283347878E-002
  -1.7791141240696907E-002   4.7385958367165484E-003   5.2378621759158681E-002
  -1.6189857130698562E-002   4.2081165478807265E-003   5.2500635961987764E-002
  -1.4588573020700189E-002   3.6738072760997831E-003   5.2821313891835177E-002
  -2.4235967495500943E-002   6.6866424824308934E-003   4.9194126053942244E-002
  -2.2440180326190717E-002   6.0985671232356986E-003   4.8824675362128034E-002
  -2.0644393156880533E-002   5.4994090822782782E-003   4.8645567061919470E-002
  -1.8848605987570315E-002   4.8891683595587918E-003   4.8656801153316193E-002
  -1.7052818818260124E-002   4.2678449550774822E-003   4.8858377636318728E-002
  -7.8906703212067372E-003   1.8916942391662417E-003   6.4166279765732082E-002
  -6.9575840946719883E-003   1.6822109584596068E-003   6.4073731347234708E-002
  -6.0244978681372151E-003   1.5823667501941030E-003   6.4234157997467511E-002
  -5.0914116416024436E-003   1.5921616143710141E-003   6.4647559716430852E-002
  -4.1583254150676929E-003   1.7115955509885428E-003   6.5313936504124315E-002
  -1.0007498772173492E-002   2.4857319181441628E-003   6.0475264956541985E-002
  -8.8217428857390277E-003   2.1867155601592025E-003   6.0377351824288050E-002
  -7.6359869993044751E-003   1.9995530842770726E-003   6.0531802943103424E-002
  -6.4502311128699545E-003   1.9242444904976480E-003   6.0938618312987788E-002
  -5.2644752264354271E-003   1.9607897788207485E-003   6.1597797933941378E-002
  -1.2240133005338034E-002   3.0797695971218619E-003   5.6693609665242589E-002
  -1.0802318276665045E-002   2.6912201618589926E-003   5.6592546628894042E-002
  -9.3645035479920577E-003   2.4167394183598062E-003   5.6743237025952922E-002
  -7.9266888193190669E-003   2.2563273666246116E-003   5.7145680856419877E-002
  -6.4888740906460796E-003   2.2099840066531762E-003   5.7799878120294385E-002
  -1.4588573020700189E-002   3.6738072760997831E-003   5.2821313891835177E-002
  -1.2899310267450077E-002   3.1957247635586855E-003   5.2719315761052404E-002
  -1.1210047514199925E-002   2.8339257524426578E-003   5.2868460246016089E-002
  -9.5207847609498058E-003   2.5884102427513548E-003   5.3268747346726451E-002
  -7.8315220076996608E-003   2.4591782344854374E-003   5.3920177063183146E-002
  -1.7052818818260124E-002   4.2678449550774822E-003   4.8858377636318728E-002
  -1.5112718858094148E-002   3.7002293652583229E-003   4.8757659220763028E-002
  -1.3172618897928118E-002   3.2511120865254539E-003   4.8907472603292867E-002
  -1.1232518937762108E-002   2.9204931188782507E-003   4.9307817783907665E-002
  -9.2924189775961119E-003   2.7083724623176986E-003   4.9958694762607836E-002
  -4.1583254150676929E-003   1.7115955509885428E-003   6.5313936504124315E-002
  -3.6279723460374558E-003   2.0024631308370733E-003   6.4402575181742416E-002
  -3.0976192770072082E-003   2.5265589247052966E-003   6.3608367145120137E-002
  -2.5672662079769641E-003   3.2838829325930394E-003   6.2931312394257616E-002
  -2.0369131389467235E-003   4.2744351545008774E-003   6.2371410929154547E-002
  -5.2644752264354271E-003   1.9607897788207485E-003   6.1597797933941378E-002
  -4.5905205612995388E-003   2.2164852036348770E-003   6.0874473171511734E-002
  -3.9165658961636245E-003   2.7986270193280927E-003   6.0321198315533509E-002
  -3.2426112310277215E-003   3.7072152258997293E-003   5.9937973366007202E-002
  -2.5686565658918289E-003   4.9422498233508971E-003   5.9724798322932093E-002
  -6.4888740906460796E-003   2.2099840066531762E-003   5.7799878120294385E-002
  -5.6184212087126151E-003   2.4305072764327917E-003   5.7357808094676249E-002
  -4.7479683267792044E-003   3.0706951139506805E-003   5.7138684596201708E-002
  -3.8775154448457859E-003   4.1305475192066447E-003   5.7142507624870532E-002
  -3.0070625629123569E-003   5.6100644922007503E-003   5.7369277180682993E-002
  -7.8315220076996608E-003   2.4591782344854374E-003   5.3920177063183146E-002
  -6.7116742882767852E-003   2.6445293492306510E-003   5.3852579951235865E-002
  -5.5918265688539234E-003   3.3427632085732614E-003   5.4060825987123806E-002
  -4.4719788494310400E-003   4.5538798125132254E-003   5.4544915170847579E-002
  -3.3521311300081852E-003   6.2778791610505758E-003   5.5304847502406225E-002
  -9.2924189775961119E-003   2.7083724623176986E-003   4.9958694762607836E-002
  -7.8702797999919416E-003   2.8585514220283992E-003   5.0358788741190819E-002
  -6.4481406223877713E-003   3.6148313031961199E-003   5.1087622488300788E-002
  -5.0260014447836149E-003   4.9772121058198199E-003   5.2145196003938077E-002
  -3.6038622671794307E-003   6.9456938299005122E-003   5.3531509288102685E-002
  -2.0369131389467235E-003   4.2744351545008774E-003   6.2371410929154547E-002
  -2.2867684236877739E-003   5.5777974000923436E-003   5.8339547725894780E-002
  -2.5366237084288000E-003   7.2735514790301659E-003   5.4303001085226843E-002
  -2.7864789931698504E-003   9.3616973913160026E-003   5.0261771007150818E-002
  -3.0363342779108765E-003   1.1842235136948709E-002   4.6215857491667123E-002
  -2.5686565658918289E-003   4.9422498233508971E-003   5.9724798322932093E-002
  -2.8408680915895101E-003   6.5672245847592237E-003   5.6191512631239948E-002
  -3.1130796172871792E-003   8.6456332832035021E-003   5.2618197895042851E-002
  -3.3852911429848422E-003   1.1177475918684079E-002   4.9004854114339802E-002
  -3.6575026686825052E-003   1.4162752491200470E-002   4.5351481289132245E-002
  -3.0070625629123569E-003   5.6100644922007503E-003   5.7369277180682993E-002
  -3.3369759366638739E-003   7.5566517694265478E-003   5.4395611104247066E-002
  -3.6668893104153614E-003   1.0017715087376852E-002   5.1346570376208892E-002
  -3.9968026841668532E-003   1.2993254446052049E-002   4.8222154996568352E-002
  -4.3267160579183693E-003   1.6483269845452009E-002   4.5022364965325079E-002
  -3.3521311300081852E-003   6.2778791610505758E-003   5.5304847502406225E-002
  -3.7750919589106934E-003   8.5460789540938720E-003   5.2951843144915620E-002
  -4.1980527878132442E-003   1.1389796891550195E-002   5.0488118528725340E-002
  -4.6210136167157889E-003   1.4809032973420294E-002   4.7913673653835635E-002
  -5.0439744456183050E-003   1.8803787199703659E-002   4.5228508520246236E-002
  -3.6038622671794307E-003   6.9456938299005122E-003   5.3531509288102685E-002
  -4.1552161583302133E-003   9.5355061387611961E-003   5.1860208753245929E-002
  -4.7065700494809543E-003   1.2761878695723566E-002   5.0042842352592432E-002
  -5.2579239406317715E-003   1.6624811500788046E-002   4.8079410086142499E-002
  -5.8092778317824778E-003   2.1124304553955309E-002   4.5969911953894993E-002
  -5.0846268084754453E-002   1.4901378731467685E-002   4.9543148262194747E-002
  -4.9020519145316882E-002   1.4524401489514782E-002   4.9974561011629837E-002
  -4.7194770205879255E-002   1.4106319558694388E-002   5.0243528771279272E-002
  -4.5369021266441656E-002   1.3647132939006348E-002   5.0350051541143429E-002
  -4.3543272327004057E-002   1.3146841630450934E-002   5.0294129321221959E-002
  -5.6255383294893130E-002   1.6838650449974901E-002   4.4572642029869214E-002
  -5.4510303402017457E-002   1.6358669268613762E-002   4.4601729745841479E-002
  -5.2765223509141645E-002   1.5857231322747647E-002   4.4631924358475183E-002
  -5.1020143616265938E-002   1.5334336612376712E-002   4.4663225867770759E-002
  -4.9275063723390237E-002   1.4789985137500961E-002   4.4695634273727969E-002
  -6.2117318755032069E-002   1.8775922168482173E-002   3.9489307895954132E-002
  -6.0289356022271062E-002   1.8192937047712687E-002   3.9135718502826100E-002
  -5.8461393289510041E-002   1.7608143086800941E-002   3.8946787892806915E-002
  -5.6633430556749020E-002   1.7021540285747053E-002   3.8922516065896584E-002
  -5.4805467823987986E-002   1.6433128644550959E-002   3.9062903022095183E-002
  -6.8432074465171175E-002   2.0713193886989403E-002   3.4293145860449140E-002
  -6.6357677006077753E-002   2.0027204826811584E-002   3.3576527282583771E-002
  -6.4283279546984234E-002   1.9359054850854190E-002   3.3188119374274148E-002
  -6.2208882087890806E-002   1.8708743959117403E-002   3.3127922135520613E-002
  -6.0134484628797315E-002   1.8076272151601000E-002   3.3395935566323212E-002
  -7.5199650425310571E-002   2.2650465605496661E-002   2.8984155923354737E-002
  -7.2715266353437502E-002   2.1861472605910537E-002   2.7924156085114449E-002
  -7.0230882281564461E-002   2.1109966614907452E-002   2.7355918802877272E-002
  -6.7746498209691308E-002   2.0395947632487716E-002   2.7279444076643358E-002
  -6.5262114137818267E-002   1.9719415658650985E-002   2.7694731906412473E-002
  -4.3543272327004057E-002   1.3146841630450934E-002   5.0294129321221959E-002
  -4.2120632998505825E-002   1.2632691152411307E-002   4.9813886389337592E-002
  -4.0697993670007607E-002   1.2131927024271585E-002   4.9604700673428259E-002
  -3.9275354341509389E-002   1.1644549246031314E-002   4.9666572173494170E-002
  -3.7852715013011171E-002   1.1170557817690885E-002   4.9999500889535253E-002
  -4.9275063723390237E-002   1.4789985137500961E-002   4.4695634273727969E-002
  -4.7606094902314461E-002   1.4236019153005985E-002   4.4399857961817446E-002
  -4.5937126081238691E-002   1.3684280913777672E-002   4.4325683419086839E-002
  -4.4268157260162914E-002   1.3134770419815731E-002   4.4473110645536058E-002
  -4.2599188439087186E-002   1.2587487671120445E-002   4.4842139641165374E-002
  -5.4805467823987986E-002   1.6433128644550959E-002   3.9062903022095183E-002
  -5.2939624957129915E-002   1.5839347153600483E-002   3.8940434725525372E-002
  -5.1073782090271830E-002   1.5236634803283529E-002   3.8990112751340268E-002
  -4.9207939223413759E-002   1.4624991593600091E-002   3.9211937099539754E-002
  -4.7342096356555674E-002   1.4004417524550034E-002   3.9605907770123988E-002
  -6.0134484628797315E-002   1.8076272151601000E-002   3.3395935566323212E-002
  -5.8121223162952221E-002   1.7442675154194988E-002   3.3435616680461175E-002
  -5.6107961697107134E-002   1.6788988692789473E-002   3.3597988670188692E-002
  -5.4094700231262005E-002   1.6115212767384424E-002   3.3883051535505464E-002
  -5.2081438765416960E-002   1.5421347377979663E-002   3.4290805276411589E-002
  -6.5262114137818267E-002   1.9719415658650985E-002   2.7694731906412473E-002
  -6.3150889519781414E-002   1.9046003154789604E-002   2.7885403826624994E-002
  -6.1039664901744478E-002   1.8341342582295389E-002   2.8149311175631797E-002
  -5.8928440283707584E-002   1.7605433941168765E-002   2.8486453953432578E-002
  -5.6817215665670717E-002   1.6838277231409182E-002   2.8896832160027697E-002
  -3.7852715013011171E-002   1.1170557817690885E-002   4.9999500889535253E-002
  -3.6082757312378408E-002   1.0687164008728739E-002   4.9508127557458814E-002
  -3.4312799611745652E-002   1.0171579088623511E-002   4.9215561218947323E-002
  -3.2542841911112896E-002   9.6238030573753894E-003   4.9121801874000059E-002
  -3.0772884210480134E-002   9.0438359149844216E-003   4.9226849522617633E-002
  -4.2599188439087186E-002   1.2587487671120445E-002   4.4842139641165374E-002
  -4.0630489557839079E-002   1.2032878349611364E-002   4.4329730003728668E-002
  -3.8661790676590979E-002   1.1461388137208317E-002   4.4015995733958049E-002
  -3.6693091795342879E-002   1.0873017033911331E-002   4.3900936831853470E-002
  -3.4724392914094779E-002   1.0267765039720211E-002   4.3984553297415074E-002
  -4.7342096356555674E-002   1.4004417524550034E-002   3.9605907770123988E-002
  -4.5174787920590792E-002   1.3378592690494143E-002   3.9087772047575881E-002
  -4.3007479484625910E-002   1.2751197185793248E-002   3.8768180066795332E-002
  -4.0840171048661014E-002   1.2122231010447165E-002   3.8647131827782379E-002
  -3.8672862612696202E-002   1.1491694164456029E-002   3.8724627330536956E-002
  -5.2081438765416960E-002   1.5421347377979663E-002   3.4290805276411589E-002
  -4.9715652400633720E-002   1.4724307031376983E-002   3.3782253689000938E-002
  -4.7349866035850549E-002   1.4041006234378116E-002   3.3472114217459298E-002
  -4.4984079671067351E-002   1.3371444986983108E-002   3.3360386861786689E-002
  -4.2618293306284138E-002   1.2715623289191832E-002   3.3447071621983127E-002
  -5.6817215665670717E-002   1.6838277231409182E-002   2.8896832160027697E-002
  -5.4253082997967744E-002   1.6070021372259602E-002   2.8413174928003437E-002
  -5.1688950330264785E-002   1.5330815282962845E-002   2.8127798185949709E-002
  -4.9124817662561805E-002   1.4620658963518933E-002   2.8040701933866527E-002
  -4.6560684994858853E-002   1.3939552413927636E-002   2.8151886171753793E-002
  -3.0772884210480134E-002   9.0438359149844216E-003   4.9226849522617633E-002
  -2.9138655031735322E-002   8.4494643019777382E-003   4.8967602423808487E-002
  -2.7504425852990538E-002   7.8584748588833714E-003   4.8875732812759504E-002
  -2.5870196674245713E-002   7.2708675857014217E-003   4.8951240689470779E-002
  -2.4235967495500943E-002   6.6866424824308934E-003   4.9194126053942244E-002
  -3.4724392914094779E-002   1.0267765039720211E-002   4.3984553297415074E-002
  -3.2927596137257889E-002   9.6509799760542969E-003   4.3722133774879490E-002
  -3.1130799360420923E-002   9.0280096643323565E-003   4.3617471960767901E-002
  -2.9334002583583981E-002   8.3988541045550667E-003   4.3670567855080417E-002
  -2.7537205806747081E-002   7.7635132967215359E-003   4.3881421457817205E-002
  -3.8672862612696202E-002   1.1491694164456029E-002   3.8724627330536956E-002
  -3.6723118017103110E-002   1.0852495650130495E-002   3.8449467966306952E-002
  -3.4773373421510073E-002   1.0197544469781446E-002   3.8322446531164990E-002
  -3.2823628825917037E-002   9.5268406234088211E-003   3.8343563025111133E-002
  -3.0873884230323952E-002   8.8403841110123449E-003   3.8512817448145387E-002
  -4.2618293306284138E-002   1.2715623289191832E-002   3.3447071621983127E-002
  -4.0525220671271123E-002   1.2054011324206707E-002   3.3149604998090915E-002
  -3.8432148036257975E-002   1.1367079275230261E-002   3.2990656523950772E-002
  -3.6339075401244911E-002   1.0654827142262409E-002   3.2970226199562601E-002
  -3.4246002766231812E-002   9.9172549253031816E-003   3.3088314024926645E-002
  -4.6560684994858853E-002   1.3939552413927636E-002   2.8151886171753793E-002
  -4.4333904099761734E-002   1.3255526998283140E-002   2.7822544870231503E-002
  -4.2107123204664629E-002   1.2536614080679354E-002   2.7622101939125343E-002
  -3.9880342309567503E-002   1.1782813661116429E-002   2.7550557378435231E-002
  -3.7653561414470405E-002   1.0994125739593796E-002   2.7607911188160861E-002
  -2.4235967495500943E-002   6.6866424824308934E-003   4.9194126053942244E-002
  -2.2440180326190717E-002   6.0985671232356986E-003   4.8824675362128034E-002
  -2.0644393156880533E-002   5.4994090822782782E-003   4.8645567061919470E-002
  -1.8848605987570315E-002   4.8891683595587918E-003   4.8656801153316193E-002
  -1.7052818818260124E-002   4.2678449550774822E-003   4.8858377636318728E-002
  -2.7537205806747081E-002   7.7635132967215359E-003   4.3881421457817205E-002
  -2.5560750260050766E-002   7.1248922430341421E-003   4.3461127676745592E-002
  -2.3584294713354395E-002   6.4858959456939869E-003   4.3211828258840734E-002
  -2.1607839166658101E-002   5.8465244047010007E-003   4.3133523204102561E-002
  -1.9631383619961709E-002   5.2067776200557248E-003   4.3226212512531170E-002
  -3.0873884230323952E-002   8.8403841110123449E-003   3.8512817448145387E-002
  -2.8736108334680287E-002   8.1512173628326690E-003   3.8052388015925476E-002
  -2.6598332439036556E-002   7.4723828091095984E-003   3.7743604918433829E-002
  -2.4460556543392825E-002   6.8038804498434351E-003   3.7586468155670121E-002
  -2.2322780647749112E-002   6.1457102850339673E-003   3.7580977727634413E-002
  -3.4246002766231812E-002   9.9172549253031816E-003   3.3088314024926645E-002
  -3.1966254550079419E-002   9.1775424826313207E-003   3.2598456379668114E-002
  -2.9686506333927019E-002   8.4588696725253140E-003   3.2240897040698768E-002
  -2.7406758117774651E-002   7.7612364949855347E-003   3.2015636008018933E-002
  -2.5127009901622227E-002   7.0846429500122099E-003   3.1922673281628136E-002
  -3.7653561414470405E-002   1.0994125739593796E-002   2.7607911188160861E-002
  -3.5251188906248065E-002   1.0203867602429750E-002   2.7099332767972995E-002
  -3.2848816398025754E-002   9.4453565359409741E-003   2.6703704625635538E-002
  -3.0446443889803429E-002   8.7185925401278702E-003   2.6421026761148825E-002
  -2.8044071381581104E-002   8.0235756149903414E-003   2.6251299174512521E-002
  -1.7052818818260124E-002   4.2678449550774822E-003   4.8858377636318728E-002
  -1.5112718858094148E-002   3.7002293652583229E-003   4.8757659220763028E-002
  -1.3172618897928118E-002   3.2511120865254539E-003   4.8907472603292867E-002
  -1.1232518937762108E-002   2.9204931188782507E-003   4.9307817783907665E-002
  -9.2924189775961119E-003   2.7083724623176986E-003   4.9958694762607836E-002
  -1.9631383619961709E-002   5.2067776200557248E-003   4.3226212512531170E-002
  -1.7478321320752964E-002   4.6035941968479155E-003   4.3071092550654555E-002
  -1.5325259021544087E-002   4.0739127401675512E-003   4.3091365468778259E-002
  -1.3172196722335324E-002   3.6177332500148263E-003   4.3287031266902407E-002
  -1.1019134423126464E-002   3.2350557263901569E-003   4.3658089945027068E-002
  -2.2322780647749112E-002   6.1457102850339673E-003   3.7580977727634413E-002
  -2.0031894927582249E-002   5.5069590284373138E-003   3.7326459874878037E-002
  -1.7741009207415438E-002   4.8967133938100094E-003   3.7172195984037204E-002
  -1.5450123487248594E-002   4.3149733811515198E-003   3.7118186055111996E-002
  -1.3159237767081756E-002   3.7617389904624488E-003   3.7164430088102607E-002
  -2.5127009901622227E-002   7.0846429500122099E-003   3.1922673281628136E-002
  -2.2773439678582114E-002   6.4103238600270868E-003   3.1523761193433378E-002
  -2.0419869455542011E-002   5.7195140474522871E-003   3.1149964149069613E-002
  -1.8066299232501942E-002   5.0122135122883764E-003   3.0801282148536637E-002
  -1.5712729009461798E-002   4.2884222545349904E-003   3.0477715191834523E-002
  -2.8044071381581104E-002   8.0235756149903414E-003   2.6251299174512521E-002
  -2.5702955573752573E-002   7.3136886916163046E-003   2.5662996506321201E-002
  -2.3361839765923959E-002   6.5423147010945648E-003   2.5024669963875701E-002
  -2.1020723958095386E-002   5.7094536434247889E-003   2.4336319547176577E-002
  -1.8679608150266813E-002   4.8151055186071989E-003   2.3597945256223274E-002
  -9.2924189775961119E-003   2.7083724623176986E-003   4.9958694762607836E-002
  -7.8702797999919416E-003   2.8585514220283992E-003   5.0358788741190819E-002
  -6.4481406223877713E-003   3.6148313031961199E-003   5.1087622488300788E-002
  -5.0260014447836149E-003   4.9772121058198199E-003   5.2145196003938077E-002
  -3.6038622671794307E-003   6.9456938299005122E-003   5.3531509288102685E-002
  -1.1019134423126464E-002   3.2350557263901569E-003   4.3658089945027068E-002
  -9.2503275859794343E-003   3.1640087843349263E-003   4.4240653975234745E-002
  -7.4815207488324320E-003   3.6427210388916831E-003   4.5187813556000989E-002
  -5.7127139116853951E-003   4.6711924900596086E-003   4.6499568687325493E-002
  -3.9439070745383997E-003   6.2494231378401599E-003   4.8175919369208620E-002
  -1.3159237767081756E-002   3.7617389904624488E-003   3.7164430088102607E-002
  -1.1007907488360624E-002   3.4694661466412868E-003   3.7873122445090446E-002
  -8.8565772096395531E-003   3.6706107745873295E-003   3.8982266134667987E-002
  -6.7052469309184515E-003   4.3651728742999454E-003   4.0491861156835229E-002
  -4.5539166521973498E-003   5.5531524457798631E-003   4.2401907511591980E-002
  -1.5712729009461798E-002   4.2884222545349904E-003   3.0477715191834523E-002
  -1.3143019507135440E-002   3.7749235089474531E-003   3.1256194150757713E-002
  -1.0573310004809057E-002   3.6985005102829899E-003   3.2470980224301872E-002
  -8.0036005024826870E-003   4.0591532585401192E-003   3.4122073412466480E-002
  -5.4338910001563174E-003   4.8568817537195386E-003   3.6209473715252745E-002
  -1.8679608150266813E-002   4.8151055186071989E-003   2.3597945256223274E-002
  -1.5655663642303919E-002   4.0803808712541190E-003   2.4389869092236616E-002
  -1.2631719134341052E-002   3.7263902459786225E-003   2.5653955824902541E-002
  -9.6077746263781988E-003   3.7531336427800918E-003   2.7390205454220329E-002
  -6.5838301184152903E-003   4.1606110616591030E-003   2.9598617980190034E-002
  -3.6038622671794307E-003   6.9456938299005122E-003   5.3531509288102685E-002
  -4.1552161583302133E-003   9.5355061387611961E-003   5.1860208753245929E-002
  -4.7065700494809543E-003   1.2761878695723566E-002   5.0042842352592432E-002
  -5.2579239406317715E-003   1.6624811500788046E-002   4.8079410086142499E-002
  -5.8092778317824778E-003   2.1124304553955309E-002   4.5969911953894993E-002
  -3.9439070745383997E-003   6.2494231378401599E-003   4.8175919369208620E-002
  -4.5373614326956607E-003   8.6874155368413808E-003   4.7241781739808419E-002
  -5.1308157908529911E-003   1.2295172241672730E-002   4.6369509042192170E-002
  -5.7242701490104117E-003   1.7072693252334147E-002   4.5559101276359065E-002
  -6.3177245071675825E-003   2.3019978568826094E-002   4.4810558442309967E-002
  -4.5539166521973498E-003   5.5531524457798631E-003   4.2401907511591980E-002
  -4.9815406797807382E-003   7.8393249349222316E-003   4.2738136845376334E-002
  -5.4091647073641440E-003   1.1828465787622436E-002   4.3344161908524428E-002
  -5.8367887349475445E-003   1.7520575003880465E-002   4.4219982701037004E-002
  -6.2644127625309382E-003   2.4915652583696879E-002   4.5365599222913833E-002
  -5.4338910001563174E-003   4.8568817537195386E-003   3.6209473715252745E-002
  -5.4877538995852775E-003   6.9912343330029714E-003   3.8349274069948890E-002
  -5.5416167990142385E-003   1.1361759333571982E-002   4.0966800951589735E-002
  -5.5954796984431301E-003   1.7968456755426895E-002   4.4062054360174990E-002
  -5.6493425978721597E-003   2.6811326598567553E-002   4.7635034295705619E-002
  -6.5838301184152903E-003   4.1606110616591030E-003   2.9598617980190034E-002
  -6.0560010921093255E-003   6.1431437310834891E-003   3.4075193413526383E-002
  -5.5281720658033329E-003   1.0895052879521389E-002   3.9237426171388090E-002
  -5.0003430394973958E-003   1.8416338506972905E-002   4.5085316253773960E-002
  -4.4725140131913754E-003   2.8707000613438449E-002   5.1618863660686021E-002
  -7.5199650425310571E-002   2.2650465605496661E-002   2.8984155923354737E-002
  -7.2715266353437502E-002   2.1861472605910537E-002   2.7924156085114449E-002
  -7.0230882281564461E-002   2.1109966614907452E-002   2.7355918802877272E-002
  -6.7746498209691308E-002   2.0395947632487716E-002   2.7279444076643358E-002
  -6.5262114137818267E-002   1.9719415658650985E-002   2.7694731906412473E-002
  -8.1867809782578876E-002   2.4408358531837704E-002   2.1823251313178360E-002
  -7.9004999817473054E-002   2.3625269715099040E-002   2.1324959683406391E-002
  -7.6142189852367190E-002   2.2851476720770147E-002   2.1091757284096929E-002
  -7.3279379887261381E-002   2.2086979548851332E-002   2.1123644115249640E-002
  -7.0416569922155531E-002   2.1331778199342372E-002   2.1420620176864857E-002
  -8.7884315684105013E-002   2.6166251458178663E-002   1.4682346478936306E-002
  -8.4869753151307181E-002   2.5389066824287487E-002   1.4717571871459445E-002
  -8.1855190618509377E-002   2.4592986826632891E-002   1.4791213168904201E-002
  -7.8840628085711600E-002   2.3778011465215056E-002   1.4903270371270368E-002
  -7.5826065552913754E-002   2.2944140740033758E-002   1.5053743478558271E-002
  -9.3249168129888788E-002   2.7924144384519803E-002   7.5614414206282600E-003
  -9.0309526354939856E-002   2.7152863933476074E-002   8.1019926492731167E-003
  -8.7369884579990897E-002   2.6334496932495555E-002   8.4542864572991119E-003
  -8.4430242805042049E-002   2.5469043381578838E-002   8.6183228447053138E-003
  -8.1490601030093077E-002   2.4556503280725006E-002   8.5941018114926784E-003
  -9.7962367119930338E-002   2.9682037310860721E-002   4.6053613825425277E-004
  -9.5324319428371052E-002   2.8916661042664660E-002   1.4782220168477744E-003
  -9.2686271736811876E-002   2.8076007038358247E-002   2.0809771492815432E-003
  -9.0048224045252645E-002   2.7160075297942572E-002   2.2688015355548305E-003
  -8.7410176353693414E-002   2.6168865821416532E-002   2.0416951756682122E-003
  -6.5262114137818267E-002   1.9719415658650985E-002   2.7694731906412473E-002
  -6.3150889519781414E-002   1.9046003154789604E-002   2.7885403826624994E-002
  -6.1039664901744478E-002   1.8341342582295389E-002   2.8149311175631797E-002
  -5.8928440283707584E-002   1.7605433941168765E-002   2.8486453953432578E-002
  -5.6817215665670717E-002   1.6838277231409182E-002   2.8896832160027697E-002
  -7.0416569922155531E-002   2.1331778199342372E-002   2.1420620176864857E-002
  -6.8197714714865743E-002   2.0576670523122301E-002   2.1370469138882728E-002
  -6.5978859507576093E-002   1.9812454371070341E-002   2.1462343850612117E-002
  -6.3760004300286319E-002   1.9039129743186368E-002   2.1696244312052949E-002
  -6.1541149092996655E-002   1.8256696639470327E-002   2.2072170523205370E-002
  -7.5826065552913754E-002   2.2944140740033758E-002   1.5053743478558271E-002
  -7.3430789435453878E-002   2.2107337891454998E-002   1.4784909075182269E-002
  -7.1035513317993959E-002   2.1283566159845071E-002   1.4726890742434919E-002
  -6.8640237200534041E-002   2.0472825545204024E-002   1.4879688480316393E-002
  -6.6244961083074205E-002   1.9675116047531638E-002   1.5243302288827060E-002
  -8.1490601030093077E-002   2.4556503280725006E-002   8.5941018114926784E-003
  -7.8850113681545639E-002   2.3638005259788028E-002   8.1287236355232998E-003
  -7.6209626332998187E-002   2.2754677948619913E-002   7.9429518511001107E-003
  -7.3569138984450722E-002   2.1906521347221625E-002   8.0367864582230660E-003
  -7.0928651635903284E-002   2.1093535455592866E-002   8.4102274568923566E-003
  -8.7410176353693414E-002   2.6168865821416532E-002   2.0416951756682122E-003
  -8.4455687453141082E-002   2.5168672628120503E-002   1.4019128199065367E-003
  -8.1501198552588694E-002   2.4225789737394809E-002   1.1105271766077285E-003
  -7.8546709652036306E-002   2.3340217149239409E-002   1.1675382457729463E-003
  -7.5592220751483974E-002   2.2511954863654093E-002   1.5729460274016560E-003
  -5.6817215665670717E-002   1.6838277231409182E-002   2.8896832160027697E-002
  -5.4253082997967744E-002   1.6070021372259602E-002   2.8413174928003437E-002
  -5.1688950330264785E-002   1.5330815282962845E-002   2.8127798185949709E-002
  -4.9124817662561805E-002   1.4620658963518933E-002   2.8040701933866527E-002
  -4.6560684994858853E-002   1.3939552413927636E-002   2.8151886171753793E-002
  -6.1541149092996655E-002   1.8256696639470327E-002   2.2072170523205370E-002
  -5.8780902188100018E-002   1.7474252493034359E-002   2.1625536555774982E-002
  -5.6020655283203352E-002   1.6700894736990074E-002   2.1372850572761393E-002
  -5.3260408378306721E-002   1.5936623371337881E-002   2.1314112574164587E-002
  -5.0500161473410049E-002   1.5181438396076996E-002   2.1449322559984885E-002
  -6.6244961083074205E-002   1.9675116047531638E-002   1.5243302288827060E-002
  -6.3292932446537498E-002   1.8878483613808977E-002   1.4813728206529556E-002
  -6.0340903810000859E-002   1.8070974191017150E-002   1.4573769603095144E-002
  -5.7388875173464159E-002   1.7252587779156388E-002   1.4523426478524185E-002
  -5.4436846536927590E-002   1.6423324378226356E-002   1.4662698832816179E-002
  -7.0928651635903284E-002   2.1093535455592866E-002   8.4102274568923566E-003
  -6.7789173773280281E-002   2.0282714734583665E-002   7.9777498802669003E-003
  -6.4649695910657307E-002   1.9441053645044191E-002   7.7305552769509657E-003
  -6.1510218048034332E-002   1.8568552186974896E-002   7.6686436469444105E-003
  -5.8370740185411295E-002   1.7665210360375605E-002   7.7920149902476823E-003
  -7.5592220751483974E-002   2.2511954863654093E-002   1.5729460274016560E-003
  -7.2269626168328327E-002   2.1686945855358353E-002   1.1176015769873704E-003
  -6.8947031585172680E-002   2.0811133099071344E-002   8.4320759432909842E-004
  -6.5624437002016978E-002   1.9884516594794038E-002   7.4976407942620171E-004
  -6.2301842418861386E-002   1.8907096342525076E-002   8.3727103227926314E-004
  -4.6560684994858853E-002   1.3939552413927636E-002   2.8151886171753793E-002
  -4.4333904099761734E-002   1.3255526998283140E-002   2.7822544870231503E-002
  -4.2107123204664629E-002   1.2536614080679354E-002   2.7622101939125343E-002
  -3.9880342309567503E-002   1.1782813661116429E-002   2.7550557378435231E-002
  -3.7653561414470405E-002   1.0994125739593796E-002   2.7607911188160861E-002
  -5.0500161473410049E-002   1.5181438396076996E-002   2.1449322559984885E-002
  -4.8138785495129691E-002   1.4424920928416352E-002   2.1105149947688251E-002
  -4.5777409516849207E-002   1.3656652085564394E-002   2.0901269131342215E-002
  -4.3416033538568793E-002   1.2876631867520656E-002   2.0837680110946818E-002
  -4.1054657560288366E-002   1.2084860274285292E-002   2.0914382886501992E-002
  -5.4436846536927590E-002   1.6423324378226356E-002   1.4662698832816179E-002
  -5.1929482049929171E-002   1.5594314858549729E-002   1.4326831036512652E-002
  -4.9422117562930815E-002   1.4776690090449490E-002   1.4142648461694565E-002
  -4.6914753075932444E-002   1.3970450073925049E-002   1.4110151108361467E-002
  -4.4407388588934088E-002   1.3175594808976787E-002   1.4229338976513739E-002
  -5.8370740185411295E-002   1.7665210360375605E-002   7.7920149902476823E-003
  -5.5705993764160452E-002   1.6763708788683246E-002   7.4875881367049389E-003
  -5.3041247342909541E-002   1.5896728095334225E-002   7.3462399301822551E-003
  -5.0376500921658643E-002   1.5064268280329359E-002   7.3679703706794417E-003
  -4.7711754500407780E-002   1.4266329343668283E-002   7.5527794581966706E-003
  -6.2301842418861386E-002   1.8907096342525076E-002   8.3727103227926314E-004
  -5.9468320637823369E-002   1.7933102718816318E-002   5.8742124826505204E-004
  -5.6634798856785296E-002   1.7016766100219627E-002   5.1204353680578407E-004
  -5.3801277075747250E-002   1.6158086486734113E-002   6.1113789790068207E-004
  -5.0967755294709205E-002   1.5357063878359556E-002   8.8470433155007910E-004
  -3.7653561414470405E-002   1.0994125739593796E-002   2.7607911188160861E-002
  -3.5251188906248065E-002   1.0203867602429750E-002   2.7099332767972995E-002
  -3.2848816398025754E-002   9.4453565359409741E-003   2.6703704625635538E-002
  -3.0446443889803429E-002   8.7185925401278702E-003   2.6421026761148825E-002
  -2.8044071381581104E-002   8.0235756149903414E-003   2.6251299174512521E-002
  -4.1054657560288366E-002   1.2084860274285292E-002   2.0914382886501992E-002
  -3.8543747191109964E-002   1.1294475433794859E-002   2.0472893142270021E-002
  -3.6032836821931577E-002   1.0518615473985179E-002   2.0135528842099515E-002
  -3.3521926452753210E-002   9.7572803948566371E-003   1.9902289985990473E-002
  -3.1011016083574788E-002   9.0104701964091038E-003   1.9773176573943174E-002
  -4.4407388588934088E-002   1.3175594808976787E-002   1.4229338976513739E-002
  -4.1796765192588681E-002   1.2385083265159913E-002   1.3837715718243201E-002
  -3.9186141796243239E-002   1.1591874412029274E-002   1.3541393070245156E-002
  -3.6575518399897852E-002   1.0795968249585515E-002   1.3340371032519734E-002
  -3.3964895003552431E-002   9.9973647778281438E-003   1.3234649605066567E-002
  -4.7711754500407780E-002   1.4266329343668283E-002   7.5527794581966706E-003
  -4.5010242910684312E-002   1.3475691096524495E-002   7.1938004958927194E-003
  -4.2308731320960857E-002   1.2665133350073313E-002   6.9212973100728457E-003
  -3.9607219731237389E-002   1.1834656104313727E-002   6.7352699007361266E-003
  -3.6905708141513935E-002   1.0984259359246490E-002   6.6357182678830132E-003
  -5.0967755294709205E-002   1.5357063878359556E-002   8.8470433155007910E-004
  -4.8184180345396843E-002   1.4566298927889743E-002   5.4114747521893936E-004
  -4.5400605396084315E-002   1.3738392288117574E-002   2.7524156158226232E-004
  -4.2617030446771842E-002   1.2873343959042827E-002   8.6986590639867578E-005
  -3.9833455497459425E-002   1.1971153940665724E-002  -2.3617437607703629E-005
  -2.8044071381581104E-002   8.0235756149903414E-003   2.6251299174512521E-002
  -2.5702955573752573E-002   7.3136886916163046E-003   2.5662996506321201E-002
  -2.3361839765923959E-002   6.5423147010945648E-003   2.5024669963875701E-002
  -2.1020723958095386E-002   5.7094536434247889E-003   2.4336319547176577E-002
  -1.8679608150266813E-002   4.8151055186071989E-003   2.3597945256223274E-002
  -3.1011016083574788E-002   9.0104701964091038E-003   1.9773176573943174E-002
  -2.8703586500128053E-002   8.2683747572810939E-003   1.9180986123045141E-002
  -2.6396156916681360E-002   7.5211839561121208E-003   1.8571447097637472E-002
  -2.4088727333234590E-002   6.7688977929018512E-003   1.7944559497720003E-002
  -2.1781297749787876E-002   6.0115162676497302E-003   1.7300323323292621E-002
  -3.3964895003552431E-002   9.9973647778281438E-003   1.3234649605066567E-002
  -3.1658476344743364E-002   9.2230608229464384E-003   1.2694963076568588E-002
  -2.9352057685934345E-002   8.5000532111296767E-003   1.2170603273305158E-002
  -2.7045639027125323E-002   7.8283419423788025E-003   1.1661570195276069E-002
  -2.4739220368316259E-002   7.2079270166927056E-003   1.1167863842481279E-002
  -3.6905708141513935E-002   1.0984259359246490E-002   6.6357182678830132E-003
  -3.4567625107598449E-002   1.0177746888611283E-002   6.2049273668915161E-003
  -3.2229542073682921E-002   9.4789224661477878E-003   5.8221384908790190E-003
  -2.9891459039767407E-002   8.8877860918557539E-003   5.4873516398445642E-003
  -2.7553376005851903E-002   8.4043377657351814E-003   5.2005668137889011E-003
  -3.9833455497459425E-002   1.1971153940665724E-002  -2.3617437607703629E-005
  -3.7431032788693308E-002   1.1132432954276239E-002  -2.8912100598599277E-004
  -3.5028610079927136E-002   1.0457791721164955E-002  -4.7394724964133772E-004
  -3.2626187371161020E-002   9.9472302413330799E-003  -5.7809616857429358E-004
  -3.0223764662394847E-002   9.6007485147779903E-003  -6.0156776278430524E-004
  -1.8679608150266813E-002   4.8151055186071989E-003   2.3597945256223274E-002
  -1.5655663642303919E-002   4.0803808712541190E-003   2.4389869092236616E-002
  -1.2631719134341052E-002   3.7263902459786225E-003   2.5653955824902541E-002
  -9.6077746263781988E-003   3.7531336427800918E-003   2.7390205454220329E-002
  -6.5838301184152903E-003   4.1606110616591030E-003   2.9598617980190034E-002
  -2.1781297749787876E-002   6.0115162676497302E-003   1.7300323323292621E-002
  -1.8554001893939853E-002   5.3434827886401637E-003   1.8249465329833292E-002
  -1.5326706038091858E-002   4.8592407641552815E-003   1.9133147135491996E-002
  -1.2099410182243892E-002   4.5587901941958747E-003   1.9951368740268968E-002
  -8.8721143263959523E-003   4.4421310787614576E-003   2.0704130144163835E-002
  -2.4739220368316259E-002   7.2079270166927056E-003   1.1167863842481279E-002
  -2.1846196262117146E-002   6.6065847060259031E-003   1.2077281451996769E-002
  -1.8953172155917977E-002   5.9920912823319544E-003   1.2383615763096420E-002
  -1.6060148049718868E-002   5.3644467456117721E-003   1.2086866775780213E-002
  -1.3167123943519751E-002   4.7236510958638678E-003   1.1187034490048403E-002
  -2.7553376005851903E-002   8.4043377657351814E-003   5.2005668137889011E-003
  -2.5532246746835630E-002   7.8696866234116286E-003   5.8733174587274062E-003
  -2.3511117487819325E-002   7.1249418005085094E-003   5.4053617077157688E-003
  -2.1489988228803013E-002   6.1701032970271682E-003   3.7966995607545666E-003
  -1.9468858969786750E-002   5.0051711129666943E-003   1.0473310178433295E-003
  -3.0223764662394847E-002   9.6007485147779903E-003  -6.0156776278430524E-004
  -2.9612153348095416E-002   9.1327885407976872E-003  -3.6242664997487850E-004
  -2.9000542033795929E-002   8.2577923186851754E-003  -1.8016150306499890E-003
  -2.8388930719496414E-002   6.9757598484432026E-003  -4.9191329048084639E-003
  -2.7777319405197010E-002   5.2866911300686326E-003  -9.7149802724505463E-003
  -6.5838301184152903E-003   4.1606110616591030E-003   2.9598617980190034E-002
  -6.0560010921093255E-003   6.1431437310834891E-003   3.4075193413526383E-002
  -5.5281720658033329E-003   1.0895052879521389E-002   3.9237426171388090E-002
  -5.0003430394973958E-003   1.8416338506972905E-002   4.5085316253773960E-002
  -4.4725140131913754E-003   2.8707000613438449E-002   5.1618863660686021E-002
  -8.8721143263959523E-003   4.4421310787614576E-003   2.0704130144163835E-002
  -7.5864424425109711E-003   5.6590986814808453E-003   2.5872584931807885E-002
  -6.3007705586259899E-003   9.3595282659813539E-003   3.1871068110084888E-002
  -5.0150986747410781E-003   1.5543419832262664E-002   3.8699579678994900E-002
  -3.7294267908561385E-003   2.4210773380326067E-002   4.6358119638536532E-002
  -1.3167123943519751E-002   4.7236510958638678E-003   1.1187034490048403E-002
  -1.0979238135948304E-002   5.1750536318776463E-003   1.6761454134768233E-002
  -8.7913523283768766E-003   7.8240036524411111E-003   2.3310273236228460E-002
  -6.6034665208054497E-003   1.2670501157552982E-002   3.0833491794428979E-002
  -4.4155807132340019E-003   1.9714546147213463E-002   3.9331109809369380E-002
  -1.9468858969786750E-002   5.0051711129666943E-003   1.0473310178433295E-003
  -1.6234388172421364E-002   4.6910085822751690E-003   6.7418010224068181E-003
  -1.2999917375055983E-002   6.2884790389004172E-003   1.3555041549817990E-002
  -9.7654465776905470E-003   9.7975824828422427E-003   2.1487052600076974E-002
  -6.5309757803252155E-003   1.5218318914100859E-002   3.0537834173183703E-002
  -2.7777319405197010E-002   5.2866911300686326E-003  -9.7149802724505463E-003
  -2.3351892551930042E-002   4.2069635326722477E-003  -4.1863744052758056E-003
  -1.8926465698663131E-002   4.7529544253602785E-003   2.6053730508541761E-003
  -1.4501038845396191E-002   6.9246638081323642E-003   1.0660262095938761E-002
  -1.0075611992129252E-002   1.0722091680988477E-002   1.9978292729979863E-002
 </DataArray>
 </PointData>
 </Piece>
 </UnstructuredGrid>
 </VTKFile>
