 <VTKFile type="UnstructuredGrid"  version="0.1"   >
 <UnstructuredGrid>
 <Piece  NumberOfPoints="           100 "  NumberOfCells="           64 ">
 <Points>
 <DataArray  type="Float64" NumberOfComponents="3"  format="ascii" >
   0.0000000000000000        0.0000000000000000        0.0000000000000000     
  0.12500000000000000        0.0000000000000000        0.0000000000000000     
  0.25000000000000000        0.0000000000000000        0.0000000000000000     
  0.37500000000000000        0.0000000000000000        0.0000000000000000     
  0.50000000000000000        0.0000000000000000        0.0000000000000000     
   0.0000000000000000       0.12500000000000000        0.0000000000000000     
  0.12500000000000000       0.12500000000000000        0.0000000000000000     
  0.25000000000000000       0.12500000000000000        0.0000000000000000     
  0.37500000000000000       0.12500000000000000        0.0000000000000000     
  0.50000000000000000       0.12500000000000000        0.0000000000000000     
   0.0000000000000000       0.25000000000000000        0.0000000000000000     
  0.12500000000000000       0.25000000000000000        0.0000000000000000     
  0.25000000000000000       0.25000000000000000        0.0000000000000000     
  0.37500000000000000       0.25000000000000000        0.0000000000000000     
  0.50000000000000000       0.25000000000000000        0.0000000000000000     
   0.0000000000000000       0.37500000000000000        0.0000000000000000     
  0.12500000000000000       0.37500000000000000        0.0000000000000000     
  0.25000000000000000       0.37500000000000000        0.0000000000000000     
  0.37500000000000000       0.37500000000000000        0.0000000000000000     
  0.50000000000000000       0.37500000000000000        0.0000000000000000     
   0.0000000000000000       0.50000000000000000        0.0000000000000000     
  0.12500000000000000       0.50000000000000000        0.0000000000000000     
  0.25000000000000000       0.50000000000000000        0.0000000000000000     
  0.37500000000000000       0.50000000000000000        0.0000000000000000     
  0.50000000000000000       0.50000000000000000        0.0000000000000000     
  0.50000000000000000        0.0000000000000000        0.0000000000000000     
  0.62500000000000000        0.0000000000000000        0.0000000000000000     
  0.75000000000000000        0.0000000000000000        0.0000000000000000     
  0.87500000000000000        0.0000000000000000        0.0000000000000000     
   1.0000000000000000        0.0000000000000000        0.0000000000000000     
  0.50000000000000000       0.12500000000000000        0.0000000000000000     
  0.62500000000000000       0.12500000000000000        0.0000000000000000     
  0.75000000000000000       0.12500000000000000        0.0000000000000000     
  0.87500000000000000       0.12500000000000000        0.0000000000000000     
   1.0000000000000000       0.12500000000000000        0.0000000000000000     
  0.50000000000000000       0.25000000000000000        0.0000000000000000     
  0.62500000000000000       0.25000000000000000        0.0000000000000000     
  0.75000000000000000       0.25000000000000000        0.0000000000000000     
  0.87500000000000000       0.25000000000000000        0.0000000000000000     
   1.0000000000000000       0.25000000000000000        0.0000000000000000     
  0.50000000000000000       0.37500000000000000        0.0000000000000000     
  0.62500000000000000       0.37500000000000000        0.0000000000000000     
  0.75000000000000000       0.37500000000000000        0.0000000000000000     
  0.87500000000000000       0.37500000000000000        0.0000000000000000     
   1.0000000000000000       0.37500000000000000        0.0000000000000000     
  0.50000000000000000       0.50000000000000000        0.0000000000000000     
  0.62500000000000000       0.50000000000000000        0.0000000000000000     
  0.75000000000000000       0.50000000000000000        0.0000000000000000     
  0.87500000000000000       0.50000000000000000        0.0000000000000000     
   1.0000000000000000       0.50000000000000000        0.0000000000000000     
   0.0000000000000000       0.50000000000000000        0.0000000000000000     
  0.12500000000000000       0.50000000000000000        0.0000000000000000     
  0.25000000000000000       0.50000000000000000        0.0000000000000000     
  0.37500000000000000       0.50000000000000000        0.0000000000000000     
  0.50000000000000000       0.50000000000000000        0.0000000000000000     
   0.0000000000000000       0.62500000000000000        0.0000000000000000     
  0.12500000000000000       0.62500000000000000        0.0000000000000000     
  0.25000000000000000       0.62500000000000000        0.0000000000000000     
  0.37500000000000000       0.62500000000000000        0.0000000000000000     
  0.50000000000000000       0.62500000000000000        0.0000000000000000     
   0.0000000000000000       0.75000000000000000        0.0000000000000000     
  0.12500000000000000       0.75000000000000000        0.0000000000000000     
  0.25000000000000000       0.75000000000000000        0.0000000000000000     
  0.37500000000000000       0.75000000000000000        0.0000000000000000     
  0.50000000000000000       0.75000000000000000        0.0000000000000000     
   0.0000000000000000       0.87500000000000000        0.0000000000000000     
  0.12500000000000000       0.87500000000000000        0.0000000000000000     
  0.25000000000000000       0.87500000000000000        0.0000000000000000     
  0.37500000000000000       0.87500000000000000        0.0000000000000000     
  0.50000000000000000       0.87500000000000000        0.0000000000000000     
   0.0000000000000000        1.0000000000000000        0.0000000000000000     
  0.12500000000000000        1.0000000000000000        0.0000000000000000     
  0.25000000000000000        1.0000000000000000        0.0000000000000000     
  0.37500000000000000        1.0000000000000000        0.0000000000000000     
  0.50000000000000000        1.0000000000000000        0.0000000000000000     
  0.50000000000000000       0.50000000000000000        0.0000000000000000     
  0.62500000000000000       0.50000000000000000        0.0000000000000000     
  0.75000000000000000       0.50000000000000000        0.0000000000000000     
  0.87500000000000000       0.50000000000000000        0.0000000000000000     
   1.0000000000000000       0.50000000000000000        0.0000000000000000     
  0.50000000000000000       0.62500000000000000        0.0000000000000000     
  0.62500000000000000       0.62500000000000000        0.0000000000000000     
  0.75000000000000000       0.62500000000000000        0.0000000000000000     
  0.87500000000000000       0.62500000000000000        0.0000000000000000     
   1.0000000000000000       0.62500000000000000        0.0000000000000000     
  0.50000000000000000       0.75000000000000000        0.0000000000000000     
  0.62500000000000000       0.75000000000000000        0.0000000000000000     
  0.75000000000000000       0.75000000000000000        0.0000000000000000     
  0.87500000000000000       0.75000000000000000        0.0000000000000000     
   1.0000000000000000       0.75000000000000000        0.0000000000000000     
  0.50000000000000000       0.87500000000000000        0.0000000000000000     
  0.62500000000000000       0.87500000000000000        0.0000000000000000     
  0.75000000000000000       0.87500000000000000        0.0000000000000000     
  0.87500000000000000       0.87500000000000000        0.0000000000000000     
   1.0000000000000000       0.87500000000000000        0.0000000000000000     
  0.50000000000000000        1.0000000000000000        0.0000000000000000     
  0.62500000000000000        1.0000000000000000        0.0000000000000000     
  0.75000000000000000        1.0000000000000000        0.0000000000000000     
  0.87500000000000000        1.0000000000000000        0.0000000000000000     
   1.0000000000000000        1.0000000000000000        0.0000000000000000     
 </DataArray>
 </Points>
 <Cells>
 <DataArray  type="Int32"  Name="connectivity"  format="ascii">
           0           1           6           5
           1           2           7           6
           2           3           8           7
           3           4           9           8
           5           6          11          10
           6           7          12          11
           7           8          13          12
           8           9          14          13
          10          11          16          15
          11          12          17          16
          12          13          18          17
          13          14          19          18
          15          16          21          20
          16          17          22          21
          17          18          23          22
          18          19          24          23
          25          26          31          30
          26          27          32          31
          27          28          33          32
          28          29          34          33
          30          31          36          35
          31          32          37          36
          32          33          38          37
          33          34          39          38
          35          36          41          40
          36          37          42          41
          37          38          43          42
          38          39          44          43
          40          41          46          45
          41          42          47          46
          42          43          48          47
          43          44          49          48
          50          51          56          55
          51          52          57          56
          52          53          58          57
          53          54          59          58
          55          56          61          60
          56          57          62          61
          57          58          63          62
          58          59          64          63
          60          61          66          65
          61          62          67          66
          62          63          68          67
          63          64          69          68
          65          66          71          70
          66          67          72          71
          67          68          73          72
          68          69          74          73
          75          76          81          80
          76          77          82          81
          77          78          83          82
          78          79          84          83
          80          81          86          85
          81          82          87          86
          82          83          88          87
          83          84          89          88
          85          86          91          90
          86          87          92          91
          87          88          93          92
          88          89          94          93
          90          91          96          95
          91          92          97          96
          92          93          98          97
          93          94          99          98
 </DataArray>
 <DataArray  type="Int32"  Name="offsets"  format="ascii"> 
           4
           8
          12
          16
          20
          24
          28
          32
          36
          40
          44
          48
          52
          56
          60
          64
          68
          72
          76
          80
          84
          88
          92
          96
         100
         104
         108
         112
         116
         120
         124
         128
         132
         136
         140
         144
         148
         152
         156
         160
         164
         168
         172
         176
         180
         184
         188
         192
         196
         200
         204
         208
         212
         216
         220
         224
         228
         232
         236
         240
         244
         248
         252
         256
 </DataArray>
 <DataArray  type="UInt8"  Name="types"  format="ascii">
 9
 9
 9
 9
 9
 9
 9
 9
 9
 9
 9
 9
 9
 9
 9
 9
 9
 9
 9
 9
 9
 9
 9
 9
 9
 9
 9
 9
 9
 9
 9
 9
 9
 9
 9
 9
 9
 9
 9
 9
 9
 9
 9
 9
 9
 9
 9
 9
 9
 9
 9
 9
 9
 9
 9
 9
 9
 9
 9
 9
 9
 9
 9
 9
 </DataArray>
 </Cells> 
 <PointData>
 <DataArray  type="Float64" Name="disp" NumberOfComponents="3" format="ascii">
   0.0000000000000000        0.0000000000000000        0.0000000000000000     
   1.9112088702995446E-002   1.1562971654264016E-002   0.0000000000000000     
   3.6273433951889866E-002   2.5764195980183945E-002   0.0000000000000000     
   5.1484035746683282E-002   4.2603672977759792E-002   0.0000000000000000     
   6.4743894087375686E-002   6.2081402646991551E-002   0.0000000000000000     
   0.0000000000000000        0.0000000000000000        0.0000000000000000     
   1.2694088032616693E-002   9.3128483554428959E-003   0.0000000000000000     
   2.4522025980515096E-002   2.2153417053805483E-002   0.0000000000000000     
   3.5483813843695207E-002   3.8521706095087753E-002   0.0000000000000000     
   4.5579451622157027E-002   5.8417715479289714E-002   0.0000000000000000     
   0.0000000000000000        0.0000000000000000        0.0000000000000000     
   7.3694063586578710E-003   7.7056174277135257E-003   0.0000000000000000     
   1.4559317664741859E-002   1.9574289249249435E-002   0.0000000000000000     
   2.1569733918251968E-002   3.5606015464607718E-002   0.0000000000000000     
   2.8400655119188198E-002   5.5800796073788385E-002   0.0000000000000000     
   0.0000000000000000        0.0000000000000000        0.0000000000000000     
   3.1380436811189755E-003   6.7412788710759057E-003   0.0000000000000000     
   6.3853090045701642E-003   1.8026812566515806E-002   0.0000000000000000     
   9.7417959703535676E-003   3.3856601086319695E-002   0.0000000000000000     
   1.3207504578469181E-002   5.4230644430487578E-002   0.0000000000000000     
   0.0000000000000000        0.0000000000000000        0.0000000000000000     
   8.2399365108898337E-018   6.4198326855300384E-003   0.0000000000000000     
   7.8062556418956319E-018   1.7510987005604599E-002   0.0000000000000000     
  -4.3368086899420177E-019   3.3273462960223682E-002   0.0000000000000000     
  -1.5612511283791264E-017   5.3707260549387285E-002   0.0000000000000000     
   6.4743894087375686E-002   6.2081402646991551E-002   0.0000000000000000     
   7.6351492826144396E-002   8.4505035922065708E-002   0.0000000000000000     
   8.6605315815166783E-002  0.11018222373716874        0.0000000000000000     
   9.5505363054442807E-002  0.13911296609230064        0.0000000000000000     
  0.10305163454397251       0.17129726298746140        0.0000000000000000     
   4.5579451622157027E-002   5.8417715479289714E-002   0.0000000000000000     
   5.4575568396992416E-002   8.1435896081121562E-002   0.0000000000000000     
   6.2238793249293246E-002  0.10717069877529346        0.0000000000000000     
   6.8569126179059525E-002  0.13562212356180545        0.0000000000000000     
   7.3566567186291204E-002  0.16679017044065753        0.0000000000000000     
   2.8400655119188198E-002   5.5800796073788385E-002   0.0000000000000000     
   3.4591678116251030E-002   7.9243653337589995E-002   0.0000000000000000     
   3.9682399758140953E-002  0.10501960951681111        0.0000000000000000     
   4.3672820044857966E-002  0.13312866461145170        0.0000000000000000     
   4.6562938976402075E-002  0.16357081862151179        0.0000000000000000     
   1.3207504578469181E-002   5.4230644430487578E-002   0.0000000000000000     
   1.6399821983920218E-002   7.7928307691471035E-002   0.0000000000000000     
   1.8936135341709882E-002  0.10372895596172163        0.0000000000000000     
   2.0816444651838177E-002  0.13163258924123938        0.0000000000000000     
   2.2040749914305095E-002  0.16163920753002425        0.0000000000000000     
  -1.5612511283791264E-017   5.3707260549387285E-002   0.0000000000000000     
  -1.1275702593849246E-017   7.7489859142764655E-002   0.0000000000000000     
   4.1199682554449168E-017  0.10329873811002506        0.0000000000000000     
   1.3520001090894240E-016  0.13113389745116846        0.0000000000000000     
   2.8449465006019636E-016  0.16099533716619491        0.0000000000000000     
   0.0000000000000000        0.0000000000000000        0.0000000000000000     
   8.2399365108898337E-018   6.4198326855300384E-003   0.0000000000000000     
   7.8062556418956319E-018   1.7510987005604599E-002   0.0000000000000000     
  -4.3368086899420177E-019   3.3273462960223682E-002   0.0000000000000000     
  -1.5612511283791264E-017   5.3707260549387285E-002   0.0000000000000000     
   0.0000000000000000        0.0000000000000000        0.0000000000000000     
  -3.1380436811189556E-003   6.7412788710759178E-003   0.0000000000000000     
  -6.3853090045701416E-003   1.8026812566515810E-002   0.0000000000000000     
  -9.7417959703535537E-003   3.3856601086319681E-002   0.0000000000000000     
  -1.3207504578469198E-002   5.4230644430487515E-002   0.0000000000000000     
   0.0000000000000000        0.0000000000000000        0.0000000000000000     
  -7.3694063586578415E-003   7.7056174277135439E-003   0.0000000000000000     
  -1.4559317664741816E-002   1.9574289249249435E-002   0.0000000000000000     
  -2.1569733918251923E-002   3.5606015464607677E-002   0.0000000000000000     
  -2.8400655119188160E-002   5.5800796073788274E-002   0.0000000000000000     
   0.0000000000000000        0.0000000000000000        0.0000000000000000     
  -1.2694088032616648E-002   9.3128483554429133E-003   0.0000000000000000     
  -2.4522025980515016E-002   2.2153417053805472E-002   0.0000000000000000     
  -3.5483813843695096E-002   3.8521706095087697E-002   0.0000000000000000     
  -4.5579451622156909E-002   5.8417715479289561E-002   0.0000000000000000     
   0.0000000000000000        0.0000000000000000        0.0000000000000000     
  -1.9112088702995376E-002   1.1562971654264027E-002   0.0000000000000000     
  -3.6273433951889741E-002   2.5764195980183931E-002   0.0000000000000000     
  -5.1484035746683102E-002   4.2603672977759716E-002   0.0000000000000000     
  -6.4743894087375450E-002   6.2081402646991378E-002   0.0000000000000000     
  -1.5612511283791264E-017   5.3707260549387285E-002   0.0000000000000000     
  -1.1275702593849246E-017   7.7489859142764655E-002   0.0000000000000000     
   4.1199682554449168E-017  0.10329873811002506        0.0000000000000000     
   1.3520001090894240E-016  0.13113389745116846        0.0000000000000000     
   2.8449465006019636E-016  0.16099533716619491        0.0000000000000000     
  -1.3207504578469198E-002   5.4230644430487515E-002   0.0000000000000000     
  -1.6399821983920218E-002   7.7928307691470897E-002   0.0000000000000000     
  -1.8936135341709782E-002  0.10372895596172139        0.0000000000000000     
  -2.0816444651837889E-002  0.13163258924123902        0.0000000000000000     
  -2.2040749914304516E-002  0.16163920753002381        0.0000000000000000     
  -2.8400655119188160E-002   5.5800796073788274E-002   0.0000000000000000     
  -3.4591678116250975E-002   7.9243653337589773E-002   0.0000000000000000     
  -3.9682399758140786E-002  0.10501960951681072        0.0000000000000000     
  -4.3672820044857619E-002  0.13312866461145115        0.0000000000000000     
  -4.6562938976401458E-002  0.16357081862151102        0.0000000000000000     
  -4.5579451622156909E-002   5.8417715479289561E-002   0.0000000000000000     
  -5.4575568396992270E-002   8.1435896081121284E-002   0.0000000000000000     
  -6.2238793249292990E-002  0.10717069877529301        0.0000000000000000     
  -6.8569126179059067E-002  0.13562212356180478        0.0000000000000000     
  -7.3566567186290538E-002  0.16679017044065655        0.0000000000000000     
  -6.4743894087375450E-002   6.2081402646991378E-002   0.0000000000000000     
  -7.6351492826144104E-002   8.4505035922065402E-002   0.0000000000000000     
  -8.6605315815166367E-002  0.11018222373716825        0.0000000000000000     
  -9.5505363054442238E-002  0.13911296609229992        0.0000000000000000     
 -0.10305163454397175       0.17129726298746042        0.0000000000000000     
 </DataArray>
 <DataArray  type="Float64" Name="stress" NumberOfComponents="3" format="ascii">
   10595583523.540722        3178675057.0622163        1891171443.4035800     
   9159690266.7084846        1513553727.5163867        1092450059.3544476     
   7884655213.5333719        384626410.16096687        530694066.93643248     
   6770478364.0153790       -208106895.00404739        205903466.14953381     
   5817159718.1545105       -264646187.97865295        118078256.99375229     
   6924217885.7015409        2077265365.7104623        1393659357.0430248     
   6162150253.8593273        922880061.78568029        960990896.25857592     
   5520726274.7599535        170640267.00370312        691822287.92278612     
   4999945948.4034224       -179454018.63547182        586153532.03565431     
   4599809274.7897320       -127402795.13184071        643984628.59718156     
   3934498752.4983621        1180349625.7495086        1038293581.0712004     
   3636355205.1248603        473729885.28938067        924761067.48477364     
   3418640759.5799198        35207150.924454451        901262867.16454732     
   3281355415.8635392       -135218577.34527159        967798980.11052108     
   3224499173.9757185       -37547299.519796610        1124369406.3226964     
   1626426123.9311836        487927837.17935508        825074115.48810661     
   1582305120.5050862        166103198.02748901        983760573.03304064     
   1578398667.9932678       -21672938.076779723        1159015804.6617169     
   1614706766.3957291       -75400571.133450389        1350839810.3741362     
   1691229415.7124684        4920298.8574754000        1559232590.1702969     
   6.4051328343759032E-006   1.9215398503127708E-006   754000960.29374349     
   3.2082852857900727E-006   4.4492797724504045E-006   1137989412.9033778     
  -1.5097813109600342E-006   1.2124001436497245E-006   1465081100.4142954     
  -8.3152349474844320E-006  -8.6354915892032274E-006   1735276022.8264976     
  -1.6458903836905222E-005  -2.2944100831710822E-005   1948574180.1399834     
   5817159718.1545105       -264646187.97865295        118078256.99375229     
   5210602732.4837332       -120461607.28709483        254486592.31962910     
   4506942735.8651571       -299953729.75487399        375208242.80922925     
   3706179728.2987800       -803122555.38199162        480243208.46255219     
   2808313709.7845993       -1629968084.1684444        569591489.27959895     
   4599809274.7897320       -127402795.13184071        643984628.59718156     
   3977387301.5719137       -69515629.802597046        645523254.10249710     
   3282138070.1432443       -254385991.84285760        670459516.02997732     
   2514061580.5037231       -682013881.25262487        718793414.37961900     
   1673157832.6533494       -1352399298.0318966        790524949.15142322     
   3224499173.9757185       -37547299.519796610        1124369406.3226964     
   2697881702.5206852       -32456702.759920001        1019360033.5338933     
   2122712725.5917506       -189204457.57971549        976832618.42569292     
   1498992243.1889138       -507790563.97918534        996787160.99809599     
   826720255.31217480       -988215021.95832634        1079223661.2510998     
   1691229415.7124684        4920298.8574754000        1559232590.1702969     
   1372085935.3300478       -9284826.1590667963        1375996930.6138165     
   1028666702.2106758       -104409126.96544749        1294327549.9963784     
   660971716.35435092       -280452603.56166941        1314224448.3179851     
   269000977.76107407       -537415255.94773197        1435687625.5786290     
  -1.6458903836905222E-005  -2.2944100831710822E-005   1948574180.1399834     
   2.5105833163312689E-006  -3.6040309930568698E-005   1715433945.3422675     
   1.9698642900006963E-005  -5.4380721537571849E-005   1622944310.7420332     
   3.3050056510234504E-005  -8.4469118970482751E-005   1671105276.3392808     
   4.6848971588578040E-005  -1.1584140240456990E-004   1859916842.1340108     
   6.4051328343759032E-006   1.9215398503127708E-006   754000960.29374349     
   3.2082852857900727E-006   4.4492797724504045E-006   1137989412.9033778     
  -1.5097813109600342E-006   1.2124001436497245E-006   1465081100.4142954     
  -8.3152349474844320E-006  -8.6354915892032274E-006   1735276022.8264976     
  -1.6458903836905222E-005  -2.2944100831710822E-005   1948574180.1399834     
  -1626426123.9311690       -487927837.17935067        825074115.48811042     
  -1582305120.5050788       -166103198.02748269        983760573.03304243     
  -1578398667.9932699        21672938.076779842        1159015804.6617169     
  -1614706766.3957427        75400571.133436561        1350839810.3741333     
  -1691229415.7124965       -4920298.8575127125        1559232590.1702931     
  -3934498752.4983420       -1180349625.7495027        1038293581.0712065     
  -3636355205.1248484       -473729885.28937602        924761067.48477626     
  -3418640759.5799155       -35207150.924454927        901262867.16454720     
  -3281355415.8635449        135218577.34526086        967798980.11051857     
  -3224499173.9757352        37547299.519771576        1124369406.3226912     
  -6924217885.7015142       -2077265365.7104542        1393659357.0430312     
  -6162150253.8593073       -922880061.78567624        960990896.25857913     
  -5520726274.7599401       -170640267.00370264        691822287.92278659     
  -4999945948.4034147        179454018.63546467        586153532.03565300     
  -4599809274.7897329        127402795.13182545        643984628.59717870     
  -10595583523.540684       -3178675057.0622048        1891171443.4035852     
  -9159690266.7084522       -1513553727.5163822        1092450059.3544509     
  -7884655213.5333433       -384626410.16096497        530694066.93643510     
  -6770478364.0153551        208106895.00404739        205903466.14953625     
  -5817159718.1544895        264646187.97865367        118078256.99375533     
  -1.6458903836905222E-005  -2.2944100831710822E-005   1948574180.1399834     
   2.5105833163312689E-006  -3.6040309930568698E-005   1715433945.3422675     
   1.9698642900006963E-005  -5.4380721537571849E-005   1622944310.7420332     
   3.3050056510234504E-005  -8.4469118970482751E-005   1671105276.3392808     
   4.6848971588578040E-005  -1.1584140240456990E-004   1859916842.1340108     
  -1691229415.7124965       -4920298.8575127125        1559232590.1702931     
  -1372085935.3300369        9284826.1590145230        1375996930.6138101     
  -1028666702.2106267        104409126.96537268        1294327549.9963667     
  -660971716.35426795        280452603.56156099        1314224448.3179662     
  -269000977.76096189        537415255.94757581        1435687625.5786073     
  -3224499173.9757352        37547299.519771576        1124369406.3226912     
  -2697881702.5206642        32456702.759890079        1019360033.5338840     
  -2122712725.5916932        189204457.57967412        976832618.42567766     
  -1498992243.1888211        507790563.97912812        996787160.99807107     
  -826720255.31204998        988215021.95824552        1079223661.2510648     
  -4599809274.7897329        127402795.13182545        643984628.59717870     
  -3977387301.5718827        69515629.802584648        645523254.10249031     
  -3282138070.1431785        254385991.84284925        670459516.02996266     
  -2514061580.5036268        682013881.25261700        718793414.37959361     
  -1673157832.6532197        1352399298.0318904        790524949.15138495     
  -5817159718.1544895        264646187.97865367        118078256.99375533     
  -5210602732.4836874        120461607.28710914        254486592.31962976     
  -4506942735.8650846        299953729.75490403        375208242.80922180     
  -3706179728.2986784        803122555.38203692        480243208.46253443     
  -2808313709.7844739        1629968084.1685085        569591489.27956367     
 </DataArray>
 <DataArray  type="Float64" Name="VM" NumberOfComponents="1" format="ascii">
   9970959660.2560959     
   8712486942.2336197     
   7754223833.4728642     
   6886135178.7118645     
   5957407268.2608929     
   6610843058.1938133     
   5992277385.1551094     
   5567884044.2459621     
   5192268436.2920780     
   4796316711.9091473     
   3932376154.9317479     
   3780264295.4780884     
   3742299807.9452891     
   3746889675.1415596     
   3783185911.9770050     
   2032731860.8375373     
   2274161036.7701092     
   2560463535.0511503     
   2865138317.7510967     
   3185212489.3792634     
   1305967972.1844873     
   1971055481.6241279     
   2537594903.1264796     
   3005586236.6915445     
   3375029482.3193212     
   5957407268.2608929     
   5290260833.9946737     
   4709216816.4347582     
   4248433966.6912074     
   4011756094.1852789     
   4796316711.9091473     
   4165457185.8910294     
   3608409674.7145467     
   3170215352.0983605     
   2960744426.3826556     
   3783185911.9770050     
   3237972837.5557380     
   2793911280.8501139     
   2499351326.1580663     
   2443600584.8822598     
   3185212489.3792634     
   2752371388.5462680     
   2490443748.0870352     
   2425379601.8494248     
   2586375608.3357735     
   3375029482.3193212     
   2971218750.3611398     
   2811022004.0600533     
   2894439243.4160633     
   3221470468.4291697     
   1305967972.1844873     
   1971055481.6241279     
   2537594903.1264796     
   3005586236.6915445     
   3375029482.3193212     
   2032731860.8375328     
   2274161036.7701082     
   2560463535.0511518     
   2865138317.7510962     
   3185212489.3792629     
   3932376154.9317365     
   3780264295.4780812     
   3742299807.9452844     
   3746889675.1415582     
   3783185911.9770036     
   6610843058.1937952     
   5992277385.1550932     
   5567884044.2459488     
   5192268436.2920666     
   4796316711.9091396     
   9970959660.2560673     
   8712486942.2335911     
   7754223833.4728365     
   6886135178.7118416     
   5957407268.2608728     
   3375029482.3193212     
   2971218750.3611398     
   2811022004.0600533     
   2894439243.4160633     
   3221470468.4291697     
   3185212489.3792629     
   2752371388.5462389     
   2490443748.0869770     
   2425379601.8493395     
   2586375608.3356738     
   3783185911.9770036     
   3237972837.5556989     
   2793911280.8500342     
   2499351326.1579432     
   2443600584.8821001     
   4796316711.9091396     
   4165457185.8909907     
   3608409674.7144718     
   3170215352.0982518     
   2960744426.3825173     
   5957407268.2608728     
   5290260833.9946365     
   4709216816.4347019     
   4248433966.6911321     
   4011756094.1851988     
 </DataArray>
 <DataArray  type="Float64" Name="strain" NumberOfComponents="3" format="ascii">
  0.16069968344036761        0.0000000000000000        8.1950762547488468E-002
  0.14509373580755947       -2.0572555874935970E-002   4.7339502572026064E-002
  0.12948778817475137       -3.3012835898317418E-002   2.2996742900578741E-002
  0.11388184054194322       -3.7320840070144357E-002   8.9224835331464646E-003
   9.8275892909135104E-002  -3.3496568390416766E-002   5.1167244697292655E-003
  0.10501730459980671        0.0000000000000000        6.0391905471864404E-002
   9.8088103922060382E-002  -1.5429416906201962E-002   4.1642938837871624E-002
   9.1158903244314055E-002  -2.4759626923738051E-002   2.9978965809987400E-002
   8.4229702566567727E-002  -2.7990630052608309E-002   2.5399986388211688E-002
   7.7300501888821413E-002  -2.5122426292812673E-002   2.7906000572544536E-002
   5.9673231079558492E-002   0.0000000000000000        4.4992721846418685E-002
   5.8237270658967437E-002  -1.0286277937467956E-002   4.0072979591006856E-002
   5.6801310238376396E-002  -1.6506417949158695E-002   3.9054724243797051E-002
   5.5365349817785341E-002  -1.8660420035072220E-002   4.1937955804789248E-002
   5.3929389397194293E-002  -1.6748284195208536E-002   4.8722674273983510E-002
   2.4667462879622952E-002   0.0000000000000000        3.5753211671151287E-002
   2.5541236018280657E-002  -5.1431389687339474E-003   4.2629624831431762E-002
   2.6415009156938361E-002  -8.2532089745793336E-003   5.0224018202007739E-002
   2.7288782295596069E-002  -9.3302100175361516E-003   5.8536391782879234E-002
   2.8162555434253764E-002  -8.3741420976044204E-003   6.7566745574046197E-002
   9.7144514654701197E-017   0.0000000000000000        3.2673374946062220E-002
   3.1225022567582528E-017   5.8113236445223038E-017   4.9312874559146368E-002
  -3.1225022567582528E-017   2.7755575615628914E-017   6.3486847684619471E-002
  -9.5409791178724390E-017  -1.0234868508263162E-016   7.5195294322481565E-002
  -1.5959455978986625E-016  -3.0010716134398763E-016   8.4438214472732614E-002
   9.8275892909135104E-002  -3.3496568390416766E-002   5.1167244697292655E-003
   8.7445686911164361E-002  -2.8060707117203581E-002   1.1027752333850595E-002
   7.6615480913193659E-002  -2.7533942508573689E-002   1.6259023855066602E-002
   6.5785274915222958E-002  -3.1916274564527093E-002   2.0810539033377262E-002
   5.4955068917252214E-002  -4.1207703285063735E-002   2.4682297868782621E-002
   7.7300501888821413E-002  -2.5122426292812673E-002   2.7906000572544536E-002
   6.6637366508544876E-002  -2.1045530337902851E-002   2.7972674344441541E-002
   5.5974231128268361E-002  -2.0650456881430516E-002   2.9053245694632350E-002
   4.5311095747991845E-002  -2.3937205923395696E-002   3.1147714623116825E-002
   3.4647960367715308E-002  -3.0905777463798356E-002   3.4256081129895005E-002
   5.3929389397194293E-002  -1.6748284195208536E-002   4.8722674273983510E-002
   4.5126978555811027E-002  -1.4030353558602096E-002   4.4172268119802044E-002
   3.6324567714427755E-002  -1.3766971254287344E-002   4.2329413465113361E-002
   2.7522156873044490E-002  -1.5958137282264324E-002   4.3194110309917495E-002
   1.8719746031661211E-002  -2.0603851642532978E-002   4.6766358654214329E-002
   2.8162555434253764E-002  -8.3741420976044204E-003   6.7566745574046197E-002
   2.2914523052962800E-002  -7.0151767793013532E-003   5.9626533659932049E-002
   1.7666490671671836E-002  -6.8834856271441716E-003   5.6087527166509735E-002
   1.2418458290380862E-002  -7.9790686411329113E-003   5.6949726093779351E-002
   7.1704259090898947E-003  -1.0301925821267571E-002   6.2213130441740594E-002
  -1.5959455978986625E-016  -3.0010716134398763E-016   8.4438214472732614E-002
   2.2204460492503131E-016  -6.1322474875780131E-016   7.4335470964831590E-002
   6.0021432268797525E-016  -1.0048385734595655E-015   7.0327586798821437E-002
   9.7317987002298878E-016  -1.5730689320592184E-015   7.2414561974702168E-002
   1.3600232051658168E-015  -2.1649348980190553E-015   8.0596396492473799E-002
   9.7144514654701197E-017   0.0000000000000000        3.2673374946062220E-002
   3.1225022567582528E-017   5.8113236445223038E-017   4.9312874559146368E-002
  -3.1225022567582528E-017   2.7755575615628914E-017   6.3486847684619471E-002
  -9.5409791178724390E-017  -1.0234868508263162E-016   7.5195294322481565E-002
  -1.5959455978986625E-016  -3.0010716134398763E-016   8.4438214472732614E-002
  -2.4667462879622730E-002   0.0000000000000000        3.5753211671151454E-002
  -2.5541236018280566E-002   5.1431389687340160E-003   4.2629624831431838E-002
  -2.6415009156938396E-002   8.2532089745793458E-003   5.0224018202007732E-002
  -2.7288782295596226E-002   9.3302100175359885E-003   5.8536391782879109E-002
  -2.8162555434254045E-002   8.3741420976039364E-003   6.7566745574046030E-002
  -5.9673231079558187E-002   0.0000000000000000        4.4992721846418948E-002
  -5.8237270658967263E-002   1.0286277937467976E-002   4.0072979591006974E-002
  -5.6801310238376319E-002   1.6506417949158664E-002   3.9054724243797044E-002
  -5.5365349817785382E-002   1.8660420035072071E-002   4.1937955804789137E-002
  -5.3929389397194445E-002   1.6748284195208202E-002   4.8722674273983281E-002
 -0.10501730459980629        0.0000000000000000        6.0391905471864682E-002
  -9.8088103922060063E-002   1.5429416906201929E-002   4.1642938837871762E-002
  -9.1158903244313819E-002   2.4759626923737989E-002   2.9978965809987421E-002
  -8.4229702566567574E-002   2.7990630052608153E-002   2.5399986388211629E-002
  -7.7300501888821344E-002   2.5122426292812423E-002   2.7906000572544411E-002
 -0.16069968344036703        0.0000000000000000        8.1950762547488690E-002
 -0.14509373580755897        2.0572555874935894E-002   4.7339502572026210E-002
 -0.12948778817475090        3.3012835898317300E-002   2.2996742900578855E-002
 -0.11388184054194282        3.7320840070144232E-002   8.9224835331465704E-003
  -9.8275892909134757E-002   3.3496568390416676E-002   5.1167244697293973E-003
  -1.5959455978986625E-016  -3.0010716134398763E-016   8.4438214472732614E-002
   2.2204460492503131E-016  -6.1322474875780131E-016   7.4335470964831590E-002
   6.0021432268797525E-016  -1.0048385734595655E-015   7.0327586798821437E-002
   9.7317987002298878E-016  -1.5730689320592184E-015   7.2414561974702168E-002
   1.3600232051658168E-015  -2.1649348980190553E-015   8.0596396492473799E-002
  -2.8162555434254045E-002   8.3741420976039364E-003   6.7566745574046030E-002
  -2.2914523052962352E-002   7.0151767793004260E-003   5.9626533659931771E-002
  -1.7666490671670643E-002   6.8834856271426789E-003   5.6087527166509228E-002
  -1.2418458290378936E-002   7.9790686411306891E-003   5.6949726093778533E-002
  -7.1704259090872441E-003   1.0301925821264407E-002   6.2213130441739650E-002
  -5.3929389397194445E-002   1.6748284195208202E-002   4.8722674273983281E-002
  -4.5126978555810528E-002   1.4030353558601492E-002   4.4172268119801641E-002
  -3.6324567714426589E-002   1.3766971254286369E-002   4.2329413465112702E-002
  -2.7522156873042658E-002   1.5958137282262908E-002   4.3194110309916413E-002
  -1.8719746031658727E-002   2.0603851642531007E-002   4.6766358654212803E-002
  -7.7300501888821344E-002   2.5122426292812423E-002   2.7906000572544411E-002
  -6.6637366508544293E-002   2.1045530337902491E-002   2.7972674344441246E-002
  -5.5974231128267223E-002   2.0650456881430045E-002   2.9053245694631715E-002
  -4.5311095747990193E-002   2.3937205923395082E-002   3.1147714623115722E-002
  -3.4647960367713115E-002   3.0905777463797607E-002   3.4256081129893347E-002
  -9.8275892909134757E-002   3.3496568390416676E-002   5.1167244697293973E-003
  -8.7445686911163667E-002   2.8060707117203591E-002   1.1027752333850623E-002
  -7.6615480913192591E-002   2.7533942508573821E-002   1.6259023855066279E-002
  -6.5785274915221501E-002   3.1916274564527343E-002   2.0810539033376492E-002
  -5.4955068917250438E-002   4.1207703285064179E-002   2.4682297868781095E-002
 </DataArray>
 </PointData>
 </Piece>
 <Piece  NumberOfPoints="           100 "  NumberOfCells="           64 ">
 <Points>
 <DataArray  type="Float64" NumberOfComponents="3"  format="ascii" >
  0.50000000000000000        0.0000000000000000        0.0000000000000000     
  0.62500000000000000        0.0000000000000000        0.0000000000000000     
  0.75000000000000000        0.0000000000000000        0.0000000000000000     
  0.87500000000000000        0.0000000000000000        0.0000000000000000     
   1.0000000000000000        0.0000000000000000        0.0000000000000000     
  0.50000000000000000       0.12500000000000000        0.0000000000000000     
  0.62500000000000000       0.12500000000000000        0.0000000000000000     
  0.75000000000000000       0.12500000000000000        0.0000000000000000     
  0.87500000000000000       0.12500000000000000        0.0000000000000000     
   1.0000000000000000       0.12500000000000000        0.0000000000000000     
  0.50000000000000000       0.25000000000000000        0.0000000000000000     
  0.62500000000000000       0.25000000000000000        0.0000000000000000     
  0.75000000000000000       0.25000000000000000        0.0000000000000000     
  0.87500000000000000       0.25000000000000000        0.0000000000000000     
   1.0000000000000000       0.25000000000000000        0.0000000000000000     
  0.50000000000000000       0.37500000000000000        0.0000000000000000     
  0.62500000000000000       0.37500000000000000        0.0000000000000000     
  0.75000000000000000       0.37500000000000000        0.0000000000000000     
  0.87500000000000000       0.37500000000000000        0.0000000000000000     
   1.0000000000000000       0.37500000000000000        0.0000000000000000     
  0.50000000000000000       0.50000000000000000        0.0000000000000000     
  0.62500000000000000       0.50000000000000000        0.0000000000000000     
  0.75000000000000000       0.50000000000000000        0.0000000000000000     
  0.87500000000000000       0.50000000000000000        0.0000000000000000     
   1.0000000000000000       0.50000000000000000        0.0000000000000000     
   1.0000000000000000        0.0000000000000000        0.0000000000000000     
   1.1250000000000000        0.0000000000000000        0.0000000000000000     
   1.2500000000000000        0.0000000000000000        0.0000000000000000     
   1.3750000000000000        0.0000000000000000        0.0000000000000000     
   1.5000000000000000        0.0000000000000000        0.0000000000000000     
   1.0000000000000000       0.12500000000000000        0.0000000000000000     
   1.1250000000000000       0.12500000000000000        0.0000000000000000     
   1.2500000000000000       0.12500000000000000        0.0000000000000000     
   1.3750000000000000       0.12500000000000000        0.0000000000000000     
   1.5000000000000000       0.12500000000000000        0.0000000000000000     
   1.0000000000000000       0.25000000000000000        0.0000000000000000     
   1.1250000000000000       0.25000000000000000        0.0000000000000000     
   1.2500000000000000       0.25000000000000000        0.0000000000000000     
   1.3750000000000000       0.25000000000000000        0.0000000000000000     
   1.5000000000000000       0.25000000000000000        0.0000000000000000     
   1.0000000000000000       0.37500000000000000        0.0000000000000000     
   1.1250000000000000       0.37500000000000000        0.0000000000000000     
   1.2500000000000000       0.37500000000000000        0.0000000000000000     
   1.3750000000000000       0.37500000000000000        0.0000000000000000     
   1.5000000000000000       0.37500000000000000        0.0000000000000000     
   1.0000000000000000       0.50000000000000000        0.0000000000000000     
   1.1250000000000000       0.50000000000000000        0.0000000000000000     
   1.2500000000000000       0.50000000000000000        0.0000000000000000     
   1.3750000000000000       0.50000000000000000        0.0000000000000000     
   1.5000000000000000       0.50000000000000000        0.0000000000000000     
  0.50000000000000000       0.50000000000000000        0.0000000000000000     
  0.62500000000000000       0.50000000000000000        0.0000000000000000     
  0.75000000000000000       0.50000000000000000        0.0000000000000000     
  0.87500000000000000       0.50000000000000000        0.0000000000000000     
   1.0000000000000000       0.50000000000000000        0.0000000000000000     
  0.50000000000000000       0.62500000000000000        0.0000000000000000     
  0.62500000000000000       0.62500000000000000        0.0000000000000000     
  0.75000000000000000       0.62500000000000000        0.0000000000000000     
  0.87500000000000000       0.62500000000000000        0.0000000000000000     
   1.0000000000000000       0.62500000000000000        0.0000000000000000     
  0.50000000000000000       0.75000000000000000        0.0000000000000000     
  0.62500000000000000       0.75000000000000000        0.0000000000000000     
  0.75000000000000000       0.75000000000000000        0.0000000000000000     
  0.87500000000000000       0.75000000000000000        0.0000000000000000     
   1.0000000000000000       0.75000000000000000        0.0000000000000000     
  0.50000000000000000       0.87500000000000000        0.0000000000000000     
  0.62500000000000000       0.87500000000000000        0.0000000000000000     
  0.75000000000000000       0.87500000000000000        0.0000000000000000     
  0.87500000000000000       0.87500000000000000        0.0000000000000000     
   1.0000000000000000       0.87500000000000000        0.0000000000000000     
  0.50000000000000000        1.0000000000000000        0.0000000000000000     
  0.62500000000000000        1.0000000000000000        0.0000000000000000     
  0.75000000000000000        1.0000000000000000        0.0000000000000000     
  0.87500000000000000        1.0000000000000000        0.0000000000000000     
   1.0000000000000000        1.0000000000000000        0.0000000000000000     
   1.0000000000000000       0.50000000000000000        0.0000000000000000     
   1.1250000000000000       0.50000000000000000        0.0000000000000000     
   1.2500000000000000       0.50000000000000000        0.0000000000000000     
   1.3750000000000000       0.50000000000000000        0.0000000000000000     
   1.5000000000000000       0.50000000000000000        0.0000000000000000     
   1.0000000000000000       0.62500000000000000        0.0000000000000000     
   1.1250000000000000       0.62500000000000000        0.0000000000000000     
   1.2500000000000000       0.62500000000000000        0.0000000000000000     
   1.3750000000000000       0.62500000000000000        0.0000000000000000     
   1.5000000000000000       0.62500000000000000        0.0000000000000000     
   1.0000000000000000       0.75000000000000000        0.0000000000000000     
   1.1250000000000000       0.75000000000000000        0.0000000000000000     
   1.2500000000000000       0.75000000000000000        0.0000000000000000     
   1.3750000000000000       0.75000000000000000        0.0000000000000000     
   1.5000000000000000       0.75000000000000000        0.0000000000000000     
   1.0000000000000000       0.87500000000000000        0.0000000000000000     
   1.1250000000000000       0.87500000000000000        0.0000000000000000     
   1.2500000000000000       0.87500000000000000        0.0000000000000000     
   1.3750000000000000       0.87500000000000000        0.0000000000000000     
   1.5000000000000000       0.87500000000000000        0.0000000000000000     
   1.0000000000000000        1.0000000000000000        0.0000000000000000     
   1.1250000000000000        1.0000000000000000        0.0000000000000000     
   1.2500000000000000        1.0000000000000000        0.0000000000000000     
   1.3750000000000000        1.0000000000000000        0.0000000000000000     
   1.5000000000000000        1.0000000000000000        0.0000000000000000     
 </DataArray>
 </Points>
 <Cells>
 <DataArray  type="Int32"  Name="connectivity"  format="ascii">
           0           1           6           5
           1           2           7           6
           2           3           8           7
           3           4           9           8
           5           6          11          10
           6           7          12          11
           7           8          13          12
           8           9          14          13
          10          11          16          15
          11          12          17          16
          12          13          18          17
          13          14          19          18
          15          16          21          20
          16          17          22          21
          17          18          23          22
          18          19          24          23
          25          26          31          30
          26          27          32          31
          27          28          33          32
          28          29          34          33
          30          31          36          35
          31          32          37          36
          32          33          38          37
          33          34          39          38
          35          36          41          40
          36          37          42          41
          37          38          43          42
          38          39          44          43
          40          41          46          45
          41          42          47          46
          42          43          48          47
          43          44          49          48
          50          51          56          55
          51          52          57          56
          52          53          58          57
          53          54          59          58
          55          56          61          60
          56          57          62          61
          57          58          63          62
          58          59          64          63
          60          61          66          65
          61          62          67          66
          62          63          68          67
          63          64          69          68
          65          66          71          70
          66          67          72          71
          67          68          73          72
          68          69          74          73
          75          76          81          80
          76          77          82          81
          77          78          83          82
          78          79          84          83
          80          81          86          85
          81          82          87          86
          82          83          88          87
          83          84          89          88
          85          86          91          90
          86          87          92          91
          87          88          93          92
          88          89          94          93
          90          91          96          95
          91          92          97          96
          92          93          98          97
          93          94          99          98
 </DataArray>
 <DataArray  type="Int32"  Name="offsets"  format="ascii"> 
           4
           8
          12
          16
          20
          24
          28
          32
          36
          40
          44
          48
          52
          56
          60
          64
          68
          72
          76
          80
          84
          88
          92
          96
         100
         104
         108
         112
         116
         120
         124
         128
         132
         136
         140
         144
         148
         152
         156
         160
         164
         168
         172
         176
         180
         184
         188
         192
         196
         200
         204
         208
         212
         216
         220
         224
         228
         232
         236
         240
         244
         248
         252
         256
 </DataArray>
 <DataArray  type="UInt8"  Name="types"  format="ascii">
 9
 9
 9
 9
 9
 9
 9
 9
 9
 9
 9
 9
 9
 9
 9
 9
 9
 9
 9
 9
 9
 9
 9
 9
 9
 9
 9
 9
 9
 9
 9
 9
 9
 9
 9
 9
 9
 9
 9
 9
 9
 9
 9
 9
 9
 9
 9
 9
 9
 9
 9
 9
 9
 9
 9
 9
 9
 9
 9
 9
 9
 9
 9
 9
 </DataArray>
 </Cells> 
 <PointData>
 <DataArray  type="Float64" Name="disp" NumberOfComponents="3" format="ascii">
   6.6327151046629701E-002   5.6358690897929845E-002   0.0000000000000000     
   7.7448266815306671E-002   8.1679949099348725E-002   0.0000000000000000     
   8.7145209005876911E-002  0.10842360258037979        0.0000000000000000     
   9.5417977618340380E-002  0.13658965134102305        0.0000000000000000     
  0.10226657265269709       0.16617809538127845        0.0000000000000000     
   4.5760541868821600E-002   5.6228589167762202E-002   0.0000000000000000     
   5.4568589786950034E-002   8.0479818629476313E-002   0.0000000000000000     
   6.2164522720061219E-002  0.10666054408122573        0.0000000000000000     
   6.8548340668155155E-002  0.13477076552301043        0.0000000000000000     
   7.3720043631231871E-002  0.16481048295483042        0.0000000000000000     
   2.7850480301780615E-002   5.6135659360499621E-002   0.0000000000000000     
   3.4033986308280043E-002   7.9622582579567489E-002   0.0000000000000000     
   3.9313425790476524E-002  0.10540121658183001        0.0000000000000000     
   4.3688798748370047E-002  0.13347156136728722        0.0000000000000000     
   4.7160105181960628E-002  0.16383361693593901        0.0000000000000000     
   1.2596966345506748E-002   5.6079901476142127E-002   0.0000000000000000     
   1.5844456379296726E-002   7.9108240949622252E-002   0.0000000000000000     
   1.8591918217122829E-002  0.10464562008219264        0.0000000000000000     
   2.0839351858985045E-002  0.13269203887385331        0.0000000000000000     
   2.2586757304883381E-002  0.16324749732460417        0.0000000000000000     
   0.0000000000000000        5.6061315514689694E-002   0.0000000000000000     
   7.8062556418956319E-017   7.8936793739640618E-002   0.0000000000000000     
   1.2576745200831851E-016  0.10439375458231362        0.0000000000000000     
   1.4203048459560108E-016  0.13243219804270873        0.0000000000000000     
   1.3704315460216776E-016  0.16305212412082590        0.0000000000000000     
  0.10226657265269709       0.16617809538127845        0.0000000000000000     
  0.10773912647654259       0.19725903247518956        0.0000000000000000     
  0.11188377145747232       0.22990256039679988        0.0000000000000000     
  0.11470050759548633       0.26410867914610942        0.0000000000000000     
  0.11618933489058463       0.29987738872311820        0.0000000000000000     
   7.3720043631231871E-002  0.16481048295483042        0.0000000000000000     
   7.7759203261635490E-002  0.19637547786561765        0.0000000000000000     
   8.0745391211710191E-002  0.22906153174430396        0.0000000000000000     
   8.2678607481455987E-002  0.26286864459088938        0.0000000000000000     
   8.3558852070872852E-002  0.29779681640537387        0.0000000000000000     
   4.7160105181960628E-002  0.16383361693593901        0.0000000000000000     
   4.9809374443909385E-002  0.19574436743020909        0.0000000000000000     
   5.1718635886877445E-002  0.22846079699252114        0.0000000000000000     
   5.2887889510864830E-002  0.26198290562287502        0.0000000000000000     
   5.3317135315871525E-002  0.29631069332127080        0.0000000000000000     
   2.2586757304883381E-002  0.16324749732460417        0.0000000000000000     
   2.3889640023364259E-002  0.19536570116896398        0.0000000000000000     
   2.4803505482974095E-002  0.22810035614145135        0.0000000000000000     
   2.5328353683712886E-002  0.26145146224206633        0.0000000000000000     
   2.5464184625580640E-002  0.29541901947080895        0.0000000000000000     
   1.3704315460216776E-016  0.16305212412082590        0.0000000000000000     
   1.2316536679435330E-016  0.19523947908188222        0.0000000000000000     
   1.2143064331837650E-016  0.22798020919109474        0.0000000000000000     
   1.4268100589909238E-016  0.26127431444846344        0.0000000000000000     
   1.8388068845354155E-016  0.29512179485398832        0.0000000000000000     
   0.0000000000000000        5.6061315514689694E-002   0.0000000000000000     
   7.8062556418956319E-017   7.8936793739640618E-002   0.0000000000000000     
   1.2576745200831851E-016  0.10439375458231362        0.0000000000000000     
   1.4203048459560108E-016  0.13243219804270873        0.0000000000000000     
   1.3704315460216776E-016  0.16305212412082590        0.0000000000000000     
  -1.2596966345506709E-002   5.6079901476142335E-002   0.0000000000000000     
  -1.5844456379296552E-002   7.9108240949622516E-002   0.0000000000000000     
  -1.8591918217122558E-002  0.10464562008219287        0.0000000000000000     
  -2.0839351858984750E-002  0.13269203887385345        0.0000000000000000     
  -2.2586757304883111E-002  0.16324749732460420        0.0000000000000000     
  -2.7850480301780462E-002   5.6135659360500023E-002   0.0000000000000000     
  -3.4033986308279786E-002   7.9622582579567933E-002   0.0000000000000000     
  -3.9313425790476204E-002  0.10540121658183041        0.0000000000000000     
  -4.3688798748369728E-002  0.13347156136728747        0.0000000000000000     
  -4.7160105181960336E-002  0.16383361693593906        0.0000000000000000     
  -4.5760541868821260E-002   5.6228589167762778E-002   0.0000000000000000     
  -5.4568589786949638E-002   8.0479818629476882E-002   0.0000000000000000     
  -6.2164522720060816E-002  0.10666054408122620        0.0000000000000000     
  -6.8548340668154781E-002  0.13477076552301073        0.0000000000000000     
  -7.3720043631231538E-002  0.16481048295483050        0.0000000000000000     
  -6.6327151046629090E-002   5.6358690897930587E-002   0.0000000000000000     
  -7.7448266815306116E-002   8.1679949099349336E-002   0.0000000000000000     
  -8.7145209005876384E-002  0.10842360258038024        0.0000000000000000     
  -9.5417977618339936E-002  0.13658965134102330        0.0000000000000000     
 -0.10226657265269673       0.16617809538127848        0.0000000000000000     
   1.3704315460216776E-016  0.16305212412082590        0.0000000000000000     
   1.2316536679435330E-016  0.19523947908188222        0.0000000000000000     
   1.2143064331837650E-016  0.22798020919109474        0.0000000000000000     
   1.4268100589909238E-016  0.26127431444846344        0.0000000000000000     
   1.8388068845354155E-016  0.29512179485398832        0.0000000000000000     
  -2.2586757304883111E-002  0.16324749732460420        0.0000000000000000     
  -2.3889640023364016E-002  0.19536570116896385        0.0000000000000000     
  -2.4803505482973841E-002  0.22810035614145122        0.0000000000000000     
  -2.5328353683712612E-002  0.26145146224206622        0.0000000000000000     
  -2.5464184625580290E-002  0.29541901947080895        0.0000000000000000     
  -4.7160105181960336E-002  0.16383361693593906        0.0000000000000000     
  -4.9809374443909128E-002  0.19574436743020898        0.0000000000000000     
  -5.1718635886877209E-002  0.22846079699252086        0.0000000000000000     
  -5.2887889510864580E-002  0.26198290562287485        0.0000000000000000     
  -5.3317135315871234E-002  0.29631069332127086        0.0000000000000000     
  -7.3720043631231538E-002  0.16481048295483050        0.0000000000000000     
  -7.7759203261635226E-002  0.19637547786561751        0.0000000000000000     
  -8.0745391211709969E-002  0.22906153174430371        0.0000000000000000     
  -8.2678607481455779E-002  0.26286864459088916        0.0000000000000000     
  -8.3558852070872658E-002  0.29779681640537398        0.0000000000000000     
 -0.10226657265269673       0.16617809538127848        0.0000000000000000     
 -0.10773912647654228       0.19725903247518942        0.0000000000000000     
 -0.11188377145747211       0.22990256039679974        0.0000000000000000     
 -0.11470050759548621       0.26410867914610936        0.0000000000000000     
 -0.11618933489058454       0.29987738872311837        0.0000000000000000     
 </DataArray>
 <DataArray  type="Float64" Name="stress" NumberOfComponents="3" format="ascii">
   6218160659.4695215        1794078105.8631687        501263552.93928677     
   5273435960.7915630        923673501.90745008        365583145.48153716     
   4420419271.2827482        358962261.84887183        260191413.58263886     
   3659110590.9430776        99944385.687436342        185088357.24259472     
   2989509919.7725487        146619873.42314661        140273976.46140379     
   4948035523.5283604        1430883088.0752547        747350048.17327988     
   4163543972.3881979        755295226.96896172        647785329.82494521     
   3447833428.1248875        308977388.78551579        596230493.36619115     
   2800903890.7384338        91929573.524929047        592685538.79701984     
   2222755360.2288361        104151781.18718779        637150466.11742926     
   3488300368.3030667        1010805064.5021019        1063251704.4578072     
   2914673982.7884903        545223551.67157245        973054505.87788546     
   2386901601.8584828        232488720.78960359        948588395.51827431     
   1904983225.5130432        72600571.856196046        989853373.37897301     
   1468918853.7521703        65559104.871345580        1096849439.4599822     
   1838955193.7936344        533844035.14370793        1448968521.7928674     
   1526825991.9924424        293458476.01527870        1341390673.6403587     
   1237623792.4835324        129496257.86112073        1317265120.0388870     
   971348595.26690423        41957380.681236207        1376591860.9884562     
   728000400.34255564        30841844.475617200        1519370896.4890649     
   6.5789864398803921E-005   7.2194997233179816E-005   1904500500.1784639     
   5.6456670840141889E-005   8.6881051803427430E-005   1752793833.1123636     
   3.9826200945173025E-005   7.7936741309709656E-005   1702260666.9280329     
   1.9026675839257703E-005   5.5095580112837006E-005   1752901001.6254687     
  -1.0065208739733563E-005   5.3071100627686052E-006   1904714837.2046733     
   2989509919.7725487        146619873.42314661        140273976.46140379     
   2376615240.4702606        228291757.74735349        160109925.09473345     
   1683870529.3799372        43796869.444779694        227193346.93534625     
   911275786.50159776       -406864791.48451686        341524241.98323852     
   58831011.835220575       -1123693225.0406053        503102610.23841166     
   2222755360.2288361        104151781.18718779        637150466.11742926     
   1732997292.3914354        156379576.92212385        583504316.01602924     
   1183351700.7130218        8982293.1870070100        584125952.73940146     
   573818585.19358289       -338040070.01818967        639015376.28754783     
  -95602054.166873097       -884687512.69343722        748172586.66046453     
   1468918853.7521703        65559104.871345580        1096849439.4599822     
   1122355436.2867839        94360223.689156234        993010783.22869420     
   735867002.92738795       -9922043.8064009845        950460227.43967390     
   309453553.67398173       -247287697.61532351        969197772.09291828     
  -156884911.47343516       -617736737.73761630        1049223417.1884229     
   728000400.34255564        30841844.475617200        1519370896.4890649     
   544689672.15630198        42233698.048439488        1388629326.7327342     
   341416436.02304369       -12916141.535422221        1326196171.0361590     
   118180691.94278893       -134607674.27593899        1332071429.3993440     
  -125017560.08447067       -322840900.17313743        1406255101.8222826     
  -1.0065208739733563E-005   5.3071100627686052E-006   1904714837.2046733     
  -1.3130522310470602E-005  -3.2666177455317105E-005   1770359946.5281422     
  -6.9541442201795523E-006  -4.3303273055262803E-005   1711333783.5288603     
   4.5636571444928305E-006  -3.4747845626489274E-005   1727636348.2068257     
   2.5620531337503613E-005   7.6861594012510832E-006   1819267640.5620441     
   6.5789864398803921E-005   7.2194997233179816E-005   1904500500.1784639     
   5.6456670840141889E-005   8.6881051803427430E-005   1752793833.1123636     
   3.9826200945173025E-005   7.7936741309709656E-005   1702260666.9280329     
   1.9026675839257703E-005   5.5095580112837006E-005   1752901001.6254687     
  -1.0065208739733563E-005   5.3071100627686052E-006   1904714837.2046733     
  -1838955193.7935131       -533844035.14357406        1448968521.7928953     
  -1526825991.9923477       -293458476.01514542        1341390673.6403704     
  -1237623792.4834712       -129496257.86101004        1317265120.0388854     
  -971348595.26688099       -41957380.681164920        1376591860.9884415     
  -728000400.34257758       -30841844.475611717        1519370896.4890363     
  -3488300368.3029695       -1010805064.5019841        1063251704.4578495     
  -2914673982.7884231       -545223551.67148066        973054505.87790298     
  -2386901601.8584466       -232488720.78953999        948588395.51827025     
  -1904983225.5130377       -72600571.856161118        989853373.37894845     
  -1468918853.7521994       -65559104.871349216        1096849439.4599409     
  -4948035523.5283031       -1430883088.0751565        747350048.17332423     
  -4163543972.3881688       -755295226.96891463        647785329.82496202     
  -3447833428.1248870       -308977388.78550863        596230493.36618578     
  -2800903890.7384539       -91929573.524935603        592685538.79699206     
  -2222755360.2288723       -104151781.18720162        637150466.11738503     
  -6218160659.4695158       -1794078105.8630936        501263552.93932003     
  -5273435960.7915878       -923673501.90745223        365583145.48154646     
  -4420419271.2827902       -358962261.84891272        260191413.58263135     
  -3659110590.9431267       -99944385.687484980        185088357.24257225     
  -2989509919.7725964       -146619873.42316771        140273976.46137080     
  -1.0065208739733563E-005   5.3071100627686052E-006   1904714837.2046733     
  -1.3130522310470602E-005  -3.2666177455317105E-005   1770359946.5281422     
  -6.9541442201795523E-006  -4.3303273055262803E-005   1711333783.5288603     
   4.5636571444928305E-006  -3.4747845626489274E-005   1727636348.2068257     
   2.5620531337503613E-005   7.6861594012510832E-006   1819267640.5620441     
  -728000400.34257758       -30841844.475611717        1519370896.4890363     
  -544689672.15632153       -42233698.048479438        1388629326.7327185     
  -341416436.02305102        12916141.535367891        1326196171.0361562     
  -118180691.94277334        134607674.27590692        1332071429.3993542     
   125017560.08451885        322840900.17315859        1406255101.8223026     
  -1468918853.7521994       -65559104.871349216        1096849439.4599409     
  -1122355436.2868052       -94360223.689178616        993010783.22867370     
  -735867002.92739403        9922043.8063808680        950460227.43967164     
  -309453553.67396808        247287697.61532182        969197772.09293389     
   156884911.47347334        617736737.73764777        1049223417.1884581     
  -2222755360.2288723       -104151781.18720162        637150466.11738503     
  -1732997292.3914609       -156379576.92212862        583504316.01600730     
  -1183351700.7130291       -8982293.1869879365        584125952.73940098     
  -573818585.19357836        338040070.01821780        639015376.28756630     
   95602054.166889042        884687512.69347703        748172586.66050231     
  -2989509919.7725964       -146619873.42316771        140273976.46137080     
  -2376615240.4702935       -228291757.74733680        160109925.09471986     
  -1683870529.3799629       -43796869.444751680        227193346.93534714     
  -911275786.50161076        406864791.48457181        341524241.98325503     
  -58831011.835236669        1123693225.0406406        503102610.23843986     
 </DataArray>
 <DataArray  type="Float64" Name="VM" NumberOfComponents="1" format="ascii">
   5610897235.5171509     
   4918568858.7725506     
   4276130897.7305598     
   3624381979.9751139     
   2929057143.0212283     
   4596304807.9451656     
   4002466976.8632989     
   3461819205.1211691     
   2941063786.3160353     
   2436773933.8026938     
   3613237775.2146921     
   3169219061.6315217     
   2809961279.8965836     
   2536800773.2852054     
   2382216545.2558084     
   2997258702.3771653     
   2714266434.2702804     
   2567834977.5965042     
   2567009685.9485755     
   2726526488.1233010     
   3298691629.3494391     
   3035927974.1440172     
   2948401962.8454347     
   3036113595.4536872     
   3299062871.9687767     
   2929057143.0212283     
   2287960013.0894570     
   1708344320.8045974     
   1310207988.8553510     
   1446233822.9564896     
   2436773933.8026938     
   1943749125.9293294     
   1553506389.8302095     
   1364747040.9434102     
   1544836710.6778576     
   2382216545.2558084     
   2029997811.3229082     
   1805276690.5445251     
   1746845650.9863405     
   1900501859.1715558     
   2726526488.1233010     
   2461775880.5884938     
   2323258626.3095937     
   2317592891.1426244     
   2451969634.7472477     
   3299062871.9687767     
   3066353375.0716629     
   2964117061.7810650     
   2992353932.0969787     
   3151063986.0194149     
   3298691629.3494391     
   3035927974.1440172     
   2948401962.8454347     
   3036113595.4536872     
   3299062871.9687767     
   2997258702.3771591     
   2714266434.2702727     
   2567834977.5964947     
   2567009685.9485555     
   2726526488.1232595     
   3613237775.2146730     
   3169219061.6315084     
   2809961279.8965716     
   2536800773.2851844     
   2382216545.2557678     
   4596304807.9451571     
   4002466976.8632951     
   3461819205.1211686     
   2941063786.3160343     
   2436773933.8026862     
   5610897235.5171719     
   4918568858.7725763     
   4276130897.7305818     
   3624381979.9751363     
   2929057143.0212617     
   3299062871.9687767     
   3066353375.0716629     
   2964117061.7810650     
   2992353932.0969787     
   3151063986.0194149     
   2726526488.1232595     
   2461775880.5884676     
   2323258626.3095856     
   2317592891.1426382     
   2451969634.7472835     
   2382216545.2557678     
   2029997811.3228841     
   1805276690.5445199     
   1746845650.9863627     
   1900501859.1716197     
   2436773933.8026862     
   1943749125.9293296     
   1553506389.8302219     
   1364747040.9434466     
   1544836710.6779306     
   2929057143.0212617     
   2287960013.0894942     
   1708344320.8046360     
   1310207988.8554113     
   1446233822.9565542     
 </DataArray>
 <DataArray  type="Float64" Name="strain" NumberOfComponents="3" format="ascii">
   9.4665620461842848E-002  -1.1895015329614622E-003   2.1721420627369092E-002
   8.3272231836988814E-002  -1.0972621438833652E-002   1.5841936304199944E-002
   7.1878843212134780E-002  -1.6119391992265877E-002   1.1274961255247684E-002
   6.0485454587280774E-002  -1.6629813193258115E-002   8.0204954805124379E-003
   4.9092065962426740E-002  -1.2503885041810298E-002   6.0785389799941636E-003
   7.5312843285096409E-002  -8.9212614972089543E-004   3.2385168754175464E-002
   6.5615923404958490E-002  -8.2294660791249613E-003   2.8070697625747626E-002
   5.5919003524820543E-002  -1.2089543994199176E-002   2.5836654712534948E-002
   4.6222083644682582E-002  -1.2472359894943351E-002   2.5683040014537528E-002
   3.6525163764544663E-002  -9.3779137813577162E-003   2.7609853531755268E-002
   5.3084314149207265E-002  -5.9475076648030090E-004   4.6074240526504981E-002
   4.5851781954783642E-002  -5.4863107194162430E-003   4.2165695254708369E-002
   3.8619249760360033E-002  -8.0596959961323558E-003   4.1105497139125223E-002
   3.1386717565936403E-002  -8.3149065966286132E-003   4.2893646179755496E-002
   2.4154185371512781E-002  -6.2519425209050933E-003   4.7530142376599228E-002
   2.7980033054175367E-002  -2.9737538323970636E-004   6.2788635944357588E-002
   2.3979807486464312E-002  -2.7431553597075664E-003   5.8126929191082206E-002
   1.9979581918753271E-002  -4.0298479980656506E-003   5.7081488535018439E-002
   1.5979356351042223E-002  -4.1574532983139180E-003   5.9652313976166438E-002
   1.1979130783331174E-002  -3.1259712604524911E-003   6.5839405514526148E-002
   7.3552275381416621E-016   8.7430063189231078E-016   8.2528355007733437E-002
   5.0653925498522767E-016   1.1657341758564144E-015   7.5954399434869091E-002
   2.7408630920433552E-016   1.0998146837692957E-015   7.3764628900214763E-002
   4.1633363423443370E-017   8.2312628935099497E-016   7.5959043403770313E-002
  -1.9428902930940239E-016   1.3877787807814457E-016   8.2537642945535838E-002
   4.9092065962426740E-002  -1.2503885041810298E-002   6.0785389799941636E-003
   3.8468795219100904E-002  -8.0782135732287430E-003   6.9380967541051164E-003
   2.7845524475775055E-002  -7.6894048228200243E-003   9.8450450338650047E-003
   1.7222253732449212E-002  -1.1337458790583269E-002   1.4799383819273669E-002
   6.5989829891233698E-003  -1.9022375476519526E-002   2.1801113110331172E-002
   3.6525163764544663E-002  -9.3779137813577162E-003   2.7609853531755268E-002
   2.8101390321913305E-002  -6.0586601799217793E-003   2.5285187027361267E-002
   1.9677616879281996E-002  -5.7670536171149922E-003   2.5312124618707396E-002
   1.1253843436650663E-002  -8.5030940929377435E-003   2.7690666305793740E-002
   2.8300699940193019E-003  -1.4266781607389589E-002   3.2420812088620132E-002
   2.4154185371512781E-002  -6.2519425209050933E-003   4.7530142376599228E-002
   1.8234122819667284E-002  -4.0391067866146491E-003   4.3030467273243417E-002
   1.2314060267821805E-002  -3.8447024114102897E-003   4.1186609855719203E-002
   6.3939977159763132E-003  -5.6687293952919675E-003   4.1998570124026462E-002
   4.7393516413082870E-004  -9.5111877382597632E-003   4.5466348078164992E-002
   1.1979130783331174E-002  -3.1259712604524911E-003   6.5839405514526148E-002
   8.8669927123628360E-003  -2.0195533933075188E-003   6.0173937491751817E-002
   5.7548546413945063E-003  -1.9223512057055889E-003   5.7468500744900224E-002
   2.6427165704261770E-003  -2.8343646976462613E-003   5.7723095273971577E-002
  -4.6942150054215745E-004  -4.7555938691299371E-003   6.0937721078965577E-002
  -1.9428902930940239E-016   1.3877787807814457E-016   8.2537642945535838E-002
  -5.5511151231257827E-017  -4.7878367936959876E-016   7.6715597682886161E-002
   1.0061396160665481E-016  -6.8695049648681561E-016   7.4157797286250618E-002
   2.4980018054066022E-016  -6.0194904616395206E-016   7.4864241755629113E-002
   3.8857805861880479E-016   0.0000000000000000        7.8834931091021909E-002
   7.3552275381416621E-016   8.7430063189231078E-016   8.2528355007733437E-002
   5.0653925498522767E-016   1.1657341758564144E-015   7.5954399434869091E-002
   2.7408630920433552E-016   1.0998146837692957E-015   7.3764628900214763E-002
   4.1633363423443370E-017   8.2312628935099497E-016   7.5959043403770313E-002
  -1.9428902930940239E-016   1.3877787807814457E-016   8.2537642945535838E-002
  -2.7980033054174014E-002   2.9737538324133006E-004   6.2788635944358795E-002
  -2.3979807486463400E-002   2.7431553597093150E-003   5.8126929191082713E-002
  -1.9979581918752799E-002   4.0298479980671875E-003   5.7081488535018363E-002
  -1.5979356351042192E-002   4.1574532983149892E-003   5.9652313976165799E-002
  -1.1979130783331567E-002   3.1259712604526924E-003   6.5839405514524912E-002
  -5.3084314149206238E-002   5.9475076648177888E-004   4.6074240526506813E-002
  -4.5851781954782983E-002   5.4863107194174365E-003   4.2165695254709132E-002
  -3.8619249760359742E-002   8.0596959961332319E-003   4.1105497139125043E-002
  -3.1386717565936487E-002   8.3149065966291683E-003   4.2893646179754434E-002
  -2.4154185371513245E-002   6.2519425209051765E-003   4.7530142376597438E-002
  -7.5312843285095951E-002   8.9212614972224505E-004   3.2385168754177386E-002
  -6.5615923404958240E-002   8.2294660791255997E-003   2.8070697625748355E-002
  -5.5919003524820578E-002   1.2089543994199290E-002   2.5836654712534716E-002
  -4.6222083644682888E-002   1.2472359894943342E-002   2.5683040014536324E-002
  -3.6525163764545197E-002   9.3779137813576677E-003   2.7609853531753353E-002
  -9.4665620461843125E-002   1.1895015329626835E-003   2.1721420627370536E-002
  -8.3272231836989202E-002   1.0972621438833735E-002   1.5841936304200346E-002
  -7.1878843212135279E-002   1.6119391992265406E-002   1.1274961255247358E-002
  -6.0485454587281356E-002   1.6629813193257553E-002   8.0204954805114647E-003
  -4.9092065962427434E-002   1.2503885041810187E-002   6.0785389799927342E-003
  -1.9428902930940239E-016   1.3877787807814457E-016   8.2537642945535838E-002
  -5.5511151231257827E-017  -4.7878367936959876E-016   7.6715597682886161E-002
   1.0061396160665481E-016  -6.8695049648681561E-016   7.4157797286250618E-002
   2.4980018054066022E-016  -6.0194904616395206E-016   7.4864241755629113E-002
   3.8857805861880479E-016   0.0000000000000000        7.8834931091021909E-002
  -1.1979130783331567E-002   3.1259712604526924E-003   6.5839405514524912E-002
  -8.8669927123629609E-003   2.0195533933069498E-003   6.0173937491751137E-002
  -5.7548546413943562E-003   1.9223512057047198E-003   5.7468500744900106E-002
  -2.6427165704257568E-003   2.8343646976456485E-003   5.7723095273972021E-002
   4.6942150054285481E-004   4.7555938691300481E-003   6.0937721078966445E-002
  -2.4154185371513245E-002   6.2519425209051765E-003   4.7530142376597438E-002
  -1.8234122819667527E-002   4.0391067866143819E-003   4.3030467273242529E-002
  -1.2314060267821805E-002   3.8447024114099844E-003   4.1186609855719106E-002
  -6.3939977159760773E-003   5.6687293952918704E-003   4.1998570124027135E-002
  -4.7393516413034992E-004   9.5111877382600962E-003   4.5466348078166519E-002
  -3.6525163764545197E-002   9.3779137813576677E-003   2.7609853531753353E-002
  -2.8101390321913704E-002   6.0586601799218261E-003   2.5285187027360316E-002
  -1.9677616879282215E-002   5.7670536171153478E-003   2.5312124618707379E-002
  -1.1253843436650729E-002   8.5030940929381894E-003   2.7690666305794542E-002
  -2.8300699940192343E-003   1.4266781607390172E-002   3.2420812088621770E-002
  -4.9092065962427434E-002   1.2503885041810187E-002   6.0785389799927342E-003
  -3.8468795219101543E-002   8.0782135732291871E-003   6.9380967541045266E-003
  -2.7845524475775624E-002   7.6894048228206210E-003   9.8450450338650429E-003
  -1.7222253732449705E-002   1.1337458790584251E-002   1.4799383819274384E-002
  -6.5989829891238139E-003   1.9022375476520192E-002   2.1801113110332393E-002
 </DataArray>
 </PointData>
 </Piece>
 </UnstructuredGrid>
 </VTKFile>
