 <VTKFile type="UnstructuredGrid"  version="0.1"   >
 <UnstructuredGrid>
 <Piece  NumberOfPoints="           400 "  NumberOfCells="          256 ">
 <Points>
 <DataArray  type="Float64" NumberOfComponents="3"  format="ascii" >
   0.0000000000000000        0.0000000000000000        0.0000000000000000     
   6.2500000000000000E-002   0.0000000000000000        0.0000000000000000     
  0.12500000000000000        0.0000000000000000        0.0000000000000000     
  0.18750000000000000        0.0000000000000000        0.0000000000000000     
  0.25000000000000000        0.0000000000000000        0.0000000000000000     
   0.0000000000000000        6.2500000000000000E-002   0.0000000000000000     
   6.2500000000000000E-002   6.2500000000000000E-002   0.0000000000000000     
  0.12500000000000000        6.2500000000000000E-002   0.0000000000000000     
  0.18750000000000000        6.2500000000000000E-002   0.0000000000000000     
  0.25000000000000000        6.2500000000000000E-002   0.0000000000000000     
   0.0000000000000000       0.12500000000000000        0.0000000000000000     
   6.2500000000000000E-002  0.12500000000000000        0.0000000000000000     
  0.12500000000000000       0.12500000000000000        0.0000000000000000     
  0.18750000000000000       0.12500000000000000        0.0000000000000000     
  0.25000000000000000       0.12500000000000000        0.0000000000000000     
   0.0000000000000000       0.18750000000000000        0.0000000000000000     
   6.2500000000000000E-002  0.18750000000000000        0.0000000000000000     
  0.12500000000000000       0.18750000000000000        0.0000000000000000     
  0.18750000000000000       0.18750000000000000        0.0000000000000000     
  0.25000000000000000       0.18750000000000000        0.0000000000000000     
   0.0000000000000000       0.25000000000000000        0.0000000000000000     
   6.2500000000000000E-002  0.25000000000000000        0.0000000000000000     
  0.12500000000000000       0.25000000000000000        0.0000000000000000     
  0.18750000000000000       0.25000000000000000        0.0000000000000000     
  0.25000000000000000       0.25000000000000000        0.0000000000000000     
  0.25000000000000000        0.0000000000000000        0.0000000000000000     
  0.31250000000000000        0.0000000000000000        0.0000000000000000     
  0.37500000000000000        0.0000000000000000        0.0000000000000000     
  0.43750000000000000        0.0000000000000000        0.0000000000000000     
  0.50000000000000000        0.0000000000000000        0.0000000000000000     
  0.25000000000000000        6.2500000000000000E-002   0.0000000000000000     
  0.31250000000000000        6.2500000000000000E-002   0.0000000000000000     
  0.37500000000000000        6.2500000000000000E-002   0.0000000000000000     
  0.43750000000000000        6.2500000000000000E-002   0.0000000000000000     
  0.50000000000000000        6.2500000000000000E-002   0.0000000000000000     
  0.25000000000000000       0.12500000000000000        0.0000000000000000     
  0.31250000000000000       0.12500000000000000        0.0000000000000000     
  0.37500000000000000       0.12500000000000000        0.0000000000000000     
  0.43750000000000000       0.12500000000000000        0.0000000000000000     
  0.50000000000000000       0.12500000000000000        0.0000000000000000     
  0.25000000000000000       0.18750000000000000        0.0000000000000000     
  0.31250000000000000       0.18750000000000000        0.0000000000000000     
  0.37500000000000000       0.18750000000000000        0.0000000000000000     
  0.43750000000000000       0.18750000000000000        0.0000000000000000     
  0.50000000000000000       0.18750000000000000        0.0000000000000000     
  0.25000000000000000       0.25000000000000000        0.0000000000000000     
  0.31250000000000000       0.25000000000000000        0.0000000000000000     
  0.37500000000000000       0.25000000000000000        0.0000000000000000     
  0.43750000000000000       0.25000000000000000        0.0000000000000000     
  0.50000000000000000       0.25000000000000000        0.0000000000000000     
  0.50000000000000000        0.0000000000000000        0.0000000000000000     
  0.56250000000000000        0.0000000000000000        0.0000000000000000     
  0.62500000000000000        0.0000000000000000        0.0000000000000000     
  0.68750000000000000        0.0000000000000000        0.0000000000000000     
  0.75000000000000000        0.0000000000000000        0.0000000000000000     
  0.50000000000000000        6.2500000000000000E-002   0.0000000000000000     
  0.56250000000000000        6.2500000000000000E-002   0.0000000000000000     
  0.62500000000000000        6.2500000000000000E-002   0.0000000000000000     
  0.68750000000000000        6.2500000000000000E-002   0.0000000000000000     
  0.75000000000000000        6.2500000000000000E-002   0.0000000000000000     
  0.50000000000000000       0.12500000000000000        0.0000000000000000     
  0.56250000000000000       0.12500000000000000        0.0000000000000000     
  0.62500000000000000       0.12500000000000000        0.0000000000000000     
  0.68750000000000000       0.12500000000000000        0.0000000000000000     
  0.75000000000000000       0.12500000000000000        0.0000000000000000     
  0.50000000000000000       0.18750000000000000        0.0000000000000000     
  0.56250000000000000       0.18750000000000000        0.0000000000000000     
  0.62500000000000000       0.18750000000000000        0.0000000000000000     
  0.68750000000000000       0.18750000000000000        0.0000000000000000     
  0.75000000000000000       0.18750000000000000        0.0000000000000000     
  0.50000000000000000       0.25000000000000000        0.0000000000000000     
  0.56250000000000000       0.25000000000000000        0.0000000000000000     
  0.62500000000000000       0.25000000000000000        0.0000000000000000     
  0.68750000000000000       0.25000000000000000        0.0000000000000000     
  0.75000000000000000       0.25000000000000000        0.0000000000000000     
  0.75000000000000000        0.0000000000000000        0.0000000000000000     
  0.81250000000000000        0.0000000000000000        0.0000000000000000     
  0.87500000000000000        0.0000000000000000        0.0000000000000000     
  0.93750000000000000        0.0000000000000000        0.0000000000000000     
   1.0000000000000000        0.0000000000000000        0.0000000000000000     
  0.75000000000000000        6.2500000000000000E-002   0.0000000000000000     
  0.81250000000000000        6.2500000000000000E-002   0.0000000000000000     
  0.87500000000000000        6.2500000000000000E-002   0.0000000000000000     
  0.93750000000000000        6.2500000000000000E-002   0.0000000000000000     
   1.0000000000000000        6.2500000000000000E-002   0.0000000000000000     
  0.75000000000000000       0.12500000000000000        0.0000000000000000     
  0.81250000000000000       0.12500000000000000        0.0000000000000000     
  0.87500000000000000       0.12500000000000000        0.0000000000000000     
  0.93750000000000000       0.12500000000000000        0.0000000000000000     
   1.0000000000000000       0.12500000000000000        0.0000000000000000     
  0.75000000000000000       0.18750000000000000        0.0000000000000000     
  0.81250000000000000       0.18750000000000000        0.0000000000000000     
  0.87500000000000000       0.18750000000000000        0.0000000000000000     
  0.93750000000000000       0.18750000000000000        0.0000000000000000     
   1.0000000000000000       0.18750000000000000        0.0000000000000000     
  0.75000000000000000       0.25000000000000000        0.0000000000000000     
  0.81250000000000000       0.25000000000000000        0.0000000000000000     
  0.87500000000000000       0.25000000000000000        0.0000000000000000     
  0.93750000000000000       0.25000000000000000        0.0000000000000000     
   1.0000000000000000       0.25000000000000000        0.0000000000000000     
   0.0000000000000000       0.25000000000000000        0.0000000000000000     
   6.2500000000000000E-002  0.25000000000000000        0.0000000000000000     
  0.12500000000000000       0.25000000000000000        0.0000000000000000     
  0.18750000000000000       0.25000000000000000        0.0000000000000000     
  0.25000000000000000       0.25000000000000000        0.0000000000000000     
   0.0000000000000000       0.31250000000000000        0.0000000000000000     
   6.2500000000000000E-002  0.31250000000000000        0.0000000000000000     
  0.12500000000000000       0.31250000000000000        0.0000000000000000     
  0.18750000000000000       0.31250000000000000        0.0000000000000000     
  0.25000000000000000       0.31250000000000000        0.0000000000000000     
   0.0000000000000000       0.37500000000000000        0.0000000000000000     
   6.2500000000000000E-002  0.37500000000000000        0.0000000000000000     
  0.12500000000000000       0.37500000000000000        0.0000000000000000     
  0.18750000000000000       0.37500000000000000        0.0000000000000000     
  0.25000000000000000       0.37500000000000000        0.0000000000000000     
   0.0000000000000000       0.43750000000000000        0.0000000000000000     
   6.2500000000000000E-002  0.43750000000000000        0.0000000000000000     
  0.12500000000000000       0.43750000000000000        0.0000000000000000     
  0.18750000000000000       0.43750000000000000        0.0000000000000000     
  0.25000000000000000       0.43750000000000000        0.0000000000000000     
   0.0000000000000000       0.50000000000000000        0.0000000000000000     
   6.2500000000000000E-002  0.50000000000000000        0.0000000000000000     
  0.12500000000000000       0.50000000000000000        0.0000000000000000     
  0.18750000000000000       0.50000000000000000        0.0000000000000000     
  0.25000000000000000       0.50000000000000000        0.0000000000000000     
  0.25000000000000000       0.25000000000000000        0.0000000000000000     
  0.31250000000000000       0.25000000000000000        0.0000000000000000     
  0.37500000000000000       0.25000000000000000        0.0000000000000000     
  0.43750000000000000       0.25000000000000000        0.0000000000000000     
  0.50000000000000000       0.25000000000000000        0.0000000000000000     
  0.25000000000000000       0.31250000000000000        0.0000000000000000     
  0.31250000000000000       0.31250000000000000        0.0000000000000000     
  0.37500000000000000       0.31250000000000000        0.0000000000000000     
  0.43750000000000000       0.31250000000000000        0.0000000000000000     
  0.50000000000000000       0.31250000000000000        0.0000000000000000     
  0.25000000000000000       0.37500000000000000        0.0000000000000000     
  0.31250000000000000       0.37500000000000000        0.0000000000000000     
  0.37500000000000000       0.37500000000000000        0.0000000000000000     
  0.43750000000000000       0.37500000000000000        0.0000000000000000     
  0.50000000000000000       0.37500000000000000        0.0000000000000000     
  0.25000000000000000       0.43750000000000000        0.0000000000000000     
  0.31250000000000000       0.43750000000000000        0.0000000000000000     
  0.37500000000000000       0.43750000000000000        0.0000000000000000     
  0.43750000000000000       0.43750000000000000        0.0000000000000000     
  0.50000000000000000       0.43750000000000000        0.0000000000000000     
  0.25000000000000000       0.50000000000000000        0.0000000000000000     
  0.31250000000000000       0.50000000000000000        0.0000000000000000     
  0.37500000000000000       0.50000000000000000        0.0000000000000000     
  0.43750000000000000       0.50000000000000000        0.0000000000000000     
  0.50000000000000000       0.50000000000000000        0.0000000000000000     
  0.50000000000000000       0.25000000000000000        0.0000000000000000     
  0.56250000000000000       0.25000000000000000        0.0000000000000000     
  0.62500000000000000       0.25000000000000000        0.0000000000000000     
  0.68750000000000000       0.25000000000000000        0.0000000000000000     
  0.75000000000000000       0.25000000000000000        0.0000000000000000     
  0.50000000000000000       0.31250000000000000        0.0000000000000000     
  0.56250000000000000       0.31250000000000000        0.0000000000000000     
  0.62500000000000000       0.31250000000000000        0.0000000000000000     
  0.68750000000000000       0.31250000000000000        0.0000000000000000     
  0.75000000000000000       0.31250000000000000        0.0000000000000000     
  0.50000000000000000       0.37500000000000000        0.0000000000000000     
  0.56250000000000000       0.37500000000000000        0.0000000000000000     
  0.62500000000000000       0.37500000000000000        0.0000000000000000     
  0.68750000000000000       0.37500000000000000        0.0000000000000000     
  0.75000000000000000       0.37500000000000000        0.0000000000000000     
  0.50000000000000000       0.43750000000000000        0.0000000000000000     
  0.56250000000000000       0.43750000000000000        0.0000000000000000     
  0.62500000000000000       0.43750000000000000        0.0000000000000000     
  0.68750000000000000       0.43750000000000000        0.0000000000000000     
  0.75000000000000000       0.43750000000000000        0.0000000000000000     
  0.50000000000000000       0.50000000000000000        0.0000000000000000     
  0.56250000000000000       0.50000000000000000        0.0000000000000000     
  0.62500000000000000       0.50000000000000000        0.0000000000000000     
  0.68750000000000000       0.50000000000000000        0.0000000000000000     
  0.75000000000000000       0.50000000000000000        0.0000000000000000     
  0.75000000000000000       0.25000000000000000        0.0000000000000000     
  0.81250000000000000       0.25000000000000000        0.0000000000000000     
  0.87500000000000000       0.25000000000000000        0.0000000000000000     
  0.93750000000000000       0.25000000000000000        0.0000000000000000     
   1.0000000000000000       0.25000000000000000        0.0000000000000000     
  0.75000000000000000       0.31250000000000000        0.0000000000000000     
  0.81250000000000000       0.31250000000000000        0.0000000000000000     
  0.87500000000000000       0.31250000000000000        0.0000000000000000     
  0.93750000000000000       0.31250000000000000        0.0000000000000000     
   1.0000000000000000       0.31250000000000000        0.0000000000000000     
  0.75000000000000000       0.37500000000000000        0.0000000000000000     
  0.81250000000000000       0.37500000000000000        0.0000000000000000     
  0.87500000000000000       0.37500000000000000        0.0000000000000000     
  0.93750000000000000       0.37500000000000000        0.0000000000000000     
   1.0000000000000000       0.37500000000000000        0.0000000000000000     
  0.75000000000000000       0.43750000000000000        0.0000000000000000     
  0.81250000000000000       0.43750000000000000        0.0000000000000000     
  0.87500000000000000       0.43750000000000000        0.0000000000000000     
  0.93750000000000000       0.43750000000000000        0.0000000000000000     
   1.0000000000000000       0.43750000000000000        0.0000000000000000     
  0.75000000000000000       0.50000000000000000        0.0000000000000000     
  0.81250000000000000       0.50000000000000000        0.0000000000000000     
  0.87500000000000000       0.50000000000000000        0.0000000000000000     
  0.93750000000000000       0.50000000000000000        0.0000000000000000     
   1.0000000000000000       0.50000000000000000        0.0000000000000000     
   0.0000000000000000       0.50000000000000000        0.0000000000000000     
   6.2500000000000000E-002  0.50000000000000000        0.0000000000000000     
  0.12500000000000000       0.50000000000000000        0.0000000000000000     
  0.18750000000000000       0.50000000000000000        0.0000000000000000     
  0.25000000000000000       0.50000000000000000        0.0000000000000000     
   0.0000000000000000       0.56250000000000000        0.0000000000000000     
   6.2500000000000000E-002  0.56250000000000000        0.0000000000000000     
  0.12500000000000000       0.56250000000000000        0.0000000000000000     
  0.18750000000000000       0.56250000000000000        0.0000000000000000     
  0.25000000000000000       0.56250000000000000        0.0000000000000000     
   0.0000000000000000       0.62500000000000000        0.0000000000000000     
   6.2500000000000000E-002  0.62500000000000000        0.0000000000000000     
  0.12500000000000000       0.62500000000000000        0.0000000000000000     
  0.18750000000000000       0.62500000000000000        0.0000000000000000     
  0.25000000000000000       0.62500000000000000        0.0000000000000000     
   0.0000000000000000       0.68750000000000000        0.0000000000000000     
   6.2500000000000000E-002  0.68750000000000000        0.0000000000000000     
  0.12500000000000000       0.68750000000000000        0.0000000000000000     
  0.18750000000000000       0.68750000000000000        0.0000000000000000     
  0.25000000000000000       0.68750000000000000        0.0000000000000000     
   0.0000000000000000       0.75000000000000000        0.0000000000000000     
   6.2500000000000000E-002  0.75000000000000000        0.0000000000000000     
  0.12500000000000000       0.75000000000000000        0.0000000000000000     
  0.18750000000000000       0.75000000000000000        0.0000000000000000     
  0.25000000000000000       0.75000000000000000        0.0000000000000000     
  0.25000000000000000       0.50000000000000000        0.0000000000000000     
  0.31250000000000000       0.50000000000000000        0.0000000000000000     
  0.37500000000000000       0.50000000000000000        0.0000000000000000     
  0.43750000000000000       0.50000000000000000        0.0000000000000000     
  0.50000000000000000       0.50000000000000000        0.0000000000000000     
  0.25000000000000000       0.56250000000000000        0.0000000000000000     
  0.31250000000000000       0.56250000000000000        0.0000000000000000     
  0.37500000000000000       0.56250000000000000        0.0000000000000000     
  0.43750000000000000       0.56250000000000000        0.0000000000000000     
  0.50000000000000000       0.56250000000000000        0.0000000000000000     
  0.25000000000000000       0.62500000000000000        0.0000000000000000     
  0.31250000000000000       0.62500000000000000        0.0000000000000000     
  0.37500000000000000       0.62500000000000000        0.0000000000000000     
  0.43750000000000000       0.62500000000000000        0.0000000000000000     
  0.50000000000000000       0.62500000000000000        0.0000000000000000     
  0.25000000000000000       0.68750000000000000        0.0000000000000000     
  0.31250000000000000       0.68750000000000000        0.0000000000000000     
  0.37500000000000000       0.68750000000000000        0.0000000000000000     
  0.43750000000000000       0.68750000000000000        0.0000000000000000     
  0.50000000000000000       0.68750000000000000        0.0000000000000000     
  0.25000000000000000       0.75000000000000000        0.0000000000000000     
  0.31250000000000000       0.75000000000000000        0.0000000000000000     
  0.37500000000000000       0.75000000000000000        0.0000000000000000     
  0.43750000000000000       0.75000000000000000        0.0000000000000000     
  0.50000000000000000       0.75000000000000000        0.0000000000000000     
  0.50000000000000000       0.50000000000000000        0.0000000000000000     
  0.56250000000000000       0.50000000000000000        0.0000000000000000     
  0.62500000000000000       0.50000000000000000        0.0000000000000000     
  0.68750000000000000       0.50000000000000000        0.0000000000000000     
  0.75000000000000000       0.50000000000000000        0.0000000000000000     
  0.50000000000000000       0.56250000000000000        0.0000000000000000     
  0.56250000000000000       0.56250000000000000        0.0000000000000000     
  0.62500000000000000       0.56250000000000000        0.0000000000000000     
  0.68750000000000000       0.56250000000000000        0.0000000000000000     
  0.75000000000000000       0.56250000000000000        0.0000000000000000     
  0.50000000000000000       0.62500000000000000        0.0000000000000000     
  0.56250000000000000       0.62500000000000000        0.0000000000000000     
  0.62500000000000000       0.62500000000000000        0.0000000000000000     
  0.68750000000000000       0.62500000000000000        0.0000000000000000     
  0.75000000000000000       0.62500000000000000        0.0000000000000000     
  0.50000000000000000       0.68750000000000000        0.0000000000000000     
  0.56250000000000000       0.68750000000000000        0.0000000000000000     
  0.62500000000000000       0.68750000000000000        0.0000000000000000     
  0.68750000000000000       0.68750000000000000        0.0000000000000000     
  0.75000000000000000       0.68750000000000000        0.0000000000000000     
  0.50000000000000000       0.75000000000000000        0.0000000000000000     
  0.56250000000000000       0.75000000000000000        0.0000000000000000     
  0.62500000000000000       0.75000000000000000        0.0000000000000000     
  0.68750000000000000       0.75000000000000000        0.0000000000000000     
  0.75000000000000000       0.75000000000000000        0.0000000000000000     
  0.75000000000000000       0.50000000000000000        0.0000000000000000     
  0.81250000000000000       0.50000000000000000        0.0000000000000000     
  0.87500000000000000       0.50000000000000000        0.0000000000000000     
  0.93750000000000000       0.50000000000000000        0.0000000000000000     
   1.0000000000000000       0.50000000000000000        0.0000000000000000     
  0.75000000000000000       0.56250000000000000        0.0000000000000000     
  0.81250000000000000       0.56250000000000000        0.0000000000000000     
  0.87500000000000000       0.56250000000000000        0.0000000000000000     
  0.93750000000000000       0.56250000000000000        0.0000000000000000     
   1.0000000000000000       0.56250000000000000        0.0000000000000000     
  0.75000000000000000       0.62500000000000000        0.0000000000000000     
  0.81250000000000000       0.62500000000000000        0.0000000000000000     
  0.87500000000000000       0.62500000000000000        0.0000000000000000     
  0.93750000000000000       0.62500000000000000        0.0000000000000000     
   1.0000000000000000       0.62500000000000000        0.0000000000000000     
  0.75000000000000000       0.68750000000000000        0.0000000000000000     
  0.81250000000000000       0.68750000000000000        0.0000000000000000     
  0.87500000000000000       0.68750000000000000        0.0000000000000000     
  0.93750000000000000       0.68750000000000000        0.0000000000000000     
   1.0000000000000000       0.68750000000000000        0.0000000000000000     
  0.75000000000000000       0.75000000000000000        0.0000000000000000     
  0.81250000000000000       0.75000000000000000        0.0000000000000000     
  0.87500000000000000       0.75000000000000000        0.0000000000000000     
  0.93750000000000000       0.75000000000000000        0.0000000000000000     
   1.0000000000000000       0.75000000000000000        0.0000000000000000     
   0.0000000000000000       0.75000000000000000        0.0000000000000000     
   6.2500000000000000E-002  0.75000000000000000        0.0000000000000000     
  0.12500000000000000       0.75000000000000000        0.0000000000000000     
  0.18750000000000000       0.75000000000000000        0.0000000000000000     
  0.25000000000000000       0.75000000000000000        0.0000000000000000     
   0.0000000000000000       0.81250000000000000        0.0000000000000000     
   6.2500000000000000E-002  0.81250000000000000        0.0000000000000000     
  0.12500000000000000       0.81250000000000000        0.0000000000000000     
  0.18750000000000000       0.81250000000000000        0.0000000000000000     
  0.25000000000000000       0.81250000000000000        0.0000000000000000     
   0.0000000000000000       0.87500000000000000        0.0000000000000000     
   6.2500000000000000E-002  0.87500000000000000        0.0000000000000000     
  0.12500000000000000       0.87500000000000000        0.0000000000000000     
  0.18750000000000000       0.87500000000000000        0.0000000000000000     
  0.25000000000000000       0.87500000000000000        0.0000000000000000     
   0.0000000000000000       0.93750000000000000        0.0000000000000000     
   6.2500000000000000E-002  0.93750000000000000        0.0000000000000000     
  0.12500000000000000       0.93750000000000000        0.0000000000000000     
  0.18750000000000000       0.93750000000000000        0.0000000000000000     
  0.25000000000000000       0.93750000000000000        0.0000000000000000     
   0.0000000000000000        1.0000000000000000        0.0000000000000000     
   6.2500000000000000E-002   1.0000000000000000        0.0000000000000000     
  0.12500000000000000        1.0000000000000000        0.0000000000000000     
  0.18750000000000000        1.0000000000000000        0.0000000000000000     
  0.25000000000000000        1.0000000000000000        0.0000000000000000     
  0.25000000000000000       0.75000000000000000        0.0000000000000000     
  0.31250000000000000       0.75000000000000000        0.0000000000000000     
  0.37500000000000000       0.75000000000000000        0.0000000000000000     
  0.43750000000000000       0.75000000000000000        0.0000000000000000     
  0.50000000000000000       0.75000000000000000        0.0000000000000000     
  0.25000000000000000       0.81250000000000000        0.0000000000000000     
  0.31250000000000000       0.81250000000000000        0.0000000000000000     
  0.37500000000000000       0.81250000000000000        0.0000000000000000     
  0.43750000000000000       0.81250000000000000        0.0000000000000000     
  0.50000000000000000       0.81250000000000000        0.0000000000000000     
  0.25000000000000000       0.87500000000000000        0.0000000000000000     
  0.31250000000000000       0.87500000000000000        0.0000000000000000     
  0.37500000000000000       0.87500000000000000        0.0000000000000000     
  0.43750000000000000       0.87500000000000000        0.0000000000000000     
  0.50000000000000000       0.87500000000000000        0.0000000000000000     
  0.25000000000000000       0.93750000000000000        0.0000000000000000     
  0.31250000000000000       0.93750000000000000        0.0000000000000000     
  0.37500000000000000       0.93750000000000000        0.0000000000000000     
  0.43750000000000000       0.93750000000000000        0.0000000000000000     
  0.50000000000000000       0.93750000000000000        0.0000000000000000     
  0.25000000000000000        1.0000000000000000        0.0000000000000000     
  0.31250000000000000        1.0000000000000000        0.0000000000000000     
  0.37500000000000000        1.0000000000000000        0.0000000000000000     
  0.43750000000000000        1.0000000000000000        0.0000000000000000     
  0.50000000000000000        1.0000000000000000        0.0000000000000000     
  0.50000000000000000       0.75000000000000000        0.0000000000000000     
  0.56250000000000000       0.75000000000000000        0.0000000000000000     
  0.62500000000000000       0.75000000000000000        0.0000000000000000     
  0.68750000000000000       0.75000000000000000        0.0000000000000000     
  0.75000000000000000       0.75000000000000000        0.0000000000000000     
  0.50000000000000000       0.81250000000000000        0.0000000000000000     
  0.56250000000000000       0.81250000000000000        0.0000000000000000     
  0.62500000000000000       0.81250000000000000        0.0000000000000000     
  0.68750000000000000       0.81250000000000000        0.0000000000000000     
  0.75000000000000000       0.81250000000000000        0.0000000000000000     
  0.50000000000000000       0.87500000000000000        0.0000000000000000     
  0.56250000000000000       0.87500000000000000        0.0000000000000000     
  0.62500000000000000       0.87500000000000000        0.0000000000000000     
  0.68750000000000000       0.87500000000000000        0.0000000000000000     
  0.75000000000000000       0.87500000000000000        0.0000000000000000     
  0.50000000000000000       0.93750000000000000        0.0000000000000000     
  0.56250000000000000       0.93750000000000000        0.0000000000000000     
  0.62500000000000000       0.93750000000000000        0.0000000000000000     
  0.68750000000000000       0.93750000000000000        0.0000000000000000     
  0.75000000000000000       0.93750000000000000        0.0000000000000000     
  0.50000000000000000        1.0000000000000000        0.0000000000000000     
  0.56250000000000000        1.0000000000000000        0.0000000000000000     
  0.62500000000000000        1.0000000000000000        0.0000000000000000     
  0.68750000000000000        1.0000000000000000        0.0000000000000000     
  0.75000000000000000        1.0000000000000000        0.0000000000000000     
  0.75000000000000000       0.75000000000000000        0.0000000000000000     
  0.81250000000000000       0.75000000000000000        0.0000000000000000     
  0.87500000000000000       0.75000000000000000        0.0000000000000000     
  0.93750000000000000       0.75000000000000000        0.0000000000000000     
   1.0000000000000000       0.75000000000000000        0.0000000000000000     
  0.75000000000000000       0.81250000000000000        0.0000000000000000     
  0.81250000000000000       0.81250000000000000        0.0000000000000000     
  0.87500000000000000       0.81250000000000000        0.0000000000000000     
  0.93750000000000000       0.81250000000000000        0.0000000000000000     
   1.0000000000000000       0.81250000000000000        0.0000000000000000     
  0.75000000000000000       0.87500000000000000        0.0000000000000000     
  0.81250000000000000       0.87500000000000000        0.0000000000000000     
  0.87500000000000000       0.87500000000000000        0.0000000000000000     
  0.93750000000000000       0.87500000000000000        0.0000000000000000     
   1.0000000000000000       0.87500000000000000        0.0000000000000000     
  0.75000000000000000       0.93750000000000000        0.0000000000000000     
  0.81250000000000000       0.93750000000000000        0.0000000000000000     
  0.87500000000000000       0.93750000000000000        0.0000000000000000     
  0.93750000000000000       0.93750000000000000        0.0000000000000000     
   1.0000000000000000       0.93750000000000000        0.0000000000000000     
  0.75000000000000000        1.0000000000000000        0.0000000000000000     
  0.81250000000000000        1.0000000000000000        0.0000000000000000     
  0.87500000000000000        1.0000000000000000        0.0000000000000000     
  0.93750000000000000        1.0000000000000000        0.0000000000000000     
   1.0000000000000000        1.0000000000000000        0.0000000000000000     
 </DataArray>
 </Points>
 <Cells>
 <DataArray  type="Int32"  Name="connectivity"  format="ascii">
           0           1           6           5
           1           2           7           6
           2           3           8           7
           3           4           9           8
           5           6          11          10
           6           7          12          11
           7           8          13          12
           8           9          14          13
          10          11          16          15
          11          12          17          16
          12          13          18          17
          13          14          19          18
          15          16          21          20
          16          17          22          21
          17          18          23          22
          18          19          24          23
          25          26          31          30
          26          27          32          31
          27          28          33          32
          28          29          34          33
          30          31          36          35
          31          32          37          36
          32          33          38          37
          33          34          39          38
          35          36          41          40
          36          37          42          41
          37          38          43          42
          38          39          44          43
          40          41          46          45
          41          42          47          46
          42          43          48          47
          43          44          49          48
          50          51          56          55
          51          52          57          56
          52          53          58          57
          53          54          59          58
          55          56          61          60
          56          57          62          61
          57          58          63          62
          58          59          64          63
          60          61          66          65
          61          62          67          66
          62          63          68          67
          63          64          69          68
          65          66          71          70
          66          67          72          71
          67          68          73          72
          68          69          74          73
          75          76          81          80
          76          77          82          81
          77          78          83          82
          78          79          84          83
          80          81          86          85
          81          82          87          86
          82          83          88          87
          83          84          89          88
          85          86          91          90
          86          87          92          91
          87          88          93          92
          88          89          94          93
          90          91          96          95
          91          92          97          96
          92          93          98          97
          93          94          99          98
         100         101         106         105
         101         102         107         106
         102         103         108         107
         103         104         109         108
         105         106         111         110
         106         107         112         111
         107         108         113         112
         108         109         114         113
         110         111         116         115
         111         112         117         116
         112         113         118         117
         113         114         119         118
         115         116         121         120
         116         117         122         121
         117         118         123         122
         118         119         124         123
         125         126         131         130
         126         127         132         131
         127         128         133         132
         128         129         134         133
         130         131         136         135
         131         132         137         136
         132         133         138         137
         133         134         139         138
         135         136         141         140
         136         137         142         141
         137         138         143         142
         138         139         144         143
         140         141         146         145
         141         142         147         146
         142         143         148         147
         143         144         149         148
         150         151         156         155
         151         152         157         156
         152         153         158         157
         153         154         159         158
         155         156         161         160
         156         157         162         161
         157         158         163         162
         158         159         164         163
         160         161         166         165
         161         162         167         166
         162         163         168         167
         163         164         169         168
         165         166         171         170
         166         167         172         171
         167         168         173         172
         168         169         174         173
         175         176         181         180
         176         177         182         181
         177         178         183         182
         178         179         184         183
         180         181         186         185
         181         182         187         186
         182         183         188         187
         183         184         189         188
         185         186         191         190
         186         187         192         191
         187         188         193         192
         188         189         194         193
         190         191         196         195
         191         192         197         196
         192         193         198         197
         193         194         199         198
         200         201         206         205
         201         202         207         206
         202         203         208         207
         203         204         209         208
         205         206         211         210
         206         207         212         211
         207         208         213         212
         208         209         214         213
         210         211         216         215
         211         212         217         216
         212         213         218         217
         213         214         219         218
         215         216         221         220
         216         217         222         221
         217         218         223         222
         218         219         224         223
         225         226         231         230
         226         227         232         231
         227         228         233         232
         228         229         234         233
         230         231         236         235
         231         232         237         236
         232         233         238         237
         233         234         239         238
         235         236         241         240
         236         237         242         241
         237         238         243         242
         238         239         244         243
         240         241         246         245
         241         242         247         246
         242         243         248         247
         243         244         249         248
         250         251         256         255
         251         252         257         256
         252         253         258         257
         253         254         259         258
         255         256         261         260
         256         257         262         261
         257         258         263         262
         258         259         264         263
         260         261         266         265
         261         262         267         266
         262         263         268         267
         263         264         269         268
         265         266         271         270
         266         267         272         271
         267         268         273         272
         268         269         274         273
         275         276         281         280
         276         277         282         281
         277         278         283         282
         278         279         284         283
         280         281         286         285
         281         282         287         286
         282         283         288         287
         283         284         289         288
         285         286         291         290
         286         287         292         291
         287         288         293         292
         288         289         294         293
         290         291         296         295
         291         292         297         296
         292         293         298         297
         293         294         299         298
         300         301         306         305
         301         302         307         306
         302         303         308         307
         303         304         309         308
         305         306         311         310
         306         307         312         311
         307         308         313         312
         308         309         314         313
         310         311         316         315
         311         312         317         316
         312         313         318         317
         313         314         319         318
         315         316         321         320
         316         317         322         321
         317         318         323         322
         318         319         324         323
         325         326         331         330
         326         327         332         331
         327         328         333         332
         328         329         334         333
         330         331         336         335
         331         332         337         336
         332         333         338         337
         333         334         339         338
         335         336         341         340
         336         337         342         341
         337         338         343         342
         338         339         344         343
         340         341         346         345
         341         342         347         346
         342         343         348         347
         343         344         349         348
         350         351         356         355
         351         352         357         356
         352         353         358         357
         353         354         359         358
         355         356         361         360
         356         357         362         361
         357         358         363         362
         358         359         364         363
         360         361         366         365
         361         362         367         366
         362         363         368         367
         363         364         369         368
         365         366         371         370
         366         367         372         371
         367         368         373         372
         368         369         374         373
         375         376         381         380
         376         377         382         381
         377         378         383         382
         378         379         384         383
         380         381         386         385
         381         382         387         386
         382         383         388         387
         383         384         389         388
         385         386         391         390
         386         387         392         391
         387         388         393         392
         388         389         394         393
         390         391         396         395
         391         392         397         396
         392         393         398         397
         393         394         399         398
 </DataArray>
 <DataArray  type="Int32"  Name="offsets"  format="ascii"> 
           4
           8
          12
          16
          20
          24
          28
          32
          36
          40
          44
          48
          52
          56
          60
          64
          68
          72
          76
          80
          84
          88
          92
          96
         100
         104
         108
         112
         116
         120
         124
         128
         132
         136
         140
         144
         148
         152
         156
         160
         164
         168
         172
         176
         180
         184
         188
         192
         196
         200
         204
         208
         212
         216
         220
         224
         228
         232
         236
         240
         244
         248
         252
         256
         260
         264
         268
         272
         276
         280
         284
         288
         292
         296
         300
         304
         308
         312
         316
         320
         324
         328
         332
         336
         340
         344
         348
         352
         356
         360
         364
         368
         372
         376
         380
         384
         388
         392
         396
         400
         404
         408
         412
         416
         420
         424
         428
         432
         436
         440
         444
         448
         452
         456
         460
         464
         468
         472
         476
         480
         484
         488
         492
         496
         500
         504
         508
         512
         516
         520
         524
         528
         532
         536
         540
         544
         548
         552
         556
         560
         564
         568
         572
         576
         580
         584
         588
         592
         596
         600
         604
         608
         612
         616
         620
         624
         628
         632
         636
         640
         644
         648
         652
         656
         660
         664
         668
         672
         676
         680
         684
         688
         692
         696
         700
         704
         708
         712
         716
         720
         724
         728
         732
         736
         740
         744
         748
         752
         756
         760
         764
         768
         772
         776
         780
         784
         788
         792
         796
         800
         804
         808
         812
         816
         820
         824
         828
         832
         836
         840
         844
         848
         852
         856
         860
         864
         868
         872
         876
         880
         884
         888
         892
         896
         900
         904
         908
         912
         916
         920
         924
         928
         932
         936
         940
         944
         948
         952
         956
         960
         964
         968
         972
         976
         980
         984
         988
         992
         996
        1000
        1004
        1008
        1012
        1016
        1020
        1024
 </DataArray>
 <DataArray  type="UInt8"  Name="types"  format="ascii">
 9
 9
 9
 9
 9
 9
 9
 9
 9
 9
 9
 9
 9
 9
 9
 9
 9
 9
 9
 9
 9
 9
 9
 9
 9
 9
 9
 9
 9
 9
 9
 9
 9
 9
 9
 9
 9
 9
 9
 9
 9
 9
 9
 9
 9
 9
 9
 9
 9
 9
 9
 9
 9
 9
 9
 9
 9
 9
 9
 9
 9
 9
 9
 9
 9
 9
 9
 9
 9
 9
 9
 9
 9
 9
 9
 9
 9
 9
 9
 9
 9
 9
 9
 9
 9
 9
 9
 9
 9
 9
 9
 9
 9
 9
 9
 9
 9
 9
 9
 9
 9
 9
 9
 9
 9
 9
 9
 9
 9
 9
 9
 9
 9
 9
 9
 9
 9
 9
 9
 9
 9
 9
 9
 9
 9
 9
 9
 9
 9
 9
 9
 9
 9
 9
 9
 9
 9
 9
 9
 9
 9
 9
 9
 9
 9
 9
 9
 9
 9
 9
 9
 9
 9
 9
 9
 9
 9
 9
 9
 9
 9
 9
 9
 9
 9
 9
 9
 9
 9
 9
 9
 9
 9
 9
 9
 9
 9
 9
 9
 9
 9
 9
 9
 9
 9
 9
 9
 9
 9
 9
 9
 9
 9
 9
 9
 9
 9
 9
 9
 9
 9
 9
 9
 9
 9
 9
 9
 9
 9
 9
 9
 9
 9
 9
 9
 9
 9
 9
 9
 9
 9
 9
 9
 9
 9
 9
 9
 9
 9
 9
 9
 9
 9
 9
 9
 9
 9
 9
 9
 9
 9
 9
 9
 9
 9
 9
 9
 9
 9
 9
 9
 9
 9
 9
 9
 9
 </DataArray>
 </Cells> 
 <PointData>
 <DataArray  type="Float64" Name="disp" NumberOfComponents="3" format="ascii">
   0.0000000000000000        0.0000000000000000        0.0000000000000000     
   1.0687784423898079E-002   6.3640144180162660E-003   0.0000000000000000     
   2.0498017464250947E-002   1.2952706876048419E-002   0.0000000000000000     
   2.9430699121058598E-002   1.9766077374096462E-002   0.0000000000000000     
   3.7485829394321039E-002   2.6804125912160390E-002   0.0000000000000000     
   0.0000000000000000        0.0000000000000000        0.0000000000000000     
   8.1738724692409642E-003   5.0272386307974367E-003   0.0000000000000000     
   1.5979655184030311E-002   1.0763023410074164E-002   0.0000000000000000     
   2.3417348144368046E-002   1.7207354337830182E-002   0.0000000000000000     
   3.0486951350254161E-002   2.4360231414065486E-002   0.0000000000000000     
   0.0000000000000000        0.0000000000000000        0.0000000000000000     
   6.1378926003619414E-003   4.0135921553582322E-003   0.0000000000000000     
   1.2244765983264645E-002   9.0825358481558364E-003   0.0000000000000000     
   1.8320620148708111E-002   1.5206831078392807E-002   0.0000000000000000     
   2.4365455096692336E-002   2.2386477846069151E-002   0.0000000000000000     
   0.0000000000000000        0.0000000000000000        0.0000000000000000     
   4.5798448172610154E-003   3.3230749916986517E-003   0.0000000000000000     
   9.2933498619539485E-003   7.9112441902934316E-003   0.0000000000000000     
   1.4140515134078794E-002   1.3764507595784344E-002   0.0000000000000000     
   1.9121340633635565E-002   2.0882865208171383E-002   0.0000000000000000     
   0.0000000000000000        0.0000000000000000        0.0000000000000000     
   3.4997291199381836E-003   2.9556871398186946E-003   0.0000000000000000     
   7.1254068200982176E-003   7.2491484364869572E-003   0.0000000000000000     
   1.0877033100480101E-002   1.2880383890004789E-002   0.0000000000000000     
   1.4754607961083837E-002   1.9849393500372188E-002   0.0000000000000000     
   3.7485829394321039E-002   2.6804125912160390E-002   0.0000000000000000     
   4.4926964335197071E-002   3.4394698337099169E-002   0.0000000000000000     
   5.2017659994845492E-002   4.2865640495771760E-002   0.0000000000000000     
   5.8757916373266321E-002   5.2216952388178146E-002   0.0000000000000000     
   6.5147733470459532E-002   6.2448634014318355E-002   0.0000000000000000     
   3.0486951350254161E-002   2.4360231414065486E-002   0.0000000000000000     
   3.7189091669140244E-002   3.2266168452241832E-002   0.0000000000000000     
   4.3524395968477896E-002   4.0969679265820957E-002   0.0000000000000000     
   4.9492864248267085E-002   5.0470763854802890E-002   0.0000000000000000     
   5.5094496508507826E-002   6.0769422219187588E-002   0.0000000000000000     
   2.4365455096692336E-002   2.2386477846069151E-002   0.0000000000000000     
   3.0221082673511184E-002   3.0473497488961946E-002   0.0000000000000000     
   3.5729314725458511E-002   3.9319911344848274E-002   0.0000000000000000     
   4.0890151252534299E-002   4.8925719413728148E-002   0.0000000000000000     
   4.5703592254738579E-002   5.9290921695601545E-002   0.0000000000000000     
   1.9121340633635565E-002   2.0882865208171383E-002   0.0000000000000000     
   2.4022937348309868E-002   2.9016685447259515E-002   0.0000000000000000     
   2.8632416265787344E-002   3.7916336732853689E-002   0.0000000000000000     
   3.2949777386067983E-002   4.7581819064953935E-002   0.0000000000000000     
   3.6975020709151790E-002   5.8013132443560211E-002   0.0000000000000000     
   1.4754607961083837E-002   1.9849393500372188E-002   0.0000000000000000     
   1.8594655693536310E-002   2.7895732327134538E-002   0.0000000000000000     
   2.2233700589464403E-002   3.6758955429837224E-002   0.0000000000000000     
   2.5671742648868116E-002   4.6439062808480244E-002   0.0000000000000000     
   2.8908781871747457E-002   5.6936054463063594E-002   0.0000000000000000     
   6.5147733470459532E-002   6.2448634014318355E-002   0.0000000000000000     
   7.1172718254877296E-002   7.3449137227439384E-002   0.0000000000000000     
   7.6818477694971729E-002   8.5106913880788240E-002   0.0000000000000000     
   8.2085011790742846E-002   9.7421963974364922E-002   0.0000000000000000     
   8.6972320542190645E-002  0.11039428750816943        0.0000000000000000     
   5.5094496508507826E-002   6.0769422219187588E-002   0.0000000000000000     
   6.0350032949511599E-002   7.1810369723743592E-002   0.0000000000000000     
   6.5280213771589893E-002   8.3538321733239398E-002   0.0000000000000000     
   6.9885038974742686E-002   9.5953278247675008E-002   0.0000000000000000     
   7.4164508558969985E-002  0.10905523926705042        0.0000000000000000     
   4.5703592254738579E-002   5.9290921695601545E-002   0.0000000000000000     
   5.0204563047666080E-002   7.0387807255696613E-002   0.0000000000000000     
   5.4427988946911574E-002   8.2188665159241503E-002   0.0000000000000000     
   5.8373869952475024E-002   9.4693495406236186E-002   0.0000000000000000     
   6.2042206064356460E-002  0.10790229799668072        0.0000000000000000     
   3.6975020709151790E-002   5.8013132443560211E-002   0.0000000000000000     
   4.0736308549340718E-002   6.9181449823298449E-002   0.0000000000000000     
   4.4261803220936750E-002   8.1057944158794526E-002   0.0000000000000000     
   4.7551504723939868E-002   9.3642615450048497E-002   0.0000000000000000     
   5.0605413058350077E-002  0.10693546369706032        0.0000000000000000     
   2.8908781871747457E-002   5.6936054463063594E-002   0.0000000000000000     
   3.1945269454535533E-002   6.8191297426549086E-002   0.0000000000000000     
   3.4781656593665451E-002   8.0146158731898523E-002   0.0000000000000000     
   3.7417943289137223E-002   9.2800638379111899E-002   0.0000000000000000     
   3.9854129540950842E-002  0.10615473636818923        0.0000000000000000     
   8.6972320542190645E-002  0.11039428750816943        0.0000000000000000     
   9.1473195983453645E-002  0.12394287668120059        0.0000000000000000     
   9.5580430148670334E-002  0.13798672369245726        0.0000000000000000     
   9.9294023037840712E-002  0.15252582854193936        0.0000000000000000     
  0.10261397465096478       0.16756019122964699        0.0000000000000000     
   7.4164508558969985E-002  0.10905523926705042        0.0000000000000000     
   7.8110254962064918E-002  0.12273963433328657        0.0000000000000000     
   8.1713910621820596E-002  0.13690189298830430        0.0000000000000000     
   8.4975475538237033E-002  0.15154201523210370        0.0000000000000000     
   8.7894949711314230E-002  0.16666000106468470        0.0000000000000000     
   6.2042206064356460E-002  0.10790229799668072        0.0000000000000000     
   6.5425890961739785E-002  0.12169761781725125        0.0000000000000000     
   6.8517818323808891E-002  0.13596199975462403        0.0000000000000000     
   7.1317988150563755E-002  0.15069544380879904        0.0000000000000000     
   7.3826400442004420E-002  0.16589794997977630        0.0000000000000000     
   5.0605413058350077E-002  0.10693546369706032        0.0000000000000000     
   5.3420103982478220E-002  0.12081682713309473        0.0000000000000000     
   5.5992153254635149E-002  0.13516704399141646        0.0000000000000000     
   5.8321560874820842E-002  0.14998611427202552        0.0000000000000000     
   6.0408326843035320E-002  0.16527403797492191        0.0000000000000000     
   3.9854129540950842E-002  0.10615473636818923        0.0000000000000000     
   4.2092894024280250E-002  0.12009726228081696        0.0000000000000000     
   4.4136915414299406E-002  0.13451702569868157        0.0000000000000000     
   4.5986193711008316E-002  0.14941402662178305        0.0000000000000000     
   4.7640728914406953E-002  0.16478826505012137        0.0000000000000000     
   0.0000000000000000        0.0000000000000000        0.0000000000000000     
   3.4997291199381836E-003   2.9556871398186946E-003   0.0000000000000000     
   7.1254068200982176E-003   7.2491484364869572E-003   0.0000000000000000     
   1.0877033100480101E-002   1.2880383890004789E-002   0.0000000000000000     
   1.4754607961083837E-002   1.9849393500372188E-002   0.0000000000000000     
   0.0000000000000000        0.0000000000000000        0.0000000000000000     
   2.6501338090689193E-003   2.7755918435234325E-003   0.0000000000000000     
   5.3479140171469441E-003   6.8925878601266101E-003   0.0000000000000000     
   8.0933406242340751E-003   1.2350988049809532E-002   0.0000000000000000     
   1.0886413630330310E-002   1.9150792412572198E-002   0.0000000000000000     
   0.0000000000000000        0.0000000000000000        0.0000000000000000     
   1.7836471853286931E-003   2.6469523466179359E-003   0.0000000000000000     
   3.5678486125496128E-003   6.6379017346025896E-003   0.0000000000000000     
   5.3526042816627595E-003   1.1972848163953959E-002   0.0000000000000000     
   7.1379141926681319E-003   1.8651791634672042E-002   0.0000000000000000     
   0.0000000000000000        0.0000000000000000        0.0000000000000000     
   9.0026924871750664E-004   2.5697686491022048E-003   0.0000000000000000     
   1.7852106063062255E-003   6.4850900599148940E-003   0.0000000000000000     
   2.6548240727661565E-003   1.1745964232438070E-002   0.0000000000000000     
   3.5091096480972988E-003   1.8352391166671728E-002   0.0000000000000000     
   0.0000000000000000        0.0000000000000000        0.0000000000000000     
  -7.6464062945952316E-013   2.5440407509762387E-003   0.0000000000000000     
  -1.5832185822767242E-012   6.4341528360635286E-003   0.0000000000000000     
  -2.4557344005526893E-012   1.1670336255261869E-002   0.0000000000000000     
  -3.3821865664043771E-012   1.8252591008571257E-002   0.0000000000000000     
   1.4754607961083837E-002   1.9849393500372188E-002   0.0000000000000000     
   1.8594655693536310E-002   2.7895732327134538E-002   0.0000000000000000     
   2.2233700589464403E-002   3.6758955429837224E-002   0.0000000000000000     
   2.5671742648868116E-002   4.6439062808480244E-002   0.0000000000000000     
   2.8908781871747457E-002   5.6936054463063594E-002   0.0000000000000000     
   1.0886413630330310E-002   1.9150792412572198E-002   0.0000000000000000     
   1.3649977347821611E-002   2.7061836624507028E-002   0.0000000000000000     
   1.6306876089093932E-002   3.5853956361706442E-002   0.0000000000000000     
   1.8857109854147271E-002   4.5527151624170446E-002   0.0000000000000000     
   2.1300678642981630E-002   5.6081422411899021E-002   0.0000000000000000     
   7.1379141926681319E-003   1.8651791634672042E-002   0.0000000000000000     
   8.9026419497968846E-003   2.6466196835296989E-002   0.0000000000000000     
   1.0625651157280173E-002   3.5207528454368933E-002   0.0000000000000000     
   1.2306941815117997E-002   4.4875786491887878E-002   0.0000000000000000     
   1.3946513923310356E-002   5.5470970947853818E-002   0.0000000000000000     
   3.5091096480972988E-003   1.8352391166671728E-002   0.0000000000000000     
   4.3526494994621332E-003   2.6108812959504426E-002   0.0000000000000000     
   5.1900257940231320E-003   3.4819671707824712E-002   0.0000000000000000     
   6.0212385317803029E-003   4.4484967411632555E-002   0.0000000000000000     
   6.8462877127336381E-003   5.5104700070927992E-002   0.0000000000000000     
  -3.3821865664043771E-012   1.8252591008571257E-002   0.0000000000000000     
  -3.1826484806971034E-012   2.5989684997129336E-002   0.0000000000000000     
  -6.7719346298102112E-013   3.4690386122073737E-002   0.0000000000000000     
   4.1341794557495613E-012   4.4354694383404468E-002   0.0000000000000000     
   1.1251470241613326E-011   5.4982609781121523E-002   0.0000000000000000     
   2.8908781871747457E-002   5.6936054463063594E-002   0.0000000000000000     
   3.1945269454535533E-002   6.8191297426549086E-002   0.0000000000000000     
   3.4781656593665451E-002   8.0146158731898523E-002   0.0000000000000000     
   3.7417943289137223E-002   9.2800638379111899E-002   0.0000000000000000     
   3.9854129540950842E-002  0.10615473636818923        0.0000000000000000     
   2.1300678642981630E-002   5.6081422411899021E-002   0.0000000000000000     
   2.3609366569819365E-002   6.7419503783601800E-002   0.0000000000000000     
   2.5754957748882822E-002   7.9444130797988399E-002   0.0000000000000000     
   2.7737452180172012E-002   9.2155303455058804E-002   0.0000000000000000     
   2.9556849863686920E-002  0.10555302175481304        0.0000000000000000     
   1.3946513923310356E-002   5.5470970947853818E-002   0.0000000000000000     
   1.5506520701761088E-002   6.6868222612609871E-002   0.0000000000000000     
   1.6949115370374020E-002   7.8942682276499157E-002   0.0000000000000000     
   1.8274297929149152E-002   9.1694349939521635E-002   0.0000000000000000     
   1.9482068378086494E-002  0.10512322560167733        0.0000000000000000     
   6.8462877127336381E-003   5.5104700070927992E-002   0.0000000000000000     
   7.6367318503606993E-003   6.6537453913573283E-002   0.0000000000000000     
   8.3641294581390403E-003   7.8641813167430741E-002   0.0000000000000000     
   9.0284805360686653E-003   9.1417777832500338E-002   0.0000000000000000     
   9.6297850841495676E-003  0.10486534790878216        0.0000000000000000     
   1.1251470241613326E-011   5.4982609781121523E-002   0.0000000000000000     
   1.5618199658909426E-011   6.6427197686492051E-002   0.0000000000000000     
   1.2177888255096581E-011   7.8541523470783234E-002   0.0000000000000000     
   9.3053326545924908E-013   9.1325587133995023E-002   0.0000000000000000     
  -1.8123861786345508E-011  0.10477938867612746        0.0000000000000000     
   3.9854129540950842E-002  0.10615473636818923        0.0000000000000000     
   4.2092894024280250E-002  0.12009726228081696        0.0000000000000000     
   4.4136915414299406E-002  0.13451702569868157        0.0000000000000000     
   4.5986193711008316E-002  0.14941402662178305        0.0000000000000000     
   4.7640728914406953E-002  0.16478826505012137        0.0000000000000000     
   2.9556849863686920E-002  0.10555302175481304        0.0000000000000000     
   3.1221147060116767E-002  0.11953817933569845        0.0000000000000000     
   3.2738340030150768E-002  0.13401166983616242        0.0000000000000000     
   3.4108428773788918E-002  0.14897349325620499        0.0000000000000000     
   3.5331413291031226E-002  0.16442364959582617        0.0000000000000000     
   1.9482068378086494E-002  0.10512322560167733        0.0000000000000000     
   2.0581749062958669E-002  0.11913883437301971        0.0000000000000000     
   2.1582662329538319E-002  0.13365070136360224        0.0000000000000000     
   2.2484808177825444E-002  0.14865882657342483        0.0000000000000000     
   2.3288186607820040E-002  0.16416321000248763        0.0000000000000000     
   9.6297850841495676E-003  0.10486534790878216        0.0000000000000000     
   1.0174700032805965E-002  0.11889922739278076        0.0000000000000000     
   1.0669882312462070E-002  0.13343412028100091        0.0000000000000000     
   1.1115331923117880E-002  0.14847002657344255        0.0000000000000000     
   1.1511048864773402E-002  0.16400694627010570        0.0000000000000000     
  -1.8123861786345508E-011  0.10477938867612746        0.0000000000000000     
  -3.0341349658430383E-011  0.11881935839498158        0.0000000000000000     
  -2.1077984193110244E-011  0.13336192658835846        0.0000000000000000     
   9.6662356396069737E-012  0.14840709325625809        0.0000000000000000     
   6.1891306316064210E-011  0.16395485839868051        0.0000000000000000     
   0.0000000000000000        0.0000000000000000        0.0000000000000000     
  -7.6464062945952316E-013   2.5440407509762387E-003   0.0000000000000000     
  -1.5832185822767242E-012   6.4341528360635286E-003   0.0000000000000000     
  -2.4557344005526893E-012   1.1670336255261869E-002   0.0000000000000000     
  -3.3821865664043771E-012   1.8252591008571257E-002   0.0000000000000000     
   0.0000000000000000        0.0000000000000000        0.0000000000000000     
  -9.0026925008767343E-004   2.5697686518083890E-003   0.0000000000000000     
  -1.7852106092091165E-003   6.4850900626549817E-003   0.0000000000000000     
  -2.6548240773643294E-003   1.1745964232539777E-002   0.0000000000000000     
  -3.5091096545533124E-003   1.8352391161462776E-002   0.0000000000000000     
   0.0000000000000000        0.0000000000000000        0.0000000000000000     
  -1.7836471862215158E-003   2.6469523511670041E-003   0.0000000000000000     
  -3.5678486146618646E-003   6.6379017392957460E-003   0.0000000000000000     
  -5.3526042853210484E-003   1.1972848164386225E-002   0.0000000000000000     
  -7.1379141981990643E-003   1.8651791626438444E-002   0.0000000000000000     
   0.0000000000000000        0.0000000000000000        0.0000000000000000     
  -2.6501338091661675E-003   2.7755918490520847E-003   0.0000000000000000     
  -5.3479140179414648E-003   6.8925878659858233E-003   0.0000000000000000     
  -8.0933406263258879E-003   1.2350988050801212E-002   0.0000000000000000     
  -1.0886413634319442E-002   1.9150792403498259E-002   0.0000000000000000     
   0.0000000000000000        0.0000000000000000        0.0000000000000000     
  -3.4997291189216295E-003   2.9556871454636301E-003   0.0000000000000000     
  -7.1254068190479154E-003   7.2491484427252093E-003   0.0000000000000000     
  -1.0877033100378854E-002   1.2880383891784739E-002   0.0000000000000000     
  -1.4754607962914447E-002   1.9849393492642219E-002   0.0000000000000000     
  -3.3821865664043771E-012   1.8252591008571257E-002   0.0000000000000000     
  -3.1826484806971034E-012   2.5989684997129336E-002   0.0000000000000000     
  -6.7719346298102112E-013   3.4690386122073737E-002   0.0000000000000000     
   4.1341794557495613E-012   4.4354694383404468E-002   0.0000000000000000     
   1.1251470241613326E-011   5.4982609781121523E-002   0.0000000000000000     
  -3.5091096545533124E-003   1.8352391161462776E-002   0.0000000000000000     
  -4.3526495056817171E-003   2.6108812950034272E-002   0.0000000000000000     
  -5.1900257956551980E-003   3.4819671698864560E-002   0.0000000000000000     
  -6.0212385244737552E-003   4.4484967407953643E-002   0.0000000000000000     
  -6.8462876921373886E-003   5.5104700077301505E-002   0.0000000000000000     
  -7.1379141981990643E-003   1.8651791626438444E-002   0.0000000000000000     
  -8.9026419555793337E-003   2.6466196820081798E-002   0.0000000000000000     
  -1.0625651159745276E-002   3.5207528439945672E-002   0.0000000000000000     
  -1.2306941810696892E-002   4.4875786486030071E-002   0.0000000000000000     
  -1.3946513908434183E-002   5.5470970958334996E-002   0.0000000000000000     
  -1.0886413634319442E-002   1.9150792403498259E-002   0.0000000000000000     
  -1.3649977352875499E-002   2.7061836607271891E-002   0.0000000000000000     
  -1.6306876092947425E-002   3.5853956345317066E-002   0.0000000000000000     
  -1.8857109854535231E-002   4.5527151617633772E-002   0.0000000000000000     
  -2.1300678637638914E-002   5.6081422424221997E-002   0.0000000000000000     
  -1.4754607962914447E-002   1.9849393492642219E-002   0.0000000000000000     
  -1.8594655697570208E-002   2.7895732311604578E-002   0.0000000000000000     
  -2.2233700595261651E-002   3.6758955414978749E-002   0.0000000000000000     
  -2.5671742655988771E-002   4.6439062802764733E-002   0.0000000000000000     
  -2.8908781879751579E-002   5.6936054474962514E-002   0.0000000000000000     
   1.1251470241613326E-011   5.4982609781121523E-002   0.0000000000000000     
   1.5618199658909426E-011   6.6427197686492051E-002   0.0000000000000000     
   1.2177888255096581E-011   7.8541523470783234E-002   0.0000000000000000     
   9.3053326545924908E-013   9.1325587133995023E-002   0.0000000000000000     
  -1.8123861786345508E-011  0.10477938867612746        0.0000000000000000     
  -6.8462876921373886E-003   5.5104700077301505E-002   0.0000000000000000     
  -7.6367318215777458E-003   6.6537453928474891E-002   0.0000000000000000     
  -8.3641294357264719E-003   7.8641813183040574E-002   0.0000000000000000     
  -9.0284805345835720E-003   9.1417777840998526E-002   0.0000000000000000     
  -9.6297851181490427E-003  0.10486534790234876        0.0000000000000000     
  -1.3946513908434183E-002   5.5470970958334996E-002   0.0000000000000000     
  -1.5506520680338469E-002   6.6868222636630545E-002   0.0000000000000000     
  -1.6949115353791070E-002   7.8942682300686809E-002   0.0000000000000000     
  -1.8274297928791990E-002   9.1694349950503809E-002   0.0000000000000000     
  -1.9482068405341234E-002  0.10512322558608156        0.0000000000000000     
  -2.1300678637638914E-002   5.6081422424221997E-002   0.0000000000000000     
  -2.3609366560663966E-002   6.7419503810958972E-002   0.0000000000000000     
  -2.5754957742015906E-002   7.9444130823721953E-002   0.0000000000000000     
  -2.7737452181694724E-002   9.2155303462510899E-002   0.0000000000000000     
  -2.9556849879700430E-002  0.10555302172732581        0.0000000000000000     
  -2.8908781879751579E-002   5.6936054474962514E-002   0.0000000000000000     
  -3.1945269462554250E-002   6.8191297451460214E-002   0.0000000000000000     
  -3.4781656600400980E-002   8.0146158752145966E-002   0.0000000000000000     
  -3.7417943293291768E-002   9.2800638377019767E-002   0.0000000000000000     
  -3.9854129541226628E-002  0.10615473632608158        0.0000000000000000     
  -1.8123861786345508E-011  0.10477938867612746        0.0000000000000000     
  -3.0341349658430383E-011  0.11881935839498158        0.0000000000000000     
  -2.1077984193110244E-011  0.13336192658835846        0.0000000000000000     
   9.6662356396069737E-012  0.14840709325625809        0.0000000000000000     
   6.1891306316064210E-011  0.16395485839868051        0.0000000000000000     
  -9.6297851181490427E-003  0.10486534790234876        0.0000000000000000     
  -1.0174700089205754E-002  0.11889922737870816        0.0000000000000000     
  -1.0669882350536576E-002  0.13343412028169363        0.0000000000000000     
  -1.1115331902141503E-002  0.14847002661130515        0.0000000000000000     
  -1.1511048744020546E-002  0.16400694636754279        0.0000000000000000     
  -1.9482068405341234E-002  0.10512322558608156        0.0000000000000000     
  -2.0581749106509735E-002  0.11913883434304647        0.0000000000000000     
  -2.1582662355368442E-002  0.13365070135702509        0.0000000000000000     
  -2.2484808151917338E-002  0.14865882662801738        0.0000000000000000     
  -2.3288186496156455E-002  0.16416321015602339        0.0000000000000000     
  -2.9556849879700430E-002  0.10555302172732581        0.0000000000000000     
  -3.1221147082253282E-002  0.11953817928799654        0.0000000000000000     
  -3.2738340035573570E-002  0.13401166981435286        0.0000000000000000     
  -3.4108428739661280E-002  0.14897349330639481        0.0000000000000000     
  -3.5331413194516423E-002  0.16442364976412230        0.0000000000000000     
  -3.9854129541226628E-002  0.10615473632608158        0.0000000000000000     
  -4.2092894016436413E-002  0.12009726221355835        0.0000000000000000     
  -4.4136915391151971E-002  0.13451702565367693        0.0000000000000000     
  -4.5986193665373314E-002  0.14941402664643733        0.0000000000000000     
  -4.7640728839100456E-002  0.16478826519183959        0.0000000000000000     
   0.0000000000000000        0.0000000000000000        0.0000000000000000     
  -3.4997291189216295E-003   2.9556871454636301E-003   0.0000000000000000     
  -7.1254068190479154E-003   7.2491484427252093E-003   0.0000000000000000     
  -1.0877033100378854E-002   1.2880383891784739E-002   0.0000000000000000     
  -1.4754607962914447E-002   1.9849393492642219E-002   0.0000000000000000     
   0.0000000000000000        0.0000000000000000        0.0000000000000000     
  -4.5798448154934770E-003   3.3230749965858708E-003   0.0000000000000000     
  -9.2933498594082627E-003   7.9112441959659410E-003   0.0000000000000000     
  -1.4140515131744356E-002   1.3764507598140217E-002   0.0000000000000000     
  -1.9121340632501756E-002   2.0882865203108690E-002   0.0000000000000000     
   0.0000000000000000        0.0000000000000000        0.0000000000000000     
  -6.1378925988872877E-003   4.0135921586030342E-003   0.0000000000000000     
  -1.2244765980449556E-002   9.0825358521600501E-003   0.0000000000000000     
  -1.8320620144686807E-002   1.5206831080671047E-002   0.0000000000000000     
  -2.4365455091599042E-002   2.2386477844136023E-002   0.0000000000000000     
   0.0000000000000000        0.0000000000000000        0.0000000000000000     
  -8.1738724691030572E-003   5.0272386315151204E-003   0.0000000000000000     
  -1.5979655182171797E-002   1.0763023411307533E-002   0.0000000000000000     
  -2.3417348139206214E-002   1.7207354339377236E-002   0.0000000000000000     
  -3.0486951340206306E-002   2.4360231415724236E-002   0.0000000000000000     
   0.0000000000000000        0.0000000000000000        0.0000000000000000     
  -1.0687784426140792E-002   6.3640144153221312E-003   0.0000000000000000     
  -2.0498017464574980E-002   1.2952706873408392E-002   0.0000000000000000     
  -2.9430699115302567E-002   1.9766077374258784E-002   0.0000000000000000     
  -3.7485829378323551E-002   2.6804125917873310E-002   0.0000000000000000     
  -1.4754607962914447E-002   1.9849393492642219E-002   0.0000000000000000     
  -1.8594655697570208E-002   2.7895732311604578E-002   0.0000000000000000     
  -2.2233700595261651E-002   3.6758955414978749E-002   0.0000000000000000     
  -2.5671742655988771E-002   4.6439062802764733E-002   0.0000000000000000     
  -2.8908781879751579E-002   5.6936054474962514E-002   0.0000000000000000     
  -1.9121340632501756E-002   2.0882865203108690E-002   0.0000000000000000     
  -2.4022937349682617E-002   2.9016685435839105E-002   0.0000000000000000     
  -2.8632416271289075E-002   3.7916336721299217E-002   0.0000000000000000     
  -3.2949777397321148E-002   4.7581819059489015E-002   0.0000000000000000     
  -3.6975020727778828E-002   5.8013132450408497E-002   0.0000000000000000     
  -2.4365455091599042E-002   2.2386477844136023E-002   0.0000000000000000     
  -3.0221082669231850E-002   3.0473497482734743E-002   0.0000000000000000     
  -3.5729314725630838E-002   3.9319911336646966E-002   0.0000000000000000     
  -4.0890151260795989E-002   4.8925719405872682E-002   0.0000000000000000     
  -4.5703592274727312E-002   5.9290921690411905E-002   0.0000000000000000     
  -3.0486951340206306E-002   2.4360231415724236E-002   0.0000000000000000     
  -3.7189091656217935E-002   3.2266168452291501E-002   0.0000000000000000     
  -4.3524395958286916E-002   4.0969679261021998E-002   0.0000000000000000     
  -4.9492864246413297E-002   5.0470763841915740E-002   0.0000000000000000     
  -5.5094496520597037E-002   6.0769422194972708E-002   0.0000000000000000     
  -3.7485829378323551E-002   2.6804125917873310E-002   0.0000000000000000     
  -4.4926964310640839E-002   3.4394698344509353E-002   0.0000000000000000     
  -5.2017659969257342E-002   4.2865640494424304E-002   0.0000000000000000     
  -5.8757916354173066E-002   5.2216952367618183E-002   0.0000000000000000     
  -6.5147733465387991E-002   6.2448633964090949E-002   0.0000000000000000     
  -2.8908781879751579E-002   5.6936054474962514E-002   0.0000000000000000     
  -3.1945269462554250E-002   6.8191297451460214E-002   0.0000000000000000     
  -3.4781656600400980E-002   8.0146158752145966E-002   0.0000000000000000     
  -3.7417943293291768E-002   9.2800638377019767E-002   0.0000000000000000     
  -3.9854129541226628E-002  0.10615473632608158        0.0000000000000000     
  -3.6975020727778828E-002   5.8013132450408497E-002   0.0000000000000000     
  -4.0736308571877773E-002   6.9181449838987510E-002   0.0000000000000000     
  -4.4261803238833650E-002   8.1057944170155952E-002   0.0000000000000000     
  -4.7551504728646464E-002   9.3642615443913751E-002   0.0000000000000000     
  -5.0605413041316202E-002  0.10693546366026099        0.0000000000000000     
  -4.5703592274727312E-002   5.9290921690411905E-002   0.0000000000000000     
  -5.0204563074503009E-002   7.0387807254394127E-002   0.0000000000000000     
  -5.4427988967201274E-002   8.2188665161948921E-002   0.0000000000000000     
  -5.8373869952822122E-002   9.4693495413076270E-002   0.0000000000000000     
  -6.2042206031365538E-002  0.10790229800777616        0.0000000000000000     
  -5.5094496520597037E-002   6.0769422194972708E-002   0.0000000000000000     
  -6.0350032970429963E-002   7.1810369697680065E-002   0.0000000000000000     
  -6.5280213785503860E-002   8.3538321727524914E-002   0.0000000000000000     
  -6.9885038965818755E-002   9.5953278284507254E-002   0.0000000000000000     
  -7.4164508511374627E-002  0.10905523936862711        0.0000000000000000     
  -6.5147733465387991E-002   6.2448633964090949E-002   0.0000000000000000     
  -7.1172718259658624E-002   7.3449137168845297E-002   0.0000000000000000     
  -7.6818477693741394E-002   8.5106913866883890E-002   0.0000000000000000     
  -8.2085011767636343E-002   9.7421964058206745E-002   0.0000000000000000     
  -8.6972320481343457E-002  0.11039428774281386        0.0000000000000000     
  -3.9854129541226628E-002  0.10615473632608158        0.0000000000000000     
  -4.2092894016436413E-002  0.12009726221355835        0.0000000000000000     
  -4.4136915391151971E-002  0.13451702565367693        0.0000000000000000     
  -4.5986193665373314E-002  0.14941402664643733        0.0000000000000000     
  -4.7640728839100456E-002  0.16478826519183959        0.0000000000000000     
  -5.0605413041316202E-002  0.10693546366026099        0.0000000000000000     
  -5.3420103947020535E-002  0.12081682707399888        0.0000000000000000     
  -5.5992153215937063E-002  0.13516704393992873        0.0000000000000000     
  -5.8321560848065827E-002  0.14998611425805053        0.0000000000000000     
  -6.0408326843406794E-002  0.16527403802836427        0.0000000000000000     
  -6.2042206031365538E-002  0.10790229800777616        0.0000000000000000     
  -6.5425890911967099E-002  0.12169761782358512        0.0000000000000000     
  -6.8517818303762287E-002  0.13596199973803966        0.0000000000000000     
  -7.1317988206751157E-002  0.15069544375113983        0.0000000000000000     
  -7.3826400620933680E-002  0.16589794986288550        0.0000000000000000     
  -7.4164508511374627E-002  0.10905523936862711        0.0000000000000000     
  -7.8110254911276059E-002  0.12273963446231709        0.0000000000000000     
  -8.1713910654627644E-002  0.13690189304800976        0.0000000000000000     
  -8.4975475741429302E-002  0.15154201512570517        0.0000000000000000     
  -8.7894950171681141E-002  0.16666000069540329        0.0000000000000000     
  -8.6972320481343457E-002  0.11039428774281386        0.0000000000000000     
  -9.1473195944947475E-002  0.12394287699019477        0.0000000000000000     
  -9.5580430268533093E-002  0.13798672386983901        0.0000000000000000     
  -9.9294023452100325E-002  0.15252582838174664        0.0000000000000000     
 -0.10261397549564917       0.16756019052591761        0.0000000000000000     
 </DataArray>
 <DataArray  type="Float64" Name="stress" NumberOfComponents="3" format="ascii">
   11737909572.575668        3521372871.7727003        2308310916.1876884     
   10337941027.719961        1662975482.9316938        1374821701.0995865     
   9112797809.0685825        387329181.43844461        661267442.98780787     
   8062479916.6215305       -305566032.70704651        167648141.85235220     
   7186987350.3788071       -415710159.50478029       -106036202.30678004     
   8817143574.2946167        2645143072.2883849        1725402667.0367234     
   8056894156.6063652        1288865560.9060531        1147039677.5147126     
   7428091973.6752377        370745498.71413112        724959549.42395854     
   6930737025.5012331       -109217114.28738451        459162282.76446140     
   6564829312.0843515       -151022278.09848881        349647877.53622133     
   6491501231.5691185        1947450369.4707355        1287107588.9126945     
   6189107810.9195652        1038733796.5084524        1013263051.6017027     
   5974783533.5799284        423581034.57922769        832049280.17690027     
   5848528399.5502100        101992083.68306208        743466274.63828933     
   5810342408.8304090        73966943.819954157        747514034.98586917     
   4760982544.3991814        1428294763.3197544        993425681.81560123     
   4734581990.6595621        912580189.73889053        973491823.36055529     
   4752872488.7826567        545835789.03373599        982536635.24663365     
   4815854038.7684603        328061561.20428920        1020560117.4738353     
   4923526640.6169815        259257506.25055313        1087562270.0421617     
   3625587512.7848005        1087676253.8354402        844356945.74544370     
   3693316695.8263545        910404740.59736705        1027725992.7912719     
   3762358839.2834172        737509762.07765365        1176421614.6331573     
   3832713943.1559873        568991318.27629972        1290443811.2711008     
   3904382007.4440641        404849409.19330454        1369792582.7051017     
   7186987350.3788071       -415710159.50478029       -106036202.30678004     
   6938349886.4897509       -123096005.87329817       -33986661.956313007     
   6656448689.6203985        58639037.823867559        25392593.537639752     
   6341283759.7707520        129494971.58671355        72101564.175077438     
   5992855096.9408112        89471795.415246725        106140249.95600213     
   6564829312.0843515       -151022278.09848881        349647877.53622133     
   6256396147.9292612       -5257562.7270879745        351427604.32053912     
   5928819604.6680202        76695888.957135916        353769255.35521144     
   5582099682.3006239        94838076.954183817        356672830.64023513     
   5216236380.8270769        49169001.264052868        360138330.17561358     
   5810342408.8304090        73966943.819954157        747514034.98586917     
   5479919856.1431961        84224114.451447487        695497694.39053738     
   5144474278.2239685        77737867.642903090        657275487.15242720     
   4804005675.0727329        54508203.394322157        632847413.27153897     
   4458514046.6894836        14535121.705702782        622213472.74787056     
   4923526640.6169815        259257506.25055313        1087562270.0421617     
   4608921011.1315460        145349025.66230893        998223608.25368094     
   4303412710.2882442        61764973.881168842        935911288.92928851     
   4007001738.0870719        8505350.9071292877        900625312.06898320     
   3719688094.5280304       -14429843.259806156        892365677.67276752     
   3904382007.4440641        404849409.19330454        1369792582.7051017     
   3643399612.8943205        178117170.90549779        1259605345.9099696     
   3405634900.8608484        28777207.671932220        1189676660.6857929     
   3191087871.3436489       -43170480.507388830        1160006527.0325718     
   2999758524.3427224       -37725893.632471800        1170594944.9503076     
   5992855096.9408112        89471795.415246725        106140249.95600213     
   5603141386.3385019        3947195.2421705723        61974249.640307464     
   5224856743.0000744       -43480514.051308393        38817194.115385480     
   4858001166.9255247       -52811332.465182543        36669083.381234095     
   4502574658.1148586       -24045259.999457836        55529917.437856339     
   5216236380.8270769        49169001.264052868        360138330.17561358     
   4888255791.5916815       -2961648.9590241909        332445102.80133986     
   4567664918.9100990       -30459910.669397116        323523650.93007773     
   4254463762.7823195       -33325783.867089987        333373974.56181949     
   3948652323.2083511       -11559268.552076578        361996073.69657505     
   4458514046.6894836        14535121.705702782        622213472.74787056     
   4185874666.5702553       -6119152.2425925732        606280442.48660028     
   3916585652.2947607       -15605540.045104742        606882018.44057500     
   3650647003.8630047       -13924041.701823473        624018200.60979819     
   3388058721.2749882       -1074657.2127521038        657688988.99426365     
   3719688094.5280304       -14429843.259806156        892365677.67276752     
   3495998011.2742171       -5525314.6085510254        883480268.69608200     
   3271618943.1540666        1082597.8215858936        888892296.64688110     
   3046550890.1675801        5393894.0306067467        908601761.52516353     
   2820793852.3147597        7408574.0185096264        942608663.33092952     
   2999758524.3427224       -37725893.632471800        1170594944.9503076     
   2818625825.7035713       -1180136.0568876266        1164044581.4297917     
   2632764791.4880128        19604502.930669546        1169554485.5489974     
   2442175421.6960459        24628023.330201745        1187124657.3079212     
   2246857716.3276753        13890425.141717672        1216755096.7065682     
   4502574658.1148586       -24045259.999457836        55529917.437856339     
   4134222302.3301725        7765637.3997614384        34703468.390177958     
   3759005217.1007452        16694103.316510916        33135799.052556548     
   3376923402.4265757        2740137.7507874966        50826909.424997561     
   2987976858.3076711       -34096259.297389627        87776799.507488504     
   3948652323.2083511       -11559268.552076578        361996073.69657505     
   3626808476.6588912        10318288.301983118        332187452.22277272     
   3300819373.0930042        18378321.767952561        321188136.73028237     
   2970685012.5106964        12620831.845846176        328998127.21909964     
   2636405394.9119606       -6954181.4643422365        355617423.68922341     
   3388058721.2749882       -1074657.2127521038        657688988.99426365     
   3111439173.3071852        10484295.900084496        622070912.92737746     
   2833393840.7512717        17290633.719217420        604812669.11304951     
   2553922723.6072507        19344356.244656682        605914257.55127728     
   2273025821.8751202        16645463.476386189        625375678.24206531     
   2820793852.3147597        7408574.0185096264        942608663.33092952     
   2588114392.2750483        8263660.1940494776        904353850.50399101     
   2356728620.0755367        13431039.170267820        884009396.20085776     
   2126636535.7162342        22910710.947174788        881575300.42153680     
   1897838139.1971345        36702675.524761081        897051563.16602421     
   2246857716.3276753        13890425.141717672        1216755096.7065682     
   2056834133.5624809        3656381.1838890314        1179036264.9526093     
   1870823711.0658054        6799538.1211293936        1158778317.9937093     
   1688826448.8376472        23319895.953425229        1155981255.8298664     
   1510842346.8780119        53217454.680794895        1170645078.4610882     
   3625587512.7848005        1087676253.8354402        844356945.74544370     
   3693316695.8263545        910404740.59736705        1027725992.7912719     
   3762358839.2834172        737509762.07765365        1176421614.6331573     
   3832713943.1559873        568991318.27629972        1290443811.2711008     
   3904382007.4440641        404849409.19330454        1369792582.7051017     
   2770613390.3096604        831184017.09289813        777190064.11700678     
   2772022986.8237624        683414195.31076443        955662632.40316033     
   2774417303.5251927        538926774.15306067        1110985476.6899991     
   2777796340.4139524        397721753.61978698        1243158596.9775224     
   2782160097.4900408        259799133.71094358        1352181993.2657304     
   1881357430.5574470        564407229.16723406        729213720.34507453     
   1849372301.1287444        456016557.01643389        902406862.93867874     
   1818043651.6591921        349814151.39613450        1063973982.7375948     
   1787371482.1487894        245800012.30633575        1213915079.7418225     
   1757355792.5975380        143974139.74703789        1352230153.9513624     
   957819633.52815878        287345890.05844766        700427914.42964745     
   925364638.74130094        228211825.71437594        867958684.39782655     
   893237883.68541431        170171893.80687535        1035387132.7759451     
   861439368.36049926        113226094.33594623        1202713259.5640018     
   829969092.76655555        57374427.301588535        1369937064.7619982     
 -0.77820350895919277      -0.23346105268775783        690832646.37072515     
 -0.33856787565819030        1.4045901461154577        852318096.78060412     
 -0.39613977734556327        1.3852833286382908        1025224926.8050494     
 -0.95091902243921356      -0.29138134356122058        1209553136.4440606     
  -2.0029055680476264       -3.6254043780326648        1405302725.6976383     
   3904382007.4440641        404849409.19330454        1369792582.7051017     
   3643399612.8943205        178117170.90549779        1259605345.9099696     
   3405634900.8608484        28777207.671932220        1189676660.6857929     
   3191087871.3436489       -43170480.507388830        1160006527.0325718     
   2999758524.3427224       -37725893.632471800        1170594944.9503076     
   2782160097.4900408        259799133.71094358        1352181993.2657304     
   2632932823.4966273        103702810.96696496        1294366191.7651980     
   2501118811.6141572        5650695.2594678402        1265956720.1500034     
   2386718061.8426323       -34357213.411546111        1266953578.4201460     
   2289730574.1820526       -16320915.046077847        1297356766.5756271     
   1757355792.5975380        143974139.74703789        1352230153.9513624     
   1688877291.4872589        49211828.244929135        1340013963.9392142     
   1632007632.0825970       -6854344.2384570837        1346351882.1267855     
   1586746814.3835523       -24224377.703119934        1371243908.5140767     
   1553094838.3901246       -2898272.1490595937        1414690043.1010869     
   829969092.76655555        57374427.301588535        1369937064.7619982     
   811233016.86621785        14644222.739391744        1396548662.4320180     
   798301362.26616848       -8737910.8218429089        1430862146.6161401     
   791174128.96640825       -12771973.382114291        1472877517.3143635     
   789851316.96693873        2542035.0585811734        1522594774.5266874     
  -2.0029055680476264       -3.6254043780326648        1405302725.6976383     
 -0.36649776620139085       -5.5496482295167588        1463970287.2436109     
   2.1648711154775357       -4.4906887417670713        1519487513.6180668     
   5.5912009168608323      -0.44852588475954169        1571854404.8210061     
   9.9124923928391553        6.5768422072867132        1621070960.8524284     
   2999758524.3427224       -37725893.632471800        1170594944.9503076     
   2818625825.7035713       -1180136.0568876266        1164044581.4297917     
   2632764791.4880128        19604502.930669546        1169554485.5489974     
   2442175421.6960459        24628023.330201745        1187124657.3079212     
   2246857716.3276753        13890425.141717672        1216755096.7065682     
   2289730574.1820526       -16320915.046077847        1297356766.5756271     
   2140144173.2146432        6967341.2735701799        1278269470.7658348     
   1987011520.2107229        18434757.471514225        1274447713.5074906     
   1830332615.1702917        18081333.547756672        1285891494.8005972     
   1670107458.0933502        5907069.5022988319        1312600814.6451547     
   1553094838.3901246       -2898272.1490595937        1414690043.1010869     
   1444212651.9851112        9879857.9818480015        1384444912.4652283     
   1332966297.0834846        14777426.457374752        1372670591.2925491     
   1219355773.6852441        11794433.277523458        1379367079.5830503     
   1103381081.7903900        930878.44229269028        1404534377.3367283     
   789851316.96693873        2542035.0585811734        1522594774.5266874     
   730831262.01497698        7557414.0679444671        1482570906.5279765     
   670629122.10629797        8632509.8882498145        1464223118.9041750     
   609244897.24090230        5767322.5194995403        1467551411.6552811     
   546678587.41879022       -1038148.0383070111        1492555784.7812977     
   9.9124923928391553        6.5768422072867132        1621070960.8524284     
   3.3042385677401103        9.5318614722839694        1572647452.9540780     
  -4.7208369768292950        7.7641420193247201        1549105296.3423657     
  -14.162732593834905        1.2736893385228196        1550444491.0172915     
  -25.021448374778615       -9.9394982629068362        1576665036.9788551     
   2246857716.3276753        13890425.141717672        1216755096.7065682     
   2056834133.5624809        3656381.1838890314        1179036264.9526093     
   1870823711.0658054        6799538.1211293936        1158778317.9937093     
   1688826448.8376472        23319895.953425229        1155981255.8298664     
   1510842346.8780119        53217454.680794895        1170645078.4610882     
   1670107458.0933502        5907069.5022988319        1312600814.6451547     
   1526485341.9558740       -2099793.1559127569        1282615960.6205235     
   1385873097.0452867       -73751.724491000175        1270349692.7530084     
   1248270723.3615851        11985193.796553493        1275802011.0426178     
   1113678220.9047732        34077043.407221735        1298972915.4893429     
   1103381081.7903900        930878.44229269028        1404534377.3367283     
   1006896721.8865151       -4627916.0345368981        1381112997.1595225     
   912418944.16789961       -3498103.2271735072        1375667904.5014954     
   819947748.63453853        4320316.8643763363        1388199099.3626490     
   729483135.28643858        18827344.240123183        1418706581.7429795     
   546678587.41879022       -1038148.0383070111        1492555784.7812977     
   498068273.35440481       -3927987.4519881010        1474527374.5696113     
   450461252.43364757       -3473516.3869080842        1474732953.2391655     
   403857524.65651393        325265.15691420436        1493172520.7899587     
   358257090.02300632        7468357.1794953346        1529846077.2219889     
  -25.021448374778615       -9.9394982629068362        1576665036.9788551     
  -3.6404588135239182       -7.4082644323099487        1562859092.8507893     
   21.842525864935478        8.7962864556359381        1567544838.9660206     
   51.427504585452283        38.674149082383025        1590722275.3245540     
   85.114479932955092        82.225335880751658        1632391401.9263849     
 -0.77820350895919277      -0.23346105268775783        690832646.37072515     
 -0.33856787565819030        1.4045901461154577        852318096.78060412     
 -0.39613977734556327        1.3852833286382908        1025224926.8050494     
 -0.95091902243921356      -0.29138134356122058        1209553136.4440606     
  -2.0029055680476264       -3.6254043780326648        1405302725.6976383     
  -957819634.88786483       -287345890.46635944        700427915.92219830     
  -925364639.55264366       -228211823.77422601        867958685.02118874     
  -893237884.64544582       -170171891.84216934        1035387132.4897369     
  -861439370.16627049       -113226094.67018977        1202713258.3278427     
  -829969096.11511862       -57374432.258286655        1369937062.5355065     
  -1881357431.3270497       -564407229.39811492        729213722.83795762     
  -1849372301.7962668       -456016555.86190611        902406864.04010797     
  -1818043652.6243234       -349814150.18849349        1063973982.3668073     
  -1787371483.8112183       -245800012.37787616        1213915077.8180563     
  -1757355795.3569520       -143974142.43005502        1352230150.3938544     
  -2770613390.0957575       -831184017.02872729        777190067.11800289     
  -2772022987.0694380       -683414194.85845089        955662633.83736181     
  -2774417304.3327727       -538926773.65368891        1110985476.4362609     
  -2777796341.8857617       -397721753.41444176        1243158594.9147010     
  -2782160099.7284055       -259799134.14070892        1352181989.2726817     
  -3625587511.1939898       -1087676253.3581970        844356948.76233423     
  -3693316695.3721571       -910404740.76385999        1027725994.4129493     
  -3762358839.7707939       -737509762.23775649        1176421614.6980970     
  -3832713944.3899016       -568991317.77988613        1290443809.6177766     
  -3904382009.2294798       -404849407.39025021        1369792579.1719885     
  -2.0029055680476264       -3.6254043780326648        1405302725.6976383     
 -0.36649776620139085       -5.5496482295167588        1463970287.2436109     
   2.1648711154775357       -4.4906887417670713        1519487513.6180668     
   5.5912009168608323      -0.44852588475954169        1571854404.8210061     
   9.9124923928391553        6.5768422072867132        1621070960.8524284     
  -829969096.11511862       -57374432.258286655        1369937062.5355065     
  -811233016.72939742       -14644230.001639485        1396548661.8470953     
  -798301357.41386867        8737905.3543649018        1430862147.4802363     
  -791174118.16853142        12771973.809729904        1472877519.4349301     
  -789851298.99338841       -2542024.6355496347        1522594777.7111764     
  -1757355795.3569520       -143974142.43005502        1352230150.3938544     
  -1688877291.0988619       -49211831.855600178        1340013963.0117128     
  -1632007627.8761182        6854341.9343665838        1346351883.4441931     
  -1586746805.6887212        24224378.939845622        1371243911.6912956     
  -1553094824.5366695        2898279.1608367562        1414690047.7530198     
  -2782160099.7284055       -259799134.14070892        1352181989.2726817     
  -2632932823.4748921       -103702811.11153054        1294366190.7374642     
  -2501118809.2218771       -5650694.7506850958        1265956721.5099375     
  -2386718056.9693646        34357214.941825867        1266953581.5901022     
  -2289730566.7173500        16320917.966005087        1297356770.9779584     
  -3904382009.2294798       -404849407.39025021        1369792579.1719885     
  -3643399613.8574872       -178117167.76943076        1259605345.0243492     
  -3405634901.4511471       -28777204.700789213        1189676661.6774695     
  -3191087872.0104628        43170481.815670490        1160006529.1313508     
  -2999758525.5354304        37725891.779951692        1170594947.3859916     
   9.9124923928391553        6.5768422072867132        1621070960.8524284     
   3.3042385677401103        9.5318614722839694        1572647452.9540780     
  -4.7208369768292950        7.7641420193247201        1549105296.3423657     
  -14.162732593834905        1.2736893385228196        1550444491.0172915     
  -25.021448374778615       -9.9394982629068362        1576665036.9788551     
  -789851298.99338841       -2542024.6355496347        1522594777.7111764     
  -730831257.25584412       -7557401.1102790833        1482570906.4213672     
  -670629132.67766964       -8632501.4495748580        1464223116.2870150     
  -609244925.25886440       -5767325.6534350216        1467551407.3081198     
  -546678634.99943030        1038126.2781347632        1492555779.4846811     
  -1553094824.5366695        2898279.1608367562        1414690047.7530198     
  -1444212649.1138442       -9879851.1417923570        1384444911.3721116     
  -1332966306.5929387       -14777424.450822651        1372670586.0154779     
  -1219355796.9739521       -11794440.766248703        1379367071.6831200     
  -1103381120.2568851       -930900.08807402849        1404534368.3750381     
  -2289730566.7173500        16320917.966005087        1297356770.9779584     
  -2140144172.2697623       -6967340.5626822710        1278269467.8063097     
  -1987011526.4666436       -18434761.239598751        1274447705.5277536     
  -1830332629.3079941       -18081344.064748168        1285891484.1422913     
  -1670107480.7938132       -5907089.0381231308        1312600803.6499250     
  -2999758525.5354304        37725891.779951692        1170594947.3859916     
  -2818625826.7235994        1180130.6270515919        1164044575.7239611     
  -2632764792.2987857       -19604511.815909743        1169554474.8238425     
  -2442175422.2609911       -24628035.548932314        1187124644.6856370     
  -2246857716.6102147       -13890440.572016120        1216755085.3093421     
  -25.021448374778615       -9.9394982629068362        1576665036.9788551     
  -3.6404588135239182       -7.4082644323099487        1562859092.8507893     
   21.842525864935478        8.7962864556359381        1567544838.9660206     
   51.427504585452283        38.674149082383025        1590722275.3245540     
   85.114479932955092        82.225335880751658        1632391401.9263849     
  -546678634.99943030        1038126.2781347632        1492555779.4846811     
  -498068280.24689239        3927970.9970786870        1474527379.0479665     
  -450461212.66062188        3473525.1617961824        1474732965.8412106     
  -403857432.24062443       -325211.22773057222        1493172539.8644145     
  -358256938.98689616       -7468238.1714839190        1529846101.1175768     
  -1103381120.2568851       -930900.08807402849        1404534368.3750381     
  -1006896726.4566282        4627898.5214341283        1381113005.1500347     
  -912418911.09090686        3498102.3491580486        1375667926.1416495     
  -819947674.15971923       -4320288.6049024761        1388199131.3498819     
  -729483015.66306710       -18827274.340742141        1418706620.7747331     
  -1670107480.7938132       -5907089.0381231308        1312600803.6499250     
  -1526485342.2696705        2099775.1647909880        1282615971.1569884     
  -1385873073.4483240        73740.358385264874        1270349719.8673315     
  -1248270674.3297803       -11985193.457363069        1275802049.7809544     
  -1113678144.9140358       -34077026.282439709        1298972960.8978465     
  -2246857716.6102147       -13890440.572016120        1216755085.3093421     
  -2056834127.6860142       -3656399.0728332996        1179036277.0688341     
  -1870823699.7328773       -6799560.8105304241        1158778347.0182631     
  -1688826432.7508070       -23319925.785117984        1155981295.1576288     
  -1510842326.7397990       -53217493.996575654        1170645121.4869275     
  -3625587511.1939898       -1087676253.3581970        844356948.76233423     
  -3693316695.3721571       -910404740.76385999        1027725994.4129493     
  -3762358839.7707939       -737509762.23775649        1176421614.6980970     
  -3832713944.3899016       -568991317.77988613        1290443809.6177766     
  -3904382009.2294798       -404849407.39025021        1369792579.1719885     
  -4760982542.0126486       -1428294762.6037946        993425684.37739170     
  -4734581989.6965847       -912580190.60206175        973491824.49236023     
  -4752872488.8371477       -545835790.12242174        982536635.10511434     
  -4815854039.4343395       -328061561.16487455        1020560116.2156540     
  -4923526641.4881563       -259257503.72941875        1087562267.8239799     
  -6491501229.9426422       -1947450368.9827926        1287107590.5696156     
  -6189107810.0944777       -1038733798.2623029        1013263052.0400863     
  -5974783532.9391003       -423581036.51776648        832049279.87159657     
  -5848528398.4765072       -101992083.74918151        743466274.06414521     
  -5810342406.7066994       -73966939.956547737        747514034.61773348     
  -8817143574.9839668       -2645143072.4951901        1725402667.3390059     
  -8056894156.5658379       -1288865563.7445850        1147039677.0561285     
  -7428091972.0766497       -370745501.42378974        724959548.99754322     
  -6930737021.5164070        109217114.46719217        459162283.16325098     
  -6564829304.8851080        151022283.92836285        349647879.55325073     
  -11737909577.136625       -3521372873.1409879        2308310914.6855626     
  -10337941029.110662       -1662975487.0489051        1374821699.5404856     
  -9112797806.2497997       -387329184.84049463        661267442.48295534     
  -8062479908.5540390        305566033.48424530        167648143.51297015     
  -7186987336.0233793        415710167.92531633       -106036197.36946858     
  -3904382009.2294798       -404849407.39025021        1369792579.1719885     
  -3643399613.8574872       -178117167.76943076        1259605345.0243492     
  -3405634901.4511471       -28777204.700789213        1189676661.6774695     
  -3191087872.0104628        43170481.815670490        1160006529.1313508     
  -2999758525.5354304        37725891.779951692        1170594947.3859916     
  -4923526641.4881563       -259257503.72941875        1087562267.8239799     
  -4608921013.1595278       -145349021.80537820        998223608.58994734     
  -4303412714.4464540       -61764971.933191776        935911291.06720984     
  -4007001745.3489380       -8505354.1128609180        900625315.25576568     
  -3719688105.8669777        14429831.655609608        892365681.15561604     
  -5810342406.7066994       -73966939.956547737        747514034.61773348     
  -5479919857.1056223       -84224109.234540701        695497695.87242281     
  -5144474283.7700062       -77737866.064068079        657275489.74893928     
  -4804005686.6998463       -54508210.445123196        632847416.24728262     
  -4458514065.8951502       -14535142.377720356        622213475.36745524     
  -6564829304.8851080        151022283.92836285        349647879.55325073     
  -6256396145.6957722        5257569.9430804253        351427606.87177402     
  -5928819609.4218006       -76695887.093414307        353769257.72265798     
  -5582099696.0631886       -94838087.181117535        356672832.10590369     
  -5216236405.6199436       -49169030.320037365        360138330.02151060     
  -7186987336.0233793        415710167.92531633       -106036197.36946858     
  -6938349878.9299746        123096015.72748518       -33986658.411999047     
  -6656448691.4018393       -58639035.021240234        25392594.988366950     
  -6341283773.4389648       -129494984.32083964        72101562.831624284     
  -5992855125.0413609       -89471832.171340227        106140245.11778000     
  -2999758525.5354304        37725891.779951692        1170594947.3859916     
  -2818625826.7235994        1180130.6270515919        1164044575.7239611     
  -2632764792.2987857       -19604511.815909743        1169554474.8238425     
  -2442175422.2609911       -24628035.548932314        1187124644.6856370     
  -2246857716.6102147       -13890440.572016120        1216755085.3093421     
  -3719688105.8669777        14429831.655609608        892365681.15561604     
  -3495998015.0371819        5525300.8971188068        883480266.05514324     
  -3271618936.5245595       -1082604.2519571781        888892290.11555946     
  -3046550870.3291125       -5393883.7916127443        908601753.33686411     
  -2820793816.4508400       -7408537.7218549252        942608655.71906149     
  -4458514065.8951502       -14535142.377720356        622213475.36745524     
  -4185874673.3360219        6119130.1716103554        606280444.24335504     
  -3916585641.0242252        15605535.229833364        606882020.67912269     
  -3650646968.9597635        13924072.796946526        624018204.67475855     
  -3388058657.1426315        1074742.8729572296        657688996.23026192     
  -5216236405.6199436       -49169030.320037365        360138330.02151060     
  -4888255801.6201220        2961618.4505217075        332445110.28860188     
  -4567664905.7977839        30459906.629456282        323523666.51453710     
  -4254463718.1529408        33325834.216755867        333373998.69931865     
  -3948652238.6855841        11559401.212423325        361996106.84294462     
  -5992855125.0413609       -89471832.171340227        106140245.11778000     
  -5603141399.8894806       -3947234.2661406994        61974264.190879114     
  -5224856730.8452435        43480509.946895838        38817227.621799149     
  -4858001117.9086504        52811400.467793465        36669135.410544597     
  -4502574561.0797052        24045437.296533585        55529987.557112254     
  -2246857716.6102147       -13890440.572016120        1216755085.3093421     
  -2056834127.6860142       -3656399.0728332996        1179036277.0688341     
  -1870823699.7328773       -6799560.8105304241        1158778347.0182631     
  -1688826432.7508070       -23319925.785117984        1155981295.1576288     
  -1510842326.7397990       -53217493.996575654        1170645121.4869275     
  -2820793816.4508400       -7408537.7218549252        942608655.71906149     
  -2588114369.2023668       -8263617.9478504658        904353855.53299606     
  -2356728620.1686854       -13431025.556485891        884009403.95839846     
  -2126636569.3497946       -22910760.547757268        881575300.99526966     
  -1897838216.7456934       -36702822.921663284        897051546.64360774     
  -3388058657.1426315        1074742.8729572296        657688996.23026192     
  -3111439150.3655090       -10484198.716909289        622070910.64762485     
  -2833393879.0469036       -17290591.835164309        604812644.09799027     
  -2553922843.1868148       -19344436.481808782        605914196.58135366     
  -2273026042.7852430       -16645732.656844020        625375568.09771848     
  -3948652238.6855841        11559401.212423325        361996106.84294462     
  -3626808471.1754408       -10318141.380003214        332187442.41272312     
  -3300819476.3675385       -18378259.646572471        321188067.43703717     
  -2970685254.2618775       -12620953.587278605        328997981.91587996     
  -2636405804.8584595        6953776.7978736162        355617185.84925663     
  -4502574561.0797052        24045437.296533585        55529987.557112254     
  -4134222331.6321583       -7765445.9371330738        34703450.828292355     
  -3759005412.1305790       -16694028.990697861        33135673.975539055     
  -3376923802.5749688       -2740311.8641517162        50826656.998846866     
  -2987977502.9653244        34095705.442496538        87776399.898222327     
 </DataArray>
 <DataArray  type="Float64" Name="VM" NumberOfComponents="1" format="ascii">
   11172731517.100235     
   9905411339.5557003     
   8998626516.3759995     
   8224651403.3466349     
   7405878529.7629757     
   8387326125.1685534     
   7754841361.6212330     
   7357769361.4181452     
   7031108674.9002342     
   6669181960.1896772     
   6185484018.6913443     
   6002940444.2307625     
   5951770508.7966080     
   5939478893.9858408     
   5917103044.8696041     
   4568104425.0816555     
   4665987836.2529917     
   4815556085.9500990     
   4984456517.6462870     
   5155603055.9252377     
   3538823951.2083635     
   3778316308.5878024     
   4009537599.0769167     
   4222369242.6631150     
   4410942111.8509531     
   7405878529.7629757     
   7000957092.5670900     
   6627469675.4675875     
   6278780153.4990215     
   5951463951.6592674     
   6669181960.1896772     
   6288554514.3712149     
   5922628312.8469257     
   5569657264.9576826     
   5229164492.4148083     
   5917103044.8696041     
   5570118945.1183796     
   5231421557.5572929     
   4901129614.4233313     
   4579869271.8244820     
   5155603055.9252377     
   4856205119.6395416     
   4570029049.7604008     
   4295978604.7392063     
   4034713343.6211562     
   4410942111.8509531     
   4173362111.8491340     
   3968269675.0331268     
   3789394637.4118242     
   3636484647.8239517     
   5951463951.6592674     
   5602197310.4741421     
   5247162882.9952078     
   4885033853.9724903     
   4515669719.9795170     
   5229164492.4148083     
   4923524143.5582056     
   4617101248.7415857     
   4310077780.8843002     
   4003842628.1518760     
   4579869271.8244820     
   4318556019.9489384     
   4062748391.3968592     
   3813980247.8445721     
   3574947338.6569724     
   4034713343.6211562     
   3818764364.0769286     
   3615292295.0705051     
   3426622262.6594200     
   3256004923.3285050     
   3636484647.8239517     
   3465974417.4878464     
   3314180716.6729650     
   3183155075.1687837     
   3075521358.8111086     
   4515669719.9795170     
   4130782307.3884492     
   3751125116.1952906     
   3376701950.5842910     
   3009013358.8954115     
   4003842628.1518760     
   3667079116.7089367     
   3338348129.4630308     
   3018667837.9847145     
   2710794544.8861666     
   3574947338.6569724     
   3287774180.6294813     
   3012776716.2366834     
   2752251397.2747769     
   2510452570.1308665     
   3256004923.3285050     
   3021685747.8010745     
   2804837732.3475642     
   2608813931.9812989     
   2438767203.4239492     
   3075521358.8111086     
   2897143247.1845336     
   2741461001.9514012     
   2611929043.1136441     
   2513225658.3230357     
   3538823951.2083635     
   3778316308.5878024     
   4009537599.0769167     
   4222369242.6631150     
   4410942111.8509531     
   2806483395.3814001     
   2999433237.1005864     
   3193038030.2627268     
   3377258497.9727044     
   3545461330.1382847     
   2095582858.5895503     
   2286438072.1746087     
   2487528325.5626450     
   2690083268.4908056     
   2888181662.2209363     
   1482079068.6500804     
   1719668000.4683602     
   1972538453.9115584     
   2235378731.4024491     
   2504935967.7857199     
   1196557243.0413592     
   1476258247.8344138     
   1775741662.4124289     
   2095007486.7754035     
   2434055720.9233389     
   4410942111.8509531     
   4173362111.8491340     
   3968269675.0331268     
   3789394637.4118242     
   3636484647.8239517     
   3545461330.1382847     
   3419970541.7326050     
   3324068806.7237477     
   3255014380.3458095     
   3214017223.3717642     
   2888181662.2209363     
   2856313680.4632249     
   2848275339.0148010     
   2863166044.3455229     
   2901836835.9848418     
   2504935967.7857199     
   2549015120.3048882     
   2605078952.7480416     
   2672887768.6120629     
   2752589376.8169947     
   2434055720.9233389     
   2535670918.2771373     
   2631829575.0529981     
   2722531691.2509203     
   2807777266.8709044     
   3636484647.8239517     
   3465974417.4878464     
   3314180716.6729650     
   3183155075.1687837     
   3075521358.8111086     
   3214017223.3717642     
   3076893405.8292441     
   2963878450.5540009     
   2877134055.1775293     
   2819253637.0534744     
   2901836835.9848418     
   2796719922.8387117     
   2722130299.3549299     
   2679654198.1893864     
   2671062338.4501805     
   2752589376.8169947     
   2668838273.9001837     
   2622189305.3165545     
   2613201165.7278891     
   2642459914.7478118     
   2807777266.8709044     
   2723905290.9102488     
   2683129079.5390196     
   2685448632.7572165     
   2730863950.5648398     
   3075521358.8111086     
   2897143247.1845336     
   2741461001.9514012     
   2611929043.1136441     
   2513225658.3230357     
   2819253637.0534744     
   2696048649.2507148     
   2600406022.6658897     
   2535029583.9068837     
   2503094378.7748394     
   2671062338.4501805     
   2596332334.7379575     
   2552077360.2072463     
   2539700919.3911266     
   2560654404.3848662     
   2642459914.7478118     
   2602448227.1509423     
   2594032370.6366324     
   2617567988.7568727     
   2673390242.1784325     
   2730863950.5648398     
   2706951353.8885727     
   2715067304.2315216     
   2755211801.5936961     
   2827384845.9750881     
   1196557243.0413592     
   1476258247.8344138     
   1775741662.4124289     
   2095007486.7754035     
   2434055720.9233389     
   1482079071.4604108     
   1719668002.0595248     
   1972538454.1295414     
   2235378730.0098338     
   2504935964.4962616     
   2095582861.7377784     
   2286438074.1887465     
   2487528325.9958625     
   2690083266.8978620     
   2888181658.1518359     
   2806483397.7077441     
   2999433238.7764702     
   3193038030.7640862     
   3377258496.8789158     
   3545461327.1069598     
   3538823952.0802841     
   3778316309.4806075     
   4009537599.5009174     
   4222369242.3425565     
   4410942110.6903343     
   2434055720.9233389     
   2535670918.2771373     
   2631829575.0529981     
   2722531691.2509203     
   2807777266.8709044     
   2504935964.4962616     
   2549015118.1864433     
   2605078951.8207335     
   2672887768.9610000     
   2752589378.4381223     
   2888181658.1518359     
   2856313677.9262853     
   2848275337.8020401     
   2863166044.4082370     
   2901836837.2504621     
   3545461327.1069598     
   3419970540.4980283     
   3324068806.6700850     
   3255014381.0255241     
   3214017224.4208217     
   4410942110.6903343     
   4173362113.1026106     
   3968269677.6828923     
   3789394640.4703465     
   3636484650.3828759     
   2807777266.8709044     
   2723905290.9102488     
   2683129079.5390196     
   2685448632.7572165     
   2730863950.5648398     
   2752589378.4381223     
   2668838274.1634812     
   2622189304.6698751     
   2613201164.5467191     
   2642459913.3661556     
   2901836837.2504621     
   2796719921.4796386     
   2722130296.4829726     
   2679654194.8649974     
   2671062335.7331610     
   3214017224.4208217     
   3076893401.7301898     
   2963878443.1952310     
   2877134046.5571370     
   2819253629.3741584     
   3636484650.3828759     
   3465974410.3589449     
   3314180702.4834805     
   3183155056.8853035     
   3075521339.9230766     
   2730863950.5648398     
   2706951353.8885727     
   2715067304.2315216     
   2755211801.5936961     
   2827384845.9750881     
   2642459913.3661556     
   2602448234.4880219     
   2594032385.9701052     
   2617568011.3002615     
   2673390270.8135710     
   2671062335.7331610     
   2596332345.8388534     
   2552077383.1953578     
   2539700952.3764749     
   2560654445.0642633     
   2819253629.3741584     
   2696048659.3590937     
   2600406046.7982459     
   2535029618.4484301     
   2503094419.7525115     
   3075521339.9230766     
   2897143251.4812989     
   2741461023.3509517     
   2611929075.6227803     
   2513225695.5685830     
   3538823952.0802841     
   3778316309.4806075     
   4009537599.5009174     
   4222369242.3425565     
   4410942110.6903343     
   4568104424.7880268     
   4665987835.8093224     
   4815556085.5003119     
   4984456517.5113430     
   5155603056.4085770     
   6185484018.3772001     
   6002940443.0728226     
   5951770507.2130089     
   5939478892.6907778     
   5917103044.5065193     
   8387326125.9276009     
   7754841360.3762255     
   7357769358.4872665     
   7031108671.1108856     
   6669181956.3401537     
   11172731519.954630     
   9905411338.7839260     
   8998626511.8946476     
   8224651395.7997122     
   7405878519.7753592     
   4410942110.6903343     
   4173362113.1026106     
   3968269677.6828923     
   3789394640.4703465     
   3636484650.3828759     
   5155603056.4085770     
   4856205123.4560976     
   4570029055.8522549     
   4295978612.0209703     
   4034713351.0153961     
   5917103044.5065193     
   5570118949.1003704     
   5231421564.7014608     
   4901129623.5309639     
   4579869281.5619230     
   6669181956.3401537     
   6288554516.1715107     
   5922628318.9078312     
   5569657273.9646492     
   5229164502.7791119     
   7405878519.7753592     
   7000957090.0131330     
   6627469678.6482553     
   6278780160.9482546     
   5951463961.5318794     
   3636484650.3828759     
   3465974410.3589449     
   3314180702.4834805     
   3183155056.8853035     
   3075521339.9230766     
   4034713351.0153961     
   3818764359.3955007     
   3615292281.3470063     
   3426622243.0589147     
   3256004901.3281918     
   4579869281.5619230     
   4318556016.5238047     
   4062748379.1738000     
   3813980231.3628521     
   3574947322.4781098     
   5229164502.7791119     
   4923524139.8711529     
   4617101236.9774637     
   4310077767.4984798     
   4003842619.4615479     
   5951463961.5318794     
   5602197305.0177488     
   5247162869.5078096     
   4885033840.6818838     
   4515669714.8897600     
   3075521339.9230766     
   2897143251.4812989     
   2741461023.3509517     
   2611929075.6227803     
   2513225695.5685830     
   3256004901.3281918     
   3021685750.5626073     
   2804837745.4147248     
   2608813940.0514870     
   2438767189.8225088     
   3574947322.4781098     
   3287774203.3363347     
   3012776756.5317588     
   2752251430.8854918     
   2510452567.0257168     
   4003842619.4615479     
   3667079180.8683124     
   3338348241.6613727     
   3018667968.4847951     
   2710794652.6863251     
   4515669714.8897600     
   4130782431.6957726     
   3751125344.7964211     
   3376702252.2767687     
   3009013686.4600177     
 </DataArray>
 <DataArray  type="Float64" Name="strain" NumberOfComponents="3" format="ascii">
  0.17802496185073097        0.0000000000000000       0.10002680636813316     
  0.16398413971400758       -2.3973447089738250E-002   5.9575607047648749E-002
  0.14994331757728416       -3.9108502688035507E-002   2.8654922529471674E-002
  0.13590249544056074       -4.5405166794891760E-002   7.2647528136019282E-003
  0.12186167330383735       -4.2863439410307042E-002  -4.5949020999604684E-003
  0.13372667754346834        0.0000000000000000        7.4767448904924677E-002
  0.12783724147224249       -1.8803378101264270E-002   4.9705052692304214E-002
  0.12194780540101664       -3.0961368223140676E-002   3.1414913808371539E-002
  0.11605836932979081       -3.6473970365629244E-002   1.9897032253126661E-002
  0.11016893325856497       -3.5341184528729912E-002   1.5151408026569592E-002
   9.8454435345464969E-002   0.0000000000000000        5.5774662186216760E-002
   9.7958127866117156E-002  -1.3633309112790285E-002   4.3908065569407115E-002
   9.7461820386769343E-002  -2.2814233758245848E-002   3.6055468807665678E-002
   9.6965512907421531E-002  -2.7542773936366685E-002   3.2216871900992539E-002
   9.6469205428073718E-002  -2.7818929647152810E-002   3.2392274849387663E-002
   7.2208235256720918E-002   0.0000000000000000        4.3048446212009386E-002
   7.4346798895631588E-002  -8.4632401243163024E-003   4.2184645678957397E-002
   7.6485362534542259E-002  -1.4667099293351017E-002   4.2576587527354125E-002
   7.8623926173452902E-002  -1.8611577507104151E-002   4.4224271757199535E-002
   8.0762489812363586E-002  -2.0296674765575687E-002   4.7127698368493676E-002
   5.4988077277236140E-002   0.0000000000000000        3.6588800982302563E-002
   5.7003254560785740E-002  -3.2931711358423210E-003   4.4534793020955116E-002
   5.9018431844335348E-002  -6.5199648284561904E-003   5.0978269967436818E-002
   6.1033609127884962E-002  -9.6803810778416117E-003   5.5919231821747697E-002
   6.3048786411434549E-002  -1.2774419883998580E-002   5.9357678583887741E-002
  0.12186167330383735       -4.2863439410307042E-002  -4.5949020999604684E-003
  0.11625464480419567       -3.6743349530337054E-002  -1.4727553514402303E-003
  0.11064761630455398       -3.2304926151037534E-002   1.1003457199643893E-003
  0.10504058780491229       -2.9548169272408532E-002   3.1244011142533556E-003
   9.9433559305270619E-002  -2.8473078894449944E-002   4.5994108314267590E-003
  0.11016893325856497       -3.5341184528729912E-002   1.5151408026569592E-002
  0.10429955694578980       -3.1369606785097773E-002   1.5228529520556696E-002
   9.8430180633014661E-002  -2.8365833207387836E-002   1.5330001065392496E-002
   9.2560804320239484E-002  -2.6329863795600060E-002   1.5455822661076856E-002
   8.6691428007464363E-002  -2.5261698549734507E-002   1.5605994307609922E-002
   9.6469205428073718E-002  -2.7818929647152810E-002   3.2392274849387663E-002
   9.0910877030129358E-002  -2.5995864039858523E-002   3.0138233423589955E-002
   8.5352548632184957E-002  -2.4426740263738120E-002   2.8481937776605178E-002
   7.9794220234240598E-002  -2.3111558318791626E-002   2.7423387908433357E-002
   7.4235891836296225E-002  -2.2050318205019043E-002   2.6962583819074390E-002
   8.0762489812363586E-002  -2.0296674765575687E-002   4.7127698368493676E-002
   7.6088605057214237E-002  -2.0622121294619253E-002   4.3256356357659509E-002
   7.1414720302064902E-002  -2.0487647320088412E-002   4.0556155853602505E-002
   6.6740835546915553E-002  -1.9893252841983202E-002   3.9027096856322607E-002
   6.2066950791766211E-002  -1.8838937860303592E-002   3.8669179365819928E-002
   6.3048786411434549E-002  -1.2774419883998580E-002   5.9357678583887741E-002
   5.9832741027044514E-002  -1.5248378549379972E-002   5.4582898322765347E-002
   5.6616695642654480E-002  -1.6548554376438707E-002   5.1552655296384357E-002
   5.3400650258264425E-002  -1.6674947365174726E-002   5.0266949504744779E-002
   5.0184604873874397E-002  -1.5627557515588142E-002   5.0725780947846660E-002
   9.9433559305270619E-002  -2.8473078894449944E-002   4.5994108314267590E-003
   9.3365953796097523E-002  -2.7949920344323004E-002   2.6855508177466569E-003
   8.7298348286924440E-002  -2.6848958949188845E-002   1.6820784116667042E-003
   8.1230742777751330E-002  -2.5170194709047335E-002   1.5889936131868107E-003
   7.5163137268578262E-002  -2.2913627623898591E-002   2.4062964223071082E-003
   8.6691428007464363E-002  -2.5261698549734507E-002   1.5605994307609922E-002
   8.1485738104656480E-002  -2.4490639773942141E-002   1.4405954454724729E-002
   7.6280048201848638E-002  -2.3345989772373781E-002   1.4019358206970034E-002
   7.1074358299040782E-002  -2.1827748545029765E-002   1.4446205564345511E-002
   6.5868668396232899E-002  -1.9935916091909700E-002   1.5686496526851584E-002
   7.4235891836296225E-002  -2.2050318205019043E-002   2.6962583819074390E-002
   6.9795173537383889E-002  -2.1031359203561154E-002   2.6272152507752680E-002
   6.5354455238471540E-002  -1.9843020595558883E-002   2.6298220799091582E-002
   6.0913736939559197E-002  -1.8485302381012082E-002   2.7040788693091254E-002
   5.6473018640646896E-002  -1.6958204559920809E-002   2.8499856189751427E-002
   6.2066950791766211E-002  -1.8838937860303592E-002   3.8669179365819928E-002
   5.8294260094279710E-002  -1.7572078633180270E-002   3.8284144976830220E-002
   5.4521569396793181E-002  -1.6340051418743902E-002   3.8518666188031514E-002
   5.0748878699306638E-002  -1.5142856216994455E-002   3.9372742999423754E-002
   4.6976188001820116E-002  -1.3980493027931973E-002   4.0846375411006948E-002
   5.0184604873874397E-002  -1.5627557515588142E-002   5.0725780947846660E-002
   4.6982997775343961E-002  -1.4112798062799317E-002   5.0441931861957640E-002
   4.3781390676813539E-002  -1.2837082241928907E-002   5.0680694373789886E-002
   4.0579783578283089E-002  -1.1800410052976867E-002   5.1442068483343248E-002
   3.7378176479752667E-002  -1.1002781495943081E-002   5.2726054190617960E-002
   7.5163137268578262E-002  -2.2913627623898591E-002   2.4062964223071082E-003
   6.8864876851837398E-002  -2.0541684221654838E-002   1.5038169635743781E-003
   6.2566616435096534E-002  -1.8516791030228547E-002   1.4358846256107838E-003
   5.6268356018355656E-002  -1.6838948049619752E-002   2.2024994084165611E-003
   4.9970095601614806E-002  -1.5508155279828184E-002   3.8036613119911689E-003
   6.5868668396232899E-002  -1.9935916091909700E-002   1.5686496526851584E-002
   6.0395216502804938E-002  -1.7962070911594741E-002   1.4394789596320151E-002
   5.4921764609376977E-002  -1.6197791502665815E-002   1.3918152591645569E-002
   4.9448312715949044E-002  -1.4643077865122714E-002   1.4256585512827651E-002
   4.3974860822521056E-002  -1.3297929998965508E-002   1.5410088359866347E-002
   5.6473018640646896E-002  -1.6958204559920809E-002   2.8499856189751427E-002
   5.1804898075619332E-002  -1.5382457601534519E-002   2.6956406226853025E-002
   4.7136777510591775E-002  -1.3878791975102736E-002   2.6208548994898814E-002
   4.2468656945564232E-002  -1.2447207680625311E-002   2.6256284493888685E-002
   3.7800536380536737E-002  -1.1087704718102498E-002   2.7099612723822830E-002
   4.6976188001820116E-002  -1.3980493027931973E-002   4.0846375411006948E-002
   4.3093921570280552E-002  -1.2802844291474415E-002   3.9188666855172943E-002
   3.9211655138740940E-002  -1.1559792447539886E-002   3.8307073835370506E-002
   3.5329388707201363E-002  -1.0251337496128258E-002   3.8201596351599927E-002
   3.1447122275661772E-002  -8.8774794372396548E-003   3.8872234403861047E-002
   3.7378176479752667E-002  -1.1002781495943081E-002   5.2726054190617960E-002
   3.4262286986788570E-002  -1.0223230981414255E-002   5.1091571481279741E-002
   3.1146397493824446E-002  -9.2407929199768701E-003   5.0213727113060741E-002
   2.8030508000860328E-002  -8.0554673116311482E-003   5.0092521085960878E-002
   2.4914618507896225E-002  -6.6672541563768117E-003   5.0727953399980485E-002
   5.4988077277236140E-002   0.0000000000000000        3.6588800982302563E-002
   5.7003254560785740E-002  -3.2931711358423210E-003   4.4534793020955116E-002
   5.9018431844335348E-002  -6.5199648284561904E-003   5.0978269967436818E-002
   6.1033609127884962E-002  -9.6803810778416117E-003   5.5919231821747697E-002
   6.3048786411434549E-002  -1.2774419883998580E-002   5.9357678583887741E-002
   4.2020969753029852E-002   0.0000000000000000        3.3678236111736960E-002
   4.2783312137175553E-002  -2.4698783456060715E-003   4.1412047404136947E-002
   4.3545654521321239E-002  -4.8899736150749534E-003   4.8142703989899963E-002
   4.4307996905466940E-002  -7.2602858084066454E-003   5.3870205869025967E-002
   4.5070339289612633E-002  -9.5808149256011461E-003   5.8594553041514987E-002
   2.8533921030121281E-002   0.0000000000000000        3.1599261214953232E-002
   2.8542788900396902E-002  -1.6465855553698229E-003   3.9104297394009412E-002
   2.8551656770672527E-002  -3.2599824016937172E-003   4.6105539251962445E-002
   2.8560524640948146E-002  -4.8401905389716853E-003   5.2602986788812311E-002
   2.8569392511223778E-002  -6.3872099672037256E-003   5.8596640004559039E-002
   1.4526931108510409E-002   0.0000000000000000        3.0351876291951390E-002
   1.4281684850449804E-002  -8.2329276513357303E-004   3.7611542990572483E-002
   1.4036438592389195E-002  -1.6299911883124823E-003   4.4866775753624286E-002
   1.3791192334328590E-002  -2.4200952695367255E-003   5.2117574581106746E-002
   1.3545946076267983E-002  -3.1936050088063020E-003   5.9363939473019919E-002
  -1.1802753219214424E-011   0.0000000000000000        2.9936081342731423E-002
  -1.2665748658213793E-011   2.5102675146881914E-011   3.6933784193826182E-002
  -1.3528746265617508E-011   2.5068754364032664E-011   4.4426413494885478E-002
  -1.4391743656180789E-011  -1.0176061382427548E-013   5.2413969245909291E-002
  -1.5254737577297117E-011  -5.0408878460306283E-011   6.0896451446897655E-002
   6.3048786411434549E-002  -1.2774419883998580E-002   5.9357678583887741E-002
   5.9832741027044514E-002  -1.5248378549379972E-002   5.4582898322765347E-002
   5.6616695642654480E-002  -1.6548554376438707E-002   5.1552655296384357E-002
   5.3400650258264425E-002  -1.6674947365174726E-002   5.0266949504744779E-002
   5.0184604873874397E-002  -1.5627557515588142E-002   5.0725780947846660E-002
   4.5070339289612633E-002  -9.5808149256011461E-003   5.8594553041514987E-002
   4.3363699670108960E-002  -1.1436283934700385E-002   5.6089201643158580E-002
   4.1657060050605280E-002  -1.2411415803746322E-002   5.4858124539833478E-002
   3.9950420431101606E-002  -1.2506210532738931E-002   5.4901321731539665E-002
   3.8243780811597933E-002  -1.1720668121678227E-002   5.6218793218277177E-002
   2.8569392511223778E-002  -6.3872099672037256E-003   5.8596640004559039E-002
   2.7901895716896333E-002  -7.6241893200208084E-003   5.8067271770699279E-002
   2.7234398922568903E-002  -8.2742772310539364E-003   5.8341914892160708E-002
   2.6566902128241473E-002  -8.3374737003030948E-003   5.9420569368943320E-002
   2.5899405333914043E-002  -7.8137787277682835E-003   6.1303235201047093E-002
   1.3545946076267983E-002  -3.1936050088063020E-003   5.9363939473019919E-002
   1.3447329167406671E-002  -3.8120947053412266E-003   6.0517108705387450E-002
   1.3348712258545357E-002  -4.1371386583615583E-003   6.2004026353366069E-002
   1.3250095349684042E-002  -4.1687368678672791E-003   6.3824692416955750E-002
   1.3151478440822739E-002  -3.9068893338583405E-003   6.5979106896156450E-002
  -1.5254737577297117E-011  -5.0408878460306283E-011   6.0896451446897655E-002
   2.1639945044227282E-011  -9.0661648327605704E-011   6.3438712447223142E-002
   5.8534628966794289E-011  -8.5669167940172208E-011   6.5844458923449561E-002
   9.5429311371478254E-011  -3.5431435996963190E-011   6.8113690875576935E-002
   1.3232399551088569E-010   6.0051574823916098E-011   7.0246408303605234E-002
   5.0184604873874397E-002  -1.5627557515588142E-002   5.0725780947846660E-002
   4.6982997775343961E-002  -1.4112798062799317E-002   5.0441931861957640E-002
   4.3781390676813539E-002  -1.2837082241928907E-002   5.0680694373789886E-002
   4.0579783578283089E-002  -1.1800410052976867E-002   5.1442068483343248E-002
   3.7378176479752667E-002  -1.1002781495943081E-002   5.2726054190617960E-002
   3.8243780811597933E-002  -1.1720668121678227E-002   5.6218793218277177E-002
   3.5634232847209540E-002  -1.0584598511513714E-002   5.5391677066519505E-002
   3.3024684882821141E-002  -9.6278116431950424E-003   5.5226067585324591E-002
   3.0415136918432745E-002  -8.8503075167221806E-003   5.5721964774692545E-002
   2.7805588954044343E-002  -8.2520861320951044E-003   5.6879368634623367E-002
   2.5899405333914043E-002  -7.8137787277682835E-003   6.1303235201047093E-002
   2.4020811576509281E-002  -7.0563989602280899E-003   5.9992612873493223E-002
   2.2142217819104536E-002  -6.4185410444611776E-003   5.9482392289343801E-002
   2.0263624061699785E-002  -5.9002049804674963E-003   5.9772573448598848E-002
   1.8385030304295037E-002  -5.5013907682470720E-003   6.0863156351258232E-002
   1.3151478440822739E-002  -3.9068893338583405E-003   6.5979106896156450E-002
   1.2142733963243226E-002  -3.5281994089424763E-003   6.4244739282878979E-002
   1.1133989485663718E-002  -3.2092704457273268E-003   6.3449668485847585E-002
   1.0125245008084208E-002  -2.9501024442128527E-003   6.3593894505062185E-002
   9.1165005305047040E-003  -2.7506954043990672E-003   6.4677417340522902E-002
   1.3232399551088569E-010   6.0051574823916098E-011   7.0246408303605234E-002
   7.4113354342486559E-012   1.4234316503269895E-010   6.8148056294676712E-002
  -1.1750132637711186E-010   1.5300655187289181E-010   6.7127896174835847E-002
  -2.4241398992319585E-010   9.2041818611221515E-011   6.7185927944082638E-002
  -3.6732664826510941E-010  -4.0551062507887536E-011   6.8322151602417058E-002
   3.7378176479752667E-002  -1.1002781495943081E-002   5.2726054190617960E-002
   3.4262286986788570E-002  -1.0223230981414255E-002   5.1091571481279741E-002
   3.1146397493824446E-002  -9.2407929199768701E-003   5.0213727113060741E-002
   2.8030508000860328E-002  -8.0554673116311482E-003   5.0092521085960878E-002
   2.4914618507896225E-002  -6.6672541563768117E-003   5.0727953399980485E-002
   2.7805588954044343E-002  -8.2520861320951044E-003   5.6879368634623367E-002
   2.5451921331710800E-002  -7.6674232623779176E-003   5.5580024960222685E-002
   2.3098253709377233E-002  -6.9305946806346164E-003   5.5048486685963696E-002
   2.0744586087043652E-002  -6.0416003868653673E-003   5.5284753811846776E-002
   1.8390918464710110E-002  -5.0004403810701703E-003   5.6288826337871523E-002
   1.8385030304295037E-002  -5.5013907682470720E-003   6.0863156351258232E-002
   1.6804751611614606E-002  -5.1116155433415245E-003   5.9848229876912643E-002
   1.5224472918934195E-002  -4.6203964412923904E-003   5.9612275861731470E-002
   1.3644194226253759E-002  -4.0277334620997529E-003   6.0155294305714785E-002
   1.2063915533573361E-002  -3.3336266057634734E-003   6.1477285208862448E-002
   9.1165005305047040E-003  -2.7506954043990672E-003   6.4677417340522902E-002
   8.3207778265000209E-003  -2.5558078243051591E-003   6.3896186231349822E-002
   7.5250551224953334E-003  -2.3101982019500394E-003   6.3905094640363841E-002
   6.7293324184906616E-003  -2.0138665373339998E-003   6.4704142567564876E-002
   5.9336097144859629E-003  -1.6668128304567764E-003   6.6293330012952859E-002
  -3.6732664826510941E-010  -4.0551062507887536E-011   6.8322151602417058E-002
  -2.3632991397182224E-011  -1.0526877980421290E-010   6.7723894023534209E-002
   3.2006066547074496E-010   3.7392144935921579E-011   6.7926943021860892E-002
   6.6375433101228953E-010   3.8743162844578904E-010   6.8931298597397342E-002
   1.0074479861454932E-009   9.4484986501441881E-010   7.0736960750143352E-002
  -1.1802753219214424E-011   0.0000000000000000        2.9936081342731423E-002
  -1.2665748658213793E-011   2.5102675146881914E-011   3.6933784193826182E-002
  -1.3528746265617508E-011   2.5068754364032664E-011   4.4426413494885478E-002
  -1.4391743656180789E-011  -1.0176061382427548E-013   5.2413969245909291E-002
  -1.5254737577297117E-011  -5.0408878460306283E-011   6.0896451446897655E-002
  -1.4526931129132616E-002   0.0000000000000000        3.0351876356628591E-002
  -1.4281684873672932E-002   8.2329280152611869E-004   3.7611543017584848E-002
  -1.4036438618213250E-002   1.6299912258577395E-003   4.4866775741221936E-002
  -1.3791192362753559E-002   2.4200952729948565E-003   5.2117574527539852E-002
  -1.3545946107293878E-002   3.1936049429374825E-003   5.9363939376538610E-002
  -2.8533921041793586E-002   0.0000000000000000        3.1599261322978162E-002
  -2.8542788917294917E-002   1.6465855779495648E-003   3.9104297441738010E-002
  -2.8551656792796257E-002   3.2599824266467256E-003   4.6105539235894985E-002
  -2.8560524668297591E-002   4.8401905460914883E-003   5.2602986705449106E-002
  -2.8569392543798925E-002   6.3872099362838435E-003   5.8596639850400360E-002
  -4.2020969749785655E-002   0.0000000000000000        3.3678236241780124E-002
  -4.2783312143531718E-002   2.4698783543730097E-003   4.1412047466285677E-002
  -4.3545654537277767E-002   4.8899736274357133E-003   4.8142703978904640E-002
  -4.4307996931023823E-002   7.2602858191881132E-003   5.3870205779637040E-002
  -4.5070339324769879E-002   9.5808149296302113E-003   5.8594552868482870E-002
  -5.4988077253108843E-002   0.0000000000000000        3.6588801113034482E-002
  -5.7003254552383323E-002   3.2931711307964545E-003   4.4534793091227806E-002
  -5.9018431851657789E-002   6.5199648282246968E-003   5.0978269970250872E-002
  -6.1033609150932262E-002   9.6803810922847407E-003   5.5919231750103653E-002
  -6.3048786450206742E-002   1.2774419922976562E-002   5.9357678430786168E-002
  -1.5254737577297117E-011  -5.0408878460306283E-011   6.0896451446897655E-002
   2.1639945044227282E-011  -9.0661648327605704E-011   6.3438712447223142E-002
   5.8534628966794289E-011  -8.5669167940172208E-011   6.5844458923449561E-002
   9.5429311371478254E-011  -3.5431435996963190E-011   6.8113690875576935E-002
   1.3232399551088569E-010   6.0051574823916098E-011   7.0246408303605234E-002
  -1.3545946107293878E-002   3.1936049429374825E-003   5.9363939376538610E-002
  -1.3447329128815091E-002   3.8120945836196620E-003   6.0517108680040795E-002
  -1.3348712150336303E-002   4.1371385429754253E-003   6.2004026390810242E-002
  -1.3250095171857507E-002   4.1687368210048224E-003   6.3824692508846967E-002
  -1.3151478193378726E-002   3.9068894177077818E-003   6.5979107034150983E-002
  -2.8569392543798925E-002   6.3872099362838435E-003   5.8596639850400360E-002
  -2.7901895692369699E-002   7.6241892579009731E-003   5.8067271730507554E-002
  -2.7234398840940470E-002   8.2742771716200342E-003   5.8341914949248369E-002
  -2.6566901989511244E-002   8.3374736774410318E-003   5.9420569506622813E-002
  -2.5899405138082011E-002   7.8137787753639609E-003   6.1303235402630857E-002
  -4.5070339324769879E-002   9.5808149296302113E-003   5.8594552868482870E-002
  -4.3363699669023884E-002   1.1436283932182285E-002   5.6089201598623448E-002
  -4.1657060013277861E-002   1.2411415800264634E-002   5.4858124598763956E-002
  -3.9950420357531873E-002   1.2506210533877255E-002   5.4901321868904431E-002
  -3.8243780701785857E-002   1.1720668133020168E-002   5.6218793409044863E-002
  -6.3048786450206742E-002   1.2774419922976562E-002   5.9357678430786168E-002
  -5.9832741058777637E-002   1.5248378606463593E-002   5.4582898284388462E-002
  -5.6616695667348504E-002   1.6548554428909248E-002   5.1552655339357011E-002
  -5.3400650275919392E-002   1.6674947390313485E-002   5.0266949595691862E-002
  -5.0184604884490266E-002   1.5627557490676347E-002   5.0725781053392968E-002
   1.3232399551088569E-010   6.0051574823916098E-011   7.0246408303605234E-002
   7.4113354342486559E-012   1.4234316503269895E-010   6.8148056294676712E-002
  -1.1750132637711186E-010   1.5300655187289181E-010   6.7127896174835847E-002
  -2.4241398992319585E-010   9.2041818611221515E-011   6.7185927944082638E-002
  -3.6732664826510941E-010  -4.0551062507887536E-011   6.8322151602417058E-002
  -1.3151478193378726E-002   3.9068894177077818E-003   6.5979107034150983E-002
  -1.2142733948712672E-002   3.5281996011079023E-003   6.4244739278259244E-002
  -1.1133989704046620E-002   3.2092706392287673E-003   6.3449668372437318E-002
  -1.0125245459380565E-002   2.9501025320704047E-003   6.3593894316685190E-002
  -9.1165012147145126E-003   2.7506952796327311E-003   6.4677417111002847E-002
  -2.5899405138082011E-002   7.8137787753639609E-003   6.1303235402630857E-002
  -2.4020811562855106E-002   7.0563990598726811E-003   5.9992612826124836E-002
  -2.2142217987628197E-002   6.4185411254509828E-003   5.9482392060670713E-002
  -2.0263624412401291E-002   5.9002049720989491E-003   5.9772573106268531E-002
  -1.8385030837174382E-002   5.5013905998165247E-003   6.0863155962918317E-002
  -3.8243780701785857E-002   1.1720668133020168E-002   5.6218793409044863E-002
  -3.5634232835015961E-002   1.0584598518637439E-002   5.5391676938273418E-002
  -3.3024684968246065E-002   9.6278116116732398E-003   5.5226067239535992E-002
  -3.0415137101476159E-002   8.8503074121275005E-003   5.5721964312832620E-002
  -2.7805589234706270E-002   8.2520859200003460E-003   5.6879368158163413E-002
  -5.0184604884490266E-002   1.5627557490676347E-002   5.0725781053392968E-002
  -4.6982997765195253E-002   1.4112797977402190E-002   5.0441931614704984E-002
  -4.3781390645900219E-002   1.2837082097895434E-002   5.0680693909033181E-002
  -4.0579783526605191E-002   1.1800409852156085E-002   5.1442067936377602E-002
  -3.7378176407310164E-002   1.1002781240184140E-002   5.2726053696738162E-002
  -3.6732664826510941E-010  -4.0551062507887536E-011   6.8322151602417058E-002
  -2.3632991397182224E-011  -1.0526877980421290E-010   6.7723894023534209E-002
   3.2006066547074496E-010   3.7392144935921579E-011   6.7926943021860892E-002
   6.6375433101228953E-010   3.8743162844578904E-010   6.8931298597397342E-002
   1.0074479861454932E-009   9.4484986501441881E-010   7.0736960750143352E-002
  -9.1165012147145126E-003   2.7506952796327311E-003   6.4677417111002847E-002
  -8.3207778591002663E-003   2.5558075845191069E-003   6.3896186425411880E-002
  -7.5250545034860113E-003   2.3101981493330453E-003   6.3905095186452460E-002
  -6.7293311478717538E-003   2.0138669740742791E-003   6.4704143394124627E-002
  -5.9336077922575170E-003   1.6668140587430824E-003   6.6293331048428328E-002
  -1.8385030837174382E-002   5.5013905998165247E-003   6.0863155962918317E-002
  -1.6804751600217639E-002   5.1116152743070423E-003   5.9848230223168167E-002
  -1.5224472363260903E-002   4.6203962612738347E-003   5.9612276799471481E-002
  -1.3644193126304141E-002   4.0277335607168882E-003   6.0155295691828217E-002
  -1.2063913889347407E-002   3.3336271726362998E-003   6.1477286900238431E-002
  -2.7805589234706270E-002   8.2520859200003460E-003   5.6879368158163413E-002
  -2.5451921246985133E-002   7.6674229640948700E-003   5.5580025416802833E-002
  -2.3098253259263991E-002   6.9305943732147074E-003   5.5048487860917698E-002
  -2.0744585271542861E-002   6.0416001473595181E-003   5.5284755490508028E-002
  -1.8390917283821730E-002   5.0004402865295172E-003   5.6288828305573350E-002
  -3.7378176407310164E-002   1.1002781240184140E-002   5.2726053696738162E-002
  -3.4262286799402741E-002   1.0223230653882850E-002   5.1091572006316144E-002
  -3.1146397191495302E-002   9.2407924851555454E-003   5.0213728370791397E-002
  -2.8030507583587862E-002   8.0554667340020699E-003   5.0092522790163914E-002
  -2.4914617975680439E-002   6.6672534004227346E-003   5.0727955264433522E-002
  -5.4988077253108843E-002   0.0000000000000000        3.6588801113034482E-002
  -5.7003254552383323E-002   3.2931711307964545E-003   4.4534793091227806E-002
  -5.9018431851657789E-002   6.5199648282246968E-003   5.0978269970250872E-002
  -6.1033609150932262E-002   9.6803810922847407E-003   5.5919231750103653E-002
  -6.3048786450206742E-002   1.2774419922976562E-002   5.9357678430786168E-002
  -7.2208235220525177E-002   0.0000000000000000        4.3048446323020309E-002
  -7.4346798875266101E-002   8.4632401051152276E-003   4.2184645728002276E-002
  -7.6485362530007026E-002   1.4667099275478709E-002   4.2576587521221620E-002
  -7.8623926184747950E-002   1.8611577511090455E-002   4.4224271702678342E-002
  -8.0762489839488860E-002   2.0296674811950473E-002   4.7127698272372461E-002
  -9.8454435320796743E-002   0.0000000000000000        5.5774662258016680E-002
  -9.7958127843596449E-002   1.3633309079434008E-002   4.3908065588403739E-002
  -9.7461820366396168E-002   2.2814233722732724E-002   3.6055468794435851E-002
  -9.6965512889195887E-002   2.7542773929896180E-002   3.2216871876112961E-002
  -9.6469205411995579E-002   2.7818929700924366E-002   3.2392274833435118E-002
 -0.13372667755392351        0.0000000000000000        7.4767448918023588E-002
 -0.12783724145737438        1.8803378053752776E-002   4.9705052672432234E-002
 -0.12194780536082522        3.0961368169986757E-002   3.1414913789893542E-002
 -0.11605836926427608        3.6473970348701909E-002   1.9897032270407542E-002
 -0.11016893316772694        3.5341184589898253E-002   1.5151408113974198E-002
 -0.17802496191990549        0.0000000000000000       0.10002680630304105     
 -0.16398413971659984        2.3973447028071554E-002   5.9575606980087709E-002
 -0.14994331751329421        3.9108502617240762E-002   2.8654922507594729E-002
 -0.13590249530998855        4.5405166767507617E-002   7.2647528855620397E-003
 -0.12186167310668290        4.2863439478872167E-002  -4.5949018860103052E-003
  -6.3048786450206742E-002   1.2774419922976562E-002   5.9357678430786168E-002
  -5.9832741058777637E-002   1.5248378606463593E-002   5.4582898284388462E-002
  -5.6616695667348504E-002   1.6548554428909248E-002   5.1552655339357011E-002
  -5.3400650275919392E-002   1.6674947390313485E-002   5.0266949595691862E-002
  -5.0184604884490266E-002   1.5627557490676347E-002   5.0725781053392968E-002
  -8.0762489839488860E-002   2.0296674811950473E-002   4.7127698272372461E-002
  -7.6088605110298579E-002   2.0622121369041339E-002   4.3256356372231054E-002
  -7.1414720381108271E-002   2.0487647373345741E-002   4.0556155946245759E-002
  -6.6740835651917990E-002   1.9893252824863671E-002   3.9027096994416512E-002
  -6.2066950922727682E-002   1.8838937723595052E-002   3.8669179516743361E-002
  -9.6469205411995579E-002   2.7818929700924366E-002   3.2392274833435118E-002
  -9.0910877072254329E-002   2.5995864131619098E-002   3.0138233487804991E-002
  -8.5352548732513092E-002   2.4426740317782226E-002   2.8481937889120703E-002
  -7.9794220392771814E-002   2.3111558259413842E-002   2.7423388037382247E-002
  -7.4235892053030564E-002   2.2050317956513743E-002   2.6962583932589726E-002
 -0.11016893316772694        3.5341184589898253E-002   1.5151408113974198E-002
 -0.10429955694464495        3.1369606894196871E-002   1.5228529631110207E-002
  -9.8430180721562940E-002   2.8365833262218764E-002   1.5330001167981847E-002
  -9.2560804498480892E-002   2.6329863693963985E-002   1.5455822724589161E-002
  -8.6691428275398871E-002   2.5261698189432427E-002   1.5605994300932126E-002
 -0.12186167310668290        4.2863439478872167E-002  -4.5949018860103052E-003
 -0.11625464472747034        3.6743349656774622E-002  -1.4727551978532920E-003
 -0.11064761634825779        3.2304926206655191E-002   1.1003457828292346E-003
 -0.10504058796904522        2.9548169128514167E-002   3.1244010560370523E-003
  -9.9433559589832660E-002   2.8473078422351139E-002   4.5994106217704667E-003
  -5.0184604884490266E-002   1.5627557490676347E-002   5.0725781053392968E-002
  -4.6982997765195253E-002   1.4112797977402190E-002   5.0441931614704984E-002
  -4.3781390645900219E-002   1.2837082097895434E-002   5.0680693909033181E-002
  -4.0579783526605191E-002   1.1800409852156085E-002   5.1442067936377602E-002
  -3.7378176407310164E-002   1.1002781240184140E-002   5.2726053696738162E-002
  -6.2066950922727682E-002   1.8838937723595052E-002   3.8669179516743361E-002
  -5.8294260088438625E-002   1.7572078423471221E-002   3.8284144862389541E-002
  -5.4521569254149541E-002   1.6340051278423515E-002   3.8518665905007576E-002
  -5.0748878419860484E-002   1.5142856288452019E-002   3.9372742644597447E-002
  -4.6976187585571400E-002   1.3980493453556619E-002   4.0846375081159333E-002
  -7.4235892053030564E-002   2.2050317956513743E-002   2.6962583932589726E-002
  -6.9795173539791755E-002   2.1031358869540284E-002   2.6272152583878716E-002
  -6.5354455026552918E-002   1.9843020458951682E-002   2.6298220896095317E-002
  -6.0913736513314123E-002   1.8485302724747927E-002   2.7040788869239538E-002
  -5.6473018000075308E-002   1.6958205666929113E-002   2.8499856503311348E-002
  -8.6691428275398871E-002   2.5261698189432427E-002   1.5605994300932126E-002
  -8.1485738119254636E-002   2.4490639315609304E-002   1.4405954779172749E-002
  -7.6280047963110359E-002   2.3345989639479862E-002   1.4019358882296606E-002
  -7.1074357806966124E-002   2.1827749161043970E-002   1.4446206610303807E-002
  -6.5868667650821847E-002   1.9935917880301642E-002   1.5686497963194268E-002
  -9.9433559589832660E-002   2.8473078422351139E-002   4.5994106217704667E-003
  -9.3365953826827303E-002   2.7949919761678391E-002   2.6855514482714282E-003
  -8.7298348063821876E-002   2.6848958820007818E-002   1.6820798636112966E-003
  -8.1230742300816478E-002   2.5170195597339809E-002   1.5889958677902660E-003
  -7.5163136537811093E-002   2.2913630093674087E-002   2.4062994608081978E-003
  -3.7378176407310164E-002   1.1002781240184140E-002   5.2726053696738162E-002
  -3.4262286799402741E-002   1.0223230653882850E-002   5.1091572006316144E-002
  -3.1146397191495302E-002   9.2407924851555454E-003   5.0213728370791397E-002
  -2.8030507583587862E-002   8.0554667340020699E-003   5.0092522790163914E-002
  -2.4914617975680439E-002   6.6672534004227346E-003   5.0727955264433522E-002
  -4.6976187585571400E-002   1.3980493453556619E-002   4.0846375081159333E-002
  -4.3093921396966862E-002   1.2802844880214326E-002   3.9188667073096498E-002
  -3.9211655208362325E-002   1.1559792674901995E-002   3.8307074171530599E-002
  -3.5329389019757788E-002   1.0251336837619685E-002   3.8201596376461686E-002
  -3.1447122831153244E-002   8.8774773683674146E-003   3.8872233687889668E-002
  -5.6473018000075308E-002   1.6958205666929113E-002   2.8499856503311348E-002
  -5.1804898179173942E-002   1.5382459106545725E-002   2.6956406128063742E-002
  -4.7136778358272576E-002   1.3878792864648447E-002   2.6208547910912910E-002
  -4.2468658537371202E-002   1.2447206941237261E-002   2.6256281851858659E-002
  -3.7800538716469836E-002   1.1087701336312150E-002   2.7099607950901133E-002
  -6.5868667650821847E-002   1.9935917880301642E-002   1.5686497963194268E-002
  -6.0395217146023993E-002   1.7962073332877148E-002   1.4394789171218003E-002
  -5.4921766641226111E-002   1.6197793054394817E-002   1.3918149588938278E-002
  -4.9448316136428229E-002   1.4643077044854744E-002   1.4256579216354799E-002
  -4.3974865631630361E-002   1.3297925304256858E-002   1.5410078053467786E-002
  -7.5163136537811093E-002   2.2913630093674087E-002   2.4062994608081978E-003
  -6.8864878297516974E-002   2.0541687559208571E-002   1.5038162025593355E-003
  -6.2566620057222827E-002   1.8516793244141266E-002   1.4358792056066924E-003
  -5.6268361816928722E-002   1.6838947148472318E-002   2.2024884699500310E-003
  -4.9970103576634561E-002   1.5508149272201566E-002   3.8036439955896340E-003
 </DataArray>
 </PointData>
 </Piece>
 <Piece  NumberOfPoints="           400 "  NumberOfCells="          256 ">
 <Points>
 <DataArray  type="Float64" NumberOfComponents="3"  format="ascii" >
  0.50000000000000000        0.0000000000000000        0.0000000000000000     
  0.56250000000000000        0.0000000000000000        0.0000000000000000     
  0.62500000000000000        0.0000000000000000        0.0000000000000000     
  0.68750000000000000        0.0000000000000000        0.0000000000000000     
  0.75000000000000000        0.0000000000000000        0.0000000000000000     
  0.50000000000000000        6.2500000000000000E-002   0.0000000000000000     
  0.56250000000000000        6.2500000000000000E-002   0.0000000000000000     
  0.62500000000000000        6.2500000000000000E-002   0.0000000000000000     
  0.68750000000000000        6.2500000000000000E-002   0.0000000000000000     
  0.75000000000000000        6.2500000000000000E-002   0.0000000000000000     
  0.50000000000000000       0.12500000000000000        0.0000000000000000     
  0.56250000000000000       0.12500000000000000        0.0000000000000000     
  0.62500000000000000       0.12500000000000000        0.0000000000000000     
  0.68750000000000000       0.12500000000000000        0.0000000000000000     
  0.75000000000000000       0.12500000000000000        0.0000000000000000     
  0.50000000000000000       0.18750000000000000        0.0000000000000000     
  0.56250000000000000       0.18750000000000000        0.0000000000000000     
  0.62500000000000000       0.18750000000000000        0.0000000000000000     
  0.68750000000000000       0.18750000000000000        0.0000000000000000     
  0.75000000000000000       0.18750000000000000        0.0000000000000000     
  0.50000000000000000       0.25000000000000000        0.0000000000000000     
  0.56250000000000000       0.25000000000000000        0.0000000000000000     
  0.62500000000000000       0.25000000000000000        0.0000000000000000     
  0.68750000000000000       0.25000000000000000        0.0000000000000000     
  0.75000000000000000       0.25000000000000000        0.0000000000000000     
  0.75000000000000000        0.0000000000000000        0.0000000000000000     
  0.81250000000000000        0.0000000000000000        0.0000000000000000     
  0.87500000000000000        0.0000000000000000        0.0000000000000000     
  0.93750000000000000        0.0000000000000000        0.0000000000000000     
   1.0000000000000000        0.0000000000000000        0.0000000000000000     
  0.75000000000000000        6.2500000000000000E-002   0.0000000000000000     
  0.81250000000000000        6.2500000000000000E-002   0.0000000000000000     
  0.87500000000000000        6.2500000000000000E-002   0.0000000000000000     
  0.93750000000000000        6.2500000000000000E-002   0.0000000000000000     
   1.0000000000000000        6.2500000000000000E-002   0.0000000000000000     
  0.75000000000000000       0.12500000000000000        0.0000000000000000     
  0.81250000000000000       0.12500000000000000        0.0000000000000000     
  0.87500000000000000       0.12500000000000000        0.0000000000000000     
  0.93750000000000000       0.12500000000000000        0.0000000000000000     
   1.0000000000000000       0.12500000000000000        0.0000000000000000     
  0.75000000000000000       0.18750000000000000        0.0000000000000000     
  0.81250000000000000       0.18750000000000000        0.0000000000000000     
  0.87500000000000000       0.18750000000000000        0.0000000000000000     
  0.93750000000000000       0.18750000000000000        0.0000000000000000     
   1.0000000000000000       0.18750000000000000        0.0000000000000000     
  0.75000000000000000       0.25000000000000000        0.0000000000000000     
  0.81250000000000000       0.25000000000000000        0.0000000000000000     
  0.87500000000000000       0.25000000000000000        0.0000000000000000     
  0.93750000000000000       0.25000000000000000        0.0000000000000000     
   1.0000000000000000       0.25000000000000000        0.0000000000000000     
   1.0000000000000000        0.0000000000000000        0.0000000000000000     
   1.0625000000000000        0.0000000000000000        0.0000000000000000     
   1.1250000000000000        0.0000000000000000        0.0000000000000000     
   1.1875000000000000        0.0000000000000000        0.0000000000000000     
   1.2500000000000000        0.0000000000000000        0.0000000000000000     
   1.0000000000000000        6.2500000000000000E-002   0.0000000000000000     
   1.0625000000000000        6.2500000000000000E-002   0.0000000000000000     
   1.1250000000000000        6.2500000000000000E-002   0.0000000000000000     
   1.1875000000000000        6.2500000000000000E-002   0.0000000000000000     
   1.2500000000000000        6.2500000000000000E-002   0.0000000000000000     
   1.0000000000000000       0.12500000000000000        0.0000000000000000     
   1.0625000000000000       0.12500000000000000        0.0000000000000000     
   1.1250000000000000       0.12500000000000000        0.0000000000000000     
   1.1875000000000000       0.12500000000000000        0.0000000000000000     
   1.2500000000000000       0.12500000000000000        0.0000000000000000     
   1.0000000000000000       0.18750000000000000        0.0000000000000000     
   1.0625000000000000       0.18750000000000000        0.0000000000000000     
   1.1250000000000000       0.18750000000000000        0.0000000000000000     
   1.1875000000000000       0.18750000000000000        0.0000000000000000     
   1.2500000000000000       0.18750000000000000        0.0000000000000000     
   1.0000000000000000       0.25000000000000000        0.0000000000000000     
   1.0625000000000000       0.25000000000000000        0.0000000000000000     
   1.1250000000000000       0.25000000000000000        0.0000000000000000     
   1.1875000000000000       0.25000000000000000        0.0000000000000000     
   1.2500000000000000       0.25000000000000000        0.0000000000000000     
   1.2500000000000000        0.0000000000000000        0.0000000000000000     
   1.3125000000000000        0.0000000000000000        0.0000000000000000     
   1.3750000000000000        0.0000000000000000        0.0000000000000000     
   1.4375000000000000        0.0000000000000000        0.0000000000000000     
   1.5000000000000000        0.0000000000000000        0.0000000000000000     
   1.2500000000000000        6.2500000000000000E-002   0.0000000000000000     
   1.3125000000000000        6.2500000000000000E-002   0.0000000000000000     
   1.3750000000000000        6.2500000000000000E-002   0.0000000000000000     
   1.4375000000000000        6.2500000000000000E-002   0.0000000000000000     
   1.5000000000000000        6.2500000000000000E-002   0.0000000000000000     
   1.2500000000000000       0.12500000000000000        0.0000000000000000     
   1.3125000000000000       0.12500000000000000        0.0000000000000000     
   1.3750000000000000       0.12500000000000000        0.0000000000000000     
   1.4375000000000000       0.12500000000000000        0.0000000000000000     
   1.5000000000000000       0.12500000000000000        0.0000000000000000     
   1.2500000000000000       0.18750000000000000        0.0000000000000000     
   1.3125000000000000       0.18750000000000000        0.0000000000000000     
   1.3750000000000000       0.18750000000000000        0.0000000000000000     
   1.4375000000000000       0.18750000000000000        0.0000000000000000     
   1.5000000000000000       0.18750000000000000        0.0000000000000000     
   1.2500000000000000       0.25000000000000000        0.0000000000000000     
   1.3125000000000000       0.25000000000000000        0.0000000000000000     
   1.3750000000000000       0.25000000000000000        0.0000000000000000     
   1.4375000000000000       0.25000000000000000        0.0000000000000000     
   1.5000000000000000       0.25000000000000000        0.0000000000000000     
  0.50000000000000000       0.25000000000000000        0.0000000000000000     
  0.56250000000000000       0.25000000000000000        0.0000000000000000     
  0.62500000000000000       0.25000000000000000        0.0000000000000000     
  0.68750000000000000       0.25000000000000000        0.0000000000000000     
  0.75000000000000000       0.25000000000000000        0.0000000000000000     
  0.50000000000000000       0.31250000000000000        0.0000000000000000     
  0.56250000000000000       0.31250000000000000        0.0000000000000000     
  0.62500000000000000       0.31250000000000000        0.0000000000000000     
  0.68750000000000000       0.31250000000000000        0.0000000000000000     
  0.75000000000000000       0.31250000000000000        0.0000000000000000     
  0.50000000000000000       0.37500000000000000        0.0000000000000000     
  0.56250000000000000       0.37500000000000000        0.0000000000000000     
  0.62500000000000000       0.37500000000000000        0.0000000000000000     
  0.68750000000000000       0.37500000000000000        0.0000000000000000     
  0.75000000000000000       0.37500000000000000        0.0000000000000000     
  0.50000000000000000       0.43750000000000000        0.0000000000000000     
  0.56250000000000000       0.43750000000000000        0.0000000000000000     
  0.62500000000000000       0.43750000000000000        0.0000000000000000     
  0.68750000000000000       0.43750000000000000        0.0000000000000000     
  0.75000000000000000       0.43750000000000000        0.0000000000000000     
  0.50000000000000000       0.50000000000000000        0.0000000000000000     
  0.56250000000000000       0.50000000000000000        0.0000000000000000     
  0.62500000000000000       0.50000000000000000        0.0000000000000000     
  0.68750000000000000       0.50000000000000000        0.0000000000000000     
  0.75000000000000000       0.50000000000000000        0.0000000000000000     
  0.75000000000000000       0.25000000000000000        0.0000000000000000     
  0.81250000000000000       0.25000000000000000        0.0000000000000000     
  0.87500000000000000       0.25000000000000000        0.0000000000000000     
  0.93750000000000000       0.25000000000000000        0.0000000000000000     
   1.0000000000000000       0.25000000000000000        0.0000000000000000     
  0.75000000000000000       0.31250000000000000        0.0000000000000000     
  0.81250000000000000       0.31250000000000000        0.0000000000000000     
  0.87500000000000000       0.31250000000000000        0.0000000000000000     
  0.93750000000000000       0.31250000000000000        0.0000000000000000     
   1.0000000000000000       0.31250000000000000        0.0000000000000000     
  0.75000000000000000       0.37500000000000000        0.0000000000000000     
  0.81250000000000000       0.37500000000000000        0.0000000000000000     
  0.87500000000000000       0.37500000000000000        0.0000000000000000     
  0.93750000000000000       0.37500000000000000        0.0000000000000000     
   1.0000000000000000       0.37500000000000000        0.0000000000000000     
  0.75000000000000000       0.43750000000000000        0.0000000000000000     
  0.81250000000000000       0.43750000000000000        0.0000000000000000     
  0.87500000000000000       0.43750000000000000        0.0000000000000000     
  0.93750000000000000       0.43750000000000000        0.0000000000000000     
   1.0000000000000000       0.43750000000000000        0.0000000000000000     
  0.75000000000000000       0.50000000000000000        0.0000000000000000     
  0.81250000000000000       0.50000000000000000        0.0000000000000000     
  0.87500000000000000       0.50000000000000000        0.0000000000000000     
  0.93750000000000000       0.50000000000000000        0.0000000000000000     
   1.0000000000000000       0.50000000000000000        0.0000000000000000     
   1.0000000000000000       0.25000000000000000        0.0000000000000000     
   1.0625000000000000       0.25000000000000000        0.0000000000000000     
   1.1250000000000000       0.25000000000000000        0.0000000000000000     
   1.1875000000000000       0.25000000000000000        0.0000000000000000     
   1.2500000000000000       0.25000000000000000        0.0000000000000000     
   1.0000000000000000       0.31250000000000000        0.0000000000000000     
   1.0625000000000000       0.31250000000000000        0.0000000000000000     
   1.1250000000000000       0.31250000000000000        0.0000000000000000     
   1.1875000000000000       0.31250000000000000        0.0000000000000000     
   1.2500000000000000       0.31250000000000000        0.0000000000000000     
   1.0000000000000000       0.37500000000000000        0.0000000000000000     
   1.0625000000000000       0.37500000000000000        0.0000000000000000     
   1.1250000000000000       0.37500000000000000        0.0000000000000000     
   1.1875000000000000       0.37500000000000000        0.0000000000000000     
   1.2500000000000000       0.37500000000000000        0.0000000000000000     
   1.0000000000000000       0.43750000000000000        0.0000000000000000     
   1.0625000000000000       0.43750000000000000        0.0000000000000000     
   1.1250000000000000       0.43750000000000000        0.0000000000000000     
   1.1875000000000000       0.43750000000000000        0.0000000000000000     
   1.2500000000000000       0.43750000000000000        0.0000000000000000     
   1.0000000000000000       0.50000000000000000        0.0000000000000000     
   1.0625000000000000       0.50000000000000000        0.0000000000000000     
   1.1250000000000000       0.50000000000000000        0.0000000000000000     
   1.1875000000000000       0.50000000000000000        0.0000000000000000     
   1.2500000000000000       0.50000000000000000        0.0000000000000000     
   1.2500000000000000       0.25000000000000000        0.0000000000000000     
   1.3125000000000000       0.25000000000000000        0.0000000000000000     
   1.3750000000000000       0.25000000000000000        0.0000000000000000     
   1.4375000000000000       0.25000000000000000        0.0000000000000000     
   1.5000000000000000       0.25000000000000000        0.0000000000000000     
   1.2500000000000000       0.31250000000000000        0.0000000000000000     
   1.3125000000000000       0.31250000000000000        0.0000000000000000     
   1.3750000000000000       0.31250000000000000        0.0000000000000000     
   1.4375000000000000       0.31250000000000000        0.0000000000000000     
   1.5000000000000000       0.31250000000000000        0.0000000000000000     
   1.2500000000000000       0.37500000000000000        0.0000000000000000     
   1.3125000000000000       0.37500000000000000        0.0000000000000000     
   1.3750000000000000       0.37500000000000000        0.0000000000000000     
   1.4375000000000000       0.37500000000000000        0.0000000000000000     
   1.5000000000000000       0.37500000000000000        0.0000000000000000     
   1.2500000000000000       0.43750000000000000        0.0000000000000000     
   1.3125000000000000       0.43750000000000000        0.0000000000000000     
   1.3750000000000000       0.43750000000000000        0.0000000000000000     
   1.4375000000000000       0.43750000000000000        0.0000000000000000     
   1.5000000000000000       0.43750000000000000        0.0000000000000000     
   1.2500000000000000       0.50000000000000000        0.0000000000000000     
   1.3125000000000000       0.50000000000000000        0.0000000000000000     
   1.3750000000000000       0.50000000000000000        0.0000000000000000     
   1.4375000000000000       0.50000000000000000        0.0000000000000000     
   1.5000000000000000       0.50000000000000000        0.0000000000000000     
  0.50000000000000000       0.50000000000000000        0.0000000000000000     
  0.56250000000000000       0.50000000000000000        0.0000000000000000     
  0.62500000000000000       0.50000000000000000        0.0000000000000000     
  0.68750000000000000       0.50000000000000000        0.0000000000000000     
  0.75000000000000000       0.50000000000000000        0.0000000000000000     
  0.50000000000000000       0.56250000000000000        0.0000000000000000     
  0.56250000000000000       0.56250000000000000        0.0000000000000000     
  0.62500000000000000       0.56250000000000000        0.0000000000000000     
  0.68750000000000000       0.56250000000000000        0.0000000000000000     
  0.75000000000000000       0.56250000000000000        0.0000000000000000     
  0.50000000000000000       0.62500000000000000        0.0000000000000000     
  0.56250000000000000       0.62500000000000000        0.0000000000000000     
  0.62500000000000000       0.62500000000000000        0.0000000000000000     
  0.68750000000000000       0.62500000000000000        0.0000000000000000     
  0.75000000000000000       0.62500000000000000        0.0000000000000000     
  0.50000000000000000       0.68750000000000000        0.0000000000000000     
  0.56250000000000000       0.68750000000000000        0.0000000000000000     
  0.62500000000000000       0.68750000000000000        0.0000000000000000     
  0.68750000000000000       0.68750000000000000        0.0000000000000000     
  0.75000000000000000       0.68750000000000000        0.0000000000000000     
  0.50000000000000000       0.75000000000000000        0.0000000000000000     
  0.56250000000000000       0.75000000000000000        0.0000000000000000     
  0.62500000000000000       0.75000000000000000        0.0000000000000000     
  0.68750000000000000       0.75000000000000000        0.0000000000000000     
  0.75000000000000000       0.75000000000000000        0.0000000000000000     
  0.75000000000000000       0.50000000000000000        0.0000000000000000     
  0.81250000000000000       0.50000000000000000        0.0000000000000000     
  0.87500000000000000       0.50000000000000000        0.0000000000000000     
  0.93750000000000000       0.50000000000000000        0.0000000000000000     
   1.0000000000000000       0.50000000000000000        0.0000000000000000     
  0.75000000000000000       0.56250000000000000        0.0000000000000000     
  0.81250000000000000       0.56250000000000000        0.0000000000000000     
  0.87500000000000000       0.56250000000000000        0.0000000000000000     
  0.93750000000000000       0.56250000000000000        0.0000000000000000     
   1.0000000000000000       0.56250000000000000        0.0000000000000000     
  0.75000000000000000       0.62500000000000000        0.0000000000000000     
  0.81250000000000000       0.62500000000000000        0.0000000000000000     
  0.87500000000000000       0.62500000000000000        0.0000000000000000     
  0.93750000000000000       0.62500000000000000        0.0000000000000000     
   1.0000000000000000       0.62500000000000000        0.0000000000000000     
  0.75000000000000000       0.68750000000000000        0.0000000000000000     
  0.81250000000000000       0.68750000000000000        0.0000000000000000     
  0.87500000000000000       0.68750000000000000        0.0000000000000000     
  0.93750000000000000       0.68750000000000000        0.0000000000000000     
   1.0000000000000000       0.68750000000000000        0.0000000000000000     
  0.75000000000000000       0.75000000000000000        0.0000000000000000     
  0.81250000000000000       0.75000000000000000        0.0000000000000000     
  0.87500000000000000       0.75000000000000000        0.0000000000000000     
  0.93750000000000000       0.75000000000000000        0.0000000000000000     
   1.0000000000000000       0.75000000000000000        0.0000000000000000     
   1.0000000000000000       0.50000000000000000        0.0000000000000000     
   1.0625000000000000       0.50000000000000000        0.0000000000000000     
   1.1250000000000000       0.50000000000000000        0.0000000000000000     
   1.1875000000000000       0.50000000000000000        0.0000000000000000     
   1.2500000000000000       0.50000000000000000        0.0000000000000000     
   1.0000000000000000       0.56250000000000000        0.0000000000000000     
   1.0625000000000000       0.56250000000000000        0.0000000000000000     
   1.1250000000000000       0.56250000000000000        0.0000000000000000     
   1.1875000000000000       0.56250000000000000        0.0000000000000000     
   1.2500000000000000       0.56250000000000000        0.0000000000000000     
   1.0000000000000000       0.62500000000000000        0.0000000000000000     
   1.0625000000000000       0.62500000000000000        0.0000000000000000     
   1.1250000000000000       0.62500000000000000        0.0000000000000000     
   1.1875000000000000       0.62500000000000000        0.0000000000000000     
   1.2500000000000000       0.62500000000000000        0.0000000000000000     
   1.0000000000000000       0.68750000000000000        0.0000000000000000     
   1.0625000000000000       0.68750000000000000        0.0000000000000000     
   1.1250000000000000       0.68750000000000000        0.0000000000000000     
   1.1875000000000000       0.68750000000000000        0.0000000000000000     
   1.2500000000000000       0.68750000000000000        0.0000000000000000     
   1.0000000000000000       0.75000000000000000        0.0000000000000000     
   1.0625000000000000       0.75000000000000000        0.0000000000000000     
   1.1250000000000000       0.75000000000000000        0.0000000000000000     
   1.1875000000000000       0.75000000000000000        0.0000000000000000     
   1.2500000000000000       0.75000000000000000        0.0000000000000000     
   1.2500000000000000       0.50000000000000000        0.0000000000000000     
   1.3125000000000000       0.50000000000000000        0.0000000000000000     
   1.3750000000000000       0.50000000000000000        0.0000000000000000     
   1.4375000000000000       0.50000000000000000        0.0000000000000000     
   1.5000000000000000       0.50000000000000000        0.0000000000000000     
   1.2500000000000000       0.56250000000000000        0.0000000000000000     
   1.3125000000000000       0.56250000000000000        0.0000000000000000     
   1.3750000000000000       0.56250000000000000        0.0000000000000000     
   1.4375000000000000       0.56250000000000000        0.0000000000000000     
   1.5000000000000000       0.56250000000000000        0.0000000000000000     
   1.2500000000000000       0.62500000000000000        0.0000000000000000     
   1.3125000000000000       0.62500000000000000        0.0000000000000000     
   1.3750000000000000       0.62500000000000000        0.0000000000000000     
   1.4375000000000000       0.62500000000000000        0.0000000000000000     
   1.5000000000000000       0.62500000000000000        0.0000000000000000     
   1.2500000000000000       0.68750000000000000        0.0000000000000000     
   1.3125000000000000       0.68750000000000000        0.0000000000000000     
   1.3750000000000000       0.68750000000000000        0.0000000000000000     
   1.4375000000000000       0.68750000000000000        0.0000000000000000     
   1.5000000000000000       0.68750000000000000        0.0000000000000000     
   1.2500000000000000       0.75000000000000000        0.0000000000000000     
   1.3125000000000000       0.75000000000000000        0.0000000000000000     
   1.3750000000000000       0.75000000000000000        0.0000000000000000     
   1.4375000000000000       0.75000000000000000        0.0000000000000000     
   1.5000000000000000       0.75000000000000000        0.0000000000000000     
  0.50000000000000000       0.75000000000000000        0.0000000000000000     
  0.56250000000000000       0.75000000000000000        0.0000000000000000     
  0.62500000000000000       0.75000000000000000        0.0000000000000000     
  0.68750000000000000       0.75000000000000000        0.0000000000000000     
  0.75000000000000000       0.75000000000000000        0.0000000000000000     
  0.50000000000000000       0.81250000000000000        0.0000000000000000     
  0.56250000000000000       0.81250000000000000        0.0000000000000000     
  0.62500000000000000       0.81250000000000000        0.0000000000000000     
  0.68750000000000000       0.81250000000000000        0.0000000000000000     
  0.75000000000000000       0.81250000000000000        0.0000000000000000     
  0.50000000000000000       0.87500000000000000        0.0000000000000000     
  0.56250000000000000       0.87500000000000000        0.0000000000000000     
  0.62500000000000000       0.87500000000000000        0.0000000000000000     
  0.68750000000000000       0.87500000000000000        0.0000000000000000     
  0.75000000000000000       0.87500000000000000        0.0000000000000000     
  0.50000000000000000       0.93750000000000000        0.0000000000000000     
  0.56250000000000000       0.93750000000000000        0.0000000000000000     
  0.62500000000000000       0.93750000000000000        0.0000000000000000     
  0.68750000000000000       0.93750000000000000        0.0000000000000000     
  0.75000000000000000       0.93750000000000000        0.0000000000000000     
  0.50000000000000000        1.0000000000000000        0.0000000000000000     
  0.56250000000000000        1.0000000000000000        0.0000000000000000     
  0.62500000000000000        1.0000000000000000        0.0000000000000000     
  0.68750000000000000        1.0000000000000000        0.0000000000000000     
  0.75000000000000000        1.0000000000000000        0.0000000000000000     
  0.75000000000000000       0.75000000000000000        0.0000000000000000     
  0.81250000000000000       0.75000000000000000        0.0000000000000000     
  0.87500000000000000       0.75000000000000000        0.0000000000000000     
  0.93750000000000000       0.75000000000000000        0.0000000000000000     
   1.0000000000000000       0.75000000000000000        0.0000000000000000     
  0.75000000000000000       0.81250000000000000        0.0000000000000000     
  0.81250000000000000       0.81250000000000000        0.0000000000000000     
  0.87500000000000000       0.81250000000000000        0.0000000000000000     
  0.93750000000000000       0.81250000000000000        0.0000000000000000     
   1.0000000000000000       0.81250000000000000        0.0000000000000000     
  0.75000000000000000       0.87500000000000000        0.0000000000000000     
  0.81250000000000000       0.87500000000000000        0.0000000000000000     
  0.87500000000000000       0.87500000000000000        0.0000000000000000     
  0.93750000000000000       0.87500000000000000        0.0000000000000000     
   1.0000000000000000       0.87500000000000000        0.0000000000000000     
  0.75000000000000000       0.93750000000000000        0.0000000000000000     
  0.81250000000000000       0.93750000000000000        0.0000000000000000     
  0.87500000000000000       0.93750000000000000        0.0000000000000000     
  0.93750000000000000       0.93750000000000000        0.0000000000000000     
   1.0000000000000000       0.93750000000000000        0.0000000000000000     
  0.75000000000000000        1.0000000000000000        0.0000000000000000     
  0.81250000000000000        1.0000000000000000        0.0000000000000000     
  0.87500000000000000        1.0000000000000000        0.0000000000000000     
  0.93750000000000000        1.0000000000000000        0.0000000000000000     
   1.0000000000000000        1.0000000000000000        0.0000000000000000     
   1.0000000000000000       0.75000000000000000        0.0000000000000000     
   1.0625000000000000       0.75000000000000000        0.0000000000000000     
   1.1250000000000000       0.75000000000000000        0.0000000000000000     
   1.1875000000000000       0.75000000000000000        0.0000000000000000     
   1.2500000000000000       0.75000000000000000        0.0000000000000000     
   1.0000000000000000       0.81250000000000000        0.0000000000000000     
   1.0625000000000000       0.81250000000000000        0.0000000000000000     
   1.1250000000000000       0.81250000000000000        0.0000000000000000     
   1.1875000000000000       0.81250000000000000        0.0000000000000000     
   1.2500000000000000       0.81250000000000000        0.0000000000000000     
   1.0000000000000000       0.87500000000000000        0.0000000000000000     
   1.0625000000000000       0.87500000000000000        0.0000000000000000     
   1.1250000000000000       0.87500000000000000        0.0000000000000000     
   1.1875000000000000       0.87500000000000000        0.0000000000000000     
   1.2500000000000000       0.87500000000000000        0.0000000000000000     
   1.0000000000000000       0.93750000000000000        0.0000000000000000     
   1.0625000000000000       0.93750000000000000        0.0000000000000000     
   1.1250000000000000       0.93750000000000000        0.0000000000000000     
   1.1875000000000000       0.93750000000000000        0.0000000000000000     
   1.2500000000000000       0.93750000000000000        0.0000000000000000     
   1.0000000000000000        1.0000000000000000        0.0000000000000000     
   1.0625000000000000        1.0000000000000000        0.0000000000000000     
   1.1250000000000000        1.0000000000000000        0.0000000000000000     
   1.1875000000000000        1.0000000000000000        0.0000000000000000     
   1.2500000000000000        1.0000000000000000        0.0000000000000000     
   1.2500000000000000       0.75000000000000000        0.0000000000000000     
   1.3125000000000000       0.75000000000000000        0.0000000000000000     
   1.3750000000000000       0.75000000000000000        0.0000000000000000     
   1.4375000000000000       0.75000000000000000        0.0000000000000000     
   1.5000000000000000       0.75000000000000000        0.0000000000000000     
   1.2500000000000000       0.81250000000000000        0.0000000000000000     
   1.3125000000000000       0.81250000000000000        0.0000000000000000     
   1.3750000000000000       0.81250000000000000        0.0000000000000000     
   1.4375000000000000       0.81250000000000000        0.0000000000000000     
   1.5000000000000000       0.81250000000000000        0.0000000000000000     
   1.2500000000000000       0.87500000000000000        0.0000000000000000     
   1.3125000000000000       0.87500000000000000        0.0000000000000000     
   1.3750000000000000       0.87500000000000000        0.0000000000000000     
   1.4375000000000000       0.87500000000000000        0.0000000000000000     
   1.5000000000000000       0.87500000000000000        0.0000000000000000     
   1.2500000000000000       0.93750000000000000        0.0000000000000000     
   1.3125000000000000       0.93750000000000000        0.0000000000000000     
   1.3750000000000000       0.93750000000000000        0.0000000000000000     
   1.4375000000000000       0.93750000000000000        0.0000000000000000     
   1.5000000000000000       0.93750000000000000        0.0000000000000000     
   1.2500000000000000        1.0000000000000000        0.0000000000000000     
   1.3125000000000000        1.0000000000000000        0.0000000000000000     
   1.3750000000000000        1.0000000000000000        0.0000000000000000     
   1.4375000000000000        1.0000000000000000        0.0000000000000000     
   1.5000000000000000        1.0000000000000000        0.0000000000000000     
 </DataArray>
 </Points>
 <Cells>
 <DataArray  type="Int32"  Name="connectivity"  format="ascii">
           0           1           6           5
           1           2           7           6
           2           3           8           7
           3           4           9           8
           5           6          11          10
           6           7          12          11
           7           8          13          12
           8           9          14          13
          10          11          16          15
          11          12          17          16
          12          13          18          17
          13          14          19          18
          15          16          21          20
          16          17          22          21
          17          18          23          22
          18          19          24          23
          25          26          31          30
          26          27          32          31
          27          28          33          32
          28          29          34          33
          30          31          36          35
          31          32          37          36
          32          33          38          37
          33          34          39          38
          35          36          41          40
          36          37          42          41
          37          38          43          42
          38          39          44          43
          40          41          46          45
          41          42          47          46
          42          43          48          47
          43          44          49          48
          50          51          56          55
          51          52          57          56
          52          53          58          57
          53          54          59          58
          55          56          61          60
          56          57          62          61
          57          58          63          62
          58          59          64          63
          60          61          66          65
          61          62          67          66
          62          63          68          67
          63          64          69          68
          65          66          71          70
          66          67          72          71
          67          68          73          72
          68          69          74          73
          75          76          81          80
          76          77          82          81
          77          78          83          82
          78          79          84          83
          80          81          86          85
          81          82          87          86
          82          83          88          87
          83          84          89          88
          85          86          91          90
          86          87          92          91
          87          88          93          92
          88          89          94          93
          90          91          96          95
          91          92          97          96
          92          93          98          97
          93          94          99          98
         100         101         106         105
         101         102         107         106
         102         103         108         107
         103         104         109         108
         105         106         111         110
         106         107         112         111
         107         108         113         112
         108         109         114         113
         110         111         116         115
         111         112         117         116
         112         113         118         117
         113         114         119         118
         115         116         121         120
         116         117         122         121
         117         118         123         122
         118         119         124         123
         125         126         131         130
         126         127         132         131
         127         128         133         132
         128         129         134         133
         130         131         136         135
         131         132         137         136
         132         133         138         137
         133         134         139         138
         135         136         141         140
         136         137         142         141
         137         138         143         142
         138         139         144         143
         140         141         146         145
         141         142         147         146
         142         143         148         147
         143         144         149         148
         150         151         156         155
         151         152         157         156
         152         153         158         157
         153         154         159         158
         155         156         161         160
         156         157         162         161
         157         158         163         162
         158         159         164         163
         160         161         166         165
         161         162         167         166
         162         163         168         167
         163         164         169         168
         165         166         171         170
         166         167         172         171
         167         168         173         172
         168         169         174         173
         175         176         181         180
         176         177         182         181
         177         178         183         182
         178         179         184         183
         180         181         186         185
         181         182         187         186
         182         183         188         187
         183         184         189         188
         185         186         191         190
         186         187         192         191
         187         188         193         192
         188         189         194         193
         190         191         196         195
         191         192         197         196
         192         193         198         197
         193         194         199         198
         200         201         206         205
         201         202         207         206
         202         203         208         207
         203         204         209         208
         205         206         211         210
         206         207         212         211
         207         208         213         212
         208         209         214         213
         210         211         216         215
         211         212         217         216
         212         213         218         217
         213         214         219         218
         215         216         221         220
         216         217         222         221
         217         218         223         222
         218         219         224         223
         225         226         231         230
         226         227         232         231
         227         228         233         232
         228         229         234         233
         230         231         236         235
         231         232         237         236
         232         233         238         237
         233         234         239         238
         235         236         241         240
         236         237         242         241
         237         238         243         242
         238         239         244         243
         240         241         246         245
         241         242         247         246
         242         243         248         247
         243         244         249         248
         250         251         256         255
         251         252         257         256
         252         253         258         257
         253         254         259         258
         255         256         261         260
         256         257         262         261
         257         258         263         262
         258         259         264         263
         260         261         266         265
         261         262         267         266
         262         263         268         267
         263         264         269         268
         265         266         271         270
         266         267         272         271
         267         268         273         272
         268         269         274         273
         275         276         281         280
         276         277         282         281
         277         278         283         282
         278         279         284         283
         280         281         286         285
         281         282         287         286
         282         283         288         287
         283         284         289         288
         285         286         291         290
         286         287         292         291
         287         288         293         292
         288         289         294         293
         290         291         296         295
         291         292         297         296
         292         293         298         297
         293         294         299         298
         300         301         306         305
         301         302         307         306
         302         303         308         307
         303         304         309         308
         305         306         311         310
         306         307         312         311
         307         308         313         312
         308         309         314         313
         310         311         316         315
         311         312         317         316
         312         313         318         317
         313         314         319         318
         315         316         321         320
         316         317         322         321
         317         318         323         322
         318         319         324         323
         325         326         331         330
         326         327         332         331
         327         328         333         332
         328         329         334         333
         330         331         336         335
         331         332         337         336
         332         333         338         337
         333         334         339         338
         335         336         341         340
         336         337         342         341
         337         338         343         342
         338         339         344         343
         340         341         346         345
         341         342         347         346
         342         343         348         347
         343         344         349         348
         350         351         356         355
         351         352         357         356
         352         353         358         357
         353         354         359         358
         355         356         361         360
         356         357         362         361
         357         358         363         362
         358         359         364         363
         360         361         366         365
         361         362         367         366
         362         363         368         367
         363         364         369         368
         365         366         371         370
         366         367         372         371
         367         368         373         372
         368         369         374         373
         375         376         381         380
         376         377         382         381
         377         378         383         382
         378         379         384         383
         380         381         386         385
         381         382         387         386
         382         383         388         387
         383         384         389         388
         385         386         391         390
         386         387         392         391
         387         388         393         392
         388         389         394         393
         390         391         396         395
         391         392         397         396
         392         393         398         397
         393         394         399         398
 </DataArray>
 <DataArray  type="Int32"  Name="offsets"  format="ascii"> 
           4
           8
          12
          16
          20
          24
          28
          32
          36
          40
          44
          48
          52
          56
          60
          64
          68
          72
          76
          80
          84
          88
          92
          96
         100
         104
         108
         112
         116
         120
         124
         128
         132
         136
         140
         144
         148
         152
         156
         160
         164
         168
         172
         176
         180
         184
         188
         192
         196
         200
         204
         208
         212
         216
         220
         224
         228
         232
         236
         240
         244
         248
         252
         256
         260
         264
         268
         272
         276
         280
         284
         288
         292
         296
         300
         304
         308
         312
         316
         320
         324
         328
         332
         336
         340
         344
         348
         352
         356
         360
         364
         368
         372
         376
         380
         384
         388
         392
         396
         400
         404
         408
         412
         416
         420
         424
         428
         432
         436
         440
         444
         448
         452
         456
         460
         464
         468
         472
         476
         480
         484
         488
         492
         496
         500
         504
         508
         512
         516
         520
         524
         528
         532
         536
         540
         544
         548
         552
         556
         560
         564
         568
         572
         576
         580
         584
         588
         592
         596
         600
         604
         608
         612
         616
         620
         624
         628
         632
         636
         640
         644
         648
         652
         656
         660
         664
         668
         672
         676
         680
         684
         688
         692
         696
         700
         704
         708
         712
         716
         720
         724
         728
         732
         736
         740
         744
         748
         752
         756
         760
         764
         768
         772
         776
         780
         784
         788
         792
         796
         800
         804
         808
         812
         816
         820
         824
         828
         832
         836
         840
         844
         848
         852
         856
         860
         864
         868
         872
         876
         880
         884
         888
         892
         896
         900
         904
         908
         912
         916
         920
         924
         928
         932
         936
         940
         944
         948
         952
         956
         960
         964
         968
         972
         976
         980
         984
         988
         992
         996
        1000
        1004
        1008
        1012
        1016
        1020
        1024
 </DataArray>
 <DataArray  type="UInt8"  Name="types"  format="ascii">
 9
 9
 9
 9
 9
 9
 9
 9
 9
 9
 9
 9
 9
 9
 9
 9
 9
 9
 9
 9
 9
 9
 9
 9
 9
 9
 9
 9
 9
 9
 9
 9
 9
 9
 9
 9
 9
 9
 9
 9
 9
 9
 9
 9
 9
 9
 9
 9
 9
 9
 9
 9
 9
 9
 9
 9
 9
 9
 9
 9
 9
 9
 9
 9
 9
 9
 9
 9
 9
 9
 9
 9
 9
 9
 9
 9
 9
 9
 9
 9
 9
 9
 9
 9
 9
 9
 9
 9
 9
 9
 9
 9
 9
 9
 9
 9
 9
 9
 9
 9
 9
 9
 9
 9
 9
 9
 9
 9
 9
 9
 9
 9
 9
 9
 9
 9
 9
 9
 9
 9
 9
 9
 9
 9
 9
 9
 9
 9
 9
 9
 9
 9
 9
 9
 9
 9
 9
 9
 9
 9
 9
 9
 9
 9
 9
 9
 9
 9
 9
 9
 9
 9
 9
 9
 9
 9
 9
 9
 9
 9
 9
 9
 9
 9
 9
 9
 9
 9
 9
 9
 9
 9
 9
 9
 9
 9
 9
 9
 9
 9
 9
 9
 9
 9
 9
 9
 9
 9
 9
 9
 9
 9
 9
 9
 9
 9
 9
 9
 9
 9
 9
 9
 9
 9
 9
 9
 9
 9
 9
 9
 9
 9
 9
 9
 9
 9
 9
 9
 9
 9
 9
 9
 9
 9
 9
 9
 9
 9
 9
 9
 9
 9
 9
 9
 9
 9
 9
 9
 9
 9
 9
 9
 9
 9
 9
 9
 9
 9
 9
 9
 9
 9
 9
 9
 9
 9
 </DataArray>
 </Cells> 
 <PointData>
 <DataArray  type="Float64" Name="disp" NumberOfComponents="3" format="ascii">
   6.5147732912076456E-002   6.2448633584514829E-002   0.0000000000000000     
   7.1172717986105805E-002   7.3449136998460424E-002   0.0000000000000000     
   7.6818477610194058E-002   8.5106913821217822E-002   0.0000000000000000     
   8.2085011784341244E-002   9.7421964052787038E-002   0.0000000000000000     
   8.6972320508547363E-002  0.11039428769316806        0.0000000000000000     
   5.5094496089232170E-002   6.0769422046721304E-002   0.0000000000000000     
   6.0350032808799151E-002   7.1810369633081503E-002   0.0000000000000000     
   6.5280213792438285E-002   8.3538321712048114E-002   0.0000000000000000     
   6.9885039040149602E-002   9.5953278283621088E-002   0.0000000000000000     
   7.4164508551933087E-002  0.10905523934780049        0.0000000000000000     
   4.5703591976832492E-002   5.9290921680459345E-002   0.0000000000000000     
   5.0204563000041752E-002   7.0387807252037762E-002   0.0000000000000000     
   5.4427989023615481E-002   8.2188665164005095E-002   0.0000000000000000     
   5.8373870047553657E-002   9.4693495416361351E-002   0.0000000000000000     
   6.2042206071856308E-002  0.10790229800910654        0.0000000000000000     
   3.6975020574877393E-002   5.8013132485728959E-002   0.0000000000000000     
   4.0736308559833609E-002   6.9181449855329161E-002   0.0000000000000000     
   4.4261803303725616E-002   8.1057944177088781E-002   0.0000000000000000     
   4.7551504806553416E-002   9.3642615451007813E-002   0.0000000000000000     
   5.0605413068317028E-002  0.10693546367708619        0.0000000000000000     
   2.8908781883366905E-002   5.6936054462530139E-002   0.0000000000000000     
   3.1945269488174714E-002   6.8191297442955781E-002   0.0000000000000000     
   3.4781656632768700E-002   8.0146158751299199E-002   0.0000000000000000     
   3.7417943317148879E-002   9.2800638387560419E-002   0.0000000000000000     
   3.9854129541315224E-002  0.10615473635173944        0.0000000000000000     
   8.6972320508547363E-002  0.11039428769316806        0.0000000000000000     
   9.1473195949580005E-002  0.12394287687565421        0.0000000000000000     
   9.5580430274206804E-002  0.13798672373353879        0.0000000000000000     
   9.9294023482427718E-002  0.15252582826682179        0.0000000000000000     
  0.10261397557424280       0.16756019047550322        0.0000000000000000     
   7.4164508551933087E-002  0.10905523934780049        0.0000000000000000     
   7.8110254889405067E-002  0.12273963441681254        0.0000000000000000     
   8.1713910614181859E-002  0.13690189300288347        0.0000000000000000     
   8.4975475726263447E-002  0.15154201510601326        0.0000000000000000     
   8.7894950225649859E-002  0.16666000072620191        0.0000000000000000     
   6.2042206071856308E-002  0.10790229800910654        0.0000000000000000     
   6.5425890877054915E-002  0.12169761782623004        0.0000000000000000     
   6.8517818243680986E-002  0.13596199975172124        0.0000000000000000     
   7.1317988171734542E-002  0.15069544378558003        0.0000000000000000     
   7.3826400661215527E-002  0.16589794992780657        0.0000000000000000     
   5.0605413068317028E-002  0.10693546367708619        0.0000000000000000     
   5.3420103912529562E-002  0.12081682710390670        0.0000000000000000     
   5.5992153162704228E-002  0.13516704398005205        0.0000000000000000     
   5.8321560818840962E-002  0.14998611430552222        0.0000000000000000     
   6.0408326880939806E-002  0.16527403808031724        0.0000000000000000     
   3.9854129541315224E-002  0.10615473635173944        0.0000000000000000     
   4.2092893995829023E-002  0.12009726224984253        0.0000000000000000     
   4.4136915371251535E-002  0.13451702568787596        0.0000000000000000     
   4.5986193667582762E-002  0.14941402666583972        0.0000000000000000     
   4.7640728884822701E-002  0.16478826518373380        0.0000000000000000     
  0.10261397557424280       0.16756019047550322        0.0000000000000000     
  0.10559732309935041       0.18299127391596587        0.0000000000000000     
  0.10830110260744892       0.19872054214459264        0.0000000000000000     
  0.11072531409853838       0.21474799516138354        0.0000000000000000     
  0.11286995757261872       0.23107363296633848        0.0000000000000000     
   8.7894950225649859E-002  0.16666000072620191        0.0000000000000000     
   9.0487216438850812E-002  0.18217738478562312        0.0000000000000000     
   9.2767156692376021E-002  0.19801570220645048        0.0000000000000000     
   9.4734770986225486E-002  0.21417495298868405        0.0000000000000000     
   9.6390059320399221E-002  0.23065513713232380        0.0000000000000000     
   7.3826400661215527E-002  0.16589794992780657        0.0000000000000000     
   7.6029180980113326E-002  0.18150181887233680        0.0000000000000000     
   7.7912454396417197E-002  0.19743935131310675        0.0000000000000000     
   7.9476220910127127E-002  0.21371054725011640        0.0000000000000000     
   8.0720480521243171E-002  0.23031540668336586        0.0000000000000000     
   6.0408326880939806E-002  0.16527403808031724        0.0000000000000000     
   6.2223216723137909E-002  0.18096457617610701        0.0000000000000000     
   6.3736995719572406E-002  0.19699148946456144        0.0000000000000000     
   6.4949663870243299E-002  0.21335477794568070        0.0000000000000000     
   6.5861221175150600E-002  0.23005444161946456        0.0000000000000000     
   4.7640728884822701E-002  0.16478826518373380        0.0000000000000000     
   4.9069323667924596E-002  0.18056565669693364        0.0000000000000000     
   5.0240780661841698E-002  0.19667211666081463        0.0000000000000000     
   5.1155099866573996E-002  0.21310764507537674        0.0000000000000000     
   5.1812281282121495E-002  0.22987224194062000        0.0000000000000000     
  0.11286995757261872       0.23107363296633848        0.0000000000000000     
  0.11469052111607500       0.24793190774567894        0.0000000000000000     
  0.11614249281529225       0.26555727168562643        0.0000000000000000     
  0.11722587267027043       0.28394972478618086        0.0000000000000000     
  0.11794066068100958       0.30310926704734231        0.0000000000000000     
   9.6390059320399221E-002  0.23065513713232380        0.0000000000000000     
   9.7743712988067055E-002  0.24760963413790332        0.0000000000000000     
   9.8806423282398900E-002  0.26519182350595616        0.0000000000000000     
   9.9578190203394729E-002  0.28340170523648234        0.0000000000000000     
  0.10005901375105455       0.30223927932948191        0.0000000000000000     
   8.0720480521243171E-002  0.23031540668336586        0.0000000000000000     
   8.1695535041361317E-002  0.24732365881653520        0.0000000000000000     
   8.2451686282077594E-002  0.26480503285330481        0.0000000000000000     
   8.2988934243391974E-002  0.28275952879367483        0.0000000000000000     
   8.3307278925304484E-002  0.30118714663764495        0.0000000000000000     
   6.5861221175150600E-002  0.23005444161946456        0.0000000000000000     
   6.6545987275957771E-002  0.24707398178157469        0.0000000000000000     
   6.7078281814328303E-002  0.26439689972767250        0.0000000000000000     
   6.7458104790262152E-002  0.28202319545775806        0.0000000000000000     
   6.7685456203759375E-002  0.29995286897183132        0.0000000000000000     
   5.1812281282121495E-002  0.22987224194062000        0.0000000000000000     
   5.2295069691856433E-002  0.24686060303302168        0.0000000000000000     
   5.2686209879151027E-002  0.26396742412905916        0.0000000000000000     
   5.2985701844005285E-002  0.28119270522873224        0.0000000000000000     
   5.3193545586419207E-002  0.29853644633204107        0.0000000000000000     
   2.8908781883366905E-002   5.6936054462530139E-002   0.0000000000000000     
   3.1945269488174714E-002   6.8191297442955781E-002   0.0000000000000000     
   3.4781656632768700E-002   8.0146158751299199E-002   0.0000000000000000     
   3.7417943317148879E-002   9.2800638387560419E-002   0.0000000000000000     
   3.9854129541315224E-002  0.10615473635173944        0.0000000000000000     
   2.1300678769033708E-002   5.6081422345858570E-002   0.0000000000000000     
   2.3609366605700989E-002   6.7419503769039657E-002   0.0000000000000000     
   2.5754957731724613E-002   7.9444130811564817E-002   0.0000000000000000     
   2.7737452147104592E-002   9.2155303473434078E-002   0.0000000000000000     
   2.9556849851840910E-002  0.10555302175464740        0.0000000000000000     
   1.3946514098610519E-002   5.5470970870709936E-002   0.0000000000000000     
   1.5506520733048347E-002   6.6868222587702919E-002   0.0000000000000000     
   1.6949115321573213E-002   7.8942682282814119E-002   0.0000000000000000     
   1.8274297864185118E-002   9.1694349956043517E-002   0.0000000000000000     
   1.9482068360884071E-002  0.10512322560739110        0.0000000000000000     
   6.8462878720973322E-003   5.5104700037084238E-002   0.0000000000000000     
   7.6367318702167840E-003   6.6537453898945567E-002   0.0000000000000000     
   8.3641294023144973E-003   7.8641813165047078E-002   0.0000000000000000     
   9.0284804683904707E-003   9.1417777835388722E-002   0.0000000000000000     
   9.6297850684447066E-003  0.10486534790997053        0.0000000000000000     
   8.9494149937974221E-011   5.4982609844981475E-002   0.0000000000000000     
   1.7206308860345798E-011   6.6427197702767615E-002   0.0000000000000000     
  -2.6051528989601280E-011   7.8541523458263693E-002   0.0000000000000000     
  -4.0279359275058324E-011   9.1325587111469750E-002   0.0000000000000000     
  -2.5477188067557499E-011  0.10477938866238573        0.0000000000000000     
   3.9854129541315224E-002  0.10615473635173944        0.0000000000000000     
   4.2092893995829023E-002  0.12009726224984253        0.0000000000000000     
   4.4136915371251535E-002  0.13451702568787596        0.0000000000000000     
   4.5986193667582762E-002  0.14941402666583972        0.0000000000000000     
   4.7640728884822701E-002  0.16478826518373380        0.0000000000000000     
   2.9556849851840910E-002  0.10555302175464740        0.0000000000000000     
   3.1221147076423629E-002  0.11953817931882044        0.0000000000000000     
   3.2738340051342775E-002  0.13401166982956886        0.0000000000000000     
   3.4108428776598365E-002  0.14897349328689261        0.0000000000000000     
   3.5331413252190386E-002  0.16442364969079173        0.0000000000000000     
   1.9482068360884071E-002  0.10512322560739110        0.0000000000000000     
   2.0581749103783738E-002  0.11913883436562331        0.0000000000000000     
   2.1582662384997793E-002  0.13365070135950660        0.0000000000000000     
   2.2484808204526238E-002  0.14865882658904092        0.0000000000000000     
   2.3288186562369063E-002  0.16416321005422635        0.0000000000000000     
   9.6297850684447066E-003  0.10486534790997053        0.0000000000000000     
   1.0174700077909358E-002  0.11889922739025113        0.0000000000000000     
   1.0669882372216576E-002  0.13343412027768919        0.0000000000000000     
   1.1115331951366367E-002  0.14847002657228475        0.0000000000000000     
   1.1511048815358728E-002  0.16400694627403767        0.0000000000000000     
  -2.5477188067557499E-011  0.10477938866238573        0.0000000000000000     
  -1.1995226860406216E-012  0.11881935839270395        0.0000000000000000     
   1.2999129116869623E-011  0.13336192658411669        0.0000000000000000     
   1.7118763329625197E-011  0.14840709323662393        0.0000000000000000     
   1.1159378976444145E-011  0.16395485835022569        0.0000000000000000     
   4.7640728884822701E-002  0.16478826518373380        0.0000000000000000     
   4.9069323667924596E-002  0.18056565669693364        0.0000000000000000     
   5.0240780661841698E-002  0.19667211666081463        0.0000000000000000     
   5.1155099866573996E-002  0.21310764507537674        0.0000000000000000     
   5.1812281282121495E-002  0.22987224194062000        0.0000000000000000     
   3.5331413252190386E-002  0.16442364969079173        0.0000000000000000     
   3.6381597848049368E-002  0.18027711856035236        0.0000000000000000     
   3.7233286934105839E-002  0.19644887941466055        0.0000000000000000     
   3.7886480510359782E-002  0.21293893225371630        0.0000000000000000     
   3.8341178576811220E-002  0.22974727707751974        0.0000000000000000     
   2.3288186562369063E-002  0.16416321005422635        0.0000000000000000     
   2.3974135297088209E-002  0.18007101989189861        0.0000000000000000     
   2.4523992247245604E-002  0.19628942423889353        0.0000000000000000     
   2.4937757412841242E-002  0.21281842309521112        0.0000000000000000     
   2.5215430793875136E-002  0.22965801646085124        0.0000000000000000     
   1.1511048815358728E-002  0.16400694627403767        0.0000000000000000     
   1.1846936015041118E-002  0.17994736069157247        0.0000000000000000     
   1.2112896601261004E-002  0.19619375113351359        0.0000000000000000     
   1.2308930574018384E-002  0.21274611759986092        0.0000000000000000     
   1.2435037933313258E-002  0.22960446009061458        0.0000000000000000     
   1.1159378976444145E-011  0.16395485835022569        0.0000000000000000     
   1.9080982453789641E-012  0.17990614095937396        0.0000000000000000     
  -3.8479649154543605E-012  0.19616186009852071        0.0000000000000000     
  -6.1088073618695282E-012  0.21272201576766597        0.0000000000000000     
  -4.8744272507228459E-012  0.22958660796680974        0.0000000000000000     
   5.1812281282121495E-002  0.22987224194062000        0.0000000000000000     
   5.2295069691856433E-002  0.24686060303302168        0.0000000000000000     
   5.2686209879151027E-002  0.26396742412905916        0.0000000000000000     
   5.2985701844005285E-002  0.28119270522873224        0.0000000000000000     
   5.3193545586419207E-002  0.29853644633204107        0.0000000000000000     
   3.8341178576811220E-002  0.22974727707751974        0.0000000000000000     
   3.8675425965876087E-002  0.24668977712830825        0.0000000000000000     
   3.8967267509970357E-002  0.26358229564831964        0.0000000000000000     
   3.9216703209094012E-002  0.28042483263755386        0.0000000000000000     
   3.9423733063247063E-002  0.29721738809601089        0.0000000000000000     
   2.5215430793875136E-002  0.22965801646085124        0.0000000000000000     
   2.5419699774835585E-002  0.24656775862486646        0.0000000000000000     
   2.5613251740210875E-002  0.26330720387630929        0.0000000000000000     
   2.5796086690001024E-002  0.27987635221517959        0.0000000000000000     
   2.5968204624206022E-002  0.29627520364147747        0.0000000000000000     
   1.2435037933313258E-002  0.22960446009061458        0.0000000000000000     
   1.2527891118734898E-002  0.24649454752269631        0.0000000000000000     
   1.2624162569872583E-002  0.26314214881302789        0.0000000000000000     
   1.2723852286726303E-002  0.27954726396160950        0.0000000000000000     
   1.2826960269296065E-002  0.29570989296844086        0.0000000000000000     
  -4.8744272507228459E-012  0.22958660796680974        0.0000000000000000     
  -2.4259578720875474E-012  0.24647014382179769        0.0000000000000000     
  -1.0445307813133908E-012  0.26308713045847554        0.0000000000000000     
  -7.3014597840037609E-013  0.27943756787684332        0.0000000000000000     
  -1.4827982591780753E-012  0.29552145607690095        0.0000000000000000     
   8.9494149937974221E-011   5.4982609844981475E-002   0.0000000000000000     
   1.7206308860345798E-011   6.6427197702767615E-002   0.0000000000000000     
  -2.6051528989601280E-011   7.8541523458263693E-002   0.0000000000000000     
  -4.0279359275058324E-011   9.1325587111469750E-002   0.0000000000000000     
  -2.5477188067557499E-011  0.10477938866238573        0.0000000000000000     
  -6.8462877003272141E-003   5.5104700224831014E-002   0.0000000000000000     
  -7.6367318348609251E-003   6.6537453972031327E-002   0.0000000000000000     
  -8.3641294489368544E-003   7.8641813163111488E-002   0.0000000000000000     
  -9.0284805425550011E-003   9.1417777798071517E-002   0.0000000000000000     
  -9.6297851157153679E-003  0.10486534787691140        0.0000000000000000     
  -1.3946513948494941E-002   5.5470971107062221E-002   0.0000000000000000     
  -1.5506520694862752E-002   6.6868222679598979E-002   0.0000000000000000     
  -1.6949115351753464E-002   7.8942682280237930E-002   0.0000000000000000     
  -1.8274297919167078E-002   9.1694349908979011E-002   0.0000000000000000     
  -1.9482068397103595E-002  0.10512322556582222        0.0000000000000000     
  -2.1300678655009037E-002   5.6081422491675074E-002   0.0000000000000000     
  -2.3609366562799175E-002   6.7419503825470628E-002   0.0000000000000000     
  -2.5754957734501358E-002   7.9444130809642979E-002   0.0000000000000000     
  -2.7737452170115588E-002   9.2155303444192191E-002   0.0000000000000000     
  -2.9556849869641865E-002  0.10555302172911823        0.0000000000000000     
  -2.8908781819869493E-002   5.6936054378669609E-002   0.0000000000000000     
  -3.1945269438670196E-002   6.8191297409646190E-002   0.0000000000000000     
  -3.4781656597180535E-002   8.0146158751326704E-002   0.0000000000000000     
  -3.7417943295400533E-002   9.2800638403711097E-002   0.0000000000000000     
  -3.9854129533330181E-002  0.10615473636679942        0.0000000000000000     
  -2.5477188067557499E-011  0.10477938866238573        0.0000000000000000     
  -1.1995226860406216E-012  0.11881935839270395        0.0000000000000000     
   1.2999129116869623E-011  0.13336192658411669        0.0000000000000000     
   1.7118763329625197E-011  0.14840709323662393        0.0000000000000000     
   1.1159378976444145E-011  0.16395485835022569        0.0000000000000000     
  -9.6297851157153679E-003  0.10486534787691140        0.0000000000000000     
  -1.0174700080362923E-002  0.11889922737774627        0.0000000000000000     
  -1.0669882348442641E-002  0.13343412027869123        0.0000000000000000     
  -1.1115331919954514E-002  0.14847002657974634        0.0000000000000000     
  -1.1511048794898549E-002  0.16400694628091156        0.0000000000000000     
  -1.9482068397103595E-002  0.10512322556582222        0.0000000000000000     
  -2.0581749106400888E-002  0.11913883435014262        0.0000000000000000     
  -2.1582662367896820E-002  0.13365070136131510        0.0000000000000000     
  -2.2484808181591393E-002  0.14865882659933968        0.0000000000000000     
  -2.3288186547484619E-002  0.16416321006421641        0.0000000000000000     
  -2.9556849869641865E-002  0.10555302172911823        0.0000000000000000     
  -3.1221147079313401E-002  0.11953817930989298        0.0000000000000000     
  -3.2738340045363398E-002  0.13401166983198823        0.0000000000000000     
  -3.4108428767791889E-002  0.14897349329540399        0.0000000000000000     
  -3.5331413246598831E-002  0.16442364970014023        0.0000000000000000     
  -3.9854129533330181E-002  0.10615473636679942        0.0000000000000000     
  -4.2092893999100475E-002  0.12009726225699738        0.0000000000000000     
  -4.4136915380842405E-002  0.13451702569071061        0.0000000000000000     
  -4.5986193678555977E-002  0.14941402666793915        0.0000000000000000     
  -4.7640728892241198E-002  0.16478826518868306        0.0000000000000000     
   1.1159378976444145E-011  0.16395485835022569        0.0000000000000000     
   1.9080982453789641E-012  0.17990614095937396        0.0000000000000000     
  -3.8479649154543605E-012  0.19616186009852071        0.0000000000000000     
  -6.1088073618695282E-012  0.21272201576766597        0.0000000000000000     
  -4.8744272507228459E-012  0.22958660796680974        0.0000000000000000     
  -1.1511048794898549E-002  0.16400694628091156        0.0000000000000000     
  -1.1846936011613615E-002  0.17994736069488851        0.0000000000000000     
  -1.2112896608438591E-002  0.19619375113437876        0.0000000000000000     
  -1.2308930585373471E-002  0.21274611759938236        0.0000000000000000     
  -1.2435037942418268E-002  0.22960446008989940        0.0000000000000000     
  -2.3288186547484619E-002  0.16416321006421641        0.0000000000000000     
  -2.3974135294826778E-002  0.18007101989770161        0.0000000000000000     
  -2.4523992252868158E-002  0.19628942424155163        0.0000000000000000     
  -2.4937757421608774E-002  0.21281842309576654        0.0000000000000000     
  -2.5215430801048610E-002  0.22965801646034631        0.0000000000000000     
  -3.5331413246598831E-002  0.16442364970014023        0.0000000000000000     
  -3.6381597847731380E-002  0.18027711856781323        0.0000000000000000     
  -3.7233286937136678E-002  0.19644887942003927        0.0000000000000000     
  -3.7886480514814691E-002  0.21293893225681829        0.0000000000000000     
  -3.8341178580765460E-002  0.22974727707815040        0.0000000000000000     
  -4.7640728892241198E-002  0.16478826518868306        0.0000000000000000     
  -4.9069323670327451E-002  0.18056565670522351        0.0000000000000000     
  -5.0240780661244142E-002  0.19667211666984175        0.0000000000000000     
  -5.1155099864991255E-002  0.21310764508253782        0.0000000000000000     
  -5.1812281281568805E-002  0.22987224194331171        0.0000000000000000     
  -4.8744272507228459E-012  0.22958660796680974        0.0000000000000000     
  -2.4259578720875474E-012  0.24647014382179769        0.0000000000000000     
  -1.0445307813133908E-012  0.26308713045847554        0.0000000000000000     
  -7.3014597840037609E-013  0.27943756787684332        0.0000000000000000     
  -1.4827982591780753E-012  0.29552145607690095        0.0000000000000000     
  -1.2435037942418268E-002  0.22960446008989940        0.0000000000000000     
  -1.2527891123342861E-002  0.24649454752217034        0.0000000000000000     
  -1.2624162571917156E-002  0.26314214881243586        0.0000000000000000     
  -1.2723852288141144E-002  0.27954726396069585        0.0000000000000000     
  -1.2826960272014829E-002  0.29570989296695038        0.0000000000000000     
  -2.5215430801048610E-002  0.22965801646034631        0.0000000000000000     
  -2.5419699778711679E-002  0.24656775862381386        0.0000000000000000     
  -2.5613251742121985E-002  0.26330720387469231        0.0000000000000000     
  -2.5796086691279516E-002  0.27987635221298146        0.0000000000000000     
  -2.5968204626184287E-002  0.29627520363868154        0.0000000000000000     
  -3.8341178580765460E-002  0.22974727707815040        0.0000000000000000     
  -3.8675425968532413E-002  0.24668977712672832        0.0000000000000000     
  -3.8967267511659014E-002  0.26358229564524494        0.0000000000000000     
  -3.9216703210145261E-002  0.28042483263370033        0.0000000000000000     
  -3.9423733063991176E-002  0.29721738809209447        0.0000000000000000     
  -5.1812281281568805E-002  0.22987224194331171        0.0000000000000000     
  -5.2295069692805049E-002  0.24686060303091362        0.0000000000000000     
  -5.2686209880528245E-002  0.26396742412409385        0.0000000000000000     
  -5.2985701844738380E-002  0.28119270522285239        0.0000000000000000     
  -5.3193545585435480E-002  0.29853644632718923        0.0000000000000000     
  -2.8908781819869493E-002   5.6936054378669609E-002   0.0000000000000000     
  -3.1945269438670196E-002   6.8191297409646190E-002   0.0000000000000000     
  -3.4781656597180535E-002   8.0146158751326704E-002   0.0000000000000000     
  -3.7417943295400533E-002   9.2800638403711097E-002   0.0000000000000000     
  -3.9854129533330181E-002  0.10615473636679942        0.0000000000000000     
  -3.6975020595925626E-002   5.8013132248659997E-002   0.0000000000000000     
  -4.0736308528356635E-002   6.9181449764849884E-002   0.0000000000000000     
  -4.4261803246408923E-002   8.1057944182015687E-002   0.0000000000000000     
  -4.7551504750082456E-002   9.3642615500157372E-002   0.0000000000000000     
  -5.0605413039377267E-002  0.10693546371927500        0.0000000000000000     
  -4.5703592136026740E-002   5.9290921582260445E-002   0.0000000000000000     
  -5.0204563037739361E-002   7.0387807223805859E-002   0.0000000000000000     
  -5.4427988988804424E-002   8.2188665178436607E-002   0.0000000000000000     
  -5.8373869989221928E-002   9.4693495446152728E-002   0.0000000000000000     
  -6.2042206038991861E-002  0.10790229802695417        0.0000000000000000     
  -5.5094496440172835E-002   6.0769422379470944E-002   0.0000000000000000     
  -6.0350032966818346E-002   7.1810369786514103E-002   0.0000000000000000     
  -6.5280213824367037E-002   8.3538321740589491E-002   0.0000000000000000     
  -6.9885039012818936E-002   9.5953278241697110E-002   0.0000000000000000     
  -7.4164508532173989E-002  0.10905523928983693        0.0000000000000000     
  -6.5147733508363920E-002   6.2448634640291503E-002   0.0000000000000000     
  -7.1172718315593603E-002   7.3449137452974628E-002   0.0000000000000000     
  -7.6818477753096776E-002   8.5106913868474299E-002   0.0000000000000000     
  -8.2085011820873438E-002   9.7421963886790516E-002   0.0000000000000000     
  -8.6972320518923590E-002  0.11039428750792329        0.0000000000000000     
  -3.9854129533330181E-002  0.10615473636679942        0.0000000000000000     
  -4.2092893999100475E-002  0.12009726225699738        0.0000000000000000     
  -4.4136915380842405E-002  0.13451702569071061        0.0000000000000000     
  -4.5986193678555977E-002  0.14941402666793915        0.0000000000000000     
  -4.7640728892241198E-002  0.16478826518868306        0.0000000000000000     
  -5.0605413039377267E-002  0.10693546371927500        0.0000000000000000     
  -5.3420103917194234E-002  0.12081682711903249        0.0000000000000000     
  -5.5992153186434246E-002  0.13516704397909390        0.0000000000000000     
  -5.8321560847097297E-002  0.14998611429945916        0.0000000000000000     
  -6.0408326899183393E-002  0.16527403808012830        0.0000000000000000     
  -6.2042206038991861E-002  0.10790229802695417        0.0000000000000000     
  -6.5425890885026816E-002  0.12169761782357509        0.0000000000000000     
  -6.8517818274239362E-002  0.13596199973874956        0.0000000000000000     
  -7.1317988206629448E-002  0.15069544377247768        0.0000000000000000     
  -7.3826400682197119E-002  0.16589794992475934        0.0000000000000000     
  -7.4164508532173989E-002  0.10905523928983693        0.0000000000000000     
  -7.8110254902598236E-002  0.12273963437062510        0.0000000000000000     
  -8.1713910644257731E-002  0.13690189296967772        0.0000000000000000     
  -8.4975475757152447E-002  0.15154201508699475        0.0000000000000000     
  -8.7894950241282382E-002  0.16666000072257625        0.0000000000000000     
  -8.6972320518923590E-002  0.11039428750792329        0.0000000000000000     
  -9.1473195969908494E-002  0.12394287676018258        0.0000000000000000     
  -9.5580430296489396E-002  0.13798672367187828        0.0000000000000000     
  -9.9294023498666284E-002  0.15252582824301042        0.0000000000000000     
 -0.10261397557643917       0.16756019047357895        0.0000000000000000     
  -4.7640728892241198E-002  0.16478826518868306        0.0000000000000000     
  -4.9069323670327451E-002  0.18056565670522351        0.0000000000000000     
  -5.0240780661244142E-002  0.19667211666984175        0.0000000000000000     
  -5.1155099864991255E-002  0.21310764508253782        0.0000000000000000     
  -5.1812281281568805E-002  0.22987224194331171        0.0000000000000000     
  -6.0408326899183393E-002  0.16527403808012830        0.0000000000000000     
  -6.2223216726924539E-002  0.18096457618476150        0.0000000000000000     
  -6.3736995714552727E-002  0.19699148947701894        0.0000000000000000     
  -6.4949663862067950E-002  0.21335477795690067        0.0000000000000000     
  -6.5861221169470213E-002  0.23005444162440658        0.0000000000000000     
  -7.3826400682197119E-002  0.16589794992475934        0.0000000000000000     
  -7.6029180981832228E-002  0.18150181888125647        0.0000000000000000     
  -7.7912454386424634E-002  0.19743935132763085        0.0000000000000000     
  -7.9476220895974295E-002  0.21371054726388253        0.0000000000000000     
  -8.0720480510481238E-002  0.23031540669001146        0.0000000000000000     
  -8.7894950241282382E-002  0.16666000072257625        0.0000000000000000     
  -9.0487216435050519E-002  0.18217738479470841        0.0000000000000000     
  -9.2767156676859794E-002  0.19801570222167753        0.0000000000000000     
  -9.4734770966710263E-002  0.21417495300348346        0.0000000000000000     
  -9.6390059304601886E-002  0.23065513714012631        0.0000000000000000     
 -0.10261397557643917       0.16756019047357895        0.0000000000000000     
 -0.10559732308657940       0.18299127392511733        0.0000000000000000     
 -0.10830110258585830       0.19872054215915880        0.0000000000000000     
 -0.11072531407427588       0.21474799517570337        0.0000000000000000     
 -0.11286995755183213       0.23107363297475114        0.0000000000000000     
  -5.1812281281568805E-002  0.22987224194331171        0.0000000000000000     
  -5.2295069692805049E-002  0.24686060303091362        0.0000000000000000     
  -5.2686209880528245E-002  0.26396742412409385        0.0000000000000000     
  -5.2985701844738380E-002  0.28119270522285239        0.0000000000000000     
  -5.3193545585435480E-002  0.29853644632718923        0.0000000000000000     
  -6.5861221169470213E-002  0.23005444162440658        0.0000000000000000     
  -6.6545987274439125E-002  0.24707398177924031        0.0000000000000000     
  -6.7078281814654292E-002  0.26439689972110558        0.0000000000000000     
  -6.7458104790115686E-002  0.28202319545000221        0.0000000000000000     
  -6.7685456200823321E-002  0.29995286896593032        0.0000000000000000     
  -8.0720480510481238E-002  0.23031540669001146        0.0000000000000000     
  -8.1695535036344177E-002  0.24732365881457902        0.0000000000000000     
  -8.2451686279961731E-002  0.26480503284614682        0.0000000000000000     
  -8.2988934241333953E-002  0.28275952878471455        0.0000000000000000     
  -8.3307278920460803E-002  0.30118714663028245        0.0000000000000000     
  -9.6390059304601886E-002  0.23065513714012631        0.0000000000000000     
  -9.7743712978520178E-002  0.24760963413692977        0.0000000000000000     
  -9.8806423276450603E-002  0.26519182349921744        0.0000000000000000     
  -9.9578190198393174E-002  0.28340170522698938        0.0000000000000000     
 -0.10005901374434792       0.30223927932024564        0.0000000000000000     
 -0.11286995755183213       0.23107363297475114        0.0000000000000000     
 -0.11469052110096711       0.24793190774629237        0.0000000000000000     
 -0.11614249280412087       0.26555727168031762        0.0000000000000000     
 -0.11722587266129339       0.28394972477682667        0.0000000000000000     
 -0.11794066067248468       0.30310926703581975        0.0000000000000000     
 </DataArray>
 <DataArray  type="Float64" Name="stress" NumberOfComponents="3" format="ascii">
   5992855555.4448347        89472228.016515017        106140380.85160738     
   5603141688.0473099        3947443.1695492268        61974371.730544746     
   5224856895.5053720       -43480425.492149591        38817299.055163503     
   4858001177.8190165       -52811377.968567610        36669162.825464934     
   4502574534.9882355       -24045414.259720087        55529963.041445196     
   5216236802.0282030        49169326.661828518        360138414.43754369     
   4888256059.4000797       -2961460.4628567696        332445171.55619812     
   4567665037.8127308       -30459844.118295193        323523704.11588025     
   4254463737.2661567       -33325824.304481030        333374012.11658442     
   3948652157.7603559       -11559401.021420479        361996095.55830604     
   4458514379.4758854        14535324.566440105        622213530.16857243     
   4185874873.0324168       -6119031.4113888741        606280474.07634389     
   3916585733.8149176       -15605496.635996342        606882032.42047811     
   3650646961.8233867       -13924071.107371330        624018205.20097435     
   3388058557.0578222       -1074754.8255226612        657688992.41782987     
   3719688287.7878828       -14429778.269655704        892365728.04470265     
   3495998128.9443278       -5525269.6760499477        883480279.29097748     
   3271618983.5119371        1082616.9547615051        888892283.96895623     
   3046550851.4907069        5393881.6227738857        908601742.07863748     
   2820793732.8806348        7408524.3279882669        942608653.62001908     
   2999758526.9641924       -37725981.846459508        1170595008.0659268     
   2818625827.1358109       -1180175.2568393946        1164044587.2000978     
   2632764786.9037838        19604496.653958678        1169554458.7613165     
   2442175406.2681108        24628033.885936975        1187124622.7495739     
   2246857685.2287917        13890436.439095855        1216755079.1648726     
   4502574534.9882355       -24045414.259720087        55529963.041445196     
   4134222345.4294586        7765526.3764345646        34703422.559269659     
   3759005459.6606302        16694146.312410831        33135651.986505546     
   3376923877.6817303        2740445.5481507778        50826651.323172078     
   2987977599.4927788       -34095575.916279674        87776420.569256440     
   3948652157.7603559       -11559401.021420479        361996095.55830604     
   3626808446.9915648        10318190.373869896        332187430.62606817     
   3300819503.6376891        18378339.818876028        321188060.06306076     
   2970685327.6987228        12621047.313582540        328997983.86928046     
   2636405919.1746755       -6953687.1419813633        355617202.04472578     
   3388058557.0578222       -1074754.8255226612        657688992.41782987     
   3111439109.2498960        10484222.580166340        622070910.59800136     
   2833393892.4818587        17290636.785481095        604812647.60721064     
   2553922906.7537069        19344487.790414929        605914203.44545746     
   2273026152.0654397        16645775.594970465        625375578.11274064     
   2820793732.8806348        7408524.3279882669        942608653.62001908     
   2588114332.2044544        8263622.9953339100        904353862.47507012     
   2356728626.1931348        13431037.212214708        884009414.61896729     
   2126636614.8466749        22910766.978630662        881575310.05170679     
   1897838298.1650791        36702812.294594884        897051548.77329528     
   2246857685.2287917        13890436.439095855        1216755079.1648726     
   2056834115.8552394        3656391.6193689108        1179036286.2572715     
   1870823704.7715197        6799541.0990836620        1158778361.0983222     
   1688826451.9776351        23319884.878248394        1155981303.6880264     
   1510842357.4735858        53217422.956869543        1170645114.0263851     
   2987977599.4927788       -34095575.916279674        87776420.569256440     
   2720332267.1913071       -31629029.158776760        53181627.014432266     
   2461471818.6530757        120463.47618699074        1769685.4445077463     
   2211396253.8780923        61152901.988651514       -66459404.140520960     
   1970105572.8663585        151468286.37860900       -151505641.74065000     
   2636405919.1746755       -6953687.1419813633        355617202.04472578     
   2334261074.4461198       -14660098.608125925        330010958.95596725     
   2037730442.8635969       -3652466.2541642189        297031383.14385527     
   1746814024.4271095        26069209.919926405        256678474.60838446     
   1461511819.1366630        74504929.914142072        208952233.34956473     
   2273026152.0654397        16645775.594970465        625375578.11274064     
   1963364124.3148012        6861104.7267024517        605058769.76995826     
   1656145639.0929825        5221575.6211631298        586812443.99557126     
   1351370696.3999858        11727188.278365374        570636600.78957808     
   1049039296.2358146        26377942.698312700        556531240.15198123     
   1897838298.1650791        36702812.294594884        897051548.77329528     
   1607641416.7973530        32934580.845693350        878325059.45640469     
   1316717407.3412349        26742589.102147579        871112867.99966705     
   1025066269.7967272        18126837.063973963        875414974.40306580     
   732688004.16382408        7087324.7311490774        891231378.66661513     
   1510842357.4735858        53217422.956869543        1170645114.0263851     
   1267092951.8937681        63560329.748831630        1149809828.0153148     
   1019445747.6083478        60910574.188789189        1149932655.1561351     
   767900744.61732030        45268156.276721209        1171013595.4488533     
   512457942.92069012        16633076.012642354        1213052648.8934593     
   1970105572.8663585        151468286.37860900       -151505641.74065000     
   1618434246.3749669        158724432.97224593       -56973732.559404925     
   1225047237.7780733        26928305.880882978        67263773.934132904     
   789944547.07568038       -243920094.89546704        221206877.73998013     
   313126174.26778781       -653820769.35684371        404855578.85813290     
   1461511819.1366630        74504929.914142072        208952233.34956473     
   1178315226.3331368        61535081.910952508        284621593.64652711     
   848600737.91536272       -106494418.13973224        387925765.91342765     
   472368353.88334322       -429583570.23790610        518864750.15026796     
   49618074.237060189       -907732374.38361406        677438546.35705221     
   1049039296.2358146        26377942.698312700        556531240.15198123     
   828400907.57054281       -8592858.7665783167        607735469.13780391     
   556442409.78227699       -214630690.64146084        684503724.75119054     
   233163802.87099671       -591735552.92637491        786836006.99215305     
  -141434913.16327602       -1139907445.6212804        914732315.86069071     
   732688004.16382408        7087324.7311490774        891231378.66661513     
   568691290.08718920       -51659389.060339540        912367893.91440833     
   348572253.37880409       -297480511.62433183        956997650.44740760     
   72330894.038670093       -730376042.96082437        1025120648.2656168     
  -260032787.93322051       -1350345983.0698290        1116736887.3690357     
   512457942.92069012        16633076.012642354        1213052648.8934593     
   399186373.88307345       -67664508.970332772        1198518867.9763572     
   224990268.70496199       -355043881.08829355        1205407543.0020921     
  -10130372.613651782       -845505040.34126890        1233718673.9706724     
  -306175550.07276756       -1539047986.7292454        1283452260.8820999     
   2999758526.9641924       -37725981.846459508        1170595008.0659268     
   2818625827.1358109       -1180175.2568393946        1164044587.2000978     
   2632764786.9037838        19604496.653958678        1169554458.7613165     
   2442175406.2681108        24628033.885936975        1187124622.7495739     
   2246857685.2287917        13890436.439095855        1216755079.1648726     
   2289730447.3488226       -16320989.869050622        1297356820.1098552     
   2140144091.1376045        6967296.8199093342        1278269485.0301311     
   1987011481.7712889        18434739.658535480        1274447703.3598001     
   1830332619.2498727        18081338.646831989        1285891475.0988588     
   1670107503.5733552        5907093.7847878933        1312600800.2473054     
   1553094657.8406885       -2898310.8594718575        1414690072.4181046     
   1444212533.7676303        9879822.4851301908        1384444924.9144573     
   1332966243.7880180        14777402.807882965        1372670591.8025455     
   1219355787.9018505        11794430.108789265        1379367073.0823727     
   1103381166.1091292        930904.38784629107        1404534368.7539394     
   789851158.43979192        2542055.1822793782        1522594764.9906731     
   730831155.02588356        7557401.7388163209        1482570906.8530705     
   670629072.95396888        8632486.1019970477        1464223124.0895522     
   609244912.22404385        5767308.2718116343        1467551416.7001200     
   546678672.83611155       -1038131.7517329454        1492555784.6847725     
  -50.853870016119856        108.25619933452577        1621070897.8275611     
  -45.087633169140872        34.580975720317902        1572647430.8459735     
  -30.730859157756719       -10.459126788097018        1549105300.2208173     
  -7.7835467238163139       -26.864100527435042        1550444505.9520969     
   23.754302188265015       -14.633951285191195        1576665048.0398066     
   2246857685.2287917        13890436.439095855        1216755079.1648726     
   2056834115.8552394        3656391.6193689108        1179036286.2572715     
   1870823704.7715197        6799541.0990836620        1158778361.0983222     
   1688826451.9776351        23319884.878248394        1155981303.6880264     
   1510842357.4735858        53217422.956869543        1170645114.0263851     
   1670107503.5733552        5907093.7847878933        1312600800.2473054     
   1526485363.1135445       -2099775.4911705256        1282615972.2232902     
   1385873090.9875655       -73750.321028411388        1270349719.7203267     
   1248270687.1954143        11985169.295209467        1275802042.7384079     
   1113678151.7370939        34076983.357550919        1298972941.2775369     
   1103381166.1091292        930904.38784629107        1404534368.7539394     
   1006896762.4841857       -4627896.9680020809        1381113000.6648436     
   912418937.23706615       -3498103.7311041355        1375667915.8691893     
   819947690.36777222        4320284.0985441506        1388199114.3669736     
   729483021.87630224        18827266.520940572        1418706596.1581995     
   546678672.83611155       -1038131.7517329454        1492555784.6847725     
   498068313.96715695       -3927972.8111364245        1474527371.5819223     
   450461243.52002215       -3473519.1311431527        1474732949.5449047     
   403857461.49470639        325229.28824844956        1493172518.5737236     
   358256967.89121234        7468272.4470449835        1529846078.6683717     
   23.754302188265015       -14.633951285191195        1576665048.0398066     
   17.562459636760543       -3.0205746786588481        1562859084.9745302     
   9.8364316234347360        3.4788517762478071        1567544820.7474794     
  0.57621829697816929        4.8643271873852720        1590722255.3586562     
  -10.218179782160032        1.1358520351385075        1632391388.8080580     
   1510842357.4735858        53217422.956869543        1170645114.0263851     
   1267092951.8937681        63560329.748831630        1149809828.0153148     
   1019445747.6083478        60910574.188789189        1149932655.1561351     
   767900744.61732030        45268156.276721209        1171013595.4488533     
   512457942.92069012        16633076.012642354        1213052648.8934593     
   1113678151.7370939        34076983.357550919        1298972941.2775369     
   924913920.21359539        40048509.647269368        1279392249.7906010     
   733226339.72787297        36275539.396243423        1282158513.0033040     
   538615410.27991724        22758072.604440868        1307271730.9156497     
   341081131.86974299       -503890.72809088230        1354731903.5276322     
   729483021.87630224        18827266.520940572        1418706596.1581995     
   599672083.11696756        21617847.920761406        1401517357.2293398     
   467912245.13878626        17912098.591094583        1408063914.5478644     
   334203507.94176102        7710018.5319445878        1438346268.1137755     
   198545871.52588645       -8988392.2567002699        1492364417.9270756     
   358256967.89121234        7468272.4470449835        1529846078.6683717     
   291367440.60388958        8268344.5693212599        1516185150.3315313     
   223503463.84110159        5820251.7733811140        1527648859.7898245     
   154665037.60284612        123994.05921402574        1564237207.0432503     
   84852161.889123514       -8820428.5731765963        1625950192.0918109     
  -10.218179782160032        1.1358520351385075        1632391388.8080580     
  -7.3256397285278112      -0.40705094972326550        1623395629.0971792     
  -4.1651911773112751       -1.0569256093039892        1640913348.7291787     
 -0.73682426918095323      -0.81373838528270592        1684944547.7040596     
   2.9594473392049312       0.32246311847833997        1755489226.0218194     
   512457942.92069012        16633076.012642354        1213052648.8934593     
   399186373.88307345       -67664508.970332772        1198518867.9763572     
   224990268.70496199       -355043881.08829355        1205407543.0020921     
  -10130372.613651782       -845505040.34126890        1233718673.9706724     
  -306175550.07276756       -1539047986.7292454        1283452260.8820999     
   341081131.86974299       -503890.72809088230        1354731903.5276322     
   283904497.95828247       -55393966.527016759        1284858213.0053773     
   181034461.92156851       -262595382.74344832        1229925668.3640814     
   32471023.759607673       -622108139.37737453        1189934269.6037517     
  -161785816.52760243       -1133932236.4287968        1164884016.7243624     
   198545871.52588645       -8988392.2567002699        1492364417.9270756     
   178946143.99233559       -40026367.496062502        1384920474.1508036     
   128884148.34878708       -172605236.43541619        1285936366.1936016     
   48359884.595237911       -406724999.07476890        1195412094.0554705     
  -62626647.268307447       -742385655.41411591        1113347657.7364171     
   84852161.889123514       -8820428.5731765963        1625950192.0918109     
   84311311.985240698       -21561711.877448477        1498705651.4126391     
   68539327.986611098       -85073442.164207354        1373439636.4906571     
   37536209.893238589       -199355619.43344876        1250152147.3258660     
  -8698042.2948872894       -364408243.68519413        1128843183.9182572     
   2.9594473392049312       0.32246311847833997        1755489226.0218194     
   1.9369976318876632       0.32882442190374928        1626213744.7908788     
  0.83504833084909780        7.0191242927842956E-002   1492435479.2552457     
 -0.34639367839296797      -0.45342040561729302        1354154429.4149151     
  -1.6073364251300515       -1.2420331247003742        1211370595.2698936     
  -50.853870016119856        108.25619933452577        1621070897.8275611     
  -45.087633169140872        34.580975720317902        1572647430.8459735     
  -30.730859157756719       -10.459126788097018        1549105300.2208173     
  -7.7835467238163139       -26.864100527435042        1550444505.9520969     
   23.754302188265015       -14.633951285191195        1576665048.0398066     
  -789851293.66205394       -2541982.2998615801        1522594710.0058475     
  -730831255.68011832       -7557387.8249732852        1482570872.5313375     
  -670629131.13062644       -8632504.7915639877        1464223107.7547555     
  -609244920.01357746       -5767333.1996309757        1467551415.6760991     
  -546678622.32897043        1038126.9508285820        1492555796.2953637     
  -1553094805.5346777        2898246.4247488379        1414689999.1919193     
  -1444212631.5042100       -9879859.8004055023        1384444882.1976826     
  -1332966292.9291654       -14777417.543630540        1372670574.2428622     
  -1219355789.8095453       -11794426.804937422        1379367075.3274593     
  -1103381122.1453459       -930887.58431655169        1404534385.4514701     
  -2289730586.4717398        16320794.430025220        1297356765.3857841     
  -2140144172.5599086       -6967381.3453149796        1278269459.8450069     
  -1987011516.1264796       -18434748.715334177        1274447699.6851397     
  -1830332617.1714516       -18081307.680027246        1285891484.9061804     
  -1670107475.6948283       -5907058.2393966913        1312600815.5081282     
  -2999758636.4732451        37725661.715970516        1170595008.5874395     
  -2818625878.8472118        1180047.5402907133        1164044605.4733133     
  -2632764800.7225637       -19604498.306666255        1169554484.0815866     
  -2442175402.0992985       -24627975.824899316        1187124644.4122596     
  -2246857682.9774146       -13890385.014408112        1216755086.4653342     
   23.754302188265015       -14.633951285191195        1576665048.0398066     
   17.562459636760543       -3.0205746786588481        1562859084.9745302     
   9.8364316234347360        3.4788517762478071        1567544820.7474794     
  0.57621829697816929        4.8643271873852720        1590722255.3586562     
  -10.218179782160032        1.1358520351385075        1632391388.8080580     
  -546678622.32897043        1038126.9508285820        1492555796.2953637     
  -498068278.94277501        3927975.8877206147        1474527377.8298738     
  -450461225.37076193        3473525.4440040886        1474732951.5884542     
  -403857461.61293095       -325224.38032081723        1493172517.5711024     
  -358256987.66928107       -7468273.5852472037        1529846075.7778201     
  -1103381122.1453459       -930887.58431655169        1404534385.4514701     
  -1006896733.7929919        4627907.2925211787        1381113008.5924389     
  -912418923.53481650        3498108.5220983624        1375667917.3433189     
  -819947691.37081909       -4320283.8955854475        1388199111.7041097     
  -729483037.30099940       -18827269.960528225        1418706591.6748128     
  -1670107475.6948283       -5907058.2393966913        1312600815.5081282     
  -1526485346.9881947        2099791.1938217878        1282615977.2622249     
  -1385873084.6557326        73752.713135719299        1270349718.0120754     
  -1248270688.6974471       -11985173.681472838        1275802037.7576816     
  -1113678159.1133361       -34076987.989996433        1298972936.4990396     
  -2246857682.9774146       -13890385.014408112        1216755086.4653342     
  -2056834118.5283761       -3656372.4083609581        1179036283.8392301     
  -1870823708.7335105       -6799541.9828879833        1158778353.5947232     
  -1688826453.5928159       -23319893.737985611        1155981295.7318125     
  -1510842353.1062911       -53217427.673650086        1170645110.2504990     
  -10.218179782160032        1.1358520351385075        1632391388.8080580     
  -7.3256397285278112      -0.40705094972326550        1623395629.0971792     
  -4.1651911773112751       -1.0569256093039892        1640913348.7291787     
 -0.73682426918095323      -0.81373838528270592        1684944547.7040596     
   2.9594473392049312       0.32246311847833997        1755489226.0218194     
  -358256987.66928107       -7468273.5852472037        1529846075.7778201     
  -291367454.26377952       -8268345.8818659186        1516185148.9352019     
  -223503471.21789107       -5820252.7105295956        1527648859.4720736     
  -154665038.53160727       -123994.07120717317        1564237207.3884306     
  -84852156.204936996        8820430.0360680930        1625950192.6842749     
  -729483037.30099940       -18827269.960528225        1418706591.6748128     
  -599672093.27794635       -21617848.979489028        1401517355.3016846     
  -467912250.24202454       -17912097.955556601        1408063914.3446522     
  -334203508.19323403       -7710016.8887256682        1438346268.8037124     
  -198545867.13157457        8988394.2209987640        1492364418.6788650     
  -1113678159.1133361       -34076987.989996433        1298972936.4990396     
  -924913924.36813986       -40048509.699921757        1279392248.1966255     
  -733226341.23759556       -36275536.792021722        1282158513.3469107     
  -538615409.72170460       -22758069.266297340        1307271731.9498966     
  -341081129.82046396        503892.87725636363        1354731904.0055864     
  -1510842353.1062911       -53217427.673650086        1170645110.2504990     
  -1267092947.5343595       -63560328.043160677        1149809827.6200213     
  -1019445744.2045997       -60910569.219908476        1149932656.4788516     
  -767900743.11701787       -45268151.203916401        1171013596.8269904     
  -512457944.27160931       -16633073.995169461        1213052648.6644337     
   2.9594473392049312       0.32246311847833997        1755489226.0218194     
   1.9369976318876632       0.32882442190374928        1626213744.7908788     
  0.83504833084909780        7.0191242927842956E-002   1492435479.2552457     
 -0.34639367839296797      -0.45342040561729302        1354154429.4149151     
  -1.6073364251300515       -1.2420331247003742        1211370595.2698936     
  -84852156.204936996        8820430.0360680930        1625950192.6842749     
  -84311308.427617878        21561712.439495303        1498705651.6155117     
  -68539326.558204740        85073441.816569299        1373439636.4519453     
  -37536210.596688002        199355618.16732231        1250152147.1935790     
   8698039.4569325447        364408241.49175125        1128843183.8403933     
  -198545867.13157457        8988394.2209987640        1492364418.6788650     
  -178946141.38337618        40026367.772808366        1384920474.3058069     
  -128884147.37147842        172605235.53694493        1285936366.0478344     
  -48359885.095884085        406724997.51340795        1195412093.9049454     
   62626645.443408877        742385653.70219779        1113347657.8771417     
  -341081129.82046396        503892.87725636363        1354731904.0055864     
  -283904496.93026841        55393966.328792065        1284858212.8617611     
  -181034461.60477588        262595381.23131484        1229925668.0429144     
  -32471023.843990326        622108137.58481717        1189934269.5490434     
   161785816.35209242        1133932235.3893096        1164884017.3801451     
  -512457944.27160931       -16633073.995169461        1213052648.6644337     
  -399186375.06830084        67664508.107427031        1198518867.2833769     
  -224990269.25809813        355043878.89967406        1205407542.4371865     
   10130373.158992767        845505038.38154876        1233718674.1258624     
   306175552.18298084        1539047986.5530767        1283452262.3493981     
  -2999758636.4732451        37725661.715970516        1170595008.5874395     
  -2818625878.8472118        1180047.5402907133        1164044605.4733133     
  -2632764800.7225637       -19604498.306666255        1169554484.0815866     
  -2442175402.0992985       -24627975.824899316        1187124644.4122596     
  -2246857682.9774146       -13890385.014408112        1216755086.4653342     
  -3719688220.5697675        14429791.552667379        892365750.50706828     
  -3495998086.8054814        5525284.7549943924        883480307.86827981     
  -3271618968.0489721       -1082605.4019274712        888892309.60312808     
  -3046550864.3002357       -5393878.9180924892        908601755.71161580     
  -2820793775.5592752       -7408535.7935106754        942608646.19374216     
  -4458514135.2946854       -14534977.799151182        622213500.13998854     
  -4185874732.1028996        6119190.7679567337        606280459.88574779     
  -3916585679.4252791        15605524.287839890        606882026.65638220     
  -3650646977.2618217        13924022.760512352        624018200.45189357     
  -3388058625.6125298        1074686.1859681606        657688981.27228129     
  -5216236380.6480083       -49168646.339491844        360138257.48619884     
  -4888255814.7394657        2961765.5791680813        332445061.52571636     
  -4567664934.8514814        30459890.762646675        323523635.24134892     
  -4254463740.9840512        33325729.210933447        333373978.63309461     
  -3948652233.1371789        11559280.924035788        361996091.70095426     
  -5992854956.6297264       -89471214.068352699        106140022.54570064     
  -5603141334.7151814       -3946990.8113586903        61974112.788188085     
  -5224856734.3275785        43480494.022472858        38817135.358023368     
  -4858001155.4669275        52811240.433151245        36669090.255218089     
  -4502574598.1332216        24045248.420674801        55529977.479759842     
  -2246857682.9774146       -13890385.014408112        1216755086.4653342     
  -2056834118.5283761       -3656372.4083609581        1179036283.8392301     
  -1870823708.7335105       -6799541.9828879833        1158778353.5947232     
  -1688826453.5928159       -23319893.737985611        1155981295.7318125     
  -1510842353.1062911       -53217427.673650086        1170645110.2504990     
  -2820793775.5592752       -7408535.7935106754        942608646.19374216     
  -2588114361.5386310       -8263636.5042870045        904353853.64169908     
  -2356728641.1383066       -13431049.282792449        884009406.83625257     
  -2126636614.3582950       -22910774.129008651        881575305.77740586     
  -1897838281.1986036       -36702811.042956948        897051550.46515465     
  -3388058625.6125298        1074686.1859681606        657688981.27228129     
  -3111439152.4059944       -10484264.957343102        622070903.33379865     
  -2833393911.7859230       -17290658.055539370        604812644.50691319     
  -2553922903.7523079       -19344493.108595252        605914204.79162502     
  -2273026128.3051610       -16645770.116533875        625375584.18793416     
  -3948652233.1371789        11559280.924035788        361996091.70095426     
  -3626808491.1304646       -10318257.767540932        332187432.91552871     
  -3300819520.6763563       -18378368.301132083        321188066.60669768     
  -2970685321.7748513       -12621050.676739216        328997992.77447242     
  -2636405894.4259567        6953695.1056241989        355617211.41883898     
  -4502574598.1332216        24045248.420674801        55529977.479759842     
  -4134222377.7120409       -7765614.9348616600        34703442.386886127     
  -3759005467.8096080       -16694180.019568205        33135673.135617174     
  -3376923868.4259276       -2740446.8334436417        50826669.725939922     
  -2987977579.5610032        34095584.623490453        87776432.157867283     
  -1510842353.1062911       -53217427.673650086        1170645110.2504990     
  -1267092947.5343595       -63560328.043160677        1149809827.6200213     
  -1019445744.2045997       -60910569.219908476        1149932656.4788516     
  -767900743.11701787       -45268151.203916401        1171013596.8269904     
  -512457944.27160931       -16633073.995169461        1213052648.6644337     
  -1897838281.1986036       -36702811.042956948        897051550.46515465     
  -1607641404.4269521       -32934576.832250774        878325061.91739404     
  -1316717400.1617625       -26742584.309748113        871112870.20775425     
  -1025066268.4030334       -18126833.475448132        875414975.33623302     
  -732688009.15076208       -7087324.3293436170        891231377.30283082     
  -2273026128.3051610       -16645770.116533875        625375584.18793416     
  -1963364107.9086149       -6861099.5980659723        605058774.41455877     
  -1656145630.2828171       -5221571.6487585306        586812446.82811677     
  -1351370695.4277642       -11727186.268597841        570636601.42860329     
  -1049039303.3434476       -26377943.457560897        556531238.21602285     
  -2636405894.4259567        6953695.1056241989        355617211.41883898     
  -2334261057.9793468        14660103.659386873        330010965.11151814     
  -2037730434.5677612        3652468.7630624771        297031386.33993840     
  -1746814024.1912053       -26069209.583352208        256678475.10410616     
  -1461511826.8496716       -74504931.379851580        208952231.40401140     
  -2987977579.5610032        34095584.623490453        87776432.157867283     
  -2720332254.6391373        31629032.940141797        53181634.008265339     
  -2461471813.0165915       -120463.07426571846        1769688.7432219328     
  -2211396254.6933646       -61152903.419741154       -66459403.637268633     
  -1970105579.6694341       -151468288.09620357       -151505643.13320273     
  -512457944.27160931       -16633073.995169461        1213052648.6644337     
  -399186375.06830084        67664508.107427031        1198518867.2833769     
  -224990269.25809813        355043878.89967406        1205407542.4371865     
   10130373.158992767        845505038.38154876        1233718674.1258624     
   306175552.18298084        1539047986.5530767        1283452262.3493981     
  -732688009.15076208       -7087324.3293436170        891231377.30283082     
  -568691293.23135018        51659388.190005451        912367892.89105177     
  -348572254.44958597        297480510.25052381        956997650.09138954     
  -72330892.805474550        730376041.85220516        1025120648.9038494     
   260032791.70098782        1350345982.9950500        1116736889.3284247     
  -1049039303.3434476       -26377943.457560897        556531238.21602285     
  -828400911.91578484        8592858.1161682010        607735468.07156003     
  -556442411.37030900        214630690.08261302        684503724.61646366     
  -233163801.70703349        591735552.44172561        786836007.85074103     
   141434917.07405835        1139907445.1935489        914732317.77438819     
  -1461511826.8496716       -74504931.379851580        208952231.40401140     
  -1178315231.1216037       -61535082.114067614        284621592.82489544     
  -848600740.02027702        106494418.39591038        387925766.01240247     
  -472368353.54568207        429583570.15011680        518864750.96652931     
  -49618071.697812974        907732373.14856553        677438547.68728650     
  -1970105579.6694341       -151468288.09620357       -151505643.13320273     
  -1618434250.8488200       -158724432.50076264       -56973732.848934859     
  -1225047240.3994672       -26928304.809520602        67263774.279206231     
  -789944548.32141817        243920094.97738451        221206878.25122231     
  -313126174.61462098        653820766.86009443        404855579.06711191     
 </DataArray>
 <DataArray  type="Float64" Name="VM" NumberOfComponents="1" format="ascii">
   5951464205.6075106     
   5602197492.3694830     
   5247162992.9878283     
   4885033889.7713289     
   4515669676.2923937     
   5229164768.7670145     
   4923524329.7697830     
   4617101344.5853052     
   4310077784.5835133     
   4003842536.3794608     
   4579869520.5691376     
   4318556174.7881088     
   4062748455.3151774     
   3813980223.9625731     
   3574947231.1737356     
   4034713525.3693705     
   3818764458.6076279     
   3615292313.5830560     
   3426622218.3298841     
   3256004832.9717107     
   3636484748.2506061     
   3465974440.4192719     
   3314180687.1411662     
   3183155020.7597303     
   3075521311.2661624     
   4515669676.2923937     
   4130782404.6771894     
   3751125333.4758773     
   3376702260.3637943     
   3009013718.8904929     
   4003842536.3794608     
   3667079129.6908479     
   3338348227.2273588     
   3018667995.5131311     
   2710794726.5581918     
   3574947231.1737356     
   3287774153.2476907     
   3012776750.3626575     
   2752251470.7367582     
   2510452653.9389925     
   3256004832.9717107     
   3021685723.0092101     
   2804837755.7010660     
   2608813983.5560117     
   2438767258.8951807     
   3075521311.2661624     
   2897143256.9439936     
   2741461051.3143535     
   2611929112.1543574     
   2513225723.1425176     
   3009013718.8904929     
   2737833881.8058310     
   2461413497.6558967     
   2184497728.9785299     
   1916953826.6083193     
   2710794726.5581918     
   2410380027.8767571     
   2103445831.8857434     
   1790014607.7976801     
   1470938834.1700392     
   2510452653.9389925     
   2222535321.9144859     
   1940939073.3169997     
   1669542122.2374125     
   1415163879.6474593     
   2438767258.8951807     
   2201593365.1818118     
   1993930879.1086400     
   1825256793.6243658     
   1707210957.8974922     
   2513225723.1425176     
   2344187607.7254734     
   2224392060.4756083     
   2161198239.5935669     
   2160753627.2154169     
   1916953826.6083193     
   1548346155.0984614     
   1217395033.4872692     
   1011429778.7348778     
   1105432998.7914908     
   1470938834.1700392     
   1250093584.3586404     
   1128403613.4651558     
   1190906157.6559737     
   1499416186.8559794     
   1415163879.6474593     
   1342187555.5341661     
   1371408092.1002572     
   1549135352.7302575     
   1915300430.1410015     
   1707210957.8974922     
   1688994447.0146723     
   1749635456.8253925     
   1934974600.6180243     
   2298090712.0853868     
   2160753627.2154169     
   2121386675.6276531     
   2148390148.6688347     
   2296214584.0705452     
   2633048124.6803322     
   3636484748.2506061     
   3465974440.4192719     
   3314180687.1411662     
   3183155020.7597303     
   3075521311.2661624     
   3214017224.5520477     
   3076893381.9704313     
   2963878417.6732764     
   2877134029.7539353     
   2819253636.6961241     
   2901836792.5379190     
   2796719889.5283780     
   2722130279.8354397     
   2679654195.2954812     
   2671062354.3772626     
   2752589312.7078910     
   2668838246.9488745     
   2622189304.4765544     
   2613201179.3333755     
   2642459930.5812726     
   2807777157.7086358     
   2723905252.6178894     
   2683129086.2566948     
   2685448658.6250587     
   2730863969.7229700     
   3075521311.2661624     
   2897143256.9439936     
   2741461051.3143535     
   2611929112.1543574     
   2513225723.1425176     
   2819253636.6961241     
   2696048672.7833729     
   2600406058.5855513     
   2535029619.9548726     
   2503094401.1607981     
   2671062354.3772626     
   2596332352.3813391     
   2552077376.1982307     
   2539700930.4667258     
   2560654406.9521408     
   2642459930.5812726     
   2602448228.4527235     
   2594032363.0240636     
   2617567977.9856095     
   2673390233.9061289     
   2730863969.7229700     
   2706951340.2464919     
   2715067272.6760826     
   2755211767.0117464     
   2827384823.2534781     
   2513225723.1425176     
   2344187607.7254734     
   2224392060.4756083     
   2161198239.5935669     
   2160753627.2154169     
   2503094401.1607981     
   2393859186.6160483     
   2333265942.0770259     
   2324918230.1320295     
   2371160907.9415278     
   2560654406.9521408     
   2497971782.5805717     
   2481695667.1831093     
   2513104588.9212699     
   2592824816.7113056     
   2673390233.9061289     
   2641780924.8361850     
   2655149702.6908579     
   2713745793.4340110     
   2817652960.0468698     
   2827384823.2534781     
   2811803710.3815546     
   2842145290.8169246     
   2918409564.5595932     
   3040596531.6095557     
   2160753627.2154169     
   2121386675.6276531     
   2148390148.6688347     
   2296214584.0705452     
   2633048124.6803322     
   2371160907.9415278     
   2247660724.9154453     
   2165045051.3469586     
   2157800753.2139258     
   2280216465.9838691     
   2592824816.7113056     
   2407239197.8846545     
   2242665107.3971457     
   2115292722.3365433     
   2056014215.5869310     
   2817652960.0468698     
   2597642602.3788075     
   2382598436.9693375     
   2176528396.0513163     
   1988104672.1250460     
   3040596531.6095557     
   2816684829.9446497     
   2584974077.0884929     
   2345464273.0410762     
   2098155417.8024108     
   2807777157.7086358     
   2723905252.6178894     
   2683129086.2566948     
   2685448658.6250587     
   2730863969.7229700     
   2752589270.5921445     
   2668838219.0366883     
   2622189289.5672369     
   2613201176.5647612     
   2642459939.2980418     
   2901836747.2549987     
   2796719866.8859954     
   2722130273.6733723     
   2679654200.3635321     
   2671062366.0292287     
   3214017187.1403837     
   3076893377.9184003     
   2963878432.8786860     
   2877134051.2433400     
   2819253651.9798326     
   3636484704.2970448     
   3465974448.9175501     
   3314180724.2372885     
   3183155063.6376228     
   3075521336.8434196     
   2730863969.7229700     
   2706951340.2464919     
   2715067272.6760826     
   2755211767.0117464     
   2827384823.2534781     
   2642459939.2980418     
   2602448232.6423416     
   2594032363.9021511     
   2617567976.6660347     
   2673390231.4934978     
   2671062366.0292287     
   2596332355.9004951     
   2552077374.5368538     
   2539700926.4555659     
   2560654403.3730631     
   2819253651.9798326     
   2696048675.2962804     
   2600406053.3448987     
   2535029612.1118197     
   2503094395.9856024     
   3075521336.8434196     
   2897143262.6831369     
   2741461044.1987972     
   2611929099.8425961     
   2513225713.9690900     
   2827384823.2534781     
   2811803710.3815546     
   2842145290.8169246     
   2918409564.5595932     
   3040596531.6095557     
   2673390231.4934978     
   2641780923.8489451     
   2655149702.7178850     
   2713745794.0834808     
   2817652960.9190617     
   2560654403.3730631     
   2497971781.6133637     
   2481695667.8363156     
   2513104590.2431779     
   2592824817.7473445     
   2503094395.9856024     
   2393859185.6215048     
   2333265943.4748659     
   2324918232.1040702     
   2371160908.6207800     
   2513225713.9690900     
   2344187605.2612677     
   2224392062.0162206     
   2161198242.1113348     
   2160753627.3685913     
   3040596531.6095557     
   2816684829.9446497     
   2584974077.0884929     
   2345464273.0410762     
   2098155417.8024108     
   2817652960.9190617     
   2597642602.6135006     
   2382598436.8183870     
   2176528395.7408285     
   1988104671.8428400     
   2592824817.7473445     
   2407239197.9514384     
   2242665106.9576573     
   2115292721.8228590     
   2056014215.4973552     
   2371160908.6207800     
   2247660724.5092325     
   2165045050.5072846     
   2157800752.6065588     
   2280216466.5400553     
   2160753627.3685913     
   2121386674.5863330     
   2148390147.3453112     
   2296214583.5054131     
   2633048126.3619180     
   3636484704.2970448     
   3465974448.9175501     
   3314180724.2372885     
   3183155063.6376228     
   3075521336.8434196     
   4034713484.3539510     
   3818764446.7582469     
   3615292323.7242060     
   3426622241.7513638     
   3256004858.5070949     
   4579869438.6955833     
   4318556109.5680466     
   4062748413.6294761     
   3813980213.1222916     
   3574947257.4572306     
   5229164650.9046745     
   4923524216.1486645     
   4617101251.2887716     
   4310077732.8296747     
   4003842550.2121286     
   5951464083.2152510     
   5602197356.4071331     
   5247162862.8818169     
   4885033795.9138441     
   4515669656.3929024     
   3075521336.8434196     
   2897143262.6831369     
   2741461044.1987972     
   2611929099.8425961     
   2513225713.9690900     
   3256004858.5070949     
   3021685734.4146967     
   2804837755.8507905     
   2608813975.9752975     
   2438767248.1547346     
   3574947257.4572306     
   3287774169.9800091     
   3012776756.7150621     
   2752251466.4211788     
   2510452639.4886003     
   4003842550.2121286     
   3667079140.7679534     
   3338348231.9920716     
   3018667990.9666891     
   2710794710.0391045     
   4515669656.3929024     
   4130782393.3064322     
   3751125325.4453330     
   3376702251.3004994     
   3009013704.4211273     
   2513225713.9690900     
   2344187605.2612677     
   2224392062.0162206     
   2161198242.1113348     
   2160753627.3685913     
   2438767248.1547346     
   2201593360.5919957     
   1993930878.8278372     
   1825256795.1632826     
   1707210957.9761040     
   2510452639.4886003     
   2222535313.4895291     
   1940939070.0646057     
   1669542122.9083893     
   1415163882.2987189     
   2710794710.0391045     
   2410380016.8848310     
   2103445826.4154701     
   1790014607.9417624     
   1470938840.1552429     
   3009013704.4211273     
   2737833871.5912366     
   2461413492.2274776     
   2184497729.0622044     
   1916953832.9145384     
   2160753627.3685913     
   2121386674.5863330     
   2148390147.3453112     
   2296214583.5054131     
   2633048126.3619180     
   1707210957.9761040     
   1688994446.2898624     
   1749635456.1751261     
   1934974600.9143834     
   2298090714.2214904     
   1415163882.2987189     
   1342187556.5767176     
   1371408092.4662871     
   1549135353.4194453     
   1915300431.7691498     
   1470938840.1552429     
   1250093588.1073709     
   1128403615.3700373     
   1190906158.4789715     
   1499416187.0382175     
   1916953832.9145384     
   1548346159.7755587     
   1217395036.6686969     
   1011429780.2452163     
   1105432997.3915682     
 </DataArray>
 <DataArray  type="Float64" Name="strain" NumberOfComponents="3" format="ascii">
   9.9433564783998007E-002  -2.8473073976948926E-002   4.5994165035696533E-003
   9.3365957584940762E-002  -2.7949917720744066E-002   2.6855561083236057E-003
   8.7298350385883627E-002  -2.6848958235729359E-002   1.6820829590570852E-003
   8.1230743186826437E-002  -2.5170195521904540E-002   1.5889970557701472E-003
   7.5163135987769192E-002  -2.2913629579269845E-002   2.4062983984626252E-003
   8.6691433400494233E-002  -2.5261695232443870E-002   1.5605997958960227E-002
   8.1485741625648950E-002  -2.4490637971381346E-002   1.4405957434101918E-002
   7.6280049850803666E-002  -2.3345989257701913E-002   1.4019360511688145E-002
   7.1074358075958355E-002  -2.1827749091405470E-002   1.4446207191718657E-002
   6.5868666301113044E-002  -1.9935917472492126E-002   1.5686497474193262E-002
   7.4235896368432558E-002  -2.2050316487938759E-002   2.6962586307304803E-002
   6.9795176374263898E-002  -2.1031358222018570E-002   2.6272153876641571E-002
   6.5354456380095266E-002  -1.9843020279674523E-002   2.6298221404887384E-002
   6.0913736385926634E-002  -1.8485302660906457E-002   2.7040788892042221E-002
   5.6473016391757988E-002  -1.6958205365714490E-002   2.8499856338105964E-002
   6.2066953687812995E-002  -1.8838937743433676E-002   3.8669181548603784E-002
   5.8294261830785718E-002  -1.7572078472655808E-002   3.8284145435942357E-002
   5.4521569973758476E-002  -1.6340051301646993E-002   3.8518665638654769E-002
   5.0748878116731247E-002  -1.5142856230407304E-002   3.9372742156740956E-002
   4.6976186259703970E-002  -1.3980493258936702E-002   4.0846374990200829E-002
   5.0184605358635503E-002  -1.5627558998928620E-002   5.0725783682856823E-002
   4.6982997995214382E-002  -1.4112798723293046E-002   5.0441932112004234E-002
   4.3781390631793274E-002  -1.2837082323619610E-002   5.0680693212990388E-002
   4.0579783268372159E-002  -1.1800409799908271E-002   5.1442066985814876E-002
   3.7378175904951044E-002  -1.1002781152159025E-002   5.2726053430477815E-002
   7.5163135987769192E-002  -2.2913629579269845E-002   2.4062983984626252E-003
   6.8864878125275475E-002  -2.0541686287540051E-002   1.5038149775683518E-003
   6.2566620262781786E-002  -1.8516791526429641E-002   1.4358782527485736E-003
   5.6268362400288083E-002  -1.6838945295939472E-002   2.2024882240041233E-003
   4.9970104537794380E-002  -1.5508147596068556E-002   3.8036448913344456E-003
   6.5868666301113044E-002  -1.9935917472492126E-002   1.5686497474193262E-002
   6.0395216497990067E-002  -1.7962072395393325E-002   1.4394788660462954E-002
   5.4921766694867105E-002  -1.6197791854540511E-002   1.3918149269399299E-002
   4.9448316891744136E-002  -1.4643075849933906E-002   1.4256579301002152E-002
   4.3974867088621167E-002  -1.3297924381573067E-002   1.5410078755271450E-002
   5.6473016391757988E-002  -1.6958205365714490E-002   2.8499856338105964E-002
   5.1804897374597439E-002  -1.5382458503246710E-002   2.6956406125913393E-002
   4.7136778357436911E-002  -1.3878792182651277E-002   2.6208548062979127E-002
   4.2468659340276382E-002  -1.2447206403928287E-002   2.6256282149303155E-002
   3.7800540323115805E-002  -1.1087701167077690E-002   2.7099608384885426E-002
   4.6976186259703970E-002  -1.3980493258936702E-002   4.0846374990200829E-002
   4.3093920755097569E-002  -1.2802844611100039E-002   3.9188667373919704E-002
   3.9211655250491174E-002  -1.1559792510762095E-002   3.8307074633488584E-002
   3.5329389745884759E-002  -1.0251336957922862E-002   3.8201596768907296E-002
   3.1447124241278344E-002  -8.8774779525821468E-003   3.8872233780176131E-002
   3.7378175904951044E-002  -1.1002781152159025E-002   5.2726053430477815E-002
   3.4262286639490477E-002  -1.0223230718953383E-002   5.1091572404481769E-002
   3.1146397374029910E-002  -9.2407928388728716E-003   5.0213728980927297E-002
   2.8030508108569344E-002  -8.0554675119173698E-003   5.0092523159814481E-002
   2.4914618843108749E-002  -6.6672547380867697E-003   5.0727954941143349E-002
   4.9970104537794380E-002  -1.5508147596068556E-002   3.8036448913344456E-003
   4.5497016265649004E-002  -1.4128811821936149E-002   2.3045371706253981E-003
   4.1023927993503656E-002  -1.2305351368662260E-002   7.6686369262002341E-005
   3.6550839721358280E-002  -1.0037766236246269E-002  -2.8799075127559082E-003
   3.2077751449212932E-002  -7.3260564246883098E-003  -6.5652444754281669E-003
   4.3974867088621167E-002  -1.3297924381573067E-002   1.5410078755271450E-002
   3.8977651733809293E-002  -1.1915640349032697E-002   1.4300474888091913E-002
   3.3980436378997433E-002  -1.0249526651887386E-002   1.2871359936233728E-002
   2.8983221024185525E-002  -8.2995832901367750E-003   1.1122733899696660E-002
   2.3986005669373672E-002  -6.0658102637809463E-003   9.0545967784811388E-003
   3.7800540323115805E-002  -1.1087701167077690E-002   2.7099608384885426E-002
   3.2688429881613176E-002  -9.7024688761289668E-003   2.6219213356698190E-002
   2.7576319440110561E-002  -8.1937019351121937E-003   2.5428539239808090E-002
   2.2464208998607939E-002  -6.5614003440271733E-003   2.4727586034215050E-002
   1.7352098557105344E-002  -4.8055641028738605E-003   2.4116353739919189E-002
   3.1447124241278344E-002  -8.8774779525821468E-003   3.8872233780176131E-002
   2.6629350709060751E-002  -7.4892974032252091E-003   3.8060752576444201E-002
   2.1811577176843181E-002  -6.1378772183370497E-003   3.7748224279985573E-002
   1.6993803644625584E-002  -4.8232173979174033E-003   3.7934648890799519E-002
   1.2176030112407990E-002  -3.5453179419666359E-003   3.8620026408886655E-002
   2.4914618843108749E-002  -6.6672547380867697E-003   5.0727954941143349E-002
   2.0800414216151975E-002  -5.2761259303216457E-003   4.9825092547330307E-002
   1.6686209589195186E-002  -4.0820525015619197E-003   4.9830415056765859E-002
   1.2572004962238398E-002  -3.0850344518079144E-003   5.0743922469450309E-002
   8.4578003352816233E-003  -2.2850717810594112E-003   5.2565614785383241E-002
   3.2077751449212932E-002  -7.3260564246883098E-003  -6.5652444754281669E-003
   2.6180281941388217E-002  -5.4467640156707353E-003  -2.4688617442408800E-003
   2.0282812433563474E-002  -5.6764310908756499E-003   2.9147635371457592E-003
   1.4385342925738676E-002  -8.0150576503028523E-003   9.5856313687324723E-003
   8.4878734179140158E-003  -1.2462643693953002E-002   1.7543741750519093E-002
   2.3986005669373672E-002  -6.0658102637809463E-003   9.0545967784811388E-003
   1.9330911695997516E-002  -4.8659914331498078E-003   1.2333602391349507E-002
   1.4675817722621373E-002  -6.0179106585723507E-003   1.6810116522915197E-002
   1.0020723749245251E-002  -9.5215679400484851E-003   2.2484139173178277E-002
   5.3656297758690741E-003  -1.5376963277578870E-002   2.9355670342138929E-002
   1.7352098557105344E-002  -4.8055641028738605E-003   2.4116353739919189E-002
   1.3849646086675271E-002  -4.2852188506290190E-003   2.6335203662638168E-002
   1.0347193616245254E-002  -6.3593902262690655E-003   2.9661828072551591E-002
   6.8447411458151530E-003  -1.1028078229794566E-002   3.4096226969659964E-002
   3.3422886753851355E-003  -1.8291282861204960E-002   3.9638400353963266E-002
   1.2176030112407990E-002  -3.5453179419666359E-003   3.8620026408886655E-002
   9.7364851134215183E-003  -3.7044462681082718E-003   3.9535942069624359E-002
   7.2969401144350604E-003  -6.7008697939662173E-003   4.1469898186054330E-002
   4.8573951154486233E-003  -1.2534588519540422E-002   4.4421894758176726E-002
   2.4178501164621377E-003  -2.1205602444831051E-002   4.8391931785991549E-002
   8.4578003352816233E-003  -2.2850717810594112E-003   5.2565614785383241E-002
   6.9914287762362221E-003  -3.1236736855875802E-003   5.1935817612308810E-002
   5.5250572171908346E-003  -7.0423493616630362E-003   5.2234326863423997E-002
   4.0586856581454819E-003  -1.4041098809286223E-002   5.3461142538729134E-002
   2.5923140991001015E-003  -2.4119922028456919E-002   5.5616264638224333E-002
   5.0184605358635503E-002  -1.5627558998928620E-002   5.0725783682856823E-002
   4.6982997995214382E-002  -1.4112798723293046E-002   5.0441932112004234E-002
   4.3781390631793274E-002  -1.2837082323619610E-002   5.0680693212990388E-002
   4.0579783268372159E-002  -1.1800409799908271E-002   5.1442066985814876E-002
   3.7378175904951044E-002  -1.1002781152159025E-002   5.2726053430477815E-002
   3.8243779071825634E-002  -1.1720668734561623E-002   5.6218795538093724E-002
   3.5634231701527200E-002  -1.0584598842022869E-002   5.5391677684639012E-002
   3.3024684331228807E-002  -9.6278117478808545E-003   5.5226067145591334E-002
   3.0415136960930386E-002  -8.8503074521354974E-003   5.5721963920950551E-002
   2.7805589590631979E-002  -8.2520859547869779E-003   5.6879368010716566E-002
   2.5899402518308835E-002  -7.8137784701946406E-003   6.1303236471451202E-002
   2.4020809783701524E-002  -7.0563989607526495E-003   5.9992613412959819E-002
   2.2142217049094217E-002  -6.4185411721420400E-003   5.9482392311443644E-002
   2.0263624314486896E-002  -5.9002051043627645E-003   5.9772573166902813E-002
   1.8385031579879592E-002  -5.5013907574148757E-003   6.0863155979337377E-002
   1.3151475698085136E-002  -3.9068882058276369E-003   6.5979106482929165E-002
   1.2142732241737311E-002  -3.5281990794824789E-003   6.4244739296966391E-002
   1.1133988785389497E-002  -3.2092705964032273E-003   6.3449668710547261E-002
   1.0125245329041672E-002  -2.9501027565900250E-003   6.3593894723671870E-002
   9.1165018726938572E-003  -2.7506955600427735E-003   6.4677417336340137E-002
  -1.3888454969412933E-009   2.0585393389893625E-009   7.0246405572527648E-002
  -9.2436543142060401E-010   8.0178776118433603E-010   6.8148055336658853E-002
  -4.5988535202212688E-010  -2.0664484012833384E-011   6.7127896342902088E-002
   4.5947239069032975E-012  -4.0881727517150246E-010   6.7185928591257535E-002
   4.6907479289703957E-010  -3.6267069902784499E-010   6.8322152081724957E-002
   3.7378175904951044E-002  -1.1002781152159025E-002   5.2726053430477815E-002
   3.4262286639490477E-002  -1.0223230718953383E-002   5.1091572404481769E-002
   3.1146397374029910E-002  -9.2407928388728716E-003   5.0213728980927297E-002
   2.8030508108569344E-002  -8.0554675119173698E-003   5.0092523159814481E-002
   2.4914618843108749E-002  -6.6672547380867697E-003   5.0727954941143349E-002
   2.7805589590631979E-002  -8.2520859547869779E-003   5.6879368010716566E-002
   2.5451921596014927E-002  -7.6674230737538984E-003   5.5580025463009247E-002
   2.3098253601397903E-002  -6.9305946269549688E-003   5.5048487854547488E-002
   2.0744585606780858E-002  -6.0416006143902473E-003   5.5284755185331005E-002
   1.8390917612163812E-002  -5.0004410360596219E-003   5.6288827455359930E-002
   1.8385031579879592E-002  -5.5013907574148757E-003   6.0863155979337377E-002
   1.6804752192909771E-002  -5.1116154285542961E-003   5.9848230028809887E-002
   1.5224472805939956E-002  -4.6203964150370661E-003   5.9612276354331535E-002
   1.3644193418970149E-002  -4.0277337168631248E-003   6.0155294955902189E-002
   1.2063914032000335E-002  -3.3336273340325018E-003   6.1477285833521980E-002
   9.1165018726938572E-003  -2.7506955600427735E-003   6.4677417336340137E-002
   8.3207784301749643E-003  -2.5558077833547251E-003   6.3896186101883301E-002
   7.5250549876560852E-003  -2.3101982031191633E-003   6.3905094480279201E-002
   6.7293315451371974E-003  -2.0138668193360578E-003   6.4704142471528017E-002
   5.9336081026183148E-003  -1.6668136320053123E-003   6.6293330075629445E-002
   4.6907479289703957E-010  -3.6267069902784499E-010   6.8322152081724957E-002
   3.0781053400597003E-010  -1.3815520949478355E-010   6.7723893682229641E-002
   1.4654626817600658E-010   8.7987048202897711E-012   6.7926942232390777E-002
  -1.4717997653956871E-011   7.8191028304863686E-011   6.8931297732208435E-002
  -1.7598225654502642E-010   7.0021766163108623E-011   7.0736960181682518E-002
   2.4914618843108749E-002  -6.6672547380867697E-003   5.0727954941143349E-002
   2.0800414216151975E-002  -5.2761259303216457E-003   4.9825092547330307E-002
   1.6686209589195186E-002  -4.0820525015619197E-003   4.9830415056765859E-002
   1.2572004962238398E-002  -3.0850344518079144E-003   5.0743922469450309E-002
   8.4578003352816233E-003  -2.2850717810594112E-003   5.2565614785383241E-002
   1.8390917612163812E-002  -5.0004410360596219E-003   5.6288827455359930E-002
   1.5214989455323576E-002  -3.9570944402801539E-003   5.5440330824259379E-002
   1.2039061298483332E-002  -3.0615393753686410E-003   5.5560202230143171E-002
   8.8631331416430849E-003  -2.3137758413255723E-003   5.6648441673011481E-002
   5.6872049848028378E-003  -1.7138038381502296E-003   5.8705049152864064E-002
   1.2063914032000335E-002  -3.3336273340325018E-003   6.1477285833521980E-002
   9.8864454790123200E-003  -2.6380629502388148E-003   6.0732418813271391E-002
   7.7089769260242982E-003  -2.0410262491756884E-003   6.1016102963740791E-002
   5.5315083730362938E-003  -1.5425172308430619E-003   6.2328338284930271E-002
   3.3540398200482754E-003  -1.1425358952411035E-003   6.4669124776839948E-002
   5.9336081026183148E-003  -1.6668136320053123E-003   6.6293330075629445E-002
   4.8147822872182207E-003  -1.3190314601974271E-003   6.5701356514366357E-002
   3.6959564718181213E-003  -1.0205131229824894E-003   6.6198117257559058E-002
   2.5771306564180314E-003  -7.7125862036066337E-004   6.7783612305207519E-002
   1.4583048410179416E-003  -5.7126795233189420E-004   7.0457841657311809E-002
  -1.7598225654502642E-010   7.0021766163108623E-011   7.0736960181682518E-002
  -1.2005874072684719E-010   2.9844016147251295E-011   7.0347143927544431E-002
  -6.4135224908667965E-011   3.2105290648232199E-012   7.1106245111597743E-002
  -8.2117125599356910E-012  -9.8781850754736666E-012   7.3014263733842580E-002
   4.7711806727690487E-011  -9.4228513880523224E-012   7.6071199794278843E-002
   8.4578003352816233E-003  -2.2850717810594112E-003   5.2565614785383241E-002
   6.9914287762362221E-003  -3.1236736855875802E-003   5.1935817612308810E-002
   5.5250572171908346E-003  -7.0423493616630362E-003   5.2234326863423997E-002
   4.0586856581454819E-003  -1.4041098809286223E-002   5.3461142538729134E-002
   2.5923140991001015E-003  -2.4119922028456919E-002   5.5616264638224333E-002
   5.6872049848028378E-003  -1.7138038381502296E-003   5.8705049152864064E-002
   5.0087114652731246E-003  -2.3427552652416916E-003   5.5677189230233015E-002
   4.3302179457433837E-003  -5.2817620219986483E-003   5.3296778962443531E-002
   3.6517244262136671E-003  -1.0530824108420947E-002   5.1563818349495902E-002
   2.9732309066839435E-003  -1.8089941524508601E-002   5.0478307391389032E-002
   3.3540398200482754E-003  -1.1425358952411035E-003   6.4669124776839948E-002
   3.1825675706859055E-003  -1.5618368448960529E-003   6.0013220546534823E-002
   3.0110953213235321E-003  -3.5211746823342049E-003   5.5723909201722738E-002
   2.8396230719611431E-003  -7.0205494075556707E-003   5.1801190742403719E-002
   2.6681508225987888E-003  -1.2059961020560395E-002   4.8245065168578072E-002
   1.4583048410179416E-003  -5.7126795233189420E-004   7.0457841657311809E-002
   1.5129970924745873E-003  -7.8091842455034477E-004   6.4943911561214360E-002
   1.5676893439312218E-003  -1.7605873426698448E-003   5.9515717581261812E-002
   1.6223815953878870E-003  -3.5102747066903389E-003   5.4173259717454195E-002
   1.6770738468445158E-003  -6.0299805166121323E-003   4.8916537969791146E-002
   4.7711806727690487E-011  -9.4228513880523224E-012   7.6071199794278843E-002
   3.0639171755275640E-011  -4.2045811277091616E-012   7.0469262274271416E-002
   1.3566515966179082E-011  -3.0053876054481066E-012   6.4672204101060643E-002
  -3.5061259451296678E-012  -5.8250383683233764E-012   5.8680025274646316E-002
  -2.0578774795332322E-011  -1.2663869952689311E-011   5.2492725795028727E-002
  -1.3888454969412933E-009   2.0585393389893625E-009   7.0246405572527648E-002
  -9.2436543142060401E-010   8.0178776118433603E-010   6.8148055336658853E-002
  -4.5988535202212688E-010  -2.0664484012833384E-011   6.7127896342902088E-002
   4.5947239069032975E-012  -4.0881727517150246E-010   6.7185928591257535E-002
   4.6907479289703957E-010  -3.6267069902784499E-010   6.8322152081724957E-002
  -1.3151478316201590E-002   3.9068900966459097E-003   6.5979104100253386E-002
  -1.2142733988877105E-002   3.5281998146510368E-003   6.4244737809691296E-002
  -1.1133989661552620E-002   3.2092705757937323E-003   6.3449668002706072E-002
  -1.0125245334228136E-002   2.9501023800740378E-003   6.3593894679297630E-002
  -9.1165010069036503E-003   2.7506952274919949E-003   6.4677417839465762E-002
  -2.5899404657701706E-002   7.8137781347525359E-003   6.1303233298316509E-002
  -2.4020811226068139E-002   7.0563988275142916E-003   5.9992611561899584E-002
  -2.2142217794434600E-002   6.4185411722519833E-003   5.9482391550524032E-002
  -2.0263624362801068E-002   5.9002051689654358E-003   5.9772573264189902E-002
  -1.8385030931167515E-002   5.5013908176547860E-003   6.0863156702897041E-002
  -3.8243780413345793E-002   1.1720666172859120E-002   5.6218793166717310E-002
  -3.5634232635938567E-002   1.0584597840377626E-002   5.5391676593283631E-002
  -3.3024684858531321E-002   9.6278117687101615E-003   5.5226066986356050E-002
  -3.0415137081124061E-002   8.8503079578568060E-003   5.5721964345934481E-002
  -2.7805589303716821E-002   8.2520864078175285E-003   5.6879368672018892E-002
  -5.0184605583133937E-002   1.5627554210965733E-002   5.0725783705455718E-002
  -4.6982998218488323E-002   1.4112796853240905E-002   5.0441932903843578E-002
  -4.3781390853842729E-002   1.2837082365168381E-002   5.0680694310202085E-002
  -4.0579783489197149E-002   1.1800410746748171E-002   5.1442067924531251E-002
  -3.7378176124551535E-002   1.1002781997980271E-002   5.2726053746831147E-002
   4.6907479289703957E-010  -3.6267069902784499E-010   6.8322152081724957E-002
   3.0781053400597003E-010  -1.3815520949478355E-010   6.7723893682229641E-002
   1.4654626817600658E-010   8.7987048202897711E-012   6.7926942232390777E-002
  -1.4717997653956871E-011   7.8191028304863686E-011   6.8931297732208435E-002
  -1.7598225654502642E-010   7.0021766163108623E-011   7.0736960181682518E-002
  -9.1165010069036503E-003   2.7506952274919949E-003   6.4677417839465762E-002
  -8.3207778618181859E-003   2.5558076595092183E-003   6.3896186372627867E-002
  -7.5250547167327198E-003   2.3101982175872116E-003   6.3905094568833018E-002
  -6.7293315716472459E-003   2.0138669017259747E-003   6.4704142428081104E-002
  -5.9336084265617824E-003   1.6668137119256188E-003   6.6293329950372210E-002
  -1.8385030931167515E-002   5.5013908176547860E-003   6.0863156702897041E-002
  -1.6804751766345806E-002   5.1116154571736461E-003   5.9848230372339023E-002
  -1.5224472601524099E-002   4.6203964263757218E-003   5.9612276418210486E-002
  -1.3644193436702392E-002   4.0277337252610053E-003   6.0155294840511415E-002
  -1.2063914271880683E-002   3.3336273538295269E-003   6.1477285639241888E-002
  -2.7805589303716821E-002   8.2520864078175285E-003   5.6879368672018892E-002
  -2.5451921405772356E-002   7.6674232548380045E-003   5.5580025681363082E-002
  -2.3098253507827887E-002   6.9305946351642580E-003   5.5048487780523264E-002
  -2.0744585609883421E-002   6.0416005487960219E-003   5.5284754969499542E-002
  -1.8390917711938955E-002   5.0004409957334073E-003   5.6288827248291720E-002
  -3.7378176124551535E-002   1.1002781997980271E-002   5.2726053746831147E-002
  -3.4262286780097795E-002   1.0223231052502529E-002   5.1091572299699975E-002
  -3.1146397435644069E-002   9.2407928439527526E-003   5.0213728655771339E-002
  -2.8030508091190339E-002   8.0554673723309857E-003   5.0092522815045212E-002
  -2.4914618746736603E-002   6.6672546376372877E-003   5.0727954777521622E-002
  -1.7598225654502642E-010   7.0021766163108623E-011   7.0736960181682518E-002
  -1.2005874072684719E-010   2.9844016147251295E-011   7.0347143927544431E-002
  -6.4135224908667965E-011   3.2105290648232199E-012   7.1106245111597743E-002
  -8.2117125599356910E-012  -9.8781850754736666E-012   7.3014263733842580E-002
   4.7711806727690487E-011  -9.4228513880523224E-012   7.6071199794278843E-002
  -5.9336084265617824E-003   1.6668137119256188E-003   6.6293329950372210E-002
  -4.8147825083203286E-003   1.3190315066211322E-003   6.5701356453858745E-002
  -3.6959565900788697E-003   1.0205131442472953E-003   6.6198117243789850E-002
  -2.5771306718374186E-003   7.7125862480458343E-004   6.7783612320165332E-002
  -1.4583047535959570E-003   5.7126794829248650E-004   7.0457841682985245E-002
  -1.2063914271880683E-002   3.3336273538295269E-003   6.1477285639241888E-002
  -9.8864456430683284E-003   2.6380629833982483E-003   6.0732418729739668E-002
  -7.7089770142559598E-003   2.0410262852841796E-003   6.1016102954934932E-002
  -5.5315083854436059E-003   1.5425172594874092E-003   6.2328338314827536E-002
  -3.3540397566312365E-003   1.1425359060078522E-003   6.4669124809417486E-002
  -1.8390917711938955E-002   5.0004409957334073E-003   5.6288827248291720E-002
  -1.5214989524302721E-002   3.9570944601753366E-003   5.5440330755187103E-002
  -1.2039061336666485E-002   3.0615394263209493E-003   5.5560202245032803E-002
  -8.8631331490302574E-003   2.3137758941702341E-003   5.6648441717828853E-002
  -5.6872049613940151E-003   1.7138038637232594E-003   5.8705049173575413E-002
  -2.4914618746736603E-002   6.6672546376372877E-003   5.0727954777521622E-002
  -2.0800414152023522E-002   5.2761259369524527E-003   4.9825092530200926E-002
  -1.6686209557310455E-002   4.0820525673578578E-003   4.9830415114083565E-002
  -1.2572004962597381E-002   3.0850345288531492E-003   5.0743922529169580E-002
  -8.4578003678843078E-003   2.2850718214385557E-003   5.2565614775458791E-002
   4.7711806727690487E-011  -9.4228513880523224E-012   7.6071199794278843E-002
   3.0639171755275640E-011  -4.2045811277091616E-012   7.0469262274271416E-002
   1.3566515966179082E-011  -3.0053876054481066E-012   6.4672204101060643E-002
  -3.5061259451296678E-012  -5.8250383683233764E-012   5.8680025274646316E-002
  -2.0578774795332322E-011  -1.2663869952689311E-011   5.2492725795028727E-002
  -1.4583047535959570E-003   5.7126794829248650E-004   7.0457841682985245E-002
  -1.5129970359911080E-003   7.8091841612967783E-004   6.4943911570005508E-002
  -1.5676893183862589E-003   1.7605873297338454E-003   5.9515717579584293E-002
  -1.6223816007814116E-003   3.5102746891054783E-003   5.4173259711721752E-002
  -1.6770738831765469E-003   6.0299804942445245E-003   4.8916537966417040E-002
  -3.3540397566312365E-003   1.1425359060078522E-003   6.4669124809417486E-002
  -3.1825675285869779E-003   1.5618368364636870E-003   6.0013220553251631E-002
  -3.0110953005426985E-003   3.5211746624731408E-003   5.5723909195406159E-002
  -2.8396230724984407E-003   7.0205493840362187E-003   5.1801190735880964E-002
  -2.6681508444541743E-003   1.2059961001152919E-002   4.8245065174676138E-002
  -5.6872049613940151E-003   1.7138038637232594E-003   5.8705049173575413E-002
  -5.0087114471484336E-003   2.3427552567978766E-003   5.5677189224009646E-002
  -4.3302179329028391E-003   5.2817619952124605E-003   5.3296778948526288E-002
  -3.6517244186572576E-003   1.0530824078966904E-002   5.1563818347125215E-002
  -2.9732309044116761E-003   1.8089941508061369E-002   5.0478307419806287E-002
  -8.4578003678843078E-003   2.2850718214385557E-003   5.2565614775458791E-002
  -6.9914287916754830E-003   3.1236736771319551E-003   5.1935817582279664E-002
  -5.5250572154666722E-003   7.0423493279517246E-003   5.2234326838944745E-002
  -4.0586856392578648E-003   1.4041098773897517E-002   5.3461142545454032E-002
  -2.5923140630490366E-003   2.4119922014969708E-002   5.5616264701807250E-002
  -5.0184605583133937E-002   1.5627554210965733E-002   5.0725783705455718E-002
  -4.6982998218488323E-002   1.4112796853240905E-002   5.0441932903843578E-002
  -4.3781390853842729E-002   1.2837082365168381E-002   5.0680694310202085E-002
  -4.0579783489197149E-002   1.1800410746748171E-002   5.1442067924531251E-002
  -3.7378176124551535E-002   1.1002781997980271E-002   5.2726053746831147E-002
  -6.2066952633926128E-002   1.8838937628726626E-002   3.8669182521972961E-002
  -5.8294261203866334E-002   1.7572078513277314E-002   3.8284146674292127E-002
  -5.4521569773806559E-002   1.6340051416879400E-002   3.8518666749468883E-002
  -5.0748878343746806E-002   1.5142856339532971E-002   3.9372742747503353E-002
  -4.6976186913687032E-002   1.3980493281237863E-002   4.0846374668395496E-002
  -7.4235894032582336E-002   2.2050321046487575E-002   2.6962585006066173E-002
  -6.9795174822221445E-002   2.1031360173313779E-002   2.6272153261715739E-002
  -6.5354455611860526E-002   1.9843020468590399E-002   2.6298221155109894E-002
  -6.0913736401499594E-002   1.8485301932317649E-002   2.7040788686248724E-002
  -5.6473017191138675E-002   1.6958204564495455E-002   2.8499855855132192E-002
  -8.6691429779102686E-002   2.5261704464248511E-002   1.5605991157735283E-002
  -8.1485739073553609E-002   2.4490641833350132E-002   1.4405952666114375E-002
  -7.6280048368004588E-002   2.3345989520301518E-002   1.4019357527125119E-002
  -7.1074357662455526E-002   2.1827747525102484E-002   1.4446205740767434E-002
  -6.5868666956906491E-002   1.9935915847753158E-002   1.5686497307041351E-002
  -9.9433559873487010E-002   2.8473087882009418E-002   4.5994009769803612E-003
  -9.3365953957862902E-002   2.7949923493386597E-002   2.6855448874881505E-003
  -8.7298348042238683E-002   2.6848958572012444E-002   1.6820758655143458E-003
  -8.1230742126614547E-002   2.5170193117887159E-002   1.5889939110594505E-003
  -7.5163136210990411E-002   2.2913627131010694E-002   2.4062990241229265E-003
  -3.7378176124551535E-002   1.1002781997980271E-002   5.2726053746831147E-002
  -3.4262286780097795E-002   1.0223231052502529E-002   5.1091572299699975E-002
  -3.1146397435644069E-002   9.2407928439527526E-003   5.0213728655771339E-002
  -2.8030508091190339E-002   8.0554673723309857E-003   5.0092522815045212E-002
  -2.4914618746736603E-002   6.6672546376372877E-003   5.0727954777521622E-002
  -4.6976186913687032E-002   1.3980493281237863E-002   4.0846374668395496E-002
  -4.3093921176455746E-002   1.2802844532621704E-002   3.9188666991140292E-002
  -3.9211655439224488E-002   1.1559792384311662E-002   3.8307074296237614E-002
  -3.5329389701993209E-002   1.0251336836307998E-002   3.8201596583687589E-002
  -3.1447123964761944E-002   8.8774778886104022E-003   3.8872233853490035E-002
  -5.6473017191138675E-002   1.6958204564495455E-002   2.8499855855132192E-002
  -5.1804897881979860E-002   1.5382458012740921E-002   2.6956405811131273E-002
  -4.7136778572821024E-002   1.3878791924670626E-002   2.6208547928632905E-002
  -4.2468659263662160E-002   1.2447206300284954E-002   2.6256282207637083E-002
  -3.7800539954503345E-002   1.1087701139583572E-002   2.7099608648143814E-002
  -6.5868666956906491E-002   1.9935915847753158E-002   1.5686497307041351E-002
  -6.0395216896670045E-002   1.7962071492859978E-002   1.4394788759672910E-002
  -5.4921766836433607E-002   1.6197791465029577E-002   1.3918149552956898E-002
  -4.9448316776197161E-002   1.4643075764261937E-002   1.4256579686893804E-002
  -4.3974866715960736E-002   1.3297924390556853E-002   1.5410079161483022E-002
  -7.5163136210990411E-002   2.2913627131010694E-002   2.4062990241229265E-003
  -6.8864878220526365E-002   2.0541684972979174E-002   1.5038158367650656E-003
  -6.2566620230062292E-002   1.8516791005388569E-002   1.4358791692100775E-003
  -5.6268362239598246E-002   1.6838945228238911E-002   2.2024890214573968E-003
  -4.9970104249134173E-002   1.5508147641529857E-002   3.8036453935075820E-003
  -2.4914618746736603E-002   6.6672546376372877E-003   5.0727954777521622E-002
  -2.0800414152023522E-002   5.2761259369524527E-003   4.9825092530200926E-002
  -1.6686209557310455E-002   4.0820525673578578E-003   4.9830415114083565E-002
  -1.2572004962597381E-002   3.0850345288531492E-003   5.0743922529169580E-002
  -8.4578003678843078E-003   2.2850718214385557E-003   5.2565614775458791E-002
  -3.1447123964761944E-002   8.8774778886104022E-003   3.8872233853490035E-002
  -2.6629350522954617E-002   7.4892974082639147E-003   3.8060752683087076E-002
  -2.1811577081147303E-002   6.1378772623130115E-003   3.7748224375669354E-002
  -1.6993803639339982E-002   4.8232174507576980E-003   3.7934648931236763E-002
  -1.2176030197532651E-002   3.5453179735980833E-003   3.8620026349789338E-002
  -3.7800539954503345E-002   1.1087701139583572E-002   2.7099608648143814E-002
  -3.2688429633819918E-002   9.7024688795753072E-003   2.6219213557964215E-002
  -2.7576319313136491E-002   8.1937019572681097E-003   2.5428539362551725E-002
  -2.2464208992453084E-002   6.5614003726621913E-003   2.4727586061906143E-002
  -1.7352098671769654E-002   4.8055641257578885E-003   2.4116353656027656E-002
  -4.3974866715960736E-002   1.3297924390556853E-002   1.5410079161483022E-002
  -3.8977651484619374E-002   1.1915640350886512E-002   1.4300475154832454E-002
  -3.3980436253277999E-002   1.0249526652223180E-002   1.2871360074730664E-002
  -2.8983221021936661E-002   8.2995832945668233E-003   1.1122733921177934E-002
  -2.3986005790595271E-002   6.0658102779174994E-003   9.0545966941738276E-003
  -4.9970104249134173E-002   1.5508147641529857E-002   3.8036453935075820E-003
  -4.5497016075353003E-002   1.4128811822198051E-002   2.3045374736914981E-003
  -4.1023927901571861E-002   1.2305351347178528E-002   7.6686512206283752E-005
  -3.6550839727790704E-002   1.0037766216471136E-002  -2.8799074909483073E-003
  -3.2077751554009548E-002   7.3260564300771103E-003  -6.5652445357721190E-003
  -8.4578003678843078E-003   2.2850718214385557E-003   5.2565614775458791E-002
  -6.9914287916754830E-003   3.1236736771319551E-003   5.1935817582279664E-002
  -5.5250572154666722E-003   7.0423493279517246E-003   5.2234326838944745E-002
  -4.0586856392578648E-003   1.4041098773897517E-002   5.3461142545454032E-002
  -2.5923140630490366E-003   2.4119922014969708E-002   5.5616264701807250E-002
  -1.2176030197532651E-002   3.5453179735980833E-003   3.8620026349789338E-002
  -9.7364851614725294E-003   3.7044462693235081E-003   3.9535942025278908E-002
  -7.2969401254123854E-003   6.7008697764233266E-003   4.1469898170626879E-002
  -4.8573950893522682E-003   1.2534588494897459E-002   4.4421894785833471E-002
  -2.4178500532921199E-003   2.1205602424745895E-002   4.8391931870898408E-002
  -1.7352098671769654E-002   4.8055641257578885E-003   2.4116353656027656E-002
  -1.3849646155843921E-002   4.2852188615150610E-003   2.6335203616434266E-002
  -1.0347193639918215E-002   6.3593902248950951E-003   2.9661828066713428E-002
  -6.8447411239925199E-003   1.1028078215897262E-002   3.4096227006865445E-002
  -3.3422886080667728E-003   1.8291282834522193E-002   3.9638400436890153E-002
  -2.3986005790595271E-002   6.0658102779174994E-003   9.0545966941738276E-003
  -1.9330911774789725E-002   4.8659914537068916E-003   1.2333602355745470E-002
  -1.4675817758984170E-002   6.0179106733665583E-003   1.6810116527204107E-002
  -1.0020723743178618E-002   9.5215679368970234E-003   2.2484139208549605E-002
  -5.3656297273730440E-003   1.5376963244298492E-002   2.9355670399782416E-002
  -3.2077751554009548E-002   7.3260564300771103E-003  -6.5652445357721190E-003
  -2.6180282018309853E-002   5.4467640458980560E-003  -2.4688617567871773E-003
  -2.0282812482610185E-002   5.6764311218386598E-003   2.9147635520989368E-003
  -1.4385342946910559E-002   8.0150576578968333E-003   9.5856313908862997E-003
  -8.4878734112108223E-003   1.2462643654074679E-002   1.7543741759574849E-002
 </DataArray>
 </PointData>
 </Piece>
 </UnstructuredGrid>
 </VTKFile>
