 <VTKFile type="UnstructuredGrid"  version="0.1"   >
 <UnstructuredGrid>
 <Piece  NumberOfPoints="          1600 "  NumberOfCells="         1024 ">
 <Points>
 <DataArray  type="Float64" NumberOfComponents="3"  format="ascii" >
   0.0000000000000000        0.0000000000000000        0.0000000000000000     
   3.1250000000000000E-002   0.0000000000000000        0.0000000000000000     
   6.2500000000000000E-002   0.0000000000000000        0.0000000000000000     
   9.3750000000000000E-002   0.0000000000000000        0.0000000000000000     
  0.12500000000000000        0.0000000000000000        0.0000000000000000     
   0.0000000000000000        3.1250000000000000E-002   0.0000000000000000     
   3.1250000000000000E-002   3.1250000000000000E-002   0.0000000000000000     
   6.2500000000000000E-002   3.1250000000000000E-002   0.0000000000000000     
   9.3750000000000000E-002   3.1250000000000000E-002   0.0000000000000000     
  0.12500000000000000        3.1250000000000000E-002   0.0000000000000000     
   0.0000000000000000        6.2500000000000000E-002   0.0000000000000000     
   3.1250000000000000E-002   6.2500000000000000E-002   0.0000000000000000     
   6.2500000000000000E-002   6.2500000000000000E-002   0.0000000000000000     
   9.3750000000000000E-002   6.2500000000000000E-002   0.0000000000000000     
  0.12500000000000000        6.2500000000000000E-002   0.0000000000000000     
   0.0000000000000000        9.3750000000000000E-002   0.0000000000000000     
   3.1250000000000000E-002   9.3750000000000000E-002   0.0000000000000000     
   6.2500000000000000E-002   9.3750000000000000E-002   0.0000000000000000     
   9.3750000000000000E-002   9.3750000000000000E-002   0.0000000000000000     
  0.12500000000000000        9.3750000000000000E-002   0.0000000000000000     
   0.0000000000000000       0.12500000000000000        0.0000000000000000     
   3.1250000000000000E-002  0.12500000000000000        0.0000000000000000     
   6.2500000000000000E-002  0.12500000000000000        0.0000000000000000     
   9.3750000000000000E-002  0.12500000000000000        0.0000000000000000     
  0.12500000000000000       0.12500000000000000        0.0000000000000000     
  0.12500000000000000        0.0000000000000000        0.0000000000000000     
  0.15625000000000000        0.0000000000000000        0.0000000000000000     
  0.18750000000000000        0.0000000000000000        0.0000000000000000     
  0.21875000000000000        0.0000000000000000        0.0000000000000000     
  0.25000000000000000        0.0000000000000000        0.0000000000000000     
  0.12500000000000000        3.1250000000000000E-002   0.0000000000000000     
  0.15625000000000000        3.1250000000000000E-002   0.0000000000000000     
  0.18750000000000000        3.1250000000000000E-002   0.0000000000000000     
  0.21875000000000000        3.1250000000000000E-002   0.0000000000000000     
  0.25000000000000000        3.1250000000000000E-002   0.0000000000000000     
  0.12500000000000000        6.2500000000000000E-002   0.0000000000000000     
  0.15625000000000000        6.2500000000000000E-002   0.0000000000000000     
  0.18750000000000000        6.2500000000000000E-002   0.0000000000000000     
  0.21875000000000000        6.2500000000000000E-002   0.0000000000000000     
  0.25000000000000000        6.2500000000000000E-002   0.0000000000000000     
  0.12500000000000000        9.3750000000000000E-002   0.0000000000000000     
  0.15625000000000000        9.3750000000000000E-002   0.0000000000000000     
  0.18750000000000000        9.3750000000000000E-002   0.0000000000000000     
  0.21875000000000000        9.3750000000000000E-002   0.0000000000000000     
  0.25000000000000000        9.3750000000000000E-002   0.0000000000000000     
  0.12500000000000000       0.12500000000000000        0.0000000000000000     
  0.15625000000000000       0.12500000000000000        0.0000000000000000     
  0.18750000000000000       0.12500000000000000        0.0000000000000000     
  0.21875000000000000       0.12500000000000000        0.0000000000000000     
  0.25000000000000000       0.12500000000000000        0.0000000000000000     
  0.25000000000000000        0.0000000000000000        0.0000000000000000     
  0.28125000000000000        0.0000000000000000        0.0000000000000000     
  0.31250000000000000        0.0000000000000000        0.0000000000000000     
  0.34375000000000000        0.0000000000000000        0.0000000000000000     
  0.37500000000000000        0.0000000000000000        0.0000000000000000     
  0.25000000000000000        3.1250000000000000E-002   0.0000000000000000     
  0.28125000000000000        3.1250000000000000E-002   0.0000000000000000     
  0.31250000000000000        3.1250000000000000E-002   0.0000000000000000     
  0.34375000000000000        3.1250000000000000E-002   0.0000000000000000     
  0.37500000000000000        3.1250000000000000E-002   0.0000000000000000     
  0.25000000000000000        6.2500000000000000E-002   0.0000000000000000     
  0.28125000000000000        6.2500000000000000E-002   0.0000000000000000     
  0.31250000000000000        6.2500000000000000E-002   0.0000000000000000     
  0.34375000000000000        6.2500000000000000E-002   0.0000000000000000     
  0.37500000000000000        6.2500000000000000E-002   0.0000000000000000     
  0.25000000000000000        9.3750000000000000E-002   0.0000000000000000     
  0.28125000000000000        9.3750000000000000E-002   0.0000000000000000     
  0.31250000000000000        9.3750000000000000E-002   0.0000000000000000     
  0.34375000000000000        9.3750000000000000E-002   0.0000000000000000     
  0.37500000000000000        9.3750000000000000E-002   0.0000000000000000     
  0.25000000000000000       0.12500000000000000        0.0000000000000000     
  0.28125000000000000       0.12500000000000000        0.0000000000000000     
  0.31250000000000000       0.12500000000000000        0.0000000000000000     
  0.34375000000000000       0.12500000000000000        0.0000000000000000     
  0.37500000000000000       0.12500000000000000        0.0000000000000000     
  0.37500000000000000        0.0000000000000000        0.0000000000000000     
  0.40625000000000000        0.0000000000000000        0.0000000000000000     
  0.43750000000000000        0.0000000000000000        0.0000000000000000     
  0.46875000000000000        0.0000000000000000        0.0000000000000000     
  0.50000000000000000        0.0000000000000000        0.0000000000000000     
  0.37500000000000000        3.1250000000000000E-002   0.0000000000000000     
  0.40625000000000000        3.1250000000000000E-002   0.0000000000000000     
  0.43750000000000000        3.1250000000000000E-002   0.0000000000000000     
  0.46875000000000000        3.1250000000000000E-002   0.0000000000000000     
  0.50000000000000000        3.1250000000000000E-002   0.0000000000000000     
  0.37500000000000000        6.2500000000000000E-002   0.0000000000000000     
  0.40625000000000000        6.2500000000000000E-002   0.0000000000000000     
  0.43750000000000000        6.2500000000000000E-002   0.0000000000000000     
  0.46875000000000000        6.2500000000000000E-002   0.0000000000000000     
  0.50000000000000000        6.2500000000000000E-002   0.0000000000000000     
  0.37500000000000000        9.3750000000000000E-002   0.0000000000000000     
  0.40625000000000000        9.3750000000000000E-002   0.0000000000000000     
  0.43750000000000000        9.3750000000000000E-002   0.0000000000000000     
  0.46875000000000000        9.3750000000000000E-002   0.0000000000000000     
  0.50000000000000000        9.3750000000000000E-002   0.0000000000000000     
  0.37500000000000000       0.12500000000000000        0.0000000000000000     
  0.40625000000000000       0.12500000000000000        0.0000000000000000     
  0.43750000000000000       0.12500000000000000        0.0000000000000000     
  0.46875000000000000       0.12500000000000000        0.0000000000000000     
  0.50000000000000000       0.12500000000000000        0.0000000000000000     
  0.50000000000000000        0.0000000000000000        0.0000000000000000     
  0.53125000000000000        0.0000000000000000        0.0000000000000000     
  0.56250000000000000        0.0000000000000000        0.0000000000000000     
  0.59375000000000000        0.0000000000000000        0.0000000000000000     
  0.62500000000000000        0.0000000000000000        0.0000000000000000     
  0.50000000000000000        3.1250000000000000E-002   0.0000000000000000     
  0.53125000000000000        3.1250000000000000E-002   0.0000000000000000     
  0.56250000000000000        3.1250000000000000E-002   0.0000000000000000     
  0.59375000000000000        3.1250000000000000E-002   0.0000000000000000     
  0.62500000000000000        3.1250000000000000E-002   0.0000000000000000     
  0.50000000000000000        6.2500000000000000E-002   0.0000000000000000     
  0.53125000000000000        6.2500000000000000E-002   0.0000000000000000     
  0.56250000000000000        6.2500000000000000E-002   0.0000000000000000     
  0.59375000000000000        6.2500000000000000E-002   0.0000000000000000     
  0.62500000000000000        6.2500000000000000E-002   0.0000000000000000     
  0.50000000000000000        9.3750000000000000E-002   0.0000000000000000     
  0.53125000000000000        9.3750000000000000E-002   0.0000000000000000     
  0.56250000000000000        9.3750000000000000E-002   0.0000000000000000     
  0.59375000000000000        9.3750000000000000E-002   0.0000000000000000     
  0.62500000000000000        9.3750000000000000E-002   0.0000000000000000     
  0.50000000000000000       0.12500000000000000        0.0000000000000000     
  0.53125000000000000       0.12500000000000000        0.0000000000000000     
  0.56250000000000000       0.12500000000000000        0.0000000000000000     
  0.59375000000000000       0.12500000000000000        0.0000000000000000     
  0.62500000000000000       0.12500000000000000        0.0000000000000000     
  0.62500000000000000        0.0000000000000000        0.0000000000000000     
  0.65625000000000000        0.0000000000000000        0.0000000000000000     
  0.68750000000000000        0.0000000000000000        0.0000000000000000     
  0.71875000000000000        0.0000000000000000        0.0000000000000000     
  0.75000000000000000        0.0000000000000000        0.0000000000000000     
  0.62500000000000000        3.1250000000000000E-002   0.0000000000000000     
  0.65625000000000000        3.1250000000000000E-002   0.0000000000000000     
  0.68750000000000000        3.1250000000000000E-002   0.0000000000000000     
  0.71875000000000000        3.1250000000000000E-002   0.0000000000000000     
  0.75000000000000000        3.1250000000000000E-002   0.0000000000000000     
  0.62500000000000000        6.2500000000000000E-002   0.0000000000000000     
  0.65625000000000000        6.2500000000000000E-002   0.0000000000000000     
  0.68750000000000000        6.2500000000000000E-002   0.0000000000000000     
  0.71875000000000000        6.2500000000000000E-002   0.0000000000000000     
  0.75000000000000000        6.2500000000000000E-002   0.0000000000000000     
  0.62500000000000000        9.3750000000000000E-002   0.0000000000000000     
  0.65625000000000000        9.3750000000000000E-002   0.0000000000000000     
  0.68750000000000000        9.3750000000000000E-002   0.0000000000000000     
  0.71875000000000000        9.3750000000000000E-002   0.0000000000000000     
  0.75000000000000000        9.3750000000000000E-002   0.0000000000000000     
  0.62500000000000000       0.12500000000000000        0.0000000000000000     
  0.65625000000000000       0.12500000000000000        0.0000000000000000     
  0.68750000000000000       0.12500000000000000        0.0000000000000000     
  0.71875000000000000       0.12500000000000000        0.0000000000000000     
  0.75000000000000000       0.12500000000000000        0.0000000000000000     
  0.75000000000000000        0.0000000000000000        0.0000000000000000     
  0.78125000000000000        0.0000000000000000        0.0000000000000000     
  0.81250000000000000        0.0000000000000000        0.0000000000000000     
  0.84375000000000000        0.0000000000000000        0.0000000000000000     
  0.87500000000000000        0.0000000000000000        0.0000000000000000     
  0.75000000000000000        3.1250000000000000E-002   0.0000000000000000     
  0.78125000000000000        3.1250000000000000E-002   0.0000000000000000     
  0.81250000000000000        3.1250000000000000E-002   0.0000000000000000     
  0.84375000000000000        3.1250000000000000E-002   0.0000000000000000     
  0.87500000000000000        3.1250000000000000E-002   0.0000000000000000     
  0.75000000000000000        6.2500000000000000E-002   0.0000000000000000     
  0.78125000000000000        6.2500000000000000E-002   0.0000000000000000     
  0.81250000000000000        6.2500000000000000E-002   0.0000000000000000     
  0.84375000000000000        6.2500000000000000E-002   0.0000000000000000     
  0.87500000000000000        6.2500000000000000E-002   0.0000000000000000     
  0.75000000000000000        9.3750000000000000E-002   0.0000000000000000     
  0.78125000000000000        9.3750000000000000E-002   0.0000000000000000     
  0.81250000000000000        9.3750000000000000E-002   0.0000000000000000     
  0.84375000000000000        9.3750000000000000E-002   0.0000000000000000     
  0.87500000000000000        9.3750000000000000E-002   0.0000000000000000     
  0.75000000000000000       0.12500000000000000        0.0000000000000000     
  0.78125000000000000       0.12500000000000000        0.0000000000000000     
  0.81250000000000000       0.12500000000000000        0.0000000000000000     
  0.84375000000000000       0.12500000000000000        0.0000000000000000     
  0.87500000000000000       0.12500000000000000        0.0000000000000000     
  0.87500000000000000        0.0000000000000000        0.0000000000000000     
  0.90625000000000000        0.0000000000000000        0.0000000000000000     
  0.93750000000000000        0.0000000000000000        0.0000000000000000     
  0.96875000000000000        0.0000000000000000        0.0000000000000000     
   1.0000000000000000        0.0000000000000000        0.0000000000000000     
  0.87500000000000000        3.1250000000000000E-002   0.0000000000000000     
  0.90625000000000000        3.1250000000000000E-002   0.0000000000000000     
  0.93750000000000000        3.1250000000000000E-002   0.0000000000000000     
  0.96875000000000000        3.1250000000000000E-002   0.0000000000000000     
   1.0000000000000000        3.1250000000000000E-002   0.0000000000000000     
  0.87500000000000000        6.2500000000000000E-002   0.0000000000000000     
  0.90625000000000000        6.2500000000000000E-002   0.0000000000000000     
  0.93750000000000000        6.2500000000000000E-002   0.0000000000000000     
  0.96875000000000000        6.2500000000000000E-002   0.0000000000000000     
   1.0000000000000000        6.2500000000000000E-002   0.0000000000000000     
  0.87500000000000000        9.3750000000000000E-002   0.0000000000000000     
  0.90625000000000000        9.3750000000000000E-002   0.0000000000000000     
  0.93750000000000000        9.3750000000000000E-002   0.0000000000000000     
  0.96875000000000000        9.3750000000000000E-002   0.0000000000000000     
   1.0000000000000000        9.3750000000000000E-002   0.0000000000000000     
  0.87500000000000000       0.12500000000000000        0.0000000000000000     
  0.90625000000000000       0.12500000000000000        0.0000000000000000     
  0.93750000000000000       0.12500000000000000        0.0000000000000000     
  0.96875000000000000       0.12500000000000000        0.0000000000000000     
   1.0000000000000000       0.12500000000000000        0.0000000000000000     
   0.0000000000000000       0.12500000000000000        0.0000000000000000     
   3.1250000000000000E-002  0.12500000000000000        0.0000000000000000     
   6.2500000000000000E-002  0.12500000000000000        0.0000000000000000     
   9.3750000000000000E-002  0.12500000000000000        0.0000000000000000     
  0.12500000000000000       0.12500000000000000        0.0000000000000000     
   0.0000000000000000       0.15625000000000000        0.0000000000000000     
   3.1250000000000000E-002  0.15625000000000000        0.0000000000000000     
   6.2500000000000000E-002  0.15625000000000000        0.0000000000000000     
   9.3750000000000000E-002  0.15625000000000000        0.0000000000000000     
  0.12500000000000000       0.15625000000000000        0.0000000000000000     
   0.0000000000000000       0.18750000000000000        0.0000000000000000     
   3.1250000000000000E-002  0.18750000000000000        0.0000000000000000     
   6.2500000000000000E-002  0.18750000000000000        0.0000000000000000     
   9.3750000000000000E-002  0.18750000000000000        0.0000000000000000     
  0.12500000000000000       0.18750000000000000        0.0000000000000000     
   0.0000000000000000       0.21875000000000000        0.0000000000000000     
   3.1250000000000000E-002  0.21875000000000000        0.0000000000000000     
   6.2500000000000000E-002  0.21875000000000000        0.0000000000000000     
   9.3750000000000000E-002  0.21875000000000000        0.0000000000000000     
  0.12500000000000000       0.21875000000000000        0.0000000000000000     
   0.0000000000000000       0.25000000000000000        0.0000000000000000     
   3.1250000000000000E-002  0.25000000000000000        0.0000000000000000     
   6.2500000000000000E-002  0.25000000000000000        0.0000000000000000     
   9.3750000000000000E-002  0.25000000000000000        0.0000000000000000     
  0.12500000000000000       0.25000000000000000        0.0000000000000000     
  0.12500000000000000       0.12500000000000000        0.0000000000000000     
  0.15625000000000000       0.12500000000000000        0.0000000000000000     
  0.18750000000000000       0.12500000000000000        0.0000000000000000     
  0.21875000000000000       0.12500000000000000        0.0000000000000000     
  0.25000000000000000       0.12500000000000000        0.0000000000000000     
  0.12500000000000000       0.15625000000000000        0.0000000000000000     
  0.15625000000000000       0.15625000000000000        0.0000000000000000     
  0.18750000000000000       0.15625000000000000        0.0000000000000000     
  0.21875000000000000       0.15625000000000000        0.0000000000000000     
  0.25000000000000000       0.15625000000000000        0.0000000000000000     
  0.12500000000000000       0.18750000000000000        0.0000000000000000     
  0.15625000000000000       0.18750000000000000        0.0000000000000000     
  0.18750000000000000       0.18750000000000000        0.0000000000000000     
  0.21875000000000000       0.18750000000000000        0.0000000000000000     
  0.25000000000000000       0.18750000000000000        0.0000000000000000     
  0.12500000000000000       0.21875000000000000        0.0000000000000000     
  0.15625000000000000       0.21875000000000000        0.0000000000000000     
  0.18750000000000000       0.21875000000000000        0.0000000000000000     
  0.21875000000000000       0.21875000000000000        0.0000000000000000     
  0.25000000000000000       0.21875000000000000        0.0000000000000000     
  0.12500000000000000       0.25000000000000000        0.0000000000000000     
  0.15625000000000000       0.25000000000000000        0.0000000000000000     
  0.18750000000000000       0.25000000000000000        0.0000000000000000     
  0.21875000000000000       0.25000000000000000        0.0000000000000000     
  0.25000000000000000       0.25000000000000000        0.0000000000000000     
  0.25000000000000000       0.12500000000000000        0.0000000000000000     
  0.28125000000000000       0.12500000000000000        0.0000000000000000     
  0.31250000000000000       0.12500000000000000        0.0000000000000000     
  0.34375000000000000       0.12500000000000000        0.0000000000000000     
  0.37500000000000000       0.12500000000000000        0.0000000000000000     
  0.25000000000000000       0.15625000000000000        0.0000000000000000     
  0.28125000000000000       0.15625000000000000        0.0000000000000000     
  0.31250000000000000       0.15625000000000000        0.0000000000000000     
  0.34375000000000000       0.15625000000000000        0.0000000000000000     
  0.37500000000000000       0.15625000000000000        0.0000000000000000     
  0.25000000000000000       0.18750000000000000        0.0000000000000000     
  0.28125000000000000       0.18750000000000000        0.0000000000000000     
  0.31250000000000000       0.18750000000000000        0.0000000000000000     
  0.34375000000000000       0.18750000000000000        0.0000000000000000     
  0.37500000000000000       0.18750000000000000        0.0000000000000000     
  0.25000000000000000       0.21875000000000000        0.0000000000000000     
  0.28125000000000000       0.21875000000000000        0.0000000000000000     
  0.31250000000000000       0.21875000000000000        0.0000000000000000     
  0.34375000000000000       0.21875000000000000        0.0000000000000000     
  0.37500000000000000       0.21875000000000000        0.0000000000000000     
  0.25000000000000000       0.25000000000000000        0.0000000000000000     
  0.28125000000000000       0.25000000000000000        0.0000000000000000     
  0.31250000000000000       0.25000000000000000        0.0000000000000000     
  0.34375000000000000       0.25000000000000000        0.0000000000000000     
  0.37500000000000000       0.25000000000000000        0.0000000000000000     
  0.37500000000000000       0.12500000000000000        0.0000000000000000     
  0.40625000000000000       0.12500000000000000        0.0000000000000000     
  0.43750000000000000       0.12500000000000000        0.0000000000000000     
  0.46875000000000000       0.12500000000000000        0.0000000000000000     
  0.50000000000000000       0.12500000000000000        0.0000000000000000     
  0.37500000000000000       0.15625000000000000        0.0000000000000000     
  0.40625000000000000       0.15625000000000000        0.0000000000000000     
  0.43750000000000000       0.15625000000000000        0.0000000000000000     
  0.46875000000000000       0.15625000000000000        0.0000000000000000     
  0.50000000000000000       0.15625000000000000        0.0000000000000000     
  0.37500000000000000       0.18750000000000000        0.0000000000000000     
  0.40625000000000000       0.18750000000000000        0.0000000000000000     
  0.43750000000000000       0.18750000000000000        0.0000000000000000     
  0.46875000000000000       0.18750000000000000        0.0000000000000000     
  0.50000000000000000       0.18750000000000000        0.0000000000000000     
  0.37500000000000000       0.21875000000000000        0.0000000000000000     
  0.40625000000000000       0.21875000000000000        0.0000000000000000     
  0.43750000000000000       0.21875000000000000        0.0000000000000000     
  0.46875000000000000       0.21875000000000000        0.0000000000000000     
  0.50000000000000000       0.21875000000000000        0.0000000000000000     
  0.37500000000000000       0.25000000000000000        0.0000000000000000     
  0.40625000000000000       0.25000000000000000        0.0000000000000000     
  0.43750000000000000       0.25000000000000000        0.0000000000000000     
  0.46875000000000000       0.25000000000000000        0.0000000000000000     
  0.50000000000000000       0.25000000000000000        0.0000000000000000     
  0.50000000000000000       0.12500000000000000        0.0000000000000000     
  0.53125000000000000       0.12500000000000000        0.0000000000000000     
  0.56250000000000000       0.12500000000000000        0.0000000000000000     
  0.59375000000000000       0.12500000000000000        0.0000000000000000     
  0.62500000000000000       0.12500000000000000        0.0000000000000000     
  0.50000000000000000       0.15625000000000000        0.0000000000000000     
  0.53125000000000000       0.15625000000000000        0.0000000000000000     
  0.56250000000000000       0.15625000000000000        0.0000000000000000     
  0.59375000000000000       0.15625000000000000        0.0000000000000000     
  0.62500000000000000       0.15625000000000000        0.0000000000000000     
  0.50000000000000000       0.18750000000000000        0.0000000000000000     
  0.53125000000000000       0.18750000000000000        0.0000000000000000     
  0.56250000000000000       0.18750000000000000        0.0000000000000000     
  0.59375000000000000       0.18750000000000000        0.0000000000000000     
  0.62500000000000000       0.18750000000000000        0.0000000000000000     
  0.50000000000000000       0.21875000000000000        0.0000000000000000     
  0.53125000000000000       0.21875000000000000        0.0000000000000000     
  0.56250000000000000       0.21875000000000000        0.0000000000000000     
  0.59375000000000000       0.21875000000000000        0.0000000000000000     
  0.62500000000000000       0.21875000000000000        0.0000000000000000     
  0.50000000000000000       0.25000000000000000        0.0000000000000000     
  0.53125000000000000       0.25000000000000000        0.0000000000000000     
  0.56250000000000000       0.25000000000000000        0.0000000000000000     
  0.59375000000000000       0.25000000000000000        0.0000000000000000     
  0.62500000000000000       0.25000000000000000        0.0000000000000000     
  0.62500000000000000       0.12500000000000000        0.0000000000000000     
  0.65625000000000000       0.12500000000000000        0.0000000000000000     
  0.68750000000000000       0.12500000000000000        0.0000000000000000     
  0.71875000000000000       0.12500000000000000        0.0000000000000000     
  0.75000000000000000       0.12500000000000000        0.0000000000000000     
  0.62500000000000000       0.15625000000000000        0.0000000000000000     
  0.65625000000000000       0.15625000000000000        0.0000000000000000     
  0.68750000000000000       0.15625000000000000        0.0000000000000000     
  0.71875000000000000       0.15625000000000000        0.0000000000000000     
  0.75000000000000000       0.15625000000000000        0.0000000000000000     
  0.62500000000000000       0.18750000000000000        0.0000000000000000     
  0.65625000000000000       0.18750000000000000        0.0000000000000000     
  0.68750000000000000       0.18750000000000000        0.0000000000000000     
  0.71875000000000000       0.18750000000000000        0.0000000000000000     
  0.75000000000000000       0.18750000000000000        0.0000000000000000     
  0.62500000000000000       0.21875000000000000        0.0000000000000000     
  0.65625000000000000       0.21875000000000000        0.0000000000000000     
  0.68750000000000000       0.21875000000000000        0.0000000000000000     
  0.71875000000000000       0.21875000000000000        0.0000000000000000     
  0.75000000000000000       0.21875000000000000        0.0000000000000000     
  0.62500000000000000       0.25000000000000000        0.0000000000000000     
  0.65625000000000000       0.25000000000000000        0.0000000000000000     
  0.68750000000000000       0.25000000000000000        0.0000000000000000     
  0.71875000000000000       0.25000000000000000        0.0000000000000000     
  0.75000000000000000       0.25000000000000000        0.0000000000000000     
  0.75000000000000000       0.12500000000000000        0.0000000000000000     
  0.78125000000000000       0.12500000000000000        0.0000000000000000     
  0.81250000000000000       0.12500000000000000        0.0000000000000000     
  0.84375000000000000       0.12500000000000000        0.0000000000000000     
  0.87500000000000000       0.12500000000000000        0.0000000000000000     
  0.75000000000000000       0.15625000000000000        0.0000000000000000     
  0.78125000000000000       0.15625000000000000        0.0000000000000000     
  0.81250000000000000       0.15625000000000000        0.0000000000000000     
  0.84375000000000000       0.15625000000000000        0.0000000000000000     
  0.87500000000000000       0.15625000000000000        0.0000000000000000     
  0.75000000000000000       0.18750000000000000        0.0000000000000000     
  0.78125000000000000       0.18750000000000000        0.0000000000000000     
  0.81250000000000000       0.18750000000000000        0.0000000000000000     
  0.84375000000000000       0.18750000000000000        0.0000000000000000     
  0.87500000000000000       0.18750000000000000        0.0000000000000000     
  0.75000000000000000       0.21875000000000000        0.0000000000000000     
  0.78125000000000000       0.21875000000000000        0.0000000000000000     
  0.81250000000000000       0.21875000000000000        0.0000000000000000     
  0.84375000000000000       0.21875000000000000        0.0000000000000000     
  0.87500000000000000       0.21875000000000000        0.0000000000000000     
  0.75000000000000000       0.25000000000000000        0.0000000000000000     
  0.78125000000000000       0.25000000000000000        0.0000000000000000     
  0.81250000000000000       0.25000000000000000        0.0000000000000000     
  0.84375000000000000       0.25000000000000000        0.0000000000000000     
  0.87500000000000000       0.25000000000000000        0.0000000000000000     
  0.87500000000000000       0.12500000000000000        0.0000000000000000     
  0.90625000000000000       0.12500000000000000        0.0000000000000000     
  0.93750000000000000       0.12500000000000000        0.0000000000000000     
  0.96875000000000000       0.12500000000000000        0.0000000000000000     
   1.0000000000000000       0.12500000000000000        0.0000000000000000     
  0.87500000000000000       0.15625000000000000        0.0000000000000000     
  0.90625000000000000       0.15625000000000000        0.0000000000000000     
  0.93750000000000000       0.15625000000000000        0.0000000000000000     
  0.96875000000000000       0.15625000000000000        0.0000000000000000     
   1.0000000000000000       0.15625000000000000        0.0000000000000000     
  0.87500000000000000       0.18750000000000000        0.0000000000000000     
  0.90625000000000000       0.18750000000000000        0.0000000000000000     
  0.93750000000000000       0.18750000000000000        0.0000000000000000     
  0.96875000000000000       0.18750000000000000        0.0000000000000000     
   1.0000000000000000       0.18750000000000000        0.0000000000000000     
  0.87500000000000000       0.21875000000000000        0.0000000000000000     
  0.90625000000000000       0.21875000000000000        0.0000000000000000     
  0.93750000000000000       0.21875000000000000        0.0000000000000000     
  0.96875000000000000       0.21875000000000000        0.0000000000000000     
   1.0000000000000000       0.21875000000000000        0.0000000000000000     
  0.87500000000000000       0.25000000000000000        0.0000000000000000     
  0.90625000000000000       0.25000000000000000        0.0000000000000000     
  0.93750000000000000       0.25000000000000000        0.0000000000000000     
  0.96875000000000000       0.25000000000000000        0.0000000000000000     
   1.0000000000000000       0.25000000000000000        0.0000000000000000     
   0.0000000000000000       0.25000000000000000        0.0000000000000000     
   3.1250000000000000E-002  0.25000000000000000        0.0000000000000000     
   6.2500000000000000E-002  0.25000000000000000        0.0000000000000000     
   9.3750000000000000E-002  0.25000000000000000        0.0000000000000000     
  0.12500000000000000       0.25000000000000000        0.0000000000000000     
   0.0000000000000000       0.28125000000000000        0.0000000000000000     
   3.1250000000000000E-002  0.28125000000000000        0.0000000000000000     
   6.2500000000000000E-002  0.28125000000000000        0.0000000000000000     
   9.3750000000000000E-002  0.28125000000000000        0.0000000000000000     
  0.12500000000000000       0.28125000000000000        0.0000000000000000     
   0.0000000000000000       0.31250000000000000        0.0000000000000000     
   3.1250000000000000E-002  0.31250000000000000        0.0000000000000000     
   6.2500000000000000E-002  0.31250000000000000        0.0000000000000000     
   9.3750000000000000E-002  0.31250000000000000        0.0000000000000000     
  0.12500000000000000       0.31250000000000000        0.0000000000000000     
   0.0000000000000000       0.34375000000000000        0.0000000000000000     
   3.1250000000000000E-002  0.34375000000000000        0.0000000000000000     
   6.2500000000000000E-002  0.34375000000000000        0.0000000000000000     
   9.3750000000000000E-002  0.34375000000000000        0.0000000000000000     
  0.12500000000000000       0.34375000000000000        0.0000000000000000     
   0.0000000000000000       0.37500000000000000        0.0000000000000000     
   3.1250000000000000E-002  0.37500000000000000        0.0000000000000000     
   6.2500000000000000E-002  0.37500000000000000        0.0000000000000000     
   9.3750000000000000E-002  0.37500000000000000        0.0000000000000000     
  0.12500000000000000       0.37500000000000000        0.0000000000000000     
  0.12500000000000000       0.25000000000000000        0.0000000000000000     
  0.15625000000000000       0.25000000000000000        0.0000000000000000     
  0.18750000000000000       0.25000000000000000        0.0000000000000000     
  0.21875000000000000       0.25000000000000000        0.0000000000000000     
  0.25000000000000000       0.25000000000000000        0.0000000000000000     
  0.12500000000000000       0.28125000000000000        0.0000000000000000     
  0.15625000000000000       0.28125000000000000        0.0000000000000000     
  0.18750000000000000       0.28125000000000000        0.0000000000000000     
  0.21875000000000000       0.28125000000000000        0.0000000000000000     
  0.25000000000000000       0.28125000000000000        0.0000000000000000     
  0.12500000000000000       0.31250000000000000        0.0000000000000000     
  0.15625000000000000       0.31250000000000000        0.0000000000000000     
  0.18750000000000000       0.31250000000000000        0.0000000000000000     
  0.21875000000000000       0.31250000000000000        0.0000000000000000     
  0.25000000000000000       0.31250000000000000        0.0000000000000000     
  0.12500000000000000       0.34375000000000000        0.0000000000000000     
  0.15625000000000000       0.34375000000000000        0.0000000000000000     
  0.18750000000000000       0.34375000000000000        0.0000000000000000     
  0.21875000000000000       0.34375000000000000        0.0000000000000000     
  0.25000000000000000       0.34375000000000000        0.0000000000000000     
  0.12500000000000000       0.37500000000000000        0.0000000000000000     
  0.15625000000000000       0.37500000000000000        0.0000000000000000     
  0.18750000000000000       0.37500000000000000        0.0000000000000000     
  0.21875000000000000       0.37500000000000000        0.0000000000000000     
  0.25000000000000000       0.37500000000000000        0.0000000000000000     
  0.25000000000000000       0.25000000000000000        0.0000000000000000     
  0.28125000000000000       0.25000000000000000        0.0000000000000000     
  0.31250000000000000       0.25000000000000000        0.0000000000000000     
  0.34375000000000000       0.25000000000000000        0.0000000000000000     
  0.37500000000000000       0.25000000000000000        0.0000000000000000     
  0.25000000000000000       0.28125000000000000        0.0000000000000000     
  0.28125000000000000       0.28125000000000000        0.0000000000000000     
  0.31250000000000000       0.28125000000000000        0.0000000000000000     
  0.34375000000000000       0.28125000000000000        0.0000000000000000     
  0.37500000000000000       0.28125000000000000        0.0000000000000000     
  0.25000000000000000       0.31250000000000000        0.0000000000000000     
  0.28125000000000000       0.31250000000000000        0.0000000000000000     
  0.31250000000000000       0.31250000000000000        0.0000000000000000     
  0.34375000000000000       0.31250000000000000        0.0000000000000000     
  0.37500000000000000       0.31250000000000000        0.0000000000000000     
  0.25000000000000000       0.34375000000000000        0.0000000000000000     
  0.28125000000000000       0.34375000000000000        0.0000000000000000     
  0.31250000000000000       0.34375000000000000        0.0000000000000000     
  0.34375000000000000       0.34375000000000000        0.0000000000000000     
  0.37500000000000000       0.34375000000000000        0.0000000000000000     
  0.25000000000000000       0.37500000000000000        0.0000000000000000     
  0.28125000000000000       0.37500000000000000        0.0000000000000000     
  0.31250000000000000       0.37500000000000000        0.0000000000000000     
  0.34375000000000000       0.37500000000000000        0.0000000000000000     
  0.37500000000000000       0.37500000000000000        0.0000000000000000     
  0.37500000000000000       0.25000000000000000        0.0000000000000000     
  0.40625000000000000       0.25000000000000000        0.0000000000000000     
  0.43750000000000000       0.25000000000000000        0.0000000000000000     
  0.46875000000000000       0.25000000000000000        0.0000000000000000     
  0.50000000000000000       0.25000000000000000        0.0000000000000000     
  0.37500000000000000       0.28125000000000000        0.0000000000000000     
  0.40625000000000000       0.28125000000000000        0.0000000000000000     
  0.43750000000000000       0.28125000000000000        0.0000000000000000     
  0.46875000000000000       0.28125000000000000        0.0000000000000000     
  0.50000000000000000       0.28125000000000000        0.0000000000000000     
  0.37500000000000000       0.31250000000000000        0.0000000000000000     
  0.40625000000000000       0.31250000000000000        0.0000000000000000     
  0.43750000000000000       0.31250000000000000        0.0000000000000000     
  0.46875000000000000       0.31250000000000000        0.0000000000000000     
  0.50000000000000000       0.31250000000000000        0.0000000000000000     
  0.37500000000000000       0.34375000000000000        0.0000000000000000     
  0.40625000000000000       0.34375000000000000        0.0000000000000000     
  0.43750000000000000       0.34375000000000000        0.0000000000000000     
  0.46875000000000000       0.34375000000000000        0.0000000000000000     
  0.50000000000000000       0.34375000000000000        0.0000000000000000     
  0.37500000000000000       0.37500000000000000        0.0000000000000000     
  0.40625000000000000       0.37500000000000000        0.0000000000000000     
  0.43750000000000000       0.37500000000000000        0.0000000000000000     
  0.46875000000000000       0.37500000000000000        0.0000000000000000     
  0.50000000000000000       0.37500000000000000        0.0000000000000000     
  0.50000000000000000       0.25000000000000000        0.0000000000000000     
  0.53125000000000000       0.25000000000000000        0.0000000000000000     
  0.56250000000000000       0.25000000000000000        0.0000000000000000     
  0.59375000000000000       0.25000000000000000        0.0000000000000000     
  0.62500000000000000       0.25000000000000000        0.0000000000000000     
  0.50000000000000000       0.28125000000000000        0.0000000000000000     
  0.53125000000000000       0.28125000000000000        0.0000000000000000     
  0.56250000000000000       0.28125000000000000        0.0000000000000000     
  0.59375000000000000       0.28125000000000000        0.0000000000000000     
  0.62500000000000000       0.28125000000000000        0.0000000000000000     
  0.50000000000000000       0.31250000000000000        0.0000000000000000     
  0.53125000000000000       0.31250000000000000        0.0000000000000000     
  0.56250000000000000       0.31250000000000000        0.0000000000000000     
  0.59375000000000000       0.31250000000000000        0.0000000000000000     
  0.62500000000000000       0.31250000000000000        0.0000000000000000     
  0.50000000000000000       0.34375000000000000        0.0000000000000000     
  0.53125000000000000       0.34375000000000000        0.0000000000000000     
  0.56250000000000000       0.34375000000000000        0.0000000000000000     
  0.59375000000000000       0.34375000000000000        0.0000000000000000     
  0.62500000000000000       0.34375000000000000        0.0000000000000000     
  0.50000000000000000       0.37500000000000000        0.0000000000000000     
  0.53125000000000000       0.37500000000000000        0.0000000000000000     
  0.56250000000000000       0.37500000000000000        0.0000000000000000     
  0.59375000000000000       0.37500000000000000        0.0000000000000000     
  0.62500000000000000       0.37500000000000000        0.0000000000000000     
  0.62500000000000000       0.25000000000000000        0.0000000000000000     
  0.65625000000000000       0.25000000000000000        0.0000000000000000     
  0.68750000000000000       0.25000000000000000        0.0000000000000000     
  0.71875000000000000       0.25000000000000000        0.0000000000000000     
  0.75000000000000000       0.25000000000000000        0.0000000000000000     
  0.62500000000000000       0.28125000000000000        0.0000000000000000     
  0.65625000000000000       0.28125000000000000        0.0000000000000000     
  0.68750000000000000       0.28125000000000000        0.0000000000000000     
  0.71875000000000000       0.28125000000000000        0.0000000000000000     
  0.75000000000000000       0.28125000000000000        0.0000000000000000     
  0.62500000000000000       0.31250000000000000        0.0000000000000000     
  0.65625000000000000       0.31250000000000000        0.0000000000000000     
  0.68750000000000000       0.31250000000000000        0.0000000000000000     
  0.71875000000000000       0.31250000000000000        0.0000000000000000     
  0.75000000000000000       0.31250000000000000        0.0000000000000000     
  0.62500000000000000       0.34375000000000000        0.0000000000000000     
  0.65625000000000000       0.34375000000000000        0.0000000000000000     
  0.68750000000000000       0.34375000000000000        0.0000000000000000     
  0.71875000000000000       0.34375000000000000        0.0000000000000000     
  0.75000000000000000       0.34375000000000000        0.0000000000000000     
  0.62500000000000000       0.37500000000000000        0.0000000000000000     
  0.65625000000000000       0.37500000000000000        0.0000000000000000     
  0.68750000000000000       0.37500000000000000        0.0000000000000000     
  0.71875000000000000       0.37500000000000000        0.0000000000000000     
  0.75000000000000000       0.37500000000000000        0.0000000000000000     
  0.75000000000000000       0.25000000000000000        0.0000000000000000     
  0.78125000000000000       0.25000000000000000        0.0000000000000000     
  0.81250000000000000       0.25000000000000000        0.0000000000000000     
  0.84375000000000000       0.25000000000000000        0.0000000000000000     
  0.87500000000000000       0.25000000000000000        0.0000000000000000     
  0.75000000000000000       0.28125000000000000        0.0000000000000000     
  0.78125000000000000       0.28125000000000000        0.0000000000000000     
  0.81250000000000000       0.28125000000000000        0.0000000000000000     
  0.84375000000000000       0.28125000000000000        0.0000000000000000     
  0.87500000000000000       0.28125000000000000        0.0000000000000000     
  0.75000000000000000       0.31250000000000000        0.0000000000000000     
  0.78125000000000000       0.31250000000000000        0.0000000000000000     
  0.81250000000000000       0.31250000000000000        0.0000000000000000     
  0.84375000000000000       0.31250000000000000        0.0000000000000000     
  0.87500000000000000       0.31250000000000000        0.0000000000000000     
  0.75000000000000000       0.34375000000000000        0.0000000000000000     
  0.78125000000000000       0.34375000000000000        0.0000000000000000     
  0.81250000000000000       0.34375000000000000        0.0000000000000000     
  0.84375000000000000       0.34375000000000000        0.0000000000000000     
  0.87500000000000000       0.34375000000000000        0.0000000000000000     
  0.75000000000000000       0.37500000000000000        0.0000000000000000     
  0.78125000000000000       0.37500000000000000        0.0000000000000000     
  0.81250000000000000       0.37500000000000000        0.0000000000000000     
  0.84375000000000000       0.37500000000000000        0.0000000000000000     
  0.87500000000000000       0.37500000000000000        0.0000000000000000     
  0.87500000000000000       0.25000000000000000        0.0000000000000000     
  0.90625000000000000       0.25000000000000000        0.0000000000000000     
  0.93750000000000000       0.25000000000000000        0.0000000000000000     
  0.96875000000000000       0.25000000000000000        0.0000000000000000     
   1.0000000000000000       0.25000000000000000        0.0000000000000000     
  0.87500000000000000       0.28125000000000000        0.0000000000000000     
  0.90625000000000000       0.28125000000000000        0.0000000000000000     
  0.93750000000000000       0.28125000000000000        0.0000000000000000     
  0.96875000000000000       0.28125000000000000        0.0000000000000000     
   1.0000000000000000       0.28125000000000000        0.0000000000000000     
  0.87500000000000000       0.31250000000000000        0.0000000000000000     
  0.90625000000000000       0.31250000000000000        0.0000000000000000     
  0.93750000000000000       0.31250000000000000        0.0000000000000000     
  0.96875000000000000       0.31250000000000000        0.0000000000000000     
   1.0000000000000000       0.31250000000000000        0.0000000000000000     
  0.87500000000000000       0.34375000000000000        0.0000000000000000     
  0.90625000000000000       0.34375000000000000        0.0000000000000000     
  0.93750000000000000       0.34375000000000000        0.0000000000000000     
  0.96875000000000000       0.34375000000000000        0.0000000000000000     
   1.0000000000000000       0.34375000000000000        0.0000000000000000     
  0.87500000000000000       0.37500000000000000        0.0000000000000000     
  0.90625000000000000       0.37500000000000000        0.0000000000000000     
  0.93750000000000000       0.37500000000000000        0.0000000000000000     
  0.96875000000000000       0.37500000000000000        0.0000000000000000     
   1.0000000000000000       0.37500000000000000        0.0000000000000000     
   0.0000000000000000       0.37500000000000000        0.0000000000000000     
   3.1250000000000000E-002  0.37500000000000000        0.0000000000000000     
   6.2500000000000000E-002  0.37500000000000000        0.0000000000000000     
   9.3750000000000000E-002  0.37500000000000000        0.0000000000000000     
  0.12500000000000000       0.37500000000000000        0.0000000000000000     
   0.0000000000000000       0.40625000000000000        0.0000000000000000     
   3.1250000000000000E-002  0.40625000000000000        0.0000000000000000     
   6.2500000000000000E-002  0.40625000000000000        0.0000000000000000     
   9.3750000000000000E-002  0.40625000000000000        0.0000000000000000     
  0.12500000000000000       0.40625000000000000        0.0000000000000000     
   0.0000000000000000       0.43750000000000000        0.0000000000000000     
   3.1250000000000000E-002  0.43750000000000000        0.0000000000000000     
   6.2500000000000000E-002  0.43750000000000000        0.0000000000000000     
   9.3750000000000000E-002  0.43750000000000000        0.0000000000000000     
  0.12500000000000000       0.43750000000000000        0.0000000000000000     
   0.0000000000000000       0.46875000000000000        0.0000000000000000     
   3.1250000000000000E-002  0.46875000000000000        0.0000000000000000     
   6.2500000000000000E-002  0.46875000000000000        0.0000000000000000     
   9.3750000000000000E-002  0.46875000000000000        0.0000000000000000     
  0.12500000000000000       0.46875000000000000        0.0000000000000000     
   0.0000000000000000       0.50000000000000000        0.0000000000000000     
   3.1250000000000000E-002  0.50000000000000000        0.0000000000000000     
   6.2500000000000000E-002  0.50000000000000000        0.0000000000000000     
   9.3750000000000000E-002  0.50000000000000000        0.0000000000000000     
  0.12500000000000000       0.50000000000000000        0.0000000000000000     
  0.12500000000000000       0.37500000000000000        0.0000000000000000     
  0.15625000000000000       0.37500000000000000        0.0000000000000000     
  0.18750000000000000       0.37500000000000000        0.0000000000000000     
  0.21875000000000000       0.37500000000000000        0.0000000000000000     
  0.25000000000000000       0.37500000000000000        0.0000000000000000     
  0.12500000000000000       0.40625000000000000        0.0000000000000000     
  0.15625000000000000       0.40625000000000000        0.0000000000000000     
  0.18750000000000000       0.40625000000000000        0.0000000000000000     
  0.21875000000000000       0.40625000000000000        0.0000000000000000     
  0.25000000000000000       0.40625000000000000        0.0000000000000000     
  0.12500000000000000       0.43750000000000000        0.0000000000000000     
  0.15625000000000000       0.43750000000000000        0.0000000000000000     
  0.18750000000000000       0.43750000000000000        0.0000000000000000     
  0.21875000000000000       0.43750000000000000        0.0000000000000000     
  0.25000000000000000       0.43750000000000000        0.0000000000000000     
  0.12500000000000000       0.46875000000000000        0.0000000000000000     
  0.15625000000000000       0.46875000000000000        0.0000000000000000     
  0.18750000000000000       0.46875000000000000        0.0000000000000000     
  0.21875000000000000       0.46875000000000000        0.0000000000000000     
  0.25000000000000000       0.46875000000000000        0.0000000000000000     
  0.12500000000000000       0.50000000000000000        0.0000000000000000     
  0.15625000000000000       0.50000000000000000        0.0000000000000000     
  0.18750000000000000       0.50000000000000000        0.0000000000000000     
  0.21875000000000000       0.50000000000000000        0.0000000000000000     
  0.25000000000000000       0.50000000000000000        0.0000000000000000     
  0.25000000000000000       0.37500000000000000        0.0000000000000000     
  0.28125000000000000       0.37500000000000000        0.0000000000000000     
  0.31250000000000000       0.37500000000000000        0.0000000000000000     
  0.34375000000000000       0.37500000000000000        0.0000000000000000     
  0.37500000000000000       0.37500000000000000        0.0000000000000000     
  0.25000000000000000       0.40625000000000000        0.0000000000000000     
  0.28125000000000000       0.40625000000000000        0.0000000000000000     
  0.31250000000000000       0.40625000000000000        0.0000000000000000     
  0.34375000000000000       0.40625000000000000        0.0000000000000000     
  0.37500000000000000       0.40625000000000000        0.0000000000000000     
  0.25000000000000000       0.43750000000000000        0.0000000000000000     
  0.28125000000000000       0.43750000000000000        0.0000000000000000     
  0.31250000000000000       0.43750000000000000        0.0000000000000000     
  0.34375000000000000       0.43750000000000000        0.0000000000000000     
  0.37500000000000000       0.43750000000000000        0.0000000000000000     
  0.25000000000000000       0.46875000000000000        0.0000000000000000     
  0.28125000000000000       0.46875000000000000        0.0000000000000000     
  0.31250000000000000       0.46875000000000000        0.0000000000000000     
  0.34375000000000000       0.46875000000000000        0.0000000000000000     
  0.37500000000000000       0.46875000000000000        0.0000000000000000     
  0.25000000000000000       0.50000000000000000        0.0000000000000000     
  0.28125000000000000       0.50000000000000000        0.0000000000000000     
  0.31250000000000000       0.50000000000000000        0.0000000000000000     
  0.34375000000000000       0.50000000000000000        0.0000000000000000     
  0.37500000000000000       0.50000000000000000        0.0000000000000000     
  0.37500000000000000       0.37500000000000000        0.0000000000000000     
  0.40625000000000000       0.37500000000000000        0.0000000000000000     
  0.43750000000000000       0.37500000000000000        0.0000000000000000     
  0.46875000000000000       0.37500000000000000        0.0000000000000000     
  0.50000000000000000       0.37500000000000000        0.0000000000000000     
  0.37500000000000000       0.40625000000000000        0.0000000000000000     
  0.40625000000000000       0.40625000000000000        0.0000000000000000     
  0.43750000000000000       0.40625000000000000        0.0000000000000000     
  0.46875000000000000       0.40625000000000000        0.0000000000000000     
  0.50000000000000000       0.40625000000000000        0.0000000000000000     
  0.37500000000000000       0.43750000000000000        0.0000000000000000     
  0.40625000000000000       0.43750000000000000        0.0000000000000000     
  0.43750000000000000       0.43750000000000000        0.0000000000000000     
  0.46875000000000000       0.43750000000000000        0.0000000000000000     
  0.50000000000000000       0.43750000000000000        0.0000000000000000     
  0.37500000000000000       0.46875000000000000        0.0000000000000000     
  0.40625000000000000       0.46875000000000000        0.0000000000000000     
  0.43750000000000000       0.46875000000000000        0.0000000000000000     
  0.46875000000000000       0.46875000000000000        0.0000000000000000     
  0.50000000000000000       0.46875000000000000        0.0000000000000000     
  0.37500000000000000       0.50000000000000000        0.0000000000000000     
  0.40625000000000000       0.50000000000000000        0.0000000000000000     
  0.43750000000000000       0.50000000000000000        0.0000000000000000     
  0.46875000000000000       0.50000000000000000        0.0000000000000000     
  0.50000000000000000       0.50000000000000000        0.0000000000000000     
  0.50000000000000000       0.37500000000000000        0.0000000000000000     
  0.53125000000000000       0.37500000000000000        0.0000000000000000     
  0.56250000000000000       0.37500000000000000        0.0000000000000000     
  0.59375000000000000       0.37500000000000000        0.0000000000000000     
  0.62500000000000000       0.37500000000000000        0.0000000000000000     
  0.50000000000000000       0.40625000000000000        0.0000000000000000     
  0.53125000000000000       0.40625000000000000        0.0000000000000000     
  0.56250000000000000       0.40625000000000000        0.0000000000000000     
  0.59375000000000000       0.40625000000000000        0.0000000000000000     
  0.62500000000000000       0.40625000000000000        0.0000000000000000     
  0.50000000000000000       0.43750000000000000        0.0000000000000000     
  0.53125000000000000       0.43750000000000000        0.0000000000000000     
  0.56250000000000000       0.43750000000000000        0.0000000000000000     
  0.59375000000000000       0.43750000000000000        0.0000000000000000     
  0.62500000000000000       0.43750000000000000        0.0000000000000000     
  0.50000000000000000       0.46875000000000000        0.0000000000000000     
  0.53125000000000000       0.46875000000000000        0.0000000000000000     
  0.56250000000000000       0.46875000000000000        0.0000000000000000     
  0.59375000000000000       0.46875000000000000        0.0000000000000000     
  0.62500000000000000       0.46875000000000000        0.0000000000000000     
  0.50000000000000000       0.50000000000000000        0.0000000000000000     
  0.53125000000000000       0.50000000000000000        0.0000000000000000     
  0.56250000000000000       0.50000000000000000        0.0000000000000000     
  0.59375000000000000       0.50000000000000000        0.0000000000000000     
  0.62500000000000000       0.50000000000000000        0.0000000000000000     
  0.62500000000000000       0.37500000000000000        0.0000000000000000     
  0.65625000000000000       0.37500000000000000        0.0000000000000000     
  0.68750000000000000       0.37500000000000000        0.0000000000000000     
  0.71875000000000000       0.37500000000000000        0.0000000000000000     
  0.75000000000000000       0.37500000000000000        0.0000000000000000     
  0.62500000000000000       0.40625000000000000        0.0000000000000000     
  0.65625000000000000       0.40625000000000000        0.0000000000000000     
  0.68750000000000000       0.40625000000000000        0.0000000000000000     
  0.71875000000000000       0.40625000000000000        0.0000000000000000     
  0.75000000000000000       0.40625000000000000        0.0000000000000000     
  0.62500000000000000       0.43750000000000000        0.0000000000000000     
  0.65625000000000000       0.43750000000000000        0.0000000000000000     
  0.68750000000000000       0.43750000000000000        0.0000000000000000     
  0.71875000000000000       0.43750000000000000        0.0000000000000000     
  0.75000000000000000       0.43750000000000000        0.0000000000000000     
  0.62500000000000000       0.46875000000000000        0.0000000000000000     
  0.65625000000000000       0.46875000000000000        0.0000000000000000     
  0.68750000000000000       0.46875000000000000        0.0000000000000000     
  0.71875000000000000       0.46875000000000000        0.0000000000000000     
  0.75000000000000000       0.46875000000000000        0.0000000000000000     
  0.62500000000000000       0.50000000000000000        0.0000000000000000     
  0.65625000000000000       0.50000000000000000        0.0000000000000000     
  0.68750000000000000       0.50000000000000000        0.0000000000000000     
  0.71875000000000000       0.50000000000000000        0.0000000000000000     
  0.75000000000000000       0.50000000000000000        0.0000000000000000     
  0.75000000000000000       0.37500000000000000        0.0000000000000000     
  0.78125000000000000       0.37500000000000000        0.0000000000000000     
  0.81250000000000000       0.37500000000000000        0.0000000000000000     
  0.84375000000000000       0.37500000000000000        0.0000000000000000     
  0.87500000000000000       0.37500000000000000        0.0000000000000000     
  0.75000000000000000       0.40625000000000000        0.0000000000000000     
  0.78125000000000000       0.40625000000000000        0.0000000000000000     
  0.81250000000000000       0.40625000000000000        0.0000000000000000     
  0.84375000000000000       0.40625000000000000        0.0000000000000000     
  0.87500000000000000       0.40625000000000000        0.0000000000000000     
  0.75000000000000000       0.43750000000000000        0.0000000000000000     
  0.78125000000000000       0.43750000000000000        0.0000000000000000     
  0.81250000000000000       0.43750000000000000        0.0000000000000000     
  0.84375000000000000       0.43750000000000000        0.0000000000000000     
  0.87500000000000000       0.43750000000000000        0.0000000000000000     
  0.75000000000000000       0.46875000000000000        0.0000000000000000     
  0.78125000000000000       0.46875000000000000        0.0000000000000000     
  0.81250000000000000       0.46875000000000000        0.0000000000000000     
  0.84375000000000000       0.46875000000000000        0.0000000000000000     
  0.87500000000000000       0.46875000000000000        0.0000000000000000     
  0.75000000000000000       0.50000000000000000        0.0000000000000000     
  0.78125000000000000       0.50000000000000000        0.0000000000000000     
  0.81250000000000000       0.50000000000000000        0.0000000000000000     
  0.84375000000000000       0.50000000000000000        0.0000000000000000     
  0.87500000000000000       0.50000000000000000        0.0000000000000000     
  0.87500000000000000       0.37500000000000000        0.0000000000000000     
  0.90625000000000000       0.37500000000000000        0.0000000000000000     
  0.93750000000000000       0.37500000000000000        0.0000000000000000     
  0.96875000000000000       0.37500000000000000        0.0000000000000000     
   1.0000000000000000       0.37500000000000000        0.0000000000000000     
  0.87500000000000000       0.40625000000000000        0.0000000000000000     
  0.90625000000000000       0.40625000000000000        0.0000000000000000     
  0.93750000000000000       0.40625000000000000        0.0000000000000000     
  0.96875000000000000       0.40625000000000000        0.0000000000000000     
   1.0000000000000000       0.40625000000000000        0.0000000000000000     
  0.87500000000000000       0.43750000000000000        0.0000000000000000     
  0.90625000000000000       0.43750000000000000        0.0000000000000000     
  0.93750000000000000       0.43750000000000000        0.0000000000000000     
  0.96875000000000000       0.43750000000000000        0.0000000000000000     
   1.0000000000000000       0.43750000000000000        0.0000000000000000     
  0.87500000000000000       0.46875000000000000        0.0000000000000000     
  0.90625000000000000       0.46875000000000000        0.0000000000000000     
  0.93750000000000000       0.46875000000000000        0.0000000000000000     
  0.96875000000000000       0.46875000000000000        0.0000000000000000     
   1.0000000000000000       0.46875000000000000        0.0000000000000000     
  0.87500000000000000       0.50000000000000000        0.0000000000000000     
  0.90625000000000000       0.50000000000000000        0.0000000000000000     
  0.93750000000000000       0.50000000000000000        0.0000000000000000     
  0.96875000000000000       0.50000000000000000        0.0000000000000000     
   1.0000000000000000       0.50000000000000000        0.0000000000000000     
   0.0000000000000000       0.50000000000000000        0.0000000000000000     
   3.1250000000000000E-002  0.50000000000000000        0.0000000000000000     
   6.2500000000000000E-002  0.50000000000000000        0.0000000000000000     
   9.3750000000000000E-002  0.50000000000000000        0.0000000000000000     
  0.12500000000000000       0.50000000000000000        0.0000000000000000     
   0.0000000000000000       0.53125000000000000        0.0000000000000000     
   3.1250000000000000E-002  0.53125000000000000        0.0000000000000000     
   6.2500000000000000E-002  0.53125000000000000        0.0000000000000000     
   9.3750000000000000E-002  0.53125000000000000        0.0000000000000000     
  0.12500000000000000       0.53125000000000000        0.0000000000000000     
   0.0000000000000000       0.56250000000000000        0.0000000000000000     
   3.1250000000000000E-002  0.56250000000000000        0.0000000000000000     
   6.2500000000000000E-002  0.56250000000000000        0.0000000000000000     
   9.3750000000000000E-002  0.56250000000000000        0.0000000000000000     
  0.12500000000000000       0.56250000000000000        0.0000000000000000     
   0.0000000000000000       0.59375000000000000        0.0000000000000000     
   3.1250000000000000E-002  0.59375000000000000        0.0000000000000000     
   6.2500000000000000E-002  0.59375000000000000        0.0000000000000000     
   9.3750000000000000E-002  0.59375000000000000        0.0000000000000000     
  0.12500000000000000       0.59375000000000000        0.0000000000000000     
   0.0000000000000000       0.62500000000000000        0.0000000000000000     
   3.1250000000000000E-002  0.62500000000000000        0.0000000000000000     
   6.2500000000000000E-002  0.62500000000000000        0.0000000000000000     
   9.3750000000000000E-002  0.62500000000000000        0.0000000000000000     
  0.12500000000000000       0.62500000000000000        0.0000000000000000     
  0.12500000000000000       0.50000000000000000        0.0000000000000000     
  0.15625000000000000       0.50000000000000000        0.0000000000000000     
  0.18750000000000000       0.50000000000000000        0.0000000000000000     
  0.21875000000000000       0.50000000000000000        0.0000000000000000     
  0.25000000000000000       0.50000000000000000        0.0000000000000000     
  0.12500000000000000       0.53125000000000000        0.0000000000000000     
  0.15625000000000000       0.53125000000000000        0.0000000000000000     
  0.18750000000000000       0.53125000000000000        0.0000000000000000     
  0.21875000000000000       0.53125000000000000        0.0000000000000000     
  0.25000000000000000       0.53125000000000000        0.0000000000000000     
  0.12500000000000000       0.56250000000000000        0.0000000000000000     
  0.15625000000000000       0.56250000000000000        0.0000000000000000     
  0.18750000000000000       0.56250000000000000        0.0000000000000000     
  0.21875000000000000       0.56250000000000000        0.0000000000000000     
  0.25000000000000000       0.56250000000000000        0.0000000000000000     
  0.12500000000000000       0.59375000000000000        0.0000000000000000     
  0.15625000000000000       0.59375000000000000        0.0000000000000000     
  0.18750000000000000       0.59375000000000000        0.0000000000000000     
  0.21875000000000000       0.59375000000000000        0.0000000000000000     
  0.25000000000000000       0.59375000000000000        0.0000000000000000     
  0.12500000000000000       0.62500000000000000        0.0000000000000000     
  0.15625000000000000       0.62500000000000000        0.0000000000000000     
  0.18750000000000000       0.62500000000000000        0.0000000000000000     
  0.21875000000000000       0.62500000000000000        0.0000000000000000     
  0.25000000000000000       0.62500000000000000        0.0000000000000000     
  0.25000000000000000       0.50000000000000000        0.0000000000000000     
  0.28125000000000000       0.50000000000000000        0.0000000000000000     
  0.31250000000000000       0.50000000000000000        0.0000000000000000     
  0.34375000000000000       0.50000000000000000        0.0000000000000000     
  0.37500000000000000       0.50000000000000000        0.0000000000000000     
  0.25000000000000000       0.53125000000000000        0.0000000000000000     
  0.28125000000000000       0.53125000000000000        0.0000000000000000     
  0.31250000000000000       0.53125000000000000        0.0000000000000000     
  0.34375000000000000       0.53125000000000000        0.0000000000000000     
  0.37500000000000000       0.53125000000000000        0.0000000000000000     
  0.25000000000000000       0.56250000000000000        0.0000000000000000     
  0.28125000000000000       0.56250000000000000        0.0000000000000000     
  0.31250000000000000       0.56250000000000000        0.0000000000000000     
  0.34375000000000000       0.56250000000000000        0.0000000000000000     
  0.37500000000000000       0.56250000000000000        0.0000000000000000     
  0.25000000000000000       0.59375000000000000        0.0000000000000000     
  0.28125000000000000       0.59375000000000000        0.0000000000000000     
  0.31250000000000000       0.59375000000000000        0.0000000000000000     
  0.34375000000000000       0.59375000000000000        0.0000000000000000     
  0.37500000000000000       0.59375000000000000        0.0000000000000000     
  0.25000000000000000       0.62500000000000000        0.0000000000000000     
  0.28125000000000000       0.62500000000000000        0.0000000000000000     
  0.31250000000000000       0.62500000000000000        0.0000000000000000     
  0.34375000000000000       0.62500000000000000        0.0000000000000000     
  0.37500000000000000       0.62500000000000000        0.0000000000000000     
  0.37500000000000000       0.50000000000000000        0.0000000000000000     
  0.40625000000000000       0.50000000000000000        0.0000000000000000     
  0.43750000000000000       0.50000000000000000        0.0000000000000000     
  0.46875000000000000       0.50000000000000000        0.0000000000000000     
  0.50000000000000000       0.50000000000000000        0.0000000000000000     
  0.37500000000000000       0.53125000000000000        0.0000000000000000     
  0.40625000000000000       0.53125000000000000        0.0000000000000000     
  0.43750000000000000       0.53125000000000000        0.0000000000000000     
  0.46875000000000000       0.53125000000000000        0.0000000000000000     
  0.50000000000000000       0.53125000000000000        0.0000000000000000     
  0.37500000000000000       0.56250000000000000        0.0000000000000000     
  0.40625000000000000       0.56250000000000000        0.0000000000000000     
  0.43750000000000000       0.56250000000000000        0.0000000000000000     
  0.46875000000000000       0.56250000000000000        0.0000000000000000     
  0.50000000000000000       0.56250000000000000        0.0000000000000000     
  0.37500000000000000       0.59375000000000000        0.0000000000000000     
  0.40625000000000000       0.59375000000000000        0.0000000000000000     
  0.43750000000000000       0.59375000000000000        0.0000000000000000     
  0.46875000000000000       0.59375000000000000        0.0000000000000000     
  0.50000000000000000       0.59375000000000000        0.0000000000000000     
  0.37500000000000000       0.62500000000000000        0.0000000000000000     
  0.40625000000000000       0.62500000000000000        0.0000000000000000     
  0.43750000000000000       0.62500000000000000        0.0000000000000000     
  0.46875000000000000       0.62500000000000000        0.0000000000000000     
  0.50000000000000000       0.62500000000000000        0.0000000000000000     
  0.50000000000000000       0.50000000000000000        0.0000000000000000     
  0.53125000000000000       0.50000000000000000        0.0000000000000000     
  0.56250000000000000       0.50000000000000000        0.0000000000000000     
  0.59375000000000000       0.50000000000000000        0.0000000000000000     
  0.62500000000000000       0.50000000000000000        0.0000000000000000     
  0.50000000000000000       0.53125000000000000        0.0000000000000000     
  0.53125000000000000       0.53125000000000000        0.0000000000000000     
  0.56250000000000000       0.53125000000000000        0.0000000000000000     
  0.59375000000000000       0.53125000000000000        0.0000000000000000     
  0.62500000000000000       0.53125000000000000        0.0000000000000000     
  0.50000000000000000       0.56250000000000000        0.0000000000000000     
  0.53125000000000000       0.56250000000000000        0.0000000000000000     
  0.56250000000000000       0.56250000000000000        0.0000000000000000     
  0.59375000000000000       0.56250000000000000        0.0000000000000000     
  0.62500000000000000       0.56250000000000000        0.0000000000000000     
  0.50000000000000000       0.59375000000000000        0.0000000000000000     
  0.53125000000000000       0.59375000000000000        0.0000000000000000     
  0.56250000000000000       0.59375000000000000        0.0000000000000000     
  0.59375000000000000       0.59375000000000000        0.0000000000000000     
  0.62500000000000000       0.59375000000000000        0.0000000000000000     
  0.50000000000000000       0.62500000000000000        0.0000000000000000     
  0.53125000000000000       0.62500000000000000        0.0000000000000000     
  0.56250000000000000       0.62500000000000000        0.0000000000000000     
  0.59375000000000000       0.62500000000000000        0.0000000000000000     
  0.62500000000000000       0.62500000000000000        0.0000000000000000     
  0.62500000000000000       0.50000000000000000        0.0000000000000000     
  0.65625000000000000       0.50000000000000000        0.0000000000000000     
  0.68750000000000000       0.50000000000000000        0.0000000000000000     
  0.71875000000000000       0.50000000000000000        0.0000000000000000     
  0.75000000000000000       0.50000000000000000        0.0000000000000000     
  0.62500000000000000       0.53125000000000000        0.0000000000000000     
  0.65625000000000000       0.53125000000000000        0.0000000000000000     
  0.68750000000000000       0.53125000000000000        0.0000000000000000     
  0.71875000000000000       0.53125000000000000        0.0000000000000000     
  0.75000000000000000       0.53125000000000000        0.0000000000000000     
  0.62500000000000000       0.56250000000000000        0.0000000000000000     
  0.65625000000000000       0.56250000000000000        0.0000000000000000     
  0.68750000000000000       0.56250000000000000        0.0000000000000000     
  0.71875000000000000       0.56250000000000000        0.0000000000000000     
  0.75000000000000000       0.56250000000000000        0.0000000000000000     
  0.62500000000000000       0.59375000000000000        0.0000000000000000     
  0.65625000000000000       0.59375000000000000        0.0000000000000000     
  0.68750000000000000       0.59375000000000000        0.0000000000000000     
  0.71875000000000000       0.59375000000000000        0.0000000000000000     
  0.75000000000000000       0.59375000000000000        0.0000000000000000     
  0.62500000000000000       0.62500000000000000        0.0000000000000000     
  0.65625000000000000       0.62500000000000000        0.0000000000000000     
  0.68750000000000000       0.62500000000000000        0.0000000000000000     
  0.71875000000000000       0.62500000000000000        0.0000000000000000     
  0.75000000000000000       0.62500000000000000        0.0000000000000000     
  0.75000000000000000       0.50000000000000000        0.0000000000000000     
  0.78125000000000000       0.50000000000000000        0.0000000000000000     
  0.81250000000000000       0.50000000000000000        0.0000000000000000     
  0.84375000000000000       0.50000000000000000        0.0000000000000000     
  0.87500000000000000       0.50000000000000000        0.0000000000000000     
  0.75000000000000000       0.53125000000000000        0.0000000000000000     
  0.78125000000000000       0.53125000000000000        0.0000000000000000     
  0.81250000000000000       0.53125000000000000        0.0000000000000000     
  0.84375000000000000       0.53125000000000000        0.0000000000000000     
  0.87500000000000000       0.53125000000000000        0.0000000000000000     
  0.75000000000000000       0.56250000000000000        0.0000000000000000     
  0.78125000000000000       0.56250000000000000        0.0000000000000000     
  0.81250000000000000       0.56250000000000000        0.0000000000000000     
  0.84375000000000000       0.56250000000000000        0.0000000000000000     
  0.87500000000000000       0.56250000000000000        0.0000000000000000     
  0.75000000000000000       0.59375000000000000        0.0000000000000000     
  0.78125000000000000       0.59375000000000000        0.0000000000000000     
  0.81250000000000000       0.59375000000000000        0.0000000000000000     
  0.84375000000000000       0.59375000000000000        0.0000000000000000     
  0.87500000000000000       0.59375000000000000        0.0000000000000000     
  0.75000000000000000       0.62500000000000000        0.0000000000000000     
  0.78125000000000000       0.62500000000000000        0.0000000000000000     
  0.81250000000000000       0.62500000000000000        0.0000000000000000     
  0.84375000000000000       0.62500000000000000        0.0000000000000000     
  0.87500000000000000       0.62500000000000000        0.0000000000000000     
  0.87500000000000000       0.50000000000000000        0.0000000000000000     
  0.90625000000000000       0.50000000000000000        0.0000000000000000     
  0.93750000000000000       0.50000000000000000        0.0000000000000000     
  0.96875000000000000       0.50000000000000000        0.0000000000000000     
   1.0000000000000000       0.50000000000000000        0.0000000000000000     
  0.87500000000000000       0.53125000000000000        0.0000000000000000     
  0.90625000000000000       0.53125000000000000        0.0000000000000000     
  0.93750000000000000       0.53125000000000000        0.0000000000000000     
  0.96875000000000000       0.53125000000000000        0.0000000000000000     
   1.0000000000000000       0.53125000000000000        0.0000000000000000     
  0.87500000000000000       0.56250000000000000        0.0000000000000000     
  0.90625000000000000       0.56250000000000000        0.0000000000000000     
  0.93750000000000000       0.56250000000000000        0.0000000000000000     
  0.96875000000000000       0.56250000000000000        0.0000000000000000     
   1.0000000000000000       0.56250000000000000        0.0000000000000000     
  0.87500000000000000       0.59375000000000000        0.0000000000000000     
  0.90625000000000000       0.59375000000000000        0.0000000000000000     
  0.93750000000000000       0.59375000000000000        0.0000000000000000     
  0.96875000000000000       0.59375000000000000        0.0000000000000000     
   1.0000000000000000       0.59375000000000000        0.0000000000000000     
  0.87500000000000000       0.62500000000000000        0.0000000000000000     
  0.90625000000000000       0.62500000000000000        0.0000000000000000     
  0.93750000000000000       0.62500000000000000        0.0000000000000000     
  0.96875000000000000       0.62500000000000000        0.0000000000000000     
   1.0000000000000000       0.62500000000000000        0.0000000000000000     
   0.0000000000000000       0.62500000000000000        0.0000000000000000     
   3.1250000000000000E-002  0.62500000000000000        0.0000000000000000     
   6.2500000000000000E-002  0.62500000000000000        0.0000000000000000     
   9.3750000000000000E-002  0.62500000000000000        0.0000000000000000     
  0.12500000000000000       0.62500000000000000        0.0000000000000000     
   0.0000000000000000       0.65625000000000000        0.0000000000000000     
   3.1250000000000000E-002  0.65625000000000000        0.0000000000000000     
   6.2500000000000000E-002  0.65625000000000000        0.0000000000000000     
   9.3750000000000000E-002  0.65625000000000000        0.0000000000000000     
  0.12500000000000000       0.65625000000000000        0.0000000000000000     
   0.0000000000000000       0.68750000000000000        0.0000000000000000     
   3.1250000000000000E-002  0.68750000000000000        0.0000000000000000     
   6.2500000000000000E-002  0.68750000000000000        0.0000000000000000     
   9.3750000000000000E-002  0.68750000000000000        0.0000000000000000     
  0.12500000000000000       0.68750000000000000        0.0000000000000000     
   0.0000000000000000       0.71875000000000000        0.0000000000000000     
   3.1250000000000000E-002  0.71875000000000000        0.0000000000000000     
   6.2500000000000000E-002  0.71875000000000000        0.0000000000000000     
   9.3750000000000000E-002  0.71875000000000000        0.0000000000000000     
  0.12500000000000000       0.71875000000000000        0.0000000000000000     
   0.0000000000000000       0.75000000000000000        0.0000000000000000     
   3.1250000000000000E-002  0.75000000000000000        0.0000000000000000     
   6.2500000000000000E-002  0.75000000000000000        0.0000000000000000     
   9.3750000000000000E-002  0.75000000000000000        0.0000000000000000     
  0.12500000000000000       0.75000000000000000        0.0000000000000000     
  0.12500000000000000       0.62500000000000000        0.0000000000000000     
  0.15625000000000000       0.62500000000000000        0.0000000000000000     
  0.18750000000000000       0.62500000000000000        0.0000000000000000     
  0.21875000000000000       0.62500000000000000        0.0000000000000000     
  0.25000000000000000       0.62500000000000000        0.0000000000000000     
  0.12500000000000000       0.65625000000000000        0.0000000000000000     
  0.15625000000000000       0.65625000000000000        0.0000000000000000     
  0.18750000000000000       0.65625000000000000        0.0000000000000000     
  0.21875000000000000       0.65625000000000000        0.0000000000000000     
  0.25000000000000000       0.65625000000000000        0.0000000000000000     
  0.12500000000000000       0.68750000000000000        0.0000000000000000     
  0.15625000000000000       0.68750000000000000        0.0000000000000000     
  0.18750000000000000       0.68750000000000000        0.0000000000000000     
  0.21875000000000000       0.68750000000000000        0.0000000000000000     
  0.25000000000000000       0.68750000000000000        0.0000000000000000     
  0.12500000000000000       0.71875000000000000        0.0000000000000000     
  0.15625000000000000       0.71875000000000000        0.0000000000000000     
  0.18750000000000000       0.71875000000000000        0.0000000000000000     
  0.21875000000000000       0.71875000000000000        0.0000000000000000     
  0.25000000000000000       0.71875000000000000        0.0000000000000000     
  0.12500000000000000       0.75000000000000000        0.0000000000000000     
  0.15625000000000000       0.75000000000000000        0.0000000000000000     
  0.18750000000000000       0.75000000000000000        0.0000000000000000     
  0.21875000000000000       0.75000000000000000        0.0000000000000000     
  0.25000000000000000       0.75000000000000000        0.0000000000000000     
  0.25000000000000000       0.62500000000000000        0.0000000000000000     
  0.28125000000000000       0.62500000000000000        0.0000000000000000     
  0.31250000000000000       0.62500000000000000        0.0000000000000000     
  0.34375000000000000       0.62500000000000000        0.0000000000000000     
  0.37500000000000000       0.62500000000000000        0.0000000000000000     
  0.25000000000000000       0.65625000000000000        0.0000000000000000     
  0.28125000000000000       0.65625000000000000        0.0000000000000000     
  0.31250000000000000       0.65625000000000000        0.0000000000000000     
  0.34375000000000000       0.65625000000000000        0.0000000000000000     
  0.37500000000000000       0.65625000000000000        0.0000000000000000     
  0.25000000000000000       0.68750000000000000        0.0000000000000000     
  0.28125000000000000       0.68750000000000000        0.0000000000000000     
  0.31250000000000000       0.68750000000000000        0.0000000000000000     
  0.34375000000000000       0.68750000000000000        0.0000000000000000     
  0.37500000000000000       0.68750000000000000        0.0000000000000000     
  0.25000000000000000       0.71875000000000000        0.0000000000000000     
  0.28125000000000000       0.71875000000000000        0.0000000000000000     
  0.31250000000000000       0.71875000000000000        0.0000000000000000     
  0.34375000000000000       0.71875000000000000        0.0000000000000000     
  0.37500000000000000       0.71875000000000000        0.0000000000000000     
  0.25000000000000000       0.75000000000000000        0.0000000000000000     
  0.28125000000000000       0.75000000000000000        0.0000000000000000     
  0.31250000000000000       0.75000000000000000        0.0000000000000000     
  0.34375000000000000       0.75000000000000000        0.0000000000000000     
  0.37500000000000000       0.75000000000000000        0.0000000000000000     
  0.37500000000000000       0.62500000000000000        0.0000000000000000     
  0.40625000000000000       0.62500000000000000        0.0000000000000000     
  0.43750000000000000       0.62500000000000000        0.0000000000000000     
  0.46875000000000000       0.62500000000000000        0.0000000000000000     
  0.50000000000000000       0.62500000000000000        0.0000000000000000     
  0.37500000000000000       0.65625000000000000        0.0000000000000000     
  0.40625000000000000       0.65625000000000000        0.0000000000000000     
  0.43750000000000000       0.65625000000000000        0.0000000000000000     
  0.46875000000000000       0.65625000000000000        0.0000000000000000     
  0.50000000000000000       0.65625000000000000        0.0000000000000000     
  0.37500000000000000       0.68750000000000000        0.0000000000000000     
  0.40625000000000000       0.68750000000000000        0.0000000000000000     
  0.43750000000000000       0.68750000000000000        0.0000000000000000     
  0.46875000000000000       0.68750000000000000        0.0000000000000000     
  0.50000000000000000       0.68750000000000000        0.0000000000000000     
  0.37500000000000000       0.71875000000000000        0.0000000000000000     
  0.40625000000000000       0.71875000000000000        0.0000000000000000     
  0.43750000000000000       0.71875000000000000        0.0000000000000000     
  0.46875000000000000       0.71875000000000000        0.0000000000000000     
  0.50000000000000000       0.71875000000000000        0.0000000000000000     
  0.37500000000000000       0.75000000000000000        0.0000000000000000     
  0.40625000000000000       0.75000000000000000        0.0000000000000000     
  0.43750000000000000       0.75000000000000000        0.0000000000000000     
  0.46875000000000000       0.75000000000000000        0.0000000000000000     
  0.50000000000000000       0.75000000000000000        0.0000000000000000     
  0.50000000000000000       0.62500000000000000        0.0000000000000000     
  0.53125000000000000       0.62500000000000000        0.0000000000000000     
  0.56250000000000000       0.62500000000000000        0.0000000000000000     
  0.59375000000000000       0.62500000000000000        0.0000000000000000     
  0.62500000000000000       0.62500000000000000        0.0000000000000000     
  0.50000000000000000       0.65625000000000000        0.0000000000000000     
  0.53125000000000000       0.65625000000000000        0.0000000000000000     
  0.56250000000000000       0.65625000000000000        0.0000000000000000     
  0.59375000000000000       0.65625000000000000        0.0000000000000000     
  0.62500000000000000       0.65625000000000000        0.0000000000000000     
  0.50000000000000000       0.68750000000000000        0.0000000000000000     
  0.53125000000000000       0.68750000000000000        0.0000000000000000     
  0.56250000000000000       0.68750000000000000        0.0000000000000000     
  0.59375000000000000       0.68750000000000000        0.0000000000000000     
  0.62500000000000000       0.68750000000000000        0.0000000000000000     
  0.50000000000000000       0.71875000000000000        0.0000000000000000     
  0.53125000000000000       0.71875000000000000        0.0000000000000000     
  0.56250000000000000       0.71875000000000000        0.0000000000000000     
  0.59375000000000000       0.71875000000000000        0.0000000000000000     
  0.62500000000000000       0.71875000000000000        0.0000000000000000     
  0.50000000000000000       0.75000000000000000        0.0000000000000000     
  0.53125000000000000       0.75000000000000000        0.0000000000000000     
  0.56250000000000000       0.75000000000000000        0.0000000000000000     
  0.59375000000000000       0.75000000000000000        0.0000000000000000     
  0.62500000000000000       0.75000000000000000        0.0000000000000000     
  0.62500000000000000       0.62500000000000000        0.0000000000000000     
  0.65625000000000000       0.62500000000000000        0.0000000000000000     
  0.68750000000000000       0.62500000000000000        0.0000000000000000     
  0.71875000000000000       0.62500000000000000        0.0000000000000000     
  0.75000000000000000       0.62500000000000000        0.0000000000000000     
  0.62500000000000000       0.65625000000000000        0.0000000000000000     
  0.65625000000000000       0.65625000000000000        0.0000000000000000     
  0.68750000000000000       0.65625000000000000        0.0000000000000000     
  0.71875000000000000       0.65625000000000000        0.0000000000000000     
  0.75000000000000000       0.65625000000000000        0.0000000000000000     
  0.62500000000000000       0.68750000000000000        0.0000000000000000     
  0.65625000000000000       0.68750000000000000        0.0000000000000000     
  0.68750000000000000       0.68750000000000000        0.0000000000000000     
  0.71875000000000000       0.68750000000000000        0.0000000000000000     
  0.75000000000000000       0.68750000000000000        0.0000000000000000     
  0.62500000000000000       0.71875000000000000        0.0000000000000000     
  0.65625000000000000       0.71875000000000000        0.0000000000000000     
  0.68750000000000000       0.71875000000000000        0.0000000000000000     
  0.71875000000000000       0.71875000000000000        0.0000000000000000     
  0.75000000000000000       0.71875000000000000        0.0000000000000000     
  0.62500000000000000       0.75000000000000000        0.0000000000000000     
  0.65625000000000000       0.75000000000000000        0.0000000000000000     
  0.68750000000000000       0.75000000000000000        0.0000000000000000     
  0.71875000000000000       0.75000000000000000        0.0000000000000000     
  0.75000000000000000       0.75000000000000000        0.0000000000000000     
  0.75000000000000000       0.62500000000000000        0.0000000000000000     
  0.78125000000000000       0.62500000000000000        0.0000000000000000     
  0.81250000000000000       0.62500000000000000        0.0000000000000000     
  0.84375000000000000       0.62500000000000000        0.0000000000000000     
  0.87500000000000000       0.62500000000000000        0.0000000000000000     
  0.75000000000000000       0.65625000000000000        0.0000000000000000     
  0.78125000000000000       0.65625000000000000        0.0000000000000000     
  0.81250000000000000       0.65625000000000000        0.0000000000000000     
  0.84375000000000000       0.65625000000000000        0.0000000000000000     
  0.87500000000000000       0.65625000000000000        0.0000000000000000     
  0.75000000000000000       0.68750000000000000        0.0000000000000000     
  0.78125000000000000       0.68750000000000000        0.0000000000000000     
  0.81250000000000000       0.68750000000000000        0.0000000000000000     
  0.84375000000000000       0.68750000000000000        0.0000000000000000     
  0.87500000000000000       0.68750000000000000        0.0000000000000000     
  0.75000000000000000       0.71875000000000000        0.0000000000000000     
  0.78125000000000000       0.71875000000000000        0.0000000000000000     
  0.81250000000000000       0.71875000000000000        0.0000000000000000     
  0.84375000000000000       0.71875000000000000        0.0000000000000000     
  0.87500000000000000       0.71875000000000000        0.0000000000000000     
  0.75000000000000000       0.75000000000000000        0.0000000000000000     
  0.78125000000000000       0.75000000000000000        0.0000000000000000     
  0.81250000000000000       0.75000000000000000        0.0000000000000000     
  0.84375000000000000       0.75000000000000000        0.0000000000000000     
  0.87500000000000000       0.75000000000000000        0.0000000000000000     
  0.87500000000000000       0.62500000000000000        0.0000000000000000     
  0.90625000000000000       0.62500000000000000        0.0000000000000000     
  0.93750000000000000       0.62500000000000000        0.0000000000000000     
  0.96875000000000000       0.62500000000000000        0.0000000000000000     
   1.0000000000000000       0.62500000000000000        0.0000000000000000     
  0.87500000000000000       0.65625000000000000        0.0000000000000000     
  0.90625000000000000       0.65625000000000000        0.0000000000000000     
  0.93750000000000000       0.65625000000000000        0.0000000000000000     
  0.96875000000000000       0.65625000000000000        0.0000000000000000     
   1.0000000000000000       0.65625000000000000        0.0000000000000000     
  0.87500000000000000       0.68750000000000000        0.0000000000000000     
  0.90625000000000000       0.68750000000000000        0.0000000000000000     
  0.93750000000000000       0.68750000000000000        0.0000000000000000     
  0.96875000000000000       0.68750000000000000        0.0000000000000000     
   1.0000000000000000       0.68750000000000000        0.0000000000000000     
  0.87500000000000000       0.71875000000000000        0.0000000000000000     
  0.90625000000000000       0.71875000000000000        0.0000000000000000     
  0.93750000000000000       0.71875000000000000        0.0000000000000000     
  0.96875000000000000       0.71875000000000000        0.0000000000000000     
   1.0000000000000000       0.71875000000000000        0.0000000000000000     
  0.87500000000000000       0.75000000000000000        0.0000000000000000     
  0.90625000000000000       0.75000000000000000        0.0000000000000000     
  0.93750000000000000       0.75000000000000000        0.0000000000000000     
  0.96875000000000000       0.75000000000000000        0.0000000000000000     
   1.0000000000000000       0.75000000000000000        0.0000000000000000     
   0.0000000000000000       0.75000000000000000        0.0000000000000000     
   3.1250000000000000E-002  0.75000000000000000        0.0000000000000000     
   6.2500000000000000E-002  0.75000000000000000        0.0000000000000000     
   9.3750000000000000E-002  0.75000000000000000        0.0000000000000000     
  0.12500000000000000       0.75000000000000000        0.0000000000000000     
   0.0000000000000000       0.78125000000000000        0.0000000000000000     
   3.1250000000000000E-002  0.78125000000000000        0.0000000000000000     
   6.2500000000000000E-002  0.78125000000000000        0.0000000000000000     
   9.3750000000000000E-002  0.78125000000000000        0.0000000000000000     
  0.12500000000000000       0.78125000000000000        0.0000000000000000     
   0.0000000000000000       0.81250000000000000        0.0000000000000000     
   3.1250000000000000E-002  0.81250000000000000        0.0000000000000000     
   6.2500000000000000E-002  0.81250000000000000        0.0000000000000000     
   9.3750000000000000E-002  0.81250000000000000        0.0000000000000000     
  0.12500000000000000       0.81250000000000000        0.0000000000000000     
   0.0000000000000000       0.84375000000000000        0.0000000000000000     
   3.1250000000000000E-002  0.84375000000000000        0.0000000000000000     
   6.2500000000000000E-002  0.84375000000000000        0.0000000000000000     
   9.3750000000000000E-002  0.84375000000000000        0.0000000000000000     
  0.12500000000000000       0.84375000000000000        0.0000000000000000     
   0.0000000000000000       0.87500000000000000        0.0000000000000000     
   3.1250000000000000E-002  0.87500000000000000        0.0000000000000000     
   6.2500000000000000E-002  0.87500000000000000        0.0000000000000000     
   9.3750000000000000E-002  0.87500000000000000        0.0000000000000000     
  0.12500000000000000       0.87500000000000000        0.0000000000000000     
  0.12500000000000000       0.75000000000000000        0.0000000000000000     
  0.15625000000000000       0.75000000000000000        0.0000000000000000     
  0.18750000000000000       0.75000000000000000        0.0000000000000000     
  0.21875000000000000       0.75000000000000000        0.0000000000000000     
  0.25000000000000000       0.75000000000000000        0.0000000000000000     
  0.12500000000000000       0.78125000000000000        0.0000000000000000     
  0.15625000000000000       0.78125000000000000        0.0000000000000000     
  0.18750000000000000       0.78125000000000000        0.0000000000000000     
  0.21875000000000000       0.78125000000000000        0.0000000000000000     
  0.25000000000000000       0.78125000000000000        0.0000000000000000     
  0.12500000000000000       0.81250000000000000        0.0000000000000000     
  0.15625000000000000       0.81250000000000000        0.0000000000000000     
  0.18750000000000000       0.81250000000000000        0.0000000000000000     
  0.21875000000000000       0.81250000000000000        0.0000000000000000     
  0.25000000000000000       0.81250000000000000        0.0000000000000000     
  0.12500000000000000       0.84375000000000000        0.0000000000000000     
  0.15625000000000000       0.84375000000000000        0.0000000000000000     
  0.18750000000000000       0.84375000000000000        0.0000000000000000     
  0.21875000000000000       0.84375000000000000        0.0000000000000000     
  0.25000000000000000       0.84375000000000000        0.0000000000000000     
  0.12500000000000000       0.87500000000000000        0.0000000000000000     
  0.15625000000000000       0.87500000000000000        0.0000000000000000     
  0.18750000000000000       0.87500000000000000        0.0000000000000000     
  0.21875000000000000       0.87500000000000000        0.0000000000000000     
  0.25000000000000000       0.87500000000000000        0.0000000000000000     
  0.25000000000000000       0.75000000000000000        0.0000000000000000     
  0.28125000000000000       0.75000000000000000        0.0000000000000000     
  0.31250000000000000       0.75000000000000000        0.0000000000000000     
  0.34375000000000000       0.75000000000000000        0.0000000000000000     
  0.37500000000000000       0.75000000000000000        0.0000000000000000     
  0.25000000000000000       0.78125000000000000        0.0000000000000000     
  0.28125000000000000       0.78125000000000000        0.0000000000000000     
  0.31250000000000000       0.78125000000000000        0.0000000000000000     
  0.34375000000000000       0.78125000000000000        0.0000000000000000     
  0.37500000000000000       0.78125000000000000        0.0000000000000000     
  0.25000000000000000       0.81250000000000000        0.0000000000000000     
  0.28125000000000000       0.81250000000000000        0.0000000000000000     
  0.31250000000000000       0.81250000000000000        0.0000000000000000     
  0.34375000000000000       0.81250000000000000        0.0000000000000000     
  0.37500000000000000       0.81250000000000000        0.0000000000000000     
  0.25000000000000000       0.84375000000000000        0.0000000000000000     
  0.28125000000000000       0.84375000000000000        0.0000000000000000     
  0.31250000000000000       0.84375000000000000        0.0000000000000000     
  0.34375000000000000       0.84375000000000000        0.0000000000000000     
  0.37500000000000000       0.84375000000000000        0.0000000000000000     
  0.25000000000000000       0.87500000000000000        0.0000000000000000     
  0.28125000000000000       0.87500000000000000        0.0000000000000000     
  0.31250000000000000       0.87500000000000000        0.0000000000000000     
  0.34375000000000000       0.87500000000000000        0.0000000000000000     
  0.37500000000000000       0.87500000000000000        0.0000000000000000     
  0.37500000000000000       0.75000000000000000        0.0000000000000000     
  0.40625000000000000       0.75000000000000000        0.0000000000000000     
  0.43750000000000000       0.75000000000000000        0.0000000000000000     
  0.46875000000000000       0.75000000000000000        0.0000000000000000     
  0.50000000000000000       0.75000000000000000        0.0000000000000000     
  0.37500000000000000       0.78125000000000000        0.0000000000000000     
  0.40625000000000000       0.78125000000000000        0.0000000000000000     
  0.43750000000000000       0.78125000000000000        0.0000000000000000     
  0.46875000000000000       0.78125000000000000        0.0000000000000000     
  0.50000000000000000       0.78125000000000000        0.0000000000000000     
  0.37500000000000000       0.81250000000000000        0.0000000000000000     
  0.40625000000000000       0.81250000000000000        0.0000000000000000     
  0.43750000000000000       0.81250000000000000        0.0000000000000000     
  0.46875000000000000       0.81250000000000000        0.0000000000000000     
  0.50000000000000000       0.81250000000000000        0.0000000000000000     
  0.37500000000000000       0.84375000000000000        0.0000000000000000     
  0.40625000000000000       0.84375000000000000        0.0000000000000000     
  0.43750000000000000       0.84375000000000000        0.0000000000000000     
  0.46875000000000000       0.84375000000000000        0.0000000000000000     
  0.50000000000000000       0.84375000000000000        0.0000000000000000     
  0.37500000000000000       0.87500000000000000        0.0000000000000000     
  0.40625000000000000       0.87500000000000000        0.0000000000000000     
  0.43750000000000000       0.87500000000000000        0.0000000000000000     
  0.46875000000000000       0.87500000000000000        0.0000000000000000     
  0.50000000000000000       0.87500000000000000        0.0000000000000000     
  0.50000000000000000       0.75000000000000000        0.0000000000000000     
  0.53125000000000000       0.75000000000000000        0.0000000000000000     
  0.56250000000000000       0.75000000000000000        0.0000000000000000     
  0.59375000000000000       0.75000000000000000        0.0000000000000000     
  0.62500000000000000       0.75000000000000000        0.0000000000000000     
  0.50000000000000000       0.78125000000000000        0.0000000000000000     
  0.53125000000000000       0.78125000000000000        0.0000000000000000     
  0.56250000000000000       0.78125000000000000        0.0000000000000000     
  0.59375000000000000       0.78125000000000000        0.0000000000000000     
  0.62500000000000000       0.78125000000000000        0.0000000000000000     
  0.50000000000000000       0.81250000000000000        0.0000000000000000     
  0.53125000000000000       0.81250000000000000        0.0000000000000000     
  0.56250000000000000       0.81250000000000000        0.0000000000000000     
  0.59375000000000000       0.81250000000000000        0.0000000000000000     
  0.62500000000000000       0.81250000000000000        0.0000000000000000     
  0.50000000000000000       0.84375000000000000        0.0000000000000000     
  0.53125000000000000       0.84375000000000000        0.0000000000000000     
  0.56250000000000000       0.84375000000000000        0.0000000000000000     
  0.59375000000000000       0.84375000000000000        0.0000000000000000     
  0.62500000000000000       0.84375000000000000        0.0000000000000000     
  0.50000000000000000       0.87500000000000000        0.0000000000000000     
  0.53125000000000000       0.87500000000000000        0.0000000000000000     
  0.56250000000000000       0.87500000000000000        0.0000000000000000     
  0.59375000000000000       0.87500000000000000        0.0000000000000000     
  0.62500000000000000       0.87500000000000000        0.0000000000000000     
  0.62500000000000000       0.75000000000000000        0.0000000000000000     
  0.65625000000000000       0.75000000000000000        0.0000000000000000     
  0.68750000000000000       0.75000000000000000        0.0000000000000000     
  0.71875000000000000       0.75000000000000000        0.0000000000000000     
  0.75000000000000000       0.75000000000000000        0.0000000000000000     
  0.62500000000000000       0.78125000000000000        0.0000000000000000     
  0.65625000000000000       0.78125000000000000        0.0000000000000000     
  0.68750000000000000       0.78125000000000000        0.0000000000000000     
  0.71875000000000000       0.78125000000000000        0.0000000000000000     
  0.75000000000000000       0.78125000000000000        0.0000000000000000     
  0.62500000000000000       0.81250000000000000        0.0000000000000000     
  0.65625000000000000       0.81250000000000000        0.0000000000000000     
  0.68750000000000000       0.81250000000000000        0.0000000000000000     
  0.71875000000000000       0.81250000000000000        0.0000000000000000     
  0.75000000000000000       0.81250000000000000        0.0000000000000000     
  0.62500000000000000       0.84375000000000000        0.0000000000000000     
  0.65625000000000000       0.84375000000000000        0.0000000000000000     
  0.68750000000000000       0.84375000000000000        0.0000000000000000     
  0.71875000000000000       0.84375000000000000        0.0000000000000000     
  0.75000000000000000       0.84375000000000000        0.0000000000000000     
  0.62500000000000000       0.87500000000000000        0.0000000000000000     
  0.65625000000000000       0.87500000000000000        0.0000000000000000     
  0.68750000000000000       0.87500000000000000        0.0000000000000000     
  0.71875000000000000       0.87500000000000000        0.0000000000000000     
  0.75000000000000000       0.87500000000000000        0.0000000000000000     
  0.75000000000000000       0.75000000000000000        0.0000000000000000     
  0.78125000000000000       0.75000000000000000        0.0000000000000000     
  0.81250000000000000       0.75000000000000000        0.0000000000000000     
  0.84375000000000000       0.75000000000000000        0.0000000000000000     
  0.87500000000000000       0.75000000000000000        0.0000000000000000     
  0.75000000000000000       0.78125000000000000        0.0000000000000000     
  0.78125000000000000       0.78125000000000000        0.0000000000000000     
  0.81250000000000000       0.78125000000000000        0.0000000000000000     
  0.84375000000000000       0.78125000000000000        0.0000000000000000     
  0.87500000000000000       0.78125000000000000        0.0000000000000000     
  0.75000000000000000       0.81250000000000000        0.0000000000000000     
  0.78125000000000000       0.81250000000000000        0.0000000000000000     
  0.81250000000000000       0.81250000000000000        0.0000000000000000     
  0.84375000000000000       0.81250000000000000        0.0000000000000000     
  0.87500000000000000       0.81250000000000000        0.0000000000000000     
  0.75000000000000000       0.84375000000000000        0.0000000000000000     
  0.78125000000000000       0.84375000000000000        0.0000000000000000     
  0.81250000000000000       0.84375000000000000        0.0000000000000000     
  0.84375000000000000       0.84375000000000000        0.0000000000000000     
  0.87500000000000000       0.84375000000000000        0.0000000000000000     
  0.75000000000000000       0.87500000000000000        0.0000000000000000     
  0.78125000000000000       0.87500000000000000        0.0000000000000000     
  0.81250000000000000       0.87500000000000000        0.0000000000000000     
  0.84375000000000000       0.87500000000000000        0.0000000000000000     
  0.87500000000000000       0.87500000000000000        0.0000000000000000     
  0.87500000000000000       0.75000000000000000        0.0000000000000000     
  0.90625000000000000       0.75000000000000000        0.0000000000000000     
  0.93750000000000000       0.75000000000000000        0.0000000000000000     
  0.96875000000000000       0.75000000000000000        0.0000000000000000     
   1.0000000000000000       0.75000000000000000        0.0000000000000000     
  0.87500000000000000       0.78125000000000000        0.0000000000000000     
  0.90625000000000000       0.78125000000000000        0.0000000000000000     
  0.93750000000000000       0.78125000000000000        0.0000000000000000     
  0.96875000000000000       0.78125000000000000        0.0000000000000000     
   1.0000000000000000       0.78125000000000000        0.0000000000000000     
  0.87500000000000000       0.81250000000000000        0.0000000000000000     
  0.90625000000000000       0.81250000000000000        0.0000000000000000     
  0.93750000000000000       0.81250000000000000        0.0000000000000000     
  0.96875000000000000       0.81250000000000000        0.0000000000000000     
   1.0000000000000000       0.81250000000000000        0.0000000000000000     
  0.87500000000000000       0.84375000000000000        0.0000000000000000     
  0.90625000000000000       0.84375000000000000        0.0000000000000000     
  0.93750000000000000       0.84375000000000000        0.0000000000000000     
  0.96875000000000000       0.84375000000000000        0.0000000000000000     
   1.0000000000000000       0.84375000000000000        0.0000000000000000     
  0.87500000000000000       0.87500000000000000        0.0000000000000000     
  0.90625000000000000       0.87500000000000000        0.0000000000000000     
  0.93750000000000000       0.87500000000000000        0.0000000000000000     
  0.96875000000000000       0.87500000000000000        0.0000000000000000     
   1.0000000000000000       0.87500000000000000        0.0000000000000000     
   0.0000000000000000       0.87500000000000000        0.0000000000000000     
   3.1250000000000000E-002  0.87500000000000000        0.0000000000000000     
   6.2500000000000000E-002  0.87500000000000000        0.0000000000000000     
   9.3750000000000000E-002  0.87500000000000000        0.0000000000000000     
  0.12500000000000000       0.87500000000000000        0.0000000000000000     
   0.0000000000000000       0.90625000000000000        0.0000000000000000     
   3.1250000000000000E-002  0.90625000000000000        0.0000000000000000     
   6.2500000000000000E-002  0.90625000000000000        0.0000000000000000     
   9.3750000000000000E-002  0.90625000000000000        0.0000000000000000     
  0.12500000000000000       0.90625000000000000        0.0000000000000000     
   0.0000000000000000       0.93750000000000000        0.0000000000000000     
   3.1250000000000000E-002  0.93750000000000000        0.0000000000000000     
   6.2500000000000000E-002  0.93750000000000000        0.0000000000000000     
   9.3750000000000000E-002  0.93750000000000000        0.0000000000000000     
  0.12500000000000000       0.93750000000000000        0.0000000000000000     
   0.0000000000000000       0.96875000000000000        0.0000000000000000     
   3.1250000000000000E-002  0.96875000000000000        0.0000000000000000     
   6.2500000000000000E-002  0.96875000000000000        0.0000000000000000     
   9.3750000000000000E-002  0.96875000000000000        0.0000000000000000     
  0.12500000000000000       0.96875000000000000        0.0000000000000000     
   0.0000000000000000        1.0000000000000000        0.0000000000000000     
   3.1250000000000000E-002   1.0000000000000000        0.0000000000000000     
   6.2500000000000000E-002   1.0000000000000000        0.0000000000000000     
   9.3750000000000000E-002   1.0000000000000000        0.0000000000000000     
  0.12500000000000000        1.0000000000000000        0.0000000000000000     
  0.12500000000000000       0.87500000000000000        0.0000000000000000     
  0.15625000000000000       0.87500000000000000        0.0000000000000000     
  0.18750000000000000       0.87500000000000000        0.0000000000000000     
  0.21875000000000000       0.87500000000000000        0.0000000000000000     
  0.25000000000000000       0.87500000000000000        0.0000000000000000     
  0.12500000000000000       0.90625000000000000        0.0000000000000000     
  0.15625000000000000       0.90625000000000000        0.0000000000000000     
  0.18750000000000000       0.90625000000000000        0.0000000000000000     
  0.21875000000000000       0.90625000000000000        0.0000000000000000     
  0.25000000000000000       0.90625000000000000        0.0000000000000000     
  0.12500000000000000       0.93750000000000000        0.0000000000000000     
  0.15625000000000000       0.93750000000000000        0.0000000000000000     
  0.18750000000000000       0.93750000000000000        0.0000000000000000     
  0.21875000000000000       0.93750000000000000        0.0000000000000000     
  0.25000000000000000       0.93750000000000000        0.0000000000000000     
  0.12500000000000000       0.96875000000000000        0.0000000000000000     
  0.15625000000000000       0.96875000000000000        0.0000000000000000     
  0.18750000000000000       0.96875000000000000        0.0000000000000000     
  0.21875000000000000       0.96875000000000000        0.0000000000000000     
  0.25000000000000000       0.96875000000000000        0.0000000000000000     
  0.12500000000000000        1.0000000000000000        0.0000000000000000     
  0.15625000000000000        1.0000000000000000        0.0000000000000000     
  0.18750000000000000        1.0000000000000000        0.0000000000000000     
  0.21875000000000000        1.0000000000000000        0.0000000000000000     
  0.25000000000000000        1.0000000000000000        0.0000000000000000     
  0.25000000000000000       0.87500000000000000        0.0000000000000000     
  0.28125000000000000       0.87500000000000000        0.0000000000000000     
  0.31250000000000000       0.87500000000000000        0.0000000000000000     
  0.34375000000000000       0.87500000000000000        0.0000000000000000     
  0.37500000000000000       0.87500000000000000        0.0000000000000000     
  0.25000000000000000       0.90625000000000000        0.0000000000000000     
  0.28125000000000000       0.90625000000000000        0.0000000000000000     
  0.31250000000000000       0.90625000000000000        0.0000000000000000     
  0.34375000000000000       0.90625000000000000        0.0000000000000000     
  0.37500000000000000       0.90625000000000000        0.0000000000000000     
  0.25000000000000000       0.93750000000000000        0.0000000000000000     
  0.28125000000000000       0.93750000000000000        0.0000000000000000     
  0.31250000000000000       0.93750000000000000        0.0000000000000000     
  0.34375000000000000       0.93750000000000000        0.0000000000000000     
  0.37500000000000000       0.93750000000000000        0.0000000000000000     
  0.25000000000000000       0.96875000000000000        0.0000000000000000     
  0.28125000000000000       0.96875000000000000        0.0000000000000000     
  0.31250000000000000       0.96875000000000000        0.0000000000000000     
  0.34375000000000000       0.96875000000000000        0.0000000000000000     
  0.37500000000000000       0.96875000000000000        0.0000000000000000     
  0.25000000000000000        1.0000000000000000        0.0000000000000000     
  0.28125000000000000        1.0000000000000000        0.0000000000000000     
  0.31250000000000000        1.0000000000000000        0.0000000000000000     
  0.34375000000000000        1.0000000000000000        0.0000000000000000     
  0.37500000000000000        1.0000000000000000        0.0000000000000000     
  0.37500000000000000       0.87500000000000000        0.0000000000000000     
  0.40625000000000000       0.87500000000000000        0.0000000000000000     
  0.43750000000000000       0.87500000000000000        0.0000000000000000     
  0.46875000000000000       0.87500000000000000        0.0000000000000000     
  0.50000000000000000       0.87500000000000000        0.0000000000000000     
  0.37500000000000000       0.90625000000000000        0.0000000000000000     
  0.40625000000000000       0.90625000000000000        0.0000000000000000     
  0.43750000000000000       0.90625000000000000        0.0000000000000000     
  0.46875000000000000       0.90625000000000000        0.0000000000000000     
  0.50000000000000000       0.90625000000000000        0.0000000000000000     
  0.37500000000000000       0.93750000000000000        0.0000000000000000     
  0.40625000000000000       0.93750000000000000        0.0000000000000000     
  0.43750000000000000       0.93750000000000000        0.0000000000000000     
  0.46875000000000000       0.93750000000000000        0.0000000000000000     
  0.50000000000000000       0.93750000000000000        0.0000000000000000     
  0.37500000000000000       0.96875000000000000        0.0000000000000000     
  0.40625000000000000       0.96875000000000000        0.0000000000000000     
  0.43750000000000000       0.96875000000000000        0.0000000000000000     
  0.46875000000000000       0.96875000000000000        0.0000000000000000     
  0.50000000000000000       0.96875000000000000        0.0000000000000000     
  0.37500000000000000        1.0000000000000000        0.0000000000000000     
  0.40625000000000000        1.0000000000000000        0.0000000000000000     
  0.43750000000000000        1.0000000000000000        0.0000000000000000     
  0.46875000000000000        1.0000000000000000        0.0000000000000000     
  0.50000000000000000        1.0000000000000000        0.0000000000000000     
  0.50000000000000000       0.87500000000000000        0.0000000000000000     
  0.53125000000000000       0.87500000000000000        0.0000000000000000     
  0.56250000000000000       0.87500000000000000        0.0000000000000000     
  0.59375000000000000       0.87500000000000000        0.0000000000000000     
  0.62500000000000000       0.87500000000000000        0.0000000000000000     
  0.50000000000000000       0.90625000000000000        0.0000000000000000     
  0.53125000000000000       0.90625000000000000        0.0000000000000000     
  0.56250000000000000       0.90625000000000000        0.0000000000000000     
  0.59375000000000000       0.90625000000000000        0.0000000000000000     
  0.62500000000000000       0.90625000000000000        0.0000000000000000     
  0.50000000000000000       0.93750000000000000        0.0000000000000000     
  0.53125000000000000       0.93750000000000000        0.0000000000000000     
  0.56250000000000000       0.93750000000000000        0.0000000000000000     
  0.59375000000000000       0.93750000000000000        0.0000000000000000     
  0.62500000000000000       0.93750000000000000        0.0000000000000000     
  0.50000000000000000       0.96875000000000000        0.0000000000000000     
  0.53125000000000000       0.96875000000000000        0.0000000000000000     
  0.56250000000000000       0.96875000000000000        0.0000000000000000     
  0.59375000000000000       0.96875000000000000        0.0000000000000000     
  0.62500000000000000       0.96875000000000000        0.0000000000000000     
  0.50000000000000000        1.0000000000000000        0.0000000000000000     
  0.53125000000000000        1.0000000000000000        0.0000000000000000     
  0.56250000000000000        1.0000000000000000        0.0000000000000000     
  0.59375000000000000        1.0000000000000000        0.0000000000000000     
  0.62500000000000000        1.0000000000000000        0.0000000000000000     
  0.62500000000000000       0.87500000000000000        0.0000000000000000     
  0.65625000000000000       0.87500000000000000        0.0000000000000000     
  0.68750000000000000       0.87500000000000000        0.0000000000000000     
  0.71875000000000000       0.87500000000000000        0.0000000000000000     
  0.75000000000000000       0.87500000000000000        0.0000000000000000     
  0.62500000000000000       0.90625000000000000        0.0000000000000000     
  0.65625000000000000       0.90625000000000000        0.0000000000000000     
  0.68750000000000000       0.90625000000000000        0.0000000000000000     
  0.71875000000000000       0.90625000000000000        0.0000000000000000     
  0.75000000000000000       0.90625000000000000        0.0000000000000000     
  0.62500000000000000       0.93750000000000000        0.0000000000000000     
  0.65625000000000000       0.93750000000000000        0.0000000000000000     
  0.68750000000000000       0.93750000000000000        0.0000000000000000     
  0.71875000000000000       0.93750000000000000        0.0000000000000000     
  0.75000000000000000       0.93750000000000000        0.0000000000000000     
  0.62500000000000000       0.96875000000000000        0.0000000000000000     
  0.65625000000000000       0.96875000000000000        0.0000000000000000     
  0.68750000000000000       0.96875000000000000        0.0000000000000000     
  0.71875000000000000       0.96875000000000000        0.0000000000000000     
  0.75000000000000000       0.96875000000000000        0.0000000000000000     
  0.62500000000000000        1.0000000000000000        0.0000000000000000     
  0.65625000000000000        1.0000000000000000        0.0000000000000000     
  0.68750000000000000        1.0000000000000000        0.0000000000000000     
  0.71875000000000000        1.0000000000000000        0.0000000000000000     
  0.75000000000000000        1.0000000000000000        0.0000000000000000     
  0.75000000000000000       0.87500000000000000        0.0000000000000000     
  0.78125000000000000       0.87500000000000000        0.0000000000000000     
  0.81250000000000000       0.87500000000000000        0.0000000000000000     
  0.84375000000000000       0.87500000000000000        0.0000000000000000     
  0.87500000000000000       0.87500000000000000        0.0000000000000000     
  0.75000000000000000       0.90625000000000000        0.0000000000000000     
  0.78125000000000000       0.90625000000000000        0.0000000000000000     
  0.81250000000000000       0.90625000000000000        0.0000000000000000     
  0.84375000000000000       0.90625000000000000        0.0000000000000000     
  0.87500000000000000       0.90625000000000000        0.0000000000000000     
  0.75000000000000000       0.93750000000000000        0.0000000000000000     
  0.78125000000000000       0.93750000000000000        0.0000000000000000     
  0.81250000000000000       0.93750000000000000        0.0000000000000000     
  0.84375000000000000       0.93750000000000000        0.0000000000000000     
  0.87500000000000000       0.93750000000000000        0.0000000000000000     
  0.75000000000000000       0.96875000000000000        0.0000000000000000     
  0.78125000000000000       0.96875000000000000        0.0000000000000000     
  0.81250000000000000       0.96875000000000000        0.0000000000000000     
  0.84375000000000000       0.96875000000000000        0.0000000000000000     
  0.87500000000000000       0.96875000000000000        0.0000000000000000     
  0.75000000000000000        1.0000000000000000        0.0000000000000000     
  0.78125000000000000        1.0000000000000000        0.0000000000000000     
  0.81250000000000000        1.0000000000000000        0.0000000000000000     
  0.84375000000000000        1.0000000000000000        0.0000000000000000     
  0.87500000000000000        1.0000000000000000        0.0000000000000000     
  0.87500000000000000       0.87500000000000000        0.0000000000000000     
  0.90625000000000000       0.87500000000000000        0.0000000000000000     
  0.93750000000000000       0.87500000000000000        0.0000000000000000     
  0.96875000000000000       0.87500000000000000        0.0000000000000000     
   1.0000000000000000       0.87500000000000000        0.0000000000000000     
  0.87500000000000000       0.90625000000000000        0.0000000000000000     
  0.90625000000000000       0.90625000000000000        0.0000000000000000     
  0.93750000000000000       0.90625000000000000        0.0000000000000000     
  0.96875000000000000       0.90625000000000000        0.0000000000000000     
   1.0000000000000000       0.90625000000000000        0.0000000000000000     
  0.87500000000000000       0.93750000000000000        0.0000000000000000     
  0.90625000000000000       0.93750000000000000        0.0000000000000000     
  0.93750000000000000       0.93750000000000000        0.0000000000000000     
  0.96875000000000000       0.93750000000000000        0.0000000000000000     
   1.0000000000000000       0.93750000000000000        0.0000000000000000     
  0.87500000000000000       0.96875000000000000        0.0000000000000000     
  0.90625000000000000       0.96875000000000000        0.0000000000000000     
  0.93750000000000000       0.96875000000000000        0.0000000000000000     
  0.96875000000000000       0.96875000000000000        0.0000000000000000     
   1.0000000000000000       0.96875000000000000        0.0000000000000000     
  0.87500000000000000        1.0000000000000000        0.0000000000000000     
  0.90625000000000000        1.0000000000000000        0.0000000000000000     
  0.93750000000000000        1.0000000000000000        0.0000000000000000     
  0.96875000000000000        1.0000000000000000        0.0000000000000000     
   1.0000000000000000        1.0000000000000000        0.0000000000000000     
 </DataArray>
 </Points>
 <Cells>
 <DataArray  type="Int32"  Name="connectivity"  format="ascii">
           0           1           6           5
           1           2           7           6
           2           3           8           7
           3           4           9           8
           5           6          11          10
           6           7          12          11
           7           8          13          12
           8           9          14          13
          10          11          16          15
          11          12          17          16
          12          13          18          17
          13          14          19          18
          15          16          21          20
          16          17          22          21
          17          18          23          22
          18          19          24          23
          25          26          31          30
          26          27          32          31
          27          28          33          32
          28          29          34          33
          30          31          36          35
          31          32          37          36
          32          33          38          37
          33          34          39          38
          35          36          41          40
          36          37          42          41
          37          38          43          42
          38          39          44          43
          40          41          46          45
          41          42          47          46
          42          43          48          47
          43          44          49          48
          50          51          56          55
          51          52          57          56
          52          53          58          57
          53          54          59          58
          55          56          61          60
          56          57          62          61
          57          58          63          62
          58          59          64          63
          60          61          66          65
          61          62          67          66
          62          63          68          67
          63          64          69          68
          65          66          71          70
          66          67          72          71
          67          68          73          72
          68          69          74          73
          75          76          81          80
          76          77          82          81
          77          78          83          82
          78          79          84          83
          80          81          86          85
          81          82          87          86
          82          83          88          87
          83          84          89          88
          85          86          91          90
          86          87          92          91
          87          88          93          92
          88          89          94          93
          90          91          96          95
          91          92          97          96
          92          93          98          97
          93          94          99          98
         100         101         106         105
         101         102         107         106
         102         103         108         107
         103         104         109         108
         105         106         111         110
         106         107         112         111
         107         108         113         112
         108         109         114         113
         110         111         116         115
         111         112         117         116
         112         113         118         117
         113         114         119         118
         115         116         121         120
         116         117         122         121
         117         118         123         122
         118         119         124         123
         125         126         131         130
         126         127         132         131
         127         128         133         132
         128         129         134         133
         130         131         136         135
         131         132         137         136
         132         133         138         137
         133         134         139         138
         135         136         141         140
         136         137         142         141
         137         138         143         142
         138         139         144         143
         140         141         146         145
         141         142         147         146
         142         143         148         147
         143         144         149         148
         150         151         156         155
         151         152         157         156
         152         153         158         157
         153         154         159         158
         155         156         161         160
         156         157         162         161
         157         158         163         162
         158         159         164         163
         160         161         166         165
         161         162         167         166
         162         163         168         167
         163         164         169         168
         165         166         171         170
         166         167         172         171
         167         168         173         172
         168         169         174         173
         175         176         181         180
         176         177         182         181
         177         178         183         182
         178         179         184         183
         180         181         186         185
         181         182         187         186
         182         183         188         187
         183         184         189         188
         185         186         191         190
         186         187         192         191
         187         188         193         192
         188         189         194         193
         190         191         196         195
         191         192         197         196
         192         193         198         197
         193         194         199         198
         200         201         206         205
         201         202         207         206
         202         203         208         207
         203         204         209         208
         205         206         211         210
         206         207         212         211
         207         208         213         212
         208         209         214         213
         210         211         216         215
         211         212         217         216
         212         213         218         217
         213         214         219         218
         215         216         221         220
         216         217         222         221
         217         218         223         222
         218         219         224         223
         225         226         231         230
         226         227         232         231
         227         228         233         232
         228         229         234         233
         230         231         236         235
         231         232         237         236
         232         233         238         237
         233         234         239         238
         235         236         241         240
         236         237         242         241
         237         238         243         242
         238         239         244         243
         240         241         246         245
         241         242         247         246
         242         243         248         247
         243         244         249         248
         250         251         256         255
         251         252         257         256
         252         253         258         257
         253         254         259         258
         255         256         261         260
         256         257         262         261
         257         258         263         262
         258         259         264         263
         260         261         266         265
         261         262         267         266
         262         263         268         267
         263         264         269         268
         265         266         271         270
         266         267         272         271
         267         268         273         272
         268         269         274         273
         275         276         281         280
         276         277         282         281
         277         278         283         282
         278         279         284         283
         280         281         286         285
         281         282         287         286
         282         283         288         287
         283         284         289         288
         285         286         291         290
         286         287         292         291
         287         288         293         292
         288         289         294         293
         290         291         296         295
         291         292         297         296
         292         293         298         297
         293         294         299         298
         300         301         306         305
         301         302         307         306
         302         303         308         307
         303         304         309         308
         305         306         311         310
         306         307         312         311
         307         308         313         312
         308         309         314         313
         310         311         316         315
         311         312         317         316
         312         313         318         317
         313         314         319         318
         315         316         321         320
         316         317         322         321
         317         318         323         322
         318         319         324         323
         325         326         331         330
         326         327         332         331
         327         328         333         332
         328         329         334         333
         330         331         336         335
         331         332         337         336
         332         333         338         337
         333         334         339         338
         335         336         341         340
         336         337         342         341
         337         338         343         342
         338         339         344         343
         340         341         346         345
         341         342         347         346
         342         343         348         347
         343         344         349         348
         350         351         356         355
         351         352         357         356
         352         353         358         357
         353         354         359         358
         355         356         361         360
         356         357         362         361
         357         358         363         362
         358         359         364         363
         360         361         366         365
         361         362         367         366
         362         363         368         367
         363         364         369         368
         365         366         371         370
         366         367         372         371
         367         368         373         372
         368         369         374         373
         375         376         381         380
         376         377         382         381
         377         378         383         382
         378         379         384         383
         380         381         386         385
         381         382         387         386
         382         383         388         387
         383         384         389         388
         385         386         391         390
         386         387         392         391
         387         388         393         392
         388         389         394         393
         390         391         396         395
         391         392         397         396
         392         393         398         397
         393         394         399         398
         400         401         406         405
         401         402         407         406
         402         403         408         407
         403         404         409         408
         405         406         411         410
         406         407         412         411
         407         408         413         412
         408         409         414         413
         410         411         416         415
         411         412         417         416
         412         413         418         417
         413         414         419         418
         415         416         421         420
         416         417         422         421
         417         418         423         422
         418         419         424         423
         425         426         431         430
         426         427         432         431
         427         428         433         432
         428         429         434         433
         430         431         436         435
         431         432         437         436
         432         433         438         437
         433         434         439         438
         435         436         441         440
         436         437         442         441
         437         438         443         442
         438         439         444         443
         440         441         446         445
         441         442         447         446
         442         443         448         447
         443         444         449         448
         450         451         456         455
         451         452         457         456
         452         453         458         457
         453         454         459         458
         455         456         461         460
         456         457         462         461
         457         458         463         462
         458         459         464         463
         460         461         466         465
         461         462         467         466
         462         463         468         467
         463         464         469         468
         465         466         471         470
         466         467         472         471
         467         468         473         472
         468         469         474         473
         475         476         481         480
         476         477         482         481
         477         478         483         482
         478         479         484         483
         480         481         486         485
         481         482         487         486
         482         483         488         487
         483         484         489         488
         485         486         491         490
         486         487         492         491
         487         488         493         492
         488         489         494         493
         490         491         496         495
         491         492         497         496
         492         493         498         497
         493         494         499         498
         500         501         506         505
         501         502         507         506
         502         503         508         507
         503         504         509         508
         505         506         511         510
         506         507         512         511
         507         508         513         512
         508         509         514         513
         510         511         516         515
         511         512         517         516
         512         513         518         517
         513         514         519         518
         515         516         521         520
         516         517         522         521
         517         518         523         522
         518         519         524         523
         525         526         531         530
         526         527         532         531
         527         528         533         532
         528         529         534         533
         530         531         536         535
         531         532         537         536
         532         533         538         537
         533         534         539         538
         535         536         541         540
         536         537         542         541
         537         538         543         542
         538         539         544         543
         540         541         546         545
         541         542         547         546
         542         543         548         547
         543         544         549         548
         550         551         556         555
         551         552         557         556
         552         553         558         557
         553         554         559         558
         555         556         561         560
         556         557         562         561
         557         558         563         562
         558         559         564         563
         560         561         566         565
         561         562         567         566
         562         563         568         567
         563         564         569         568
         565         566         571         570
         566         567         572         571
         567         568         573         572
         568         569         574         573
         575         576         581         580
         576         577         582         581
         577         578         583         582
         578         579         584         583
         580         581         586         585
         581         582         587         586
         582         583         588         587
         583         584         589         588
         585         586         591         590
         586         587         592         591
         587         588         593         592
         588         589         594         593
         590         591         596         595
         591         592         597         596
         592         593         598         597
         593         594         599         598
         600         601         606         605
         601         602         607         606
         602         603         608         607
         603         604         609         608
         605         606         611         610
         606         607         612         611
         607         608         613         612
         608         609         614         613
         610         611         616         615
         611         612         617         616
         612         613         618         617
         613         614         619         618
         615         616         621         620
         616         617         622         621
         617         618         623         622
         618         619         624         623
         625         626         631         630
         626         627         632         631
         627         628         633         632
         628         629         634         633
         630         631         636         635
         631         632         637         636
         632         633         638         637
         633         634         639         638
         635         636         641         640
         636         637         642         641
         637         638         643         642
         638         639         644         643
         640         641         646         645
         641         642         647         646
         642         643         648         647
         643         644         649         648
         650         651         656         655
         651         652         657         656
         652         653         658         657
         653         654         659         658
         655         656         661         660
         656         657         662         661
         657         658         663         662
         658         659         664         663
         660         661         666         665
         661         662         667         666
         662         663         668         667
         663         664         669         668
         665         666         671         670
         666         667         672         671
         667         668         673         672
         668         669         674         673
         675         676         681         680
         676         677         682         681
         677         678         683         682
         678         679         684         683
         680         681         686         685
         681         682         687         686
         682         683         688         687
         683         684         689         688
         685         686         691         690
         686         687         692         691
         687         688         693         692
         688         689         694         693
         690         691         696         695
         691         692         697         696
         692         693         698         697
         693         694         699         698
         700         701         706         705
         701         702         707         706
         702         703         708         707
         703         704         709         708
         705         706         711         710
         706         707         712         711
         707         708         713         712
         708         709         714         713
         710         711         716         715
         711         712         717         716
         712         713         718         717
         713         714         719         718
         715         716         721         720
         716         717         722         721
         717         718         723         722
         718         719         724         723
         725         726         731         730
         726         727         732         731
         727         728         733         732
         728         729         734         733
         730         731         736         735
         731         732         737         736
         732         733         738         737
         733         734         739         738
         735         736         741         740
         736         737         742         741
         737         738         743         742
         738         739         744         743
         740         741         746         745
         741         742         747         746
         742         743         748         747
         743         744         749         748
         750         751         756         755
         751         752         757         756
         752         753         758         757
         753         754         759         758
         755         756         761         760
         756         757         762         761
         757         758         763         762
         758         759         764         763
         760         761         766         765
         761         762         767         766
         762         763         768         767
         763         764         769         768
         765         766         771         770
         766         767         772         771
         767         768         773         772
         768         769         774         773
         775         776         781         780
         776         777         782         781
         777         778         783         782
         778         779         784         783
         780         781         786         785
         781         782         787         786
         782         783         788         787
         783         784         789         788
         785         786         791         790
         786         787         792         791
         787         788         793         792
         788         789         794         793
         790         791         796         795
         791         792         797         796
         792         793         798         797
         793         794         799         798
         800         801         806         805
         801         802         807         806
         802         803         808         807
         803         804         809         808
         805         806         811         810
         806         807         812         811
         807         808         813         812
         808         809         814         813
         810         811         816         815
         811         812         817         816
         812         813         818         817
         813         814         819         818
         815         816         821         820
         816         817         822         821
         817         818         823         822
         818         819         824         823
         825         826         831         830
         826         827         832         831
         827         828         833         832
         828         829         834         833
         830         831         836         835
         831         832         837         836
         832         833         838         837
         833         834         839         838
         835         836         841         840
         836         837         842         841
         837         838         843         842
         838         839         844         843
         840         841         846         845
         841         842         847         846
         842         843         848         847
         843         844         849         848
         850         851         856         855
         851         852         857         856
         852         853         858         857
         853         854         859         858
         855         856         861         860
         856         857         862         861
         857         858         863         862
         858         859         864         863
         860         861         866         865
         861         862         867         866
         862         863         868         867
         863         864         869         868
         865         866         871         870
         866         867         872         871
         867         868         873         872
         868         869         874         873
         875         876         881         880
         876         877         882         881
         877         878         883         882
         878         879         884         883
         880         881         886         885
         881         882         887         886
         882         883         888         887
         883         884         889         888
         885         886         891         890
         886         887         892         891
         887         888         893         892
         888         889         894         893
         890         891         896         895
         891         892         897         896
         892         893         898         897
         893         894         899         898
         900         901         906         905
         901         902         907         906
         902         903         908         907
         903         904         909         908
         905         906         911         910
         906         907         912         911
         907         908         913         912
         908         909         914         913
         910         911         916         915
         911         912         917         916
         912         913         918         917
         913         914         919         918
         915         916         921         920
         916         917         922         921
         917         918         923         922
         918         919         924         923
         925         926         931         930
         926         927         932         931
         927         928         933         932
         928         929         934         933
         930         931         936         935
         931         932         937         936
         932         933         938         937
         933         934         939         938
         935         936         941         940
         936         937         942         941
         937         938         943         942
         938         939         944         943
         940         941         946         945
         941         942         947         946
         942         943         948         947
         943         944         949         948
         950         951         956         955
         951         952         957         956
         952         953         958         957
         953         954         959         958
         955         956         961         960
         956         957         962         961
         957         958         963         962
         958         959         964         963
         960         961         966         965
         961         962         967         966
         962         963         968         967
         963         964         969         968
         965         966         971         970
         966         967         972         971
         967         968         973         972
         968         969         974         973
         975         976         981         980
         976         977         982         981
         977         978         983         982
         978         979         984         983
         980         981         986         985
         981         982         987         986
         982         983         988         987
         983         984         989         988
         985         986         991         990
         986         987         992         991
         987         988         993         992
         988         989         994         993
         990         991         996         995
         991         992         997         996
         992         993         998         997
         993         994         999         998
        1000        1001        1006        1005
        1001        1002        1007        1006
        1002        1003        1008        1007
        1003        1004        1009        1008
        1005        1006        1011        1010
        1006        1007        1012        1011
        1007        1008        1013        1012
        1008        1009        1014        1013
        1010        1011        1016        1015
        1011        1012        1017        1016
        1012        1013        1018        1017
        1013        1014        1019        1018
        1015        1016        1021        1020
        1016        1017        1022        1021
        1017        1018        1023        1022
        1018        1019        1024        1023
        1025        1026        1031        1030
        1026        1027        1032        1031
        1027        1028        1033        1032
        1028        1029        1034        1033
        1030        1031        1036        1035
        1031        1032        1037        1036
        1032        1033        1038        1037
        1033        1034        1039        1038
        1035        1036        1041        1040
        1036        1037        1042        1041
        1037        1038        1043        1042
        1038        1039        1044        1043
        1040        1041        1046        1045
        1041        1042        1047        1046
        1042        1043        1048        1047
        1043        1044        1049        1048
        1050        1051        1056        1055
        1051        1052        1057        1056
        1052        1053        1058        1057
        1053        1054        1059        1058
        1055        1056        1061        1060
        1056        1057        1062        1061
        1057        1058        1063        1062
        1058        1059        1064        1063
        1060        1061        1066        1065
        1061        1062        1067        1066
        1062        1063        1068        1067
        1063        1064        1069        1068
        1065        1066        1071        1070
        1066        1067        1072        1071
        1067        1068        1073        1072
        1068        1069        1074        1073
        1075        1076        1081        1080
        1076        1077        1082        1081
        1077        1078        1083        1082
        1078        1079        1084        1083
        1080        1081        1086        1085
        1081        1082        1087        1086
        1082        1083        1088        1087
        1083        1084        1089        1088
        1085        1086        1091        1090
        1086        1087        1092        1091
        1087        1088        1093        1092
        1088        1089        1094        1093
        1090        1091        1096        1095
        1091        1092        1097        1096
        1092        1093        1098        1097
        1093        1094        1099        1098
        1100        1101        1106        1105
        1101        1102        1107        1106
        1102        1103        1108        1107
        1103        1104        1109        1108
        1105        1106        1111        1110
        1106        1107        1112        1111
        1107        1108        1113        1112
        1108        1109        1114        1113
        1110        1111        1116        1115
        1111        1112        1117        1116
        1112        1113        1118        1117
        1113        1114        1119        1118
        1115        1116        1121        1120
        1116        1117        1122        1121
        1117        1118        1123        1122
        1118        1119        1124        1123
        1125        1126        1131        1130
        1126        1127        1132        1131
        1127        1128        1133        1132
        1128        1129        1134        1133
        1130        1131        1136        1135
        1131        1132        1137        1136
        1132        1133        1138        1137
        1133        1134        1139        1138
        1135        1136        1141        1140
        1136        1137        1142        1141
        1137        1138        1143        1142
        1138        1139        1144        1143
        1140        1141        1146        1145
        1141        1142        1147        1146
        1142        1143        1148        1147
        1143        1144        1149        1148
        1150        1151        1156        1155
        1151        1152        1157        1156
        1152        1153        1158        1157
        1153        1154        1159        1158
        1155        1156        1161        1160
        1156        1157        1162        1161
        1157        1158        1163        1162
        1158        1159        1164        1163
        1160        1161        1166        1165
        1161        1162        1167        1166
        1162        1163        1168        1167
        1163        1164        1169        1168
        1165        1166        1171        1170
        1166        1167        1172        1171
        1167        1168        1173        1172
        1168        1169        1174        1173
        1175        1176        1181        1180
        1176        1177        1182        1181
        1177        1178        1183        1182
        1178        1179        1184        1183
        1180        1181        1186        1185
        1181        1182        1187        1186
        1182        1183        1188        1187
        1183        1184        1189        1188
        1185        1186        1191        1190
        1186        1187        1192        1191
        1187        1188        1193        1192
        1188        1189        1194        1193
        1190        1191        1196        1195
        1191        1192        1197        1196
        1192        1193        1198        1197
        1193        1194        1199        1198
        1200        1201        1206        1205
        1201        1202        1207        1206
        1202        1203        1208        1207
        1203        1204        1209        1208
        1205        1206        1211        1210
        1206        1207        1212        1211
        1207        1208        1213        1212
        1208        1209        1214        1213
        1210        1211        1216        1215
        1211        1212        1217        1216
        1212        1213        1218        1217
        1213        1214        1219        1218
        1215        1216        1221        1220
        1216        1217        1222        1221
        1217        1218        1223        1222
        1218        1219        1224        1223
        1225        1226        1231        1230
        1226        1227        1232        1231
        1227        1228        1233        1232
        1228        1229        1234        1233
        1230        1231        1236        1235
        1231        1232        1237        1236
        1232        1233        1238        1237
        1233        1234        1239        1238
        1235        1236        1241        1240
        1236        1237        1242        1241
        1237        1238        1243        1242
        1238        1239        1244        1243
        1240        1241        1246        1245
        1241        1242        1247        1246
        1242        1243        1248        1247
        1243        1244        1249        1248
        1250        1251        1256        1255
        1251        1252        1257        1256
        1252        1253        1258        1257
        1253        1254        1259        1258
        1255        1256        1261        1260
        1256        1257        1262        1261
        1257        1258        1263        1262
        1258        1259        1264        1263
        1260        1261        1266        1265
        1261        1262        1267        1266
        1262        1263        1268        1267
        1263        1264        1269        1268
        1265        1266        1271        1270
        1266        1267        1272        1271
        1267        1268        1273        1272
        1268        1269        1274        1273
        1275        1276        1281        1280
        1276        1277        1282        1281
        1277        1278        1283        1282
        1278        1279        1284        1283
        1280        1281        1286        1285
        1281        1282        1287        1286
        1282        1283        1288        1287
        1283        1284        1289        1288
        1285        1286        1291        1290
        1286        1287        1292        1291
        1287        1288        1293        1292
        1288        1289        1294        1293
        1290        1291        1296        1295
        1291        1292        1297        1296
        1292        1293        1298        1297
        1293        1294        1299        1298
        1300        1301        1306        1305
        1301        1302        1307        1306
        1302        1303        1308        1307
        1303        1304        1309        1308
        1305        1306        1311        1310
        1306        1307        1312        1311
        1307        1308        1313        1312
        1308        1309        1314        1313
        1310        1311        1316        1315
        1311        1312        1317        1316
        1312        1313        1318        1317
        1313        1314        1319        1318
        1315        1316        1321        1320
        1316        1317        1322        1321
        1317        1318        1323        1322
        1318        1319        1324        1323
        1325        1326        1331        1330
        1326        1327        1332        1331
        1327        1328        1333        1332
        1328        1329        1334        1333
        1330        1331        1336        1335
        1331        1332        1337        1336
        1332        1333        1338        1337
        1333        1334        1339        1338
        1335        1336        1341        1340
        1336        1337        1342        1341
        1337        1338        1343        1342
        1338        1339        1344        1343
        1340        1341        1346        1345
        1341        1342        1347        1346
        1342        1343        1348        1347
        1343        1344        1349        1348
        1350        1351        1356        1355
        1351        1352        1357        1356
        1352        1353        1358        1357
        1353        1354        1359        1358
        1355        1356        1361        1360
        1356        1357        1362        1361
        1357        1358        1363        1362
        1358        1359        1364        1363
        1360        1361        1366        1365
        1361        1362        1367        1366
        1362        1363        1368        1367
        1363        1364        1369        1368
        1365        1366        1371        1370
        1366        1367        1372        1371
        1367        1368        1373        1372
        1368        1369        1374        1373
        1375        1376        1381        1380
        1376        1377        1382        1381
        1377        1378        1383        1382
        1378        1379        1384        1383
        1380        1381        1386        1385
        1381        1382        1387        1386
        1382        1383        1388        1387
        1383        1384        1389        1388
        1385        1386        1391        1390
        1386        1387        1392        1391
        1387        1388        1393        1392
        1388        1389        1394        1393
        1390        1391        1396        1395
        1391        1392        1397        1396
        1392        1393        1398        1397
        1393        1394        1399        1398
        1400        1401        1406        1405
        1401        1402        1407        1406
        1402        1403        1408        1407
        1403        1404        1409        1408
        1405        1406        1411        1410
        1406        1407        1412        1411
        1407        1408        1413        1412
        1408        1409        1414        1413
        1410        1411        1416        1415
        1411        1412        1417        1416
        1412        1413        1418        1417
        1413        1414        1419        1418
        1415        1416        1421        1420
        1416        1417        1422        1421
        1417        1418        1423        1422
        1418        1419        1424        1423
        1425        1426        1431        1430
        1426        1427        1432        1431
        1427        1428        1433        1432
        1428        1429        1434        1433
        1430        1431        1436        1435
        1431        1432        1437        1436
        1432        1433        1438        1437
        1433        1434        1439        1438
        1435        1436        1441        1440
        1436        1437        1442        1441
        1437        1438        1443        1442
        1438        1439        1444        1443
        1440        1441        1446        1445
        1441        1442        1447        1446
        1442        1443        1448        1447
        1443        1444        1449        1448
        1450        1451        1456        1455
        1451        1452        1457        1456
        1452        1453        1458        1457
        1453        1454        1459        1458
        1455        1456        1461        1460
        1456        1457        1462        1461
        1457        1458        1463        1462
        1458        1459        1464        1463
        1460        1461        1466        1465
        1461        1462        1467        1466
        1462        1463        1468        1467
        1463        1464        1469        1468
        1465        1466        1471        1470
        1466        1467        1472        1471
        1467        1468        1473        1472
        1468        1469        1474        1473
        1475        1476        1481        1480
        1476        1477        1482        1481
        1477        1478        1483        1482
        1478        1479        1484        1483
        1480        1481        1486        1485
        1481        1482        1487        1486
        1482        1483        1488        1487
        1483        1484        1489        1488
        1485        1486        1491        1490
        1486        1487        1492        1491
        1487        1488        1493        1492
        1488        1489        1494        1493
        1490        1491        1496        1495
        1491        1492        1497        1496
        1492        1493        1498        1497
        1493        1494        1499        1498
        1500        1501        1506        1505
        1501        1502        1507        1506
        1502        1503        1508        1507
        1503        1504        1509        1508
        1505        1506        1511        1510
        1506        1507        1512        1511
        1507        1508        1513        1512
        1508        1509        1514        1513
        1510        1511        1516        1515
        1511        1512        1517        1516
        1512        1513        1518        1517
        1513        1514        1519        1518
        1515        1516        1521        1520
        1516        1517        1522        1521
        1517        1518        1523        1522
        1518        1519        1524        1523
        1525        1526        1531        1530
        1526        1527        1532        1531
        1527        1528        1533        1532
        1528        1529        1534        1533
        1530        1531        1536        1535
        1531        1532        1537        1536
        1532        1533        1538        1537
        1533        1534        1539        1538
        1535        1536        1541        1540
        1536        1537        1542        1541
        1537        1538        1543        1542
        1538        1539        1544        1543
        1540        1541        1546        1545
        1541        1542        1547        1546
        1542        1543        1548        1547
        1543        1544        1549        1548
        1550        1551        1556        1555
        1551        1552        1557        1556
        1552        1553        1558        1557
        1553        1554        1559        1558
        1555        1556        1561        1560
        1556        1557        1562        1561
        1557        1558        1563        1562
        1558        1559        1564        1563
        1560        1561        1566        1565
        1561        1562        1567        1566
        1562        1563        1568        1567
        1563        1564        1569        1568
        1565        1566        1571        1570
        1566        1567        1572        1571
        1567        1568        1573        1572
        1568        1569        1574        1573
        1575        1576        1581        1580
        1576        1577        1582        1581
        1577        1578        1583        1582
        1578        1579        1584        1583
        1580        1581        1586        1585
        1581        1582        1587        1586
        1582        1583        1588        1587
        1583        1584        1589        1588
        1585        1586        1591        1590
        1586        1587        1592        1591
        1587        1588        1593        1592
        1588        1589        1594        1593
        1590        1591        1596        1595
        1591        1592        1597        1596
        1592        1593        1598        1597
        1593        1594        1599        1598
 </DataArray>
 <DataArray  type="Int32"  Name="offsets"  format="ascii"> 
           4
           8
          12
          16
          20
          24
          28
          32
          36
          40
          44
          48
          52
          56
          60
          64
          68
          72
          76
          80
          84
          88
          92
          96
         100
         104
         108
         112
         116
         120
         124
         128
         132
         136
         140
         144
         148
         152
         156
         160
         164
         168
         172
         176
         180
         184
         188
         192
         196
         200
         204
         208
         212
         216
         220
         224
         228
         232
         236
         240
         244
         248
         252
         256
         260
         264
         268
         272
         276
         280
         284
         288
         292
         296
         300
         304
         308
         312
         316
         320
         324
         328
         332
         336
         340
         344
         348
         352
         356
         360
         364
         368
         372
         376
         380
         384
         388
         392
         396
         400
         404
         408
         412
         416
         420
         424
         428
         432
         436
         440
         444
         448
         452
         456
         460
         464
         468
         472
         476
         480
         484
         488
         492
         496
         500
         504
         508
         512
         516
         520
         524
         528
         532
         536
         540
         544
         548
         552
         556
         560
         564
         568
         572
         576
         580
         584
         588
         592
         596
         600
         604
         608
         612
         616
         620
         624
         628
         632
         636
         640
         644
         648
         652
         656
         660
         664
         668
         672
         676
         680
         684
         688
         692
         696
         700
         704
         708
         712
         716
         720
         724
         728
         732
         736
         740
         744
         748
         752
         756
         760
         764
         768
         772
         776
         780
         784
         788
         792
         796
         800
         804
         808
         812
         816
         820
         824
         828
         832
         836
         840
         844
         848
         852
         856
         860
         864
         868
         872
         876
         880
         884
         888
         892
         896
         900
         904
         908
         912
         916
         920
         924
         928
         932
         936
         940
         944
         948
         952
         956
         960
         964
         968
         972
         976
         980
         984
         988
         992
         996
        1000
        1004
        1008
        1012
        1016
        1020
        1024
        1028
        1032
        1036
        1040
        1044
        1048
        1052
        1056
        1060
        1064
        1068
        1072
        1076
        1080
        1084
        1088
        1092
        1096
        1100
        1104
        1108
        1112
        1116
        1120
        1124
        1128
        1132
        1136
        1140
        1144
        1148
        1152
        1156
        1160
        1164
        1168
        1172
        1176
        1180
        1184
        1188
        1192
        1196
        1200
        1204
        1208
        1212
        1216
        1220
        1224
        1228
        1232
        1236
        1240
        1244
        1248
        1252
        1256
        1260
        1264
        1268
        1272
        1276
        1280
        1284
        1288
        1292
        1296
        1300
        1304
        1308
        1312
        1316
        1320
        1324
        1328
        1332
        1336
        1340
        1344
        1348
        1352
        1356
        1360
        1364
        1368
        1372
        1376
        1380
        1384
        1388
        1392
        1396
        1400
        1404
        1408
        1412
        1416
        1420
        1424
        1428
        1432
        1436
        1440
        1444
        1448
        1452
        1456
        1460
        1464
        1468
        1472
        1476
        1480
        1484
        1488
        1492
        1496
        1500
        1504
        1508
        1512
        1516
        1520
        1524
        1528
        1532
        1536
        1540
        1544
        1548
        1552
        1556
        1560
        1564
        1568
        1572
        1576
        1580
        1584
        1588
        1592
        1596
        1600
        1604
        1608
        1612
        1616
        1620
        1624
        1628
        1632
        1636
        1640
        1644
        1648
        1652
        1656
        1660
        1664
        1668
        1672
        1676
        1680
        1684
        1688
        1692
        1696
        1700
        1704
        1708
        1712
        1716
        1720
        1724
        1728
        1732
        1736
        1740
        1744
        1748
        1752
        1756
        1760
        1764
        1768
        1772
        1776
        1780
        1784
        1788
        1792
        1796
        1800
        1804
        1808
        1812
        1816
        1820
        1824
        1828
        1832
        1836
        1840
        1844
        1848
        1852
        1856
        1860
        1864
        1868
        1872
        1876
        1880
        1884
        1888
        1892
        1896
        1900
        1904
        1908
        1912
        1916
        1920
        1924
        1928
        1932
        1936
        1940
        1944
        1948
        1952
        1956
        1960
        1964
        1968
        1972
        1976
        1980
        1984
        1988
        1992
        1996
        2000
        2004
        2008
        2012
        2016
        2020
        2024
        2028
        2032
        2036
        2040
        2044
        2048
        2052
        2056
        2060
        2064
        2068
        2072
        2076
        2080
        2084
        2088
        2092
        2096
        2100
        2104
        2108
        2112
        2116
        2120
        2124
        2128
        2132
        2136
        2140
        2144
        2148
        2152
        2156
        2160
        2164
        2168
        2172
        2176
        2180
        2184
        2188
        2192
        2196
        2200
        2204
        2208
        2212
        2216
        2220
        2224
        2228
        2232
        2236
        2240
        2244
        2248
        2252
        2256
        2260
        2264
        2268
        2272
        2276
        2280
        2284
        2288
        2292
        2296
        2300
        2304
        2308
        2312
        2316
        2320
        2324
        2328
        2332
        2336
        2340
        2344
        2348
        2352
        2356
        2360
        2364
        2368
        2372
        2376
        2380
        2384
        2388
        2392
        2396
        2400
        2404
        2408
        2412
        2416
        2420
        2424
        2428
        2432
        2436
        2440
        2444
        2448
        2452
        2456
        2460
        2464
        2468
        2472
        2476
        2480
        2484
        2488
        2492
        2496
        2500
        2504
        2508
        2512
        2516
        2520
        2524
        2528
        2532
        2536
        2540
        2544
        2548
        2552
        2556
        2560
        2564
        2568
        2572
        2576
        2580
        2584
        2588
        2592
        2596
        2600
        2604
        2608
        2612
        2616
        2620
        2624
        2628
        2632
        2636
        2640
        2644
        2648
        2652
        2656
        2660
        2664
        2668
        2672
        2676
        2680
        2684
        2688
        2692
        2696
        2700
        2704
        2708
        2712
        2716
        2720
        2724
        2728
        2732
        2736
        2740
        2744
        2748
        2752
        2756
        2760
        2764
        2768
        2772
        2776
        2780
        2784
        2788
        2792
        2796
        2800
        2804
        2808
        2812
        2816
        2820
        2824
        2828
        2832
        2836
        2840
        2844
        2848
        2852
        2856
        2860
        2864
        2868
        2872
        2876
        2880
        2884
        2888
        2892
        2896
        2900
        2904
        2908
        2912
        2916
        2920
        2924
        2928
        2932
        2936
        2940
        2944
        2948
        2952
        2956
        2960
        2964
        2968
        2972
        2976
        2980
        2984
        2988
        2992
        2996
        3000
        3004
        3008
        3012
        3016
        3020
        3024
        3028
        3032
        3036
        3040
        3044
        3048
        3052
        3056
        3060
        3064
        3068
        3072
        3076
        3080
        3084
        3088
        3092
        3096
        3100
        3104
        3108
        3112
        3116
        3120
        3124
        3128
        3132
        3136
        3140
        3144
        3148
        3152
        3156
        3160
        3164
        3168
        3172
        3176
        3180
        3184
        3188
        3192
        3196
        3200
        3204
        3208
        3212
        3216
        3220
        3224
        3228
        3232
        3236
        3240
        3244
        3248
        3252
        3256
        3260
        3264
        3268
        3272
        3276
        3280
        3284
        3288
        3292
        3296
        3300
        3304
        3308
        3312
        3316
        3320
        3324
        3328
        3332
        3336
        3340
        3344
        3348
        3352
        3356
        3360
        3364
        3368
        3372
        3376
        3380
        3384
        3388
        3392
        3396
        3400
        3404
        3408
        3412
        3416
        3420
        3424
        3428
        3432
        3436
        3440
        3444
        3448
        3452
        3456
        3460
        3464
        3468
        3472
        3476
        3480
        3484
        3488
        3492
        3496
        3500
        3504
        3508
        3512
        3516
        3520
        3524
        3528
        3532
        3536
        3540
        3544
        3548
        3552
        3556
        3560
        3564
        3568
        3572
        3576
        3580
        3584
        3588
        3592
        3596
        3600
        3604
        3608
        3612
        3616
        3620
        3624
        3628
        3632
        3636
        3640
        3644
        3648
        3652
        3656
        3660
        3664
        3668
        3672
        3676
        3680
        3684
        3688
        3692
        3696
        3700
        3704
        3708
        3712
        3716
        3720
        3724
        3728
        3732
        3736
        3740
        3744
        3748
        3752
        3756
        3760
        3764
        3768
        3772
        3776
        3780
        3784
        3788
        3792
        3796
        3800
        3804
        3808
        3812
        3816
        3820
        3824
        3828
        3832
        3836
        3840
        3844
        3848
        3852
        3856
        3860
        3864
        3868
        3872
        3876
        3880
        3884
        3888
        3892
        3896
        3900
        3904
        3908
        3912
        3916
        3920
        3924
        3928
        3932
        3936
        3940
        3944
        3948
        3952
        3956
        3960
        3964
        3968
        3972
        3976
        3980
        3984
        3988
        3992
        3996
        4000
        4004
        4008
        4012
        4016
        4020
        4024
        4028
        4032
        4036
        4040
        4044
        4048
        4052
        4056
        4060
        4064
        4068
        4072
        4076
        4080
        4084
        4088
        4092
        4096
 </DataArray>
 <DataArray  type="UInt8"  Name="types"  format="ascii">
 9
 9
 9
 9
 9
 9
 9
 9
 9
 9
 9
 9
 9
 9
 9
 9
 9
 9
 9
 9
 9
 9
 9
 9
 9
 9
 9
 9
 9
 9
 9
 9
 9
 9
 9
 9
 9
 9
 9
 9
 9
 9
 9
 9
 9
 9
 9
 9
 9
 9
 9
 9
 9
 9
 9
 9
 9
 9
 9
 9
 9
 9
 9
 9
 9
 9
 9
 9
 9
 9
 9
 9
 9
 9
 9
 9
 9
 9
 9
 9
 9
 9
 9
 9
 9
 9
 9
 9
 9
 9
 9
 9
 9
 9
 9
 9
 9
 9
 9
 9
 9
 9
 9
 9
 9
 9
 9
 9
 9
 9
 9
 9
 9
 9
 9
 9
 9
 9
 9
 9
 9
 9
 9
 9
 9
 9
 9
 9
 9
 9
 9
 9
 9
 9
 9
 9
 9
 9
 9
 9
 9
 9
 9
 9
 9
 9
 9
 9
 9
 9
 9
 9
 9
 9
 9
 9
 9
 9
 9
 9
 9
 9
 9
 9
 9
 9
 9
 9
 9
 9
 9
 9
 9
 9
 9
 9
 9
 9
 9
 9
 9
 9
 9
 9
 9
 9
 9
 9
 9
 9
 9
 9
 9
 9
 9
 9
 9
 9
 9
 9
 9
 9
 9
 9
 9
 9
 9
 9
 9
 9
 9
 9
 9
 9
 9
 9
 9
 9
 9
 9
 9
 9
 9
 9
 9
 9
 9
 9
 9
 9
 9
 9
 9
 9
 9
 9
 9
 9
 9
 9
 9
 9
 9
 9
 9
 9
 9
 9
 9
 9
 9
 9
 9
 9
 9
 9
 9
 9
 9
 9
 9
 9
 9
 9
 9
 9
 9
 9
 9
 9
 9
 9
 9
 9
 9
 9
 9
 9
 9
 9
 9
 9
 9
 9
 9
 9
 9
 9
 9
 9
 9
 9
 9
 9
 9
 9
 9
 9
 9
 9
 9
 9
 9
 9
 9
 9
 9
 9
 9
 9
 9
 9
 9
 9
 9
 9
 9
 9
 9
 9
 9
 9
 9
 9
 9
 9
 9
 9
 9
 9
 9
 9
 9
 9
 9
 9
 9
 9
 9
 9
 9
 9
 9
 9
 9
 9
 9
 9
 9
 9
 9
 9
 9
 9
 9
 9
 9
 9
 9
 9
 9
 9
 9
 9
 9
 9
 9
 9
 9
 9
 9
 9
 9
 9
 9
 9
 9
 9
 9
 9
 9
 9
 9
 9
 9
 9
 9
 9
 9
 9
 9
 9
 9
 9
 9
 9
 9
 9
 9
 9
 9
 9
 9
 9
 9
 9
 9
 9
 9
 9
 9
 9
 9
 9
 9
 9
 9
 9
 9
 9
 9
 9
 9
 9
 9
 9
 9
 9
 9
 9
 9
 9
 9
 9
 9
 9
 9
 9
 9
 9
 9
 9
 9
 9
 9
 9
 9
 9
 9
 9
 9
 9
 9
 9
 9
 9
 9
 9
 9
 9
 9
 9
 9
 9
 9
 9
 9
 9
 9
 9
 9
 9
 9
 9
 9
 9
 9
 9
 9
 9
 9
 9
 9
 9
 9
 9
 9
 9
 9
 9
 9
 9
 9
 9
 9
 9
 9
 9
 9
 9
 9
 9
 9
 9
 9
 9
 9
 9
 9
 9
 9
 9
 9
 9
 9
 9
 9
 9
 9
 9
 9
 9
 9
 9
 9
 9
 9
 9
 9
 9
 9
 9
 9
 9
 9
 9
 9
 9
 9
 9
 9
 9
 9
 9
 9
 9
 9
 9
 9
 9
 9
 9
 9
 9
 9
 9
 9
 9
 9
 9
 9
 9
 9
 9
 9
 9
 9
 9
 9
 9
 9
 9
 9
 9
 9
 9
 9
 9
 9
 9
 9
 9
 9
 9
 9
 9
 9
 9
 9
 9
 9
 9
 9
 9
 9
 9
 9
 9
 9
 9
 9
 9
 9
 9
 9
 9
 9
 9
 9
 9
 9
 9
 9
 9
 9
 9
 9
 9
 9
 9
 9
 9
 9
 9
 9
 9
 9
 9
 9
 9
 9
 9
 9
 9
 9
 9
 9
 9
 9
 9
 9
 9
 9
 9
 9
 9
 9
 9
 9
 9
 9
 9
 9
 9
 9
 9
 9
 9
 9
 9
 9
 9
 9
 9
 9
 9
 9
 9
 9
 9
 9
 9
 9
 9
 9
 9
 9
 9
 9
 9
 9
 9
 9
 9
 9
 9
 9
 9
 9
 9
 9
 9
 9
 9
 9
 9
 9
 9
 9
 9
 9
 9
 9
 9
 9
 9
 9
 9
 9
 9
 9
 9
 9
 9
 9
 9
 9
 9
 9
 9
 9
 9
 9
 9
 9
 9
 9
 9
 9
 9
 9
 9
 9
 9
 9
 9
 9
 9
 9
 9
 9
 9
 9
 9
 9
 9
 9
 9
 9
 9
 9
 9
 9
 9
 9
 9
 9
 9
 9
 9
 9
 9
 9
 9
 9
 9
 9
 9
 9
 9
 9
 9
 9
 9
 9
 9
 9
 9
 9
 9
 9
 9
 9
 9
 9
 9
 9
 9
 9
 9
 9
 9
 9
 9
 9
 9
 9
 9
 9
 9
 9
 9
 9
 9
 9
 9
 9
 9
 9
 9
 9
 9
 9
 9
 9
 9
 9
 9
 9
 9
 9
 9
 9
 9
 9
 9
 9
 9
 9
 9
 9
 9
 9
 9
 9
 9
 9
 9
 9
 9
 9
 9
 9
 9
 9
 9
 9
 9
 9
 9
 9
 9
 9
 9
 9
 9
 9
 9
 9
 9
 9
 9
 9
 9
 9
 9
 9
 9
 9
 9
 9
 9
 9
 9
 9
 9
 9
 9
 9
 9
 9
 9
 9
 9
 9
 9
 9
 9
 9
 9
 9
 9
 9
 9
 9
 9
 9
 9
 9
 9
 9
 9
 9
 9
 9
 9
 9
 9
 9
 9
 9
 9
 9
 9
 9
 9
 9
 9
 9
 9
 9
 9
 9
 9
 9
 9
 9
 9
 9
 9
 9
 9
 9
 9
 9
 9
 9
 9
 9
 9
 9
 9
 9
 9
 9
 9
 9
 9
 9
 9
 9
 9
 9
 9
 9
 9
 9
 9
 9
 9
 9
 9
 9
 9
 9
 9
 9
 9
 9
 9
 9
 9
 9
 9
 9
 9
 9
 9
 9
 9
 9
 9
 9
 9
 9
 9
 9
 9
 9
 9
 9
 9
 9
 9
 9
 9
 9
 9
 9
 9
 9
 9
 9
 9
 9
 9
 9
 9
 9
 9
 9
 9
 9
 9
 9
 9
 9
 9
 9
 9
 9
 9
 9
 9
 </DataArray>
 </Cells> 
 <PointData>
 <DataArray  type="Float64" Name="disp" NumberOfComponents="3" format="ascii">
   0.0000000000000000        0.0000000000000000        0.0000000000000000     
   6.0959922209926059E-003   3.7903849635656187E-003   0.0000000000000000     
   1.1666023432621873E-002   7.3238112461266828E-003   0.0000000000000000     
   1.6710093634887801E-002   1.0600278847683192E-002   0.0000000000000000     
   2.1228202827790393E-002   1.3619787768235147E-002   0.0000000000000000     
   0.0000000000000000        0.0000000000000000        0.0000000000000000     
   4.8911545253472171E-003   3.0221483330288728E-003   0.0000000000000000     
   9.5736270441813057E-003   6.0605581687985894E-003   0.0000000000000000     
   1.4047417556502264E-002   9.1152295073091503E-003   0.0000000000000000     
   1.8312526062310090E-002   1.2186162348560556E-002   0.0000000000000000     
   0.0000000000000000        0.0000000000000000        0.0000000000000000     
   3.9535561372288537E-003   2.4251510318489271E-003   0.0000000000000000     
   7.9106004712502422E-003   5.0629526488275558E-003   0.0000000000000000     
   1.1871133002064164E-002   7.9134048509358866E-003   0.0000000000000000     
   1.5835153729670620E-002   1.0976507638173922E-002   0.0000000000000000     
   0.0000000000000000        0.0000000000000000        0.0000000000000000     
   3.2831970566375148E-003   1.9993930600257816E-003   0.0000000000000000     
   6.6769437138286840E-003   4.3309946862135811E-003   0.0000000000000000     
   1.0181239971573507E-002   6.9948048785633994E-003   0.0000000000000000     
   1.3796085829871983E-002   9.9908236370752392E-003   0.0000000000000000     
   0.0000000000000000        0.0000000000000000        0.0000000000000000     
   2.8800772835732005E-003   1.7448744175594367E-003   0.0000000000000000     
   5.8726567719166317E-003   3.8646842809566661E-003   0.0000000000000000     
   8.9777384650302910E-003   6.3594295901916896E-003   0.0000000000000000     
   1.2195322362914183E-002   9.2291103452645049E-003   0.0000000000000000     
   2.1228202827790393E-002   1.3619787768235147E-002   0.0000000000000000     
   2.5433273141095801E-002   1.6612850678285437E-002   0.0000000000000000     
   2.9538226704570191E-002   1.9809980248336943E-002   0.0000000000000000     
   3.3543063518213567E-002   2.3211176478389682E-002   0.0000000000000000     
   3.7447783582025912E-002   2.6816439368443638E-002   0.0000000000000000     
   1.8312526062310090E-002   1.2186162348560556E-002   0.0000000000000000     
   2.2407186212787332E-002   1.5341674725905429E-002   0.0000000000000000     
   2.6369631659116530E-002   1.8650084672696392E-002   0.0000000000000000     
   3.0199862401297687E-002   2.2111392188933453E-002   0.0000000000000000     
   3.3897878439330800E-002   2.5725597274616603E-002   0.0000000000000000     
   1.5835153729670620E-002   1.0976507638173922E-002   0.0000000000000000     
   1.9730893557793582E-002   1.4211086665463097E-002   0.0000000000000000     
   2.3486583390157013E-002   1.7575967587724853E-002   0.0000000000000000     
   2.7102223226760928E-002   2.1071150404959188E-002   0.0000000000000000     
   3.0577813067605306E-002   2.4696635117166105E-002   0.0000000000000000     
   1.3796085829871983E-002   9.9908236370752392E-003   0.0000000000000000     
   1.7404395176114553E-002   1.3221086496958427E-002   0.0000000000000000     
   2.0889081897691650E-002   1.6587628993422310E-002   0.0000000000000000     
   2.4250145994603269E-002   2.0090451126466877E-002   0.0000000000000000     
   2.7487587466849414E-002   2.3729552896092139E-002   0.0000000000000000     
   1.2195322362914183E-002   9.2291103452645049E-003   0.0000000000000000     
   1.5427691067750245E-002   1.2371674220391427E-002   0.0000000000000000     
   1.8577127181720426E-002   1.5685068889788767E-002   0.0000000000000000     
   2.1643630704824727E-002   1.9169294353456528E-002   0.0000000000000000     
   2.4627201637063140E-002   2.2824350611394706E-002   0.0000000000000000     
   3.7447783582025912E-002   2.6816439368443638E-002   0.0000000000000000     
   4.1256541845926323E-002   3.0621339498113548E-002   0.0000000000000000     
   4.4973493259833894E-002   3.4621447447014148E-002   0.0000000000000000     
   4.8598637823748632E-002   3.8816763215145433E-002   0.0000000000000000     
   5.2131975537670516E-002   4.3207286802507405E-002   0.0000000000000000     
   3.3897878439330800E-002   2.5725597274616603E-002   0.0000000000000000     
   3.7486692338713518E-002   2.9521653141049077E-002   0.0000000000000000     
   4.0989316664943452E-002   3.3528512999534105E-002   0.0000000000000000     
   4.4405751418020632E-002   3.7746176850071686E-002   0.0000000000000000     
   4.7735996597945057E-002   4.2174644692661821E-002   0.0000000000000000     
   3.0577813067605306E-002   2.4696635117166105E-002   0.0000000000000000     
   3.3942645229934142E-002   2.8497025493674291E-002   0.0000000000000000     
   3.7226012030991421E-002   3.2516925303812429E-002   0.0000000000000000     
   4.0427913470777121E-002   3.6756334547580538E-002   0.0000000000000000     
   4.3548349549291279E-002   4.1215253224978599E-002   0.0000000000000000     
   2.7487587466849414E-002   2.3729552896092139E-002   0.0000000000000000     
   3.0624400519588212E-002   2.7547456555989190E-002   0.0000000000000000     
   3.3683579357977771E-002   3.1586684359849140E-002   0.0000000000000000     
   3.6665123982018086E-002   3.5847236307671983E-002   0.0000000000000000     
   3.9569034391709168E-002   4.0329112399457710E-002   0.0000000000000000     
   2.4627201637063140E-002   2.2824350611394706E-002   0.0000000000000000     
   2.7531958207675719E-002   2.6672946327993777E-002   0.0000000000000000     
   3.0362018645902513E-002   3.0737790167644212E-002   0.0000000000000000     
   3.3117382951743532E-002   3.5018882130346013E-002   0.0000000000000000     
   3.5798051125198752E-002   3.9516222216099184E-002   0.0000000000000000     
   5.2131975537670516E-002   4.3207286802507405E-002   0.0000000000000000     
   5.5571468276148603E-002   4.7797021530872209E-002   0.0000000000000000     
   5.8915077913731934E-002   5.2589970722012006E-002   0.0000000000000000     
   6.2162804450420502E-002   5.7586134375926801E-002   0.0000000000000000     
   6.5314647886214328E-002   6.2785512492616574E-002   0.0000000000000000     
   4.7735996597945057E-002   4.2174644692661821E-002   0.0000000000000000     
   5.0976506191928603E-002   4.6807089816924982E-002   0.0000000000000000     
   5.4123734187183192E-002   5.1636685512481649E-002   0.0000000000000000     
   5.7177680583708812E-002   5.6663431779331815E-002   0.0000000000000000     
   6.0138345381505490E-002   6.1887328617475465E-002   0.0000000000000000     
   4.3548349549291279E-002   4.1215253224978599E-002   0.0000000000000000     
   4.6583639715039524E-002   4.5881012782906447E-002   0.0000000000000000     
   4.9530103416527513E-002   5.0740944668263954E-002   0.0000000000000000     
   5.2387740653755253E-002   5.5795048881051079E-002   0.0000000000000000     
   5.5156551426722752E-002   6.1043325421267870E-002   0.0000000000000000     
   3.9569034391709168E-002   4.0329112399457710E-002   0.0000000000000000     
   4.2392868845481324E-002   4.5018790428816610E-002   0.0000000000000000     
   4.5134185601764888E-002   4.9902748189358914E-002   0.0000000000000000     
   4.7792984660559826E-002   5.4980985681084643E-002   0.0000000000000000     
   5.0369266021866144E-002   6.0253502903993790E-002   0.0000000000000000     
   3.5798051125198752E-002   3.9516222216099184E-002   0.0000000000000000     
   3.8404193583254059E-002   4.4220422754655452E-002   0.0000000000000000     
   4.0935980742895312E-002   4.9122096075766557E-002   0.0000000000000000     
   4.3393412604122515E-002   5.4221242179432479E-002   0.0000000000000000     
   4.5776489166935656E-002   5.9517861065653231E-002   0.0000000000000000     
   6.5314647886214328E-002   6.2785512492616574E-002   0.0000000000000000     
   6.8371656994260122E-002   6.8175636313433249E-002   0.0000000000000000     
   7.1334880547704635E-002   7.3744037079728708E-002   0.0000000000000000     
   7.4204318546547868E-002   7.9490714791502978E-002   0.0000000000000000     
   7.6979970990789820E-002   8.5415669448756032E-002   0.0000000000000000     
   6.0138345381505490E-002   6.1887328617475465E-002   0.0000000000000000     
   6.3008064992336216E-002   6.7300027236515819E-002   0.0000000000000000     
   6.5789175827964050E-002   7.2893178846056020E-002   0.0000000000000000     
   6.8481677888388964E-002   7.8666783446096122E-002   0.0000000000000000     
   7.1085571173611001E-002   8.4620841036636085E-002   0.0000000000000000     
   5.5156551426722752E-002   6.1043325421267870E-002   0.0000000000000000     
   5.7839174378773797E-002   6.6479485606853475E-002   0.0000000000000000     
   6.0438248153252161E-002   7.2097240755747083E-002   0.0000000000000000     
   6.2953772750157844E-002   7.7896590867948687E-002   0.0000000000000000     
   6.5385748169490845E-002   8.3877535943458315E-002   0.0000000000000000     
   5.0369266021866144E-002   6.0253502903993790E-002   0.0000000000000000     
   5.2864985153572866E-002   6.5714011424446245E-002   0.0000000000000000     
   5.5282097523568961E-002   7.1356222808801870E-002   0.0000000000000000     
   5.7620603131854464E-002   7.7180137057060699E-002   0.0000000000000000     
   5.9880501978429354E-002   8.3185754169222706E-002   0.0000000000000000     
   4.5776489166935656E-002   5.9517861065653231E-002   0.0000000000000000     
   4.8085497316733422E-002   6.5003604689294128E-002   0.0000000000000000     
   5.0320723938914486E-002   7.0670125005220422E-002   0.0000000000000000     
   5.2482169033478840E-002   7.6517422013432160E-002   0.0000000000000000     
   5.4569832600426499E-002   8.2545495713929301E-002   0.0000000000000000     
   7.6979970990789820E-002   8.5415669448756032E-002   0.0000000000000000     
   7.9660426607254295E-002   9.1508972913858427E-002   0.0000000000000000     
   8.2244274122765082E-002   9.7760697049180709E-002   0.0000000000000000     
   8.4731513537322181E-002  0.10417084185472288        0.0000000000000000     
   8.7122144850925592E-002  0.11073940733048493        0.0000000000000000     
   7.1085571173611001E-002   8.4620841036636085E-002   0.0000000000000000     
   7.3599803167549105E-002   9.0743930734676528E-002   0.0000000000000000     
   7.6023321354122264E-002   9.7024631657218086E-002   0.0000000000000000     
   7.8356125733330451E-002  0.10346294380426073        0.0000000000000000     
   8.0598216305173706E-002  0.11005886717580443        0.0000000000000000     
   6.5385748169490845E-002   8.3877535943458315E-002   0.0000000000000000     
   6.7733533601024132E-002   9.0027881457586778E-002   0.0000000000000000     
   6.9996488234530696E-002   9.6335432885644876E-002   0.0000000000000000     
   7.2174612070010510E-002  0.10280019022763266        0.0000000000000000     
   7.4267905107463589E-002  0.10942215348355010        0.0000000000000000     
   5.9880501978429354E-002   8.3185754169222706E-002   0.0000000000000000     
   6.2061617907679389E-002   8.9360825082589121E-002   0.0000000000000000     
   6.4163774763990378E-002   9.5693100734461134E-002   0.0000000000000000     
   6.6186972547362319E-002  0.10218258112483872        0.0000000000000000     
   6.8131211257795213E-002  0.10882926625372190        0.0000000000000000     
   5.4569832600426499E-002   8.2545495713929301E-002   0.0000000000000000     
   5.6584056087514864E-002   8.8742761609683585E-002   0.0000000000000000     
   5.8525180942501337E-002   9.5097635203666778E-002   0.0000000000000000     
   6.0393207165385925E-002  0.10161011649587887        0.0000000000000000     
   6.2188134756168620E-002  0.10828020548631986        0.0000000000000000     
   8.7122144850925592E-002  0.11073940733048493        0.0000000000000000     
   8.9416721209582190E-002  0.11745379988622000        0.0000000000000000     
   9.1615795759298846E-002  0.12430142593168121        0.0000000000000000     
   9.3719368500075589E-002  0.13128228546686863        0.0000000000000000     
   9.5727439431912378E-002  0.13839637849178216        0.0000000000000000     
   8.0598216305173706E-002  0.11005886717580443        0.0000000000000000     
   8.2750098555954749E-002  0.11680036724337382        0.0000000000000000     
   8.4812277971976352E-002  0.12367540947849347        0.0000000000000000     
   8.6784754553238530E-002  0.13068399388116334        0.0000000000000000     
   8.8667528299741241E-002  0.13782612045138345        0.0000000000000000     
   7.4267905107463589E-002  0.10942215348355010        0.0000000000000000     
   7.6276764250173129E-002  0.11618956552391201        0.0000000000000000     
   7.8201586401422454E-002  0.12309066921923321        0.0000000000000000     
   8.0042371561211495E-002  0.13012546456951371        0.0000000000000000     
   8.1799119729540279E-002  0.13729395157475349        0.0000000000000000     
   6.8131211257795213E-002  0.10882926625372190        0.0000000000000000     
   6.9996718292237387E-002  0.11562139472783456        0.0000000000000000     
   7.1783721047637139E-002  0.12254720515390048        0.0000000000000000     
   7.3492219523994512E-002  0.12960669753191972        0.0000000000000000     
   7.5122213721309478E-002  0.13679987186189224        0.0000000000000000     
   6.2188134756168620E-002  0.10828020548631986        0.0000000000000000     
   6.3909960682147438E-002  0.11509585485514141        0.0000000000000000     
   6.5558681910620420E-002  0.12204501728249526        0.0000000000000000     
   6.7134298441587553E-002  0.12912769276838132        0.0000000000000000     
   6.8636810275048837E-002  0.13634388131279973        0.0000000000000000     
   9.5727439431912378E-002  0.13839637849178216        0.0000000000000000     
   9.7641167955858074E-002  0.14563197246844758        0.0000000000000000     
   9.9461713472961510E-002  0.15297733485889065        0.0000000000000000     
  0.10118907598322269       0.16043246566311134        0.0000000000000000     
  0.10282325548664160       0.16799736488110964        0.0000000000000000     
   8.8667528299741241E-002  0.13782612045138345        0.0000000000000000     
   9.0461681344199546E-002  0.14508951888332655        0.0000000000000000     
   9.2168295819328422E-002  0.15246191887116539        0.0000000000000000     
   9.3787371725127897E-002  0.15994332041489998        0.0000000000000000     
   9.5318909061597928E-002  0.16753372351453028        0.0000000000000000     
   8.1799119729540279E-002  0.13729395157475349        0.0000000000000000     
   8.3472703235700135E-002  0.14458361223287591        0.0000000000000000     
   8.5063994408982352E-002  0.15198192854180426        0.0000000000000000     
   8.6572993249386970E-002  0.15948890050153858        0.0000000000000000     
   8.7999699756913990E-002  0.16710452811207885        0.0000000000000000     
   7.5122213721309478E-002  0.13679987186189224        0.0000000000000000     
   7.6674233630359828E-002  0.14411425251709556        0.0000000000000000     
   7.8148809241923328E-002  0.15153736387080718        0.0000000000000000     
   7.9545940555999978E-002  0.15906920592302712        0.0000000000000000     
   8.0865627572589777E-002  0.16670977867375533        0.0000000000000000     
   6.8636810275048837E-002  0.13634388131279973        0.0000000000000000     
   7.0066272528178639E-002  0.14368143973598560        0.0000000000000000     
   7.1422740318151309E-002  0.15112822485817423        0.0000000000000000     
   7.2706213644966863E-002  0.15868423667936560        0.0000000000000000     
   7.3916692508625301E-002  0.16634947519955973        0.0000000000000000     
   0.0000000000000000        0.0000000000000000        0.0000000000000000     
   2.8800772835732005E-003   1.7448744175594367E-003   0.0000000000000000     
   5.8726567719166317E-003   3.8646842809566661E-003   0.0000000000000000     
   8.9777384650302910E-003   6.3594295901916896E-003   0.0000000000000000     
   1.2195322362914183E-002   9.2291103452645049E-003   0.0000000000000000     
   0.0000000000000000        0.0000000000000000        0.0000000000000000     
   2.6103443435407862E-003   1.5889482817459826E-003   0.0000000000000000     
   5.2897498716152746E-003   3.5567244273004527E-003   0.0000000000000000     
   8.0382165842234673E-003   5.9033284366634096E-003   0.0000000000000000     
   1.0855744481365363E-002   8.6287603098348532E-003   0.0000000000000000     
   0.0000000000000000        0.0000000000000000        0.0000000000000000     
   2.3401457620451475E-003   1.4589678298815105E-003   0.0000000000000000     
   4.7202332390258103E-003   3.2998181194885822E-003   0.0000000000000000     
   7.1402624309419857E-003   5.5225508688212140E-003   0.0000000000000000     
   9.6002333377936781E-003   8.1271660778794094E-003   0.0000000000000000     
   0.0000000000000000        0.0000000000000000        0.0000000000000000     
   2.0694815390862853E-003   1.3549330619660206E-003   0.0000000000000000     
   4.1641068741482346E-003   3.0939653575210550E-003   0.0000000000000000     
   6.2838760051858499E-003   5.2170968866651042E-003   0.0000000000000000     
   8.4287889321991265E-003   7.7243276493981659E-003   0.0000000000000000     
   0.0000000000000000        0.0000000000000000        0.0000000000000000     
   1.7983516746641983E-003   1.2768439779995120E-003   0.0000000000000000     
   3.6213707769825495E-003   2.9391661413978713E-003   0.0000000000000000     
   5.4690573069550536E-003   4.9869664901950779E-003   0.0000000000000000     
   7.3414112645817098E-003   7.4202450243911321E-003   0.0000000000000000     
   1.2195322362914183E-002   9.2291103452645049E-003   0.0000000000000000     
   1.5427691067750245E-002   1.2371674220391427E-002   0.0000000000000000     
   1.8577127181720426E-002   1.5685068889788767E-002   0.0000000000000000     
   2.1643630704824727E-002   1.9169294353456528E-002   0.0000000000000000     
   2.4627201637063140E-002   2.2824350611394706E-002   0.0000000000000000     
   1.0855744481365363E-002   8.6287603098348532E-003   0.0000000000000000     
   1.3689029959540919E-002   1.1650768099920576E-002   0.0000000000000000     
   1.6484769415250088E-002   1.4887099860026369E-002   0.0000000000000000     
   1.9242962848492869E-002   1.8337755590152226E-002   0.0000000000000000     
   2.1963610259269267E-002   2.2002735290298153E-002   0.0000000000000000     
   9.6002333377936781E-003   8.1271660778794094E-003   0.0000000000000000     
   1.2076660578326822E-002   1.1046286399704352E-002   0.0000000000000000     
   1.4546058771287354E-002   1.4212534487337237E-002   0.0000000000000000     
   1.7008427916675277E-002   1.7625910340778057E-002   0.0000000000000000     
   1.9463768014490589E-002   2.1286413960026826E-002   0.0000000000000000     
   8.4287889321991265E-003   7.7243276493981659E-003   0.0000000000000000     
   1.0590582924107958E-002   1.0558229119742753E-002   0.0000000000000000     
   1.2760995249832234E-002   1.3661372771721374E-002   0.0000000000000000     
   1.4940025909371950E-002   1.7033758605334032E-002   0.0000000000000000     
   1.7127674902727107E-002   2.0675386620580716E-002   0.0000000000000000     
   7.3414112645817098E-003   7.4202450243911321E-003   0.0000000000000000     
   9.2307969968843297E-003   1.0186596260035784E-002   0.0000000000000000     
   1.1129578850884723E-002   1.3233614713178786E-002   0.0000000000000000     
   1.3037756826582888E-002   1.6561300383820136E-002   0.0000000000000000     
   1.4955330923978827E-002   2.0169653271959836E-002   0.0000000000000000     
   2.4627201637063140E-002   2.2824350611394706E-002   0.0000000000000000     
   2.7531958207675719E-002   2.6672946327993777E-002   0.0000000000000000     
   3.0362018645902513E-002   3.0737790167644212E-002   0.0000000000000000     
   3.3117382951743532E-002   3.5018882130346013E-002   0.0000000000000000     
   3.5798051125198752E-002   3.9516222216099184E-002   0.0000000000000000     
   2.1963610259269267E-002   2.2002735290298153E-002   0.0000000000000000     
   2.4630110086832777E-002   2.5880030714425097E-002   0.0000000000000000     
   2.7225860770436896E-002   2.9967633616494002E-002   0.0000000000000000     
   2.9750862310081623E-002   3.4265543996504860E-002   0.0000000000000000     
   3.2205114705766966E-002   3.8773761854457675E-002   0.0000000000000000     
   1.9463768014490589E-002   2.1286413960026826E-002   0.0000000000000000     
   2.1883647949695481E-002   2.5175245620020194E-002   0.0000000000000000     
   2.4239636607252136E-002   2.9273605595694814E-002   0.0000000000000000     
   2.6531733987160556E-002   3.3581493887050708E-002   0.0000000000000000     
   2.8759940089420746E-002   3.8098910494087847E-002   0.0000000000000000     
   1.7127674902727107E-002   2.0675386620580716E-002   0.0000000000000000     
   1.9292571796263834E-002   2.4558591044779060E-002   0.0000000000000000     
   2.1403346156348240E-002   2.8655706105246675E-002   0.0000000000000000     
   2.3459997982980329E-002   3.2966731801983548E-002   0.0000000000000000     
   2.5462527276160100E-002   3.7491668134989692E-002   0.0000000000000000     
   1.4955330923978827E-002   2.0169653271959836E-002   0.0000000000000000     
   1.6856881626537836E-002   2.4030066988701707E-002   0.0000000000000000     
   1.8716989417725205E-002   2.8113935145149559E-002   0.0000000000000000     
   2.0535654297540937E-002   3.2421257741303403E-002   0.0000000000000000     
   2.2312876265985031E-002   3.6952034777163231E-002   0.0000000000000000     
   3.5798051125198752E-002   3.9516222216099184E-002   0.0000000000000000     
   3.8404193583254059E-002   4.4220422754655452E-002   0.0000000000000000     
   4.0935980742895312E-002   4.9122096075766557E-002   0.0000000000000000     
   4.3393412604122515E-002   5.4221242179432479E-002   0.0000000000000000     
   4.5776489166935656E-002   5.9517861065653231E-002   0.0000000000000000     
   3.2205114705766966E-002   3.8773761854457675E-002   0.0000000000000000     
   3.4591093685974197E-002   4.3487920264429443E-002   0.0000000000000000     
   3.6911274979184616E-002   4.8403652300497153E-002   0.0000000000000000     
   3.9165658585398215E-002   5.3520957962660799E-002   0.0000000000000000     
   4.1354244504615001E-002   5.8839837250920395E-002   0.0000000000000000     
   2.8759940089420746E-002   3.8098910494087847E-002   0.0000000000000000     
   3.0927048911258248E-002   4.2823293462145029E-002   0.0000000000000000     
   3.3035854449898615E-002   4.7752080836561024E-002   0.0000000000000000     
   3.5086356705341840E-002   5.2885272617335853E-002   0.0000000000000000     
   3.7078555677587922E-002   5.8222868804469488E-002   0.0000000000000000     
   2.5462527276160100E-002   3.7491668134989692E-002   0.0000000000000000     
   2.7412059259106208E-002   4.2226542347802209E-002   0.0000000000000000     
   2.9309719155037297E-002   4.7167381683958183E-002   0.0000000000000000     
   3.1155506963953361E-002   5.2314186143457626E-002   0.0000000000000000     
   3.2949422685854421E-002   5.7666955726300526E-002   0.0000000000000000     
   2.2312876265985031E-002   3.6952034777163231E-002   0.0000000000000000     
   2.4046124729518076E-002   4.1697666921400992E-002   0.0000000000000000     
   2.5732869094600670E-002   4.6649554842688623E-002   0.0000000000000000     
   2.7373109361232804E-002   5.1807698541026119E-002   0.0000000000000000     
   2.8966845529414482E-002   5.7172098016413486E-002   0.0000000000000000     
   4.5776489166935656E-002   5.9517861065653231E-002   0.0000000000000000     
   4.8085497316733422E-002   6.5003604689294128E-002   0.0000000000000000     
   5.0320723938914486E-002   7.0670125005220422E-002   0.0000000000000000     
   5.2482169033478840E-002   7.6517422013432160E-002   0.0000000000000000     
   5.4569832600426499E-002   8.2545495713929301E-002   0.0000000000000000     
   4.1354244504615001E-002   5.8839837250920395E-002   0.0000000000000000     
   4.3475576433367184E-002   6.4349364746587770E-002   0.0000000000000000     
   4.5528198068186962E-002   7.0038615030974805E-002   0.0000000000000000     
   4.7512109409074368E-002   7.5907588104081436E-002   0.0000000000000000     
   4.9427310456029362E-002   8.1956283965907734E-002   0.0000000000000000     
   3.7078555677587922E-002   5.8222868804469488E-002   0.0000000000000000     
   3.9010088068585878E-002   6.3752390941517925E-002   0.0000000000000000     
   4.0878590580284702E-002   6.9461360572037112E-002   0.0000000000000000     
   4.2684063212684399E-002   7.5349777696027048E-002   0.0000000000000000     
   4.4426505965784985E-002   8.1417642313487734E-002   0.0000000000000000     
   3.2949422685854421E-002   5.7666955726300526E-002   0.0000000000000000     
   3.4689032222389504E-002   6.3212683274084552E-002   0.0000000000000000     
   3.6371901475207698E-002   6.8938361628407357E-002   0.0000000000000000     
   3.7998030444308981E-002   7.4843990789268941E-002   0.0000000000000000     
   3.9567419129693360E-002   8.0929570756669289E-002   0.0000000000000000     
   2.8966845529414482E-002   5.7172098016413486E-002   0.0000000000000000     
   3.0512408894778076E-002   6.2730241744287651E-002   0.0000000000000000     
   3.2008130752955936E-002   6.8469618200085527E-002   0.0000000000000000     
   3.3454011103948078E-002   7.4390227383807114E-002   0.0000000000000000     
   3.4850049947754494E-002   8.0492069295452398E-002   0.0000000000000000     
   5.4569832600426499E-002   8.2545495713929301E-002   0.0000000000000000     
   5.6584056087514864E-002   8.8742761609683585E-002   0.0000000000000000     
   5.8525180942501337E-002   9.5097635203666778E-002   0.0000000000000000     
   6.0393207165385925E-002  0.10161011649587887        0.0000000000000000     
   6.2188134756168620E-002  0.10828020548631986        0.0000000000000000     
   4.9427310456029362E-002   8.1956283965907734E-002   0.0000000000000000     
   5.1274521891627074E-002   8.8173897142133500E-002   0.0000000000000000     
   5.3054464398442622E-002   9.4549622158438623E-002   0.0000000000000000     
   5.4767137976476005E-002  0.10108345901482309        0.0000000000000000     
   5.6412542625727209E-002  0.10777540771128694        0.0000000000000000     
   4.4426505965784985E-002   8.1417642313487734E-002   0.0000000000000000     
   4.6106689071112580E-002   8.7654437783202171E-002   0.0000000000000000     
   4.7725382760193343E-002   9.4049647463953404E-002   0.0000000000000000     
   4.9282587033027278E-002  0.10060327135574137        0.0000000000000000     
   5.0778301889614387E-002  0.10731530945856613        0.0000000000000000     
   3.9567419129693360E-002   8.0929570756669289E-002   0.0000000000000000     
   4.1080557625971355E-002   8.7184383532889598E-002   0.0000000000000000     
   4.2537936027753485E-002   9.3597711120211077E-002   0.0000000000000000     
   4.3939554335039738E-002  0.10016955351863367        0.0000000000000000     
   4.5285412547830133E-002  0.10689991072815742        0.0000000000000000     
   3.4850049947754494E-002   8.0492069295452398E-002   0.0000000000000000     
   3.6196127556203404E-002   8.6763734391195807E-002   0.0000000000000000     
   3.7492124201123037E-002   9.3193813127211658E-002   0.0000000000000000     
   3.8738039882513405E-002   9.9782305503500021E-002   0.0000000000000000     
   3.9933874600374487E-002  0.10652921152006084        0.0000000000000000     
   6.2188134756168620E-002  0.10828020548631986        0.0000000000000000     
   6.3909960682147438E-002  0.11509585485514141        0.0000000000000000     
   6.5558681910620420E-002  0.12204501728249526        0.0000000000000000     
   6.7134298441587553E-002  0.12912769276838132        0.0000000000000000     
   6.8636810275048837E-002  0.13634388131279973        0.0000000000000000     
   5.6412542625727209E-002  0.10777540771128694        0.0000000000000000     
   5.7990458410073373E-002  0.11461309525050978        0.0000000000000000     
   5.9500665393391640E-002  0.12158414863517129        0.0000000000000000     
   6.0943163575682004E-002  0.12868856786527150        0.0000000000000000     
   6.2317952956944478E-002  0.13592635294081035        0.0000000000000000     
   5.0778301889614387E-002  0.10731530945856613        0.0000000000000000     
   5.2212178466185151E-002  0.11417326525861676        0.0000000000000000     
   5.3583867898970086E-002  0.12116464224208237        0.0000000000000000     
   5.4893370187969213E-002  0.12828944040896301        0.0000000000000000     
   5.6140685333182505E-002  0.13554765975925862        0.0000000000000000     
   4.5285412547830133E-002  0.10689991072815742        0.0000000000000000     
   4.6575120850482793E-002  0.11377636487946237        0.0000000000000000     
   4.7808289427355807E-002  0.12078649810322850        0.0000000000000000     
   4.8984918278449183E-002  0.12793031039945590        0.0000000000000000     
   5.0105007403762926E-002  0.13520780176814445        0.0000000000000000     
   3.9933874600374487E-002  0.10652921152006084        0.0000000000000000     
   4.1079285562966278E-002  0.11342239411304657        0.0000000000000000     
   4.2173929978548755E-002  0.12044971621860968        0.0000000000000000     
   4.3217807847121904E-002  0.12761117783675013        0.0000000000000000     
   4.4210919168685754E-002  0.13490677896746792        0.0000000000000000     
   6.8636810275048837E-002  0.13634388131279973        0.0000000000000000     
   7.0066272528178639E-002  0.14368143973598560        0.0000000000000000     
   7.1422740318151309E-002  0.15112822485817423        0.0000000000000000     
   7.2706213644966863E-002  0.15868423667936560        0.0000000000000000     
   7.3916692508625301E-002  0.16634947519955973        0.0000000000000000     
   6.2317952956944478E-002  0.13592635294081035        0.0000000000000000     
   6.3624611569968889E-002  0.14328575261164000        0.0000000000000000     
   6.4862717447545085E-002  0.15075501562761257        0.0000000000000000     
   6.6032270589673078E-002  0.15833414198872800        0.0000000000000000     
   6.7133270996352870E-002  0.16602313169498639        0.0000000000000000     
   5.6140685333182505E-002  0.13554765975925862        0.0000000000000000     
   5.7325042396542937E-002  0.14292776986615288        0.0000000000000000     
   5.8445670439983458E-002  0.15041824030282946        0.0000000000000000     
   5.9502569463504081E-002  0.15801907106928842        0.0000000000000000     
   6.0495739467104799E-002  0.16573026216552969        0.0000000000000000     
   5.0105007403762926E-002  0.13520780176814445        0.0000000000000000     
   5.1167565007900762E-002  0.14260749149952417        0.0000000000000000     
   5.2171599295466407E-002  0.15011789888382493        0.0000000000000000     
   5.3117110266459835E-002  0.15773902392104672        0.0000000000000000     
   5.4004097920881060E-002  0.16547086661118962        0.0000000000000000     
   4.4210919168685754E-002  0.13490677896746792        0.0000000000000000     
   4.5152179404042390E-002  0.14232491751175391        0.0000000000000000     
   4.6040504013993927E-002  0.14985399137059896        0.0000000000000000     
   4.6875892998540350E-002  0.15749400054400300        0.0000000000000000     
   4.7658346357681687E-002  0.16524494503196613        0.0000000000000000     
   0.0000000000000000        0.0000000000000000        0.0000000000000000     
   1.7983516746641983E-003   1.2768439779995120E-003   0.0000000000000000     
   3.6213707769825495E-003   2.9391661413978713E-003   0.0000000000000000     
   5.4690573069550536E-003   4.9869664901950779E-003   0.0000000000000000     
   7.3414112645817098E-003   7.4202450243911321E-003   0.0000000000000000     
   0.0000000000000000        0.0000000000000000        0.0000000000000000     
   1.5350373415743627E-003   1.2175793595613999E-003   0.0000000000000000     
   3.0993872517632785E-003   2.8208987780519298E-003   0.0000000000000000     
   4.6930497305667472E-003   4.8099582554715897E-003   0.0000000000000000     
   6.3160247779847703E-003   7.1847577918203800E-003   0.0000000000000000     
   0.0000000000000000        0.0000000000000000        0.0000000000000000     
   1.2878197126122530E-003   1.1700179882310976E-003   0.0000000000000000     
   2.6055186027249453E-003   2.7246415744161278E-003   0.0000000000000000     
   3.9530966703380781E-003   4.6638707585550908E-003   0.0000000000000000     
   5.3305539154516485E-003   6.9877055406479868E-003   0.0000000000000000     
   0.0000000000000000        0.0000000000000000        0.0000000000000000     
   1.0566987877778696E-003   1.1341598640086058E-003   0.0000000000000000     
   2.1397648298675511E-003   2.6503945304904666E-003   0.0000000000000000     
   3.2491981262690434E-003   4.5487039994455821E-003   0.0000000000000000     
   4.3849986769823488E-003   6.8290882708739523E-003   0.0000000000000000     
   0.0000000000000000        0.0000000000000000        0.0000000000000000     
   8.4167456707121230E-004   1.1100049868939242E-003   0.0000000000000000     
   1.7021259331910941E-003   2.5981576462749448E-003   0.0000000000000000     
   2.5813540983596456E-003   4.4644579781430629E-003   0.0000000000000000     
   3.4793590625768660E-003   6.7089059824982766E-003   0.0000000000000000     
   7.3414112645817098E-003   7.4202450243911321E-003   0.0000000000000000     
   9.2307969968843297E-003   1.0186596260035784E-002   0.0000000000000000     
   1.1129578850884723E-002   1.3233614713178786E-002   0.0000000000000000     
   1.3037756826582888E-002   1.6561300383820136E-002   0.0000000000000000     
   1.4955330923978827E-002   2.0169653271959836E-002   0.0000000000000000     
   6.3160247779847703E-003   7.1847577918203800E-003   0.0000000000000000     
   7.9556356477417569E-003   9.8957550070094807E-003   0.0000000000000000     
   9.5992055935621157E-003   1.2893407520950076E-002   0.0000000000000000     
   1.1246734615445855E-002   1.6177715333642161E-002   0.0000000000000000     
   1.2898222713392964E-002   1.9748678445085738E-002   0.0000000000000000     
   5.3305539154516485E-003   6.9877055406479868E-003   0.0000000000000000     
   6.7234317277660603E-003   9.6500725470898829E-003   0.0000000000000000     
   8.1172714969817115E-003   1.2604898404275847E-002   0.0000000000000000     
   9.5120732230986067E-003   1.5852183112205882E-002   0.0000000000000000     
   1.0907836906116738E-002   1.9391926670879980E-002   0.0000000000000000     
   4.3849986769823488E-003   6.8290882708739523E-003   0.0000000000000000     
   5.5341852369572442E-003   9.4495488802769905E-003   0.0000000000000000     
   6.6837765611435082E-003   1.2368087363156104E-002   0.0000000000000000     
   7.8337726495411441E-003   1.5584703719511298E-002   0.0000000000000000     
   8.9841735021501529E-003   1.9099397949342577E-002   0.0000000000000000     
   3.4793590625768660E-003   6.7089059824982766E-003   0.0000000000000000     
   4.3878961753153036E-003   9.2941840065708017E-003   0.0000000000000000     
   5.2987207860475056E-003   1.2182974397590847E-002   0.0000000000000000     
   6.2118328947734719E-003   1.5375277155558417E-002   0.0000000000000000     
   7.1272325014932010E-003   1.8871092280473508E-002   0.0000000000000000     
   1.4955330923978827E-002   2.0169653271959836E-002   0.0000000000000000     
   1.6856881626537836E-002   2.4030066988701707E-002   0.0000000000000000     
   1.8716989417725205E-002   2.8113935145149559E-002   0.0000000000000000     
   2.0535654297540937E-002   3.2421257741303403E-002   0.0000000000000000     
   2.2312876265985031E-002   3.6952034777163231E-002   0.0000000000000000     
   1.2898222713392964E-002   1.9748678445085738E-002   0.0000000000000000     
   1.4537223626213236E-002   2.3580125433042960E-002   0.0000000000000000     
   1.6147291092716461E-002   2.7645884875275983E-002   0.0000000000000000     
   1.7728425112902627E-002   3.1945956771784807E-002   0.0000000000000000     
   1.9280625686771750E-002   3.6480341122569426E-002   0.0000000000000000     
   1.0907836906116738E-002   1.9391926670879980E-002   0.0000000000000000     
   1.2294243980985787E-002   2.3199218359057663E-002   0.0000000000000000     
   1.3660975882655425E-002   2.7249147455498435E-002   0.0000000000000000     
   1.5008032611125656E-002   3.1541713960202292E-002   0.0000000000000000     
   1.6335414166396476E-002   3.6076917873169252E-002   0.0000000000000000     
   8.9841735021501529E-003   1.9099397949342577E-002   0.0000000000000000     
   1.0127942690855485E-002   2.2887345766745816E-002   0.0000000000000000     
   1.1258043787542105E-002   2.6923722885816917E-002   0.0000000000000000     
   1.2374476792210013E-002   3.1208529306555873E-002   0.0000000000000000     
   1.3477241704859210E-002   3.5741765028962688E-002   0.0000000000000000     
   7.1272325014932010E-003   1.8871092280473508E-002   0.0000000000000000     
   8.0383197558223322E-003   2.2644507656107416E-002   0.0000000000000000     
   8.9384948073765007E-003   2.6669611166231427E-002   0.0000000000000000     
   9.8277576561557056E-003   3.0946402810845545E-002   0.0000000000000000     
   1.0706108302159949E-002   3.5474882589949769E-002   0.0000000000000000     
   2.2312876265985031E-002   3.6952034777163231E-002   0.0000000000000000     
   2.4046124729518076E-002   4.1697666921400992E-002   0.0000000000000000     
   2.5732869094600670E-002   4.6649554842688623E-002   0.0000000000000000     
   2.7373109361232804E-002   5.1807698541026119E-002   0.0000000000000000     
   2.8966845529414482E-002   5.7172098016413486E-002   0.0000000000000000     
   1.9280625686771750E-002   3.6480341122569426E-002   0.0000000000000000     
   2.0797681133514066E-002   4.1235037728343443E-002   0.0000000000000000     
   2.2273379772319836E-002   4.6196046389820472E-002   0.0000000000000000     
   2.3707721603189052E-002   5.1363367107000513E-002   0.0000000000000000     
   2.5100706626121710E-002   5.6736999879883544E-002   0.0000000000000000     
   1.6335414166396476E-002   3.6076917873169252E-002   0.0000000000000000     
   1.7635164282114389E-002   4.0837025314031647E-002   0.0000000000000000     
   1.8899326691925896E-002   4.5804302402421893E-002   0.0000000000000000     
   2.0127901395831000E-002   5.0978749138339968E-002   0.0000000000000000     
   2.1320888393829694E-002   5.6360365521785860E-002   0.0000000000000000     
   1.3477241704859210E-002   3.5741765028962688E-002   0.0000000000000000     
   1.4558574175319040E-002   4.0503629678465609E-002   0.0000000000000000     
   1.5610709853418853E-002   4.5474322880492864E-002   0.0000000000000000     
   1.6633648739158652E-002   5.0653844635044479E-002   0.0000000000000000     
   1.7627390832538430E-002   5.6042194942120413E-002   0.0000000000000000     
   1.0706108302159949E-002   3.5474882589949769E-002   0.0000000000000000     
   1.1567910813128019E-002   4.0234850821645324E-002   0.0000000000000000     
   1.2407529256798704E-002   4.5206107824033420E-002   0.0000000000000000     
   1.3224963633172000E-002   5.0388653597114058E-002   0.0000000000000000     
   1.4020213942247913E-002   5.5782488140887231E-002   0.0000000000000000     
   2.8966845529414482E-002   5.7172098016413486E-002   0.0000000000000000     
   3.0512408894778076E-002   6.2730241744287651E-002   0.0000000000000000     
   3.2008130752955936E-002   6.8469618200085527E-002   0.0000000000000000     
   3.3454011103948078E-002   7.4390227383807114E-002   0.0000000000000000     
   3.4850049947754494E-002   8.0492069295452398E-002   0.0000000000000000     
   2.5100706626121710E-002   5.6736999879883544E-002   0.0000000000000000     
   2.6451587541572796E-002   6.2305144704917728E-002   0.0000000000000000     
   2.7759617049997250E-002   6.8056001578551184E-002   0.0000000000000000     
   2.9024795151395090E-002   7.3989570500783933E-002   0.0000000000000000     
   3.0247121845766309E-002   8.0105851471615946E-002   0.0000000000000000     
   2.1320888393829694E-002   5.6360365521785860E-002   0.0000000000000000     
   2.2477937618594884E-002   6.1937470508765274E-002   0.0000000000000000     
   2.3598699002799452E-002   6.7698383055283917E-002   0.0000000000000000     
   2.4683172546443404E-002   7.3643103161341761E-002   0.0000000000000000     
   2.5731358249526742E-002   7.9771630826938805E-002   0.0000000000000000     
   1.7627390832538430E-002   5.6042194942120413E-002   0.0000000000000000     
   1.8591459125844343E-002   6.1627219155830283E-002   0.0000000000000000     
   1.9525376611362544E-002   6.7396762630283671E-002   0.0000000000000000     
   2.0429143289093024E-002   7.3350825365480571E-002   0.0000000000000000     
   2.1302759159035796E-002   7.9489407361421002E-002   0.0000000000000000     
   1.4020213942247913E-002   5.5782488140887231E-002   0.0000000000000000     
   1.4792152063321176E-002   6.1374390646112782E-002   0.0000000000000000     
   1.5539649875686522E-002   6.7151140303550488E-002   0.0000000000000000     
   1.6262707379343953E-002   7.3112737113200377E-002   0.0000000000000000     
   1.6961324574293463E-002   7.9259181075062468E-002   0.0000000000000000     
   3.4850049947754494E-002   8.0492069295452398E-002   0.0000000000000000     
   3.6196127556203404E-002   8.6763734391195807E-002   0.0000000000000000     
   3.7492124201123037E-002   9.3193813127211658E-002   0.0000000000000000     
   3.8738039882513405E-002   9.9782305503500021E-002   0.0000000000000000     
   3.9933874600374487E-002  0.10652921152006084        0.0000000000000000     
   3.0247121845766309E-002   8.0105851471615946E-002   0.0000000000000000     
   3.1425869940749744E-002   8.6392638179214443E-002   0.0000000000000000     
   3.2560312243984209E-002   9.2837724311746556E-002   0.0000000000000000     
   3.3650448755469714E-002   9.9441109869212327E-002   0.0000000000000000     
   3.4696279475206260E-002  0.10620279485161171        0.0000000000000000     
   2.5731358249526742E-002   7.9771630826938805E-002   0.0000000000000000     
   2.6742255858551361E-002   8.6071242718039231E-002   0.0000000000000000     
   2.7714865120019160E-002   9.2529215500607137E-002   0.0000000000000000     
   2.8649186033930133E-002   9.9145549174642536E-002   0.0000000000000000     
   2.9545218600284286E-002  0.10592024374014541        0.0000000000000000     
   2.1302759159035796E-002   7.9489407361421002E-002   0.0000000000000000     
   2.2145285309608274E-002   8.5799548007670187E-002   0.0000000000000000     
   2.2955782829227899E-002   9.2268286693793417E-002   0.0000000000000000     
   2.3734251717894665E-002   9.8895623419790649E-002   0.0000000000000000     
   2.4480691975608572E-002  0.10568155818566194        0.0000000000000000     
   1.6961324574293463E-002   7.9259181075062468E-002   0.0000000000000000     
   1.7634958293920484E-002   8.5577554048107282E-002   0.0000000000000000     
   1.8283065371610428E-002   9.2054937891305352E-002   0.0000000000000000     
   1.8905645807363303E-002   9.8691332604656665E-002   0.0000000000000000     
   1.9502699601179105E-002  0.10548673818816126        0.0000000000000000     
   3.9933874600374487E-002  0.10652921152006084        0.0000000000000000     
   4.1079285562966278E-002  0.11342239411304657        0.0000000000000000     
   4.2173929978548755E-002  0.12044971621860968        0.0000000000000000     
   4.3217807847121904E-002  0.12761117783675013        0.0000000000000000     
   4.4210919168685754E-002  0.13490677896746792        0.0000000000000000     
   3.4696279475206260E-002  0.10620279485161171        0.0000000000000000     
   3.5697524787401826E-002  0.11311095278342372        0.0000000000000000     
   3.6653905076264398E-002  0.12015375718912731        0.0000000000000000     
   3.7565420341793977E-002  0.12733120806872242        0.0000000000000000     
   3.8432070583990563E-002  0.13464330542220912        0.0000000000000000     
   2.9545218600284286E-002  0.10592024374014541        0.0000000000000000     
   3.0402690707555632E-002  0.11284164071464807        0.0000000000000000     
   3.1221330244218193E-002  0.11989808161568273        0.0000000000000000     
   3.2001137210271959E-002  0.12708956644324942        0.0000000000000000     
   3.2742111605716939E-002  0.13441609519734821        0.0000000000000000     
   2.4480691975608572E-002  0.10568155818566194        0.0000000000000000     
   2.5194783323427689E-002  0.11261445790671959        0.0000000000000000     
   2.5876205482410122E-002  0.11968268949827603        0.0000000000000000     
   2.6524958452555852E-002  0.12688625296033118        0.0000000000000000     
   2.7141042233864886E-002  0.13422514829288509        0.0000000000000000     
   1.9502699601179105E-002  0.10548673818816126        0.0000000000000000     
   2.0073802635018012E-002  0.11242940435963833        0.0000000000000000     
   2.0618530790840195E-002  0.11950758083690712        0.0000000000000000     
   2.1136884068645664E-002  0.12672126761996763        0.0000000000000000     
   2.1628862468434408E-002  0.13407046470881986        0.0000000000000000     
   4.4210919168685754E-002  0.13490677896746792        0.0000000000000000     
   4.5152179404042390E-002  0.14232491751175391        0.0000000000000000     
   4.6040504013993927E-002  0.14985399137059896        0.0000000000000000     
   4.6875892998540350E-002  0.15749400054400300        0.0000000000000000     
   4.7658346357681687E-002  0.16524494503196613        0.0000000000000000     
   3.8432070583990563E-002  0.13464330542220912        0.0000000000000000     
   3.9252771030623676E-002  0.14207827728033623        0.0000000000000000     
   4.0026436909462844E-002  0.14962435167385266        0.0000000000000000     
   4.0753068220508074E-002  0.15728152860275829        0.0000000000000000     
   4.1432664963759358E-002  0.16504980806705322        0.0000000000000000     
   3.2742111605716939E-002  0.13441609519734821        0.0000000000000000     
   3.3443225333300491E-002  0.14186580018276529        0.0000000000000000     
   3.4103450295769978E-002  0.14942681370428712        0.0000000000000000     
   3.4722786493125407E-002  0.15709913576191364        0.0000000000000000     
   3.5301233925366778E-002  0.16488276635564486        0.0000000000000000     
   2.7141042233864886E-002  0.13422514829288509        0.0000000000000000     
   2.7723542312072847E-002  0.14168748621904106        0.0000000000000000     
   2.8271544172915331E-002  0.14926137746190241        0.0000000000000000     
   2.8785047816392368E-002  0.15694682202146901        0.0000000000000000     
   2.9264053242503935E-002  0.16474381989774106        0.0000000000000000     
   2.1628862468434408E-002  0.13407046470881986        0.0000000000000000     
   2.2093721966940726E-002  0.14154333538916355        0.0000000000000000     
   2.2530718540898907E-002  0.14912804294669843        0.0000000000000000     
   2.2939852190308946E-002  0.15682458738142452        0.0000000000000000     
   2.3321122915170849E-002  0.16463296869334179        0.0000000000000000     
   0.0000000000000000        0.0000000000000000        0.0000000000000000     
   8.4167456707121230E-004   1.1100049868939242E-003   0.0000000000000000     
   1.7021259331910941E-003   2.5981576462749448E-003   0.0000000000000000     
   2.5813540983596456E-003   4.4644579781430629E-003   0.0000000000000000     
   3.4793590625768660E-003   6.7089059824982766E-003   0.0000000000000000     
   0.0000000000000000        0.0000000000000000        0.0000000000000000     
   6.3383800515324964E-004   1.0939896400434883E-003   0.0000000000000000     
   1.2780569684410416E-003   2.5620798174725940E-003   0.0000000000000000     
   1.9326568898633757E-003   4.4042705322873176E-003   0.0000000000000000     
   2.5976377694202518E-003   6.6205617844876585E-003   0.0000000000000000     
   0.0000000000000000        0.0000000000000000        0.0000000000000000     
   4.2428005668495021E-004   1.0825501066137335E-003   0.0000000000000000     
   8.5301299136285899E-004   2.5363099397864440E-003   0.0000000000000000     
   1.2861988040337262E-003   4.3612794995181309E-003   0.0000000000000000     
   1.7238374946975522E-003   6.5574587858087952E-003   0.0000000000000000     
   0.0000000000000000        0.0000000000000000        0.0000000000000000     
   2.1300072166631389E-004   1.0756863866046604E-003   0.0000000000000000     
   4.2699400195654635E-004   2.5208480132164952E-003   0.0000000000000000     
   6.4197984087069749E-004   4.3354848798355045E-003   0.0000000000000000     
   8.5795823840876704E-004   6.5195969864616874E-003   0.0000000000000000     
   0.0000000000000000        0.0000000000000000        0.0000000000000000     
   9.7340728142866761E-014   1.0733984800162682E-003   0.0000000000000000     
   2.2210369394343177E-013   2.5156940377627471E-003   0.0000000000000000     
   3.7428897871685796E-013   4.3268866732394358E-003   0.0000000000000000     
   5.5389650114798239E-013   6.5069763864463353E-003   0.0000000000000000     
   3.4793590625768660E-003   6.7089059824982766E-003   0.0000000000000000     
   4.3878961753153036E-003   9.2941840065708017E-003   0.0000000000000000     
   5.2987207860475056E-003   1.2182974397590847E-002   0.0000000000000000     
   6.2118328947734719E-003   1.5375277155558417E-002   0.0000000000000000     
   7.1272325014932010E-003   1.8871092280473508E-002   0.0000000000000000     
   2.5976377694202518E-003   6.6205617844876585E-003   0.0000000000000000     
   3.2700449041118433E-003   9.1779967139889000E-003   0.0000000000000000     
   3.9469235909383223E-003   1.2043618460706326E-002   0.0000000000000000     
   4.6282738298996885E-003   1.5217427024639933E-002   0.0000000000000000     
   5.3140956209959426E-003   1.8699422405789725E-002   0.0000000000000000     
   1.7238374946975522E-003   6.5574587858087952E-003   0.0000000000000000     
   2.1661117846184610E-003   9.0950057905488709E-003   0.0000000000000000     
   2.6132043950605767E-003   1.1944078505628789E-002   0.0000000000000000     
   3.0651153260238995E-003   1.5104676931048552E-002   0.0000000000000000     
   3.5218445775084301E-003   1.8576801066808160E-002   0.0000000000000000     
   8.5795823840876704E-004   6.5195969864616874E-003   0.0000000000000000     
   1.0760968168351571E-003   9.0452112362507109E-003   0.0000000000000000     
   1.2975631984142694E-003   1.1884354532358239E-002   0.0000000000000000     
   1.5223573831461043E-003   1.5037026874784268E-002   0.0000000000000000     
   1.7504793710306609E-003   1.8503228263528810E-002   0.0000000000000000     
   5.5389650114798239E-013   6.5069763864463353E-003   0.0000000000000000     
   7.6193179098914959E-013   9.0286130510944234E-003   0.0000000000000000     
   9.9940025601995969E-013   1.1864446540894674E-002   0.0000000000000000     
   1.2663021232452425E-012   1.5014476855847092E-002   0.0000000000000000     
   1.5626372808566491E-012   1.8478703995951678E-002   0.0000000000000000     
   7.1272325014932010E-003   1.8871092280473508E-002   0.0000000000000000     
   8.0383197558223322E-003   2.2644507656107416E-002   0.0000000000000000     
   8.9384948073765007E-003   2.6669611166231427E-002   0.0000000000000000     
   9.8277576561557056E-003   3.0946402810845545E-002   0.0000000000000000     
   1.0706108302159949E-002   3.5474882589949769E-002   0.0000000000000000     
   5.3140956209959426E-003   1.8699422405789725E-002   0.0000000000000000     
   5.9974619530904381E-003   2.2462226895111223E-002   0.0000000000000000     
   6.6714458150465283E-003   2.6478462783559961E-002   0.0000000000000000     
   7.3360472068642150E-003   3.0748130071135932E-002   0.0000000000000000     
   7.9912661285434939E-003   3.5271228757839140E-002   0.0000000000000000     
   3.5218445775084301E-003   1.8576801066808160E-002   0.0000000000000000     
   3.9774560598639175E-003   2.2332026351726007E-002   0.0000000000000000     
   4.4260136834401156E-003   2.6341928224620514E-002   0.0000000000000000     
   4.8675174482370239E-003   3.0606506685491666E-002   0.0000000000000000     
   5.3019673542546398E-003   3.5125761734339470E-002   0.0000000000000000     
   1.7504793710306609E-003   1.8503228263528810E-002   0.0000000000000000     
   1.9783020761427704E-003   2.2253906025951776E-002   0.0000000000000000     
   2.2021984125572616E-003   2.6260007489413085E-002   0.0000000000000000     
   2.4221683802741348E-003   3.0521532653912751E-002   0.0000000000000000     
   2.6382119792933900E-003   3.5038481519450763E-002   0.0000000000000000     
   1.5626372808566491E-012   1.8478703995951678E-002   0.0000000000000000     
   1.9269951303038657E-012   2.2227865917788511E-002   0.0000000000000000     
   2.3979646664607640E-012   2.6232700577937678E-002   0.0000000000000000     
   2.9755471700411602E-012   3.0493207976399178E-002   0.0000000000000000     
   3.6597417804595800E-012   3.5009388113173015E-002   0.0000000000000000     
   1.0706108302159949E-002   3.5474882589949769E-002   0.0000000000000000     
   1.1567910813128019E-002   4.0234850821645324E-002   0.0000000000000000     
   1.2407529256798704E-002   4.5206107824033420E-002   0.0000000000000000     
   1.3224963633172000E-002   5.0388653597114058E-002   0.0000000000000000     
   1.4020213942247913E-002   5.5782488140887231E-002   0.0000000000000000     
   7.9912661285434939E-003   3.5271228757839140E-002   0.0000000000000000     
   8.6341413951753956E-003   4.0027939162256151E-002   0.0000000000000000     
   9.2617118218509438E-003   4.4998441602973512E-002   0.0000000000000000     
   9.8739774085701403E-003   5.0182736079991248E-002   0.0000000000000000     
   1.0470938155332985E-002   5.5580822593309334E-002   0.0000000000000000     
   5.3019673542546398E-003   3.5125761734339470E-002   0.0000000000000000     
   5.7282331210952346E-003   3.9880145118983461E-002   0.0000000000000000     
   6.1451844683610719E-003   4.4850108587243170E-002   0.0000000000000000     
   6.5528213960521532E-003   5.0035652139118598E-002   0.0000000000000000     
   6.9511439041684796E-003   5.5436775774609745E-002   0.0000000000000000     
   2.6382119792933900E-003   3.5038481519450763E-002   0.0000000000000000     
   2.8501859908875373E-003   3.9791468691827266E-002   0.0000000000000000     
   3.0579471963290872E-003   4.4761108776842383E-002   0.0000000000000000     
   3.2614955956180398E-003   4.9947401774496115E-002   0.0000000000000000     
   3.4608311887543933E-003   5.5350347684788463E-002   0.0000000000000000     
   3.6597417804595800E-012   3.5009388113173015E-002   0.0000000000000000     
   4.5523038463834986E-012   3.9761909880787552E-002   0.0000000000000000     
   5.7549890417410432E-012   4.4731442171771142E-002   0.0000000000000000     
   7.2677981525787888E-012   4.9917984986123792E-002   0.0000000000000000     
   9.0907296881187483E-012   5.5321538323845509E-002   0.0000000000000000     
   1.4020213942247913E-002   5.5782488140887231E-002   0.0000000000000000     
   1.4792152063321176E-002   6.1374390646112782E-002   0.0000000000000000     
   1.5539649875686522E-002   6.7151140303550488E-002   0.0000000000000000     
   1.6262707379343953E-002   7.3112737113200377E-002   0.0000000000000000     
   1.6961324574293463E-002   7.9259181075062468E-002   0.0000000000000000     
   1.0470938155332985E-002   5.5580822593309334E-002   0.0000000000000000     
   1.1050851549429834E-002   6.1178288194924504E-002   0.0000000000000000     
   1.1611975078151041E-002   6.6960719936833515E-002   0.0000000000000000     
   1.2154308741496610E-002   7.2928117819036326E-002   0.0000000000000000     
   1.2677852539466537E-002   7.9080481841532949E-002   0.0000000000000000     
   6.9511439041684796E-003   5.5436775774609745E-002   0.0000000000000000     
   7.3383927025747718E-003   6.1038215017577259E-002   0.0000000000000000     
   7.7128085011357568E-003   6.6824705391881831E-002   0.0000000000000000     
   8.0743912998514338E-003   7.2796246897523439E-002   0.0000000000000000     
   8.4231410987218071E-003   7.8952839534502078E-002   0.0000000000000000     
   3.4608311887543933E-003   5.5350347684788463E-002   0.0000000000000000     
   3.6547755227559894E-003   6.0954171114071046E-002   0.0000000000000000     
   3.8421501446406674E-003   6.6743096668695490E-002   0.0000000000000000     
   4.0229550544084274E-003   7.2717124348661732E-002   0.0000000000000000     
   4.1971902520592692E-003   7.8876254153969858E-002   0.0000000000000000     
   9.0907296881187483E-012   5.5321538323845509E-002   0.0000000000000000     
   9.9734879643181840E-012   6.0926156484405872E-002   0.0000000000000000     
   8.6657730687458856E-012   6.6715893767274451E-002   0.0000000000000000     
   5.1675864379697317E-012   7.2690750172451260E-002   0.0000000000000000     
  -5.2107341878826485E-013   7.8850725699936286E-002   0.0000000000000000     
   1.6961324574293463E-002   7.9259181075062468E-002   0.0000000000000000     
   1.7634958293920484E-002   8.5577554048107282E-002   0.0000000000000000     
   1.8283065371610428E-002   9.2054937891305352E-002   0.0000000000000000     
   1.8905645807363303E-002   9.8691332604656665E-002   0.0000000000000000     
   1.9502699601179105E-002  0.10548673818816126        0.0000000000000000     
   1.2677852539466537E-002   7.9080481841532949E-002   0.0000000000000000     
   1.3182519463315355E-002   8.5405053412781429E-002   0.0000000000000000     
   1.3668222504297597E-002   9.1889073941239810E-002   0.0000000000000000     
   1.4134961662413265E-002   9.8532543426908037E-002   0.0000000000000000     
   1.4582736937662355E-002  0.10533546186978618        0.0000000000000000     
   8.4231410987218071E-003   7.8952839534502078E-002   0.0000000000000000     
   8.7592134696202785E-003   8.5281838675123539E-002   0.0000000000000000     
   9.0827639844202647E-003   9.1770599691693572E-002   0.0000000000000000     
   9.3937926431217639E-003   9.8419122584212232E-002   0.0000000000000000     
   9.6922994457247762E-003  0.10522740735267948        0.0000000000000000     
   4.1971902520592692E-003   7.8876254153969858E-002   0.0000000000000000     
   4.3650403128352487E-003   8.5207909835133558E-002   0.0000000000000000     
   4.5266898119784267E-003   9.1699515142666707E-002   0.0000000000000000     
   4.6821387494887998E-003   9.8351070076569208E-002   0.0000000000000000     
   4.8313871253663696E-003  0.10516257463684113        0.0000000000000000     
  -5.2107341878826485E-013   7.8850725699936286E-002   0.0000000000000000     
  -7.0397316448422842E-012   8.5183266892811582E-002   0.0000000000000000     
  -1.3027916798743350E-011   9.1675820294159160E-002   0.0000000000000000     
  -1.8485627294845784E-011   9.8328385903979021E-002   0.0000000000000000     
  -2.3412864095379016E-011  0.10514096372227118        0.0000000000000000     
   1.9502699601179105E-002  0.10548673818816126        0.0000000000000000     
   2.0073802635018012E-002  0.11242940435963833        0.0000000000000000     
   2.0618530790840195E-002  0.11950758083690712        0.0000000000000000     
   2.1136884068645664E-002  0.12672126761996763        0.0000000000000000     
   2.1628862468434408E-002  0.13407046470881986        0.0000000000000000     
   1.4582736937662355E-002  0.10533546186978618        0.0000000000000000     
   1.5011051963298766E-002  0.11228591405499623        0.0000000000000000     
   1.5419410372576400E-002  0.11937198476766016        0.0000000000000000     
   1.5807812165495257E-002  0.12659367400777799        0.0000000000000000     
   1.6176257342055335E-002  0.13395098177534978        0.0000000000000000     
   9.6922994457247762E-003  0.10522740735267948        0.0000000000000000     
   9.9778346292421476E-003  0.11218342097438518        0.0000000000000000     
   1.0249948430686724E-002  0.11927513042661918        0.0000000000000000     
   1.0508640850058508E-002  0.12650253570938147        0.0000000000000000     
   1.0753911887357494E-002  0.13386563682267205        0.0000000000000000     
   4.8313871253663696E-003  0.10516257463684113        0.0000000000000000     
   4.9741506328481533E-003  0.11212192511780522        0.0000000000000000     
   5.1101449651711700E-003  0.11921701781378415        0.0000000000000000     
   5.2393701223354154E-003  0.12644785272477801        0.0000000000000000     
   5.3618261043408945E-003  0.13381442985078673        0.0000000000000000     
  -2.3412864095379016E-011  0.10514096372227118        0.0000000000000000     
  -2.5883214842259417E-011  0.11210142648525633        0.0000000000000000     
  -2.3970265442679883E-011  0.11919764692915513        0.0000000000000000     
  -1.7674017739784109E-011  0.12642962505396765        0.0000000000000000     
  -6.9944692399070973E-012  0.13379736085969382        0.0000000000000000     
   2.1628862468434408E-002  0.13407046470881986        0.0000000000000000     
   2.2093721966940726E-002  0.14154333538916355        0.0000000000000000     
   2.2530718540898907E-002  0.14912804294669843        0.0000000000000000     
   2.2939852190308946E-002  0.15682458738142452        0.0000000000000000     
   2.3321122915170849E-002  0.16463296869334179        0.0000000000000000     
   1.6176257342055335E-002  0.13395098177534978        0.0000000000000000     
   1.6524197589315406E-002  0.14143214978457277        0.0000000000000000     
   1.6851084594334254E-002  0.14902541974964428        0.0000000000000000     
   1.7156918357111871E-002  0.15673079167056447        0.0000000000000000     
   1.7441698877648265E-002  0.16454826554733315        0.0000000000000000     
   1.0753911887357494E-002  0.13386563682267205        0.0000000000000000     
   1.0985402470608155E-002  0.14135273149670868        0.0000000000000000     
   1.1202753527834950E-002  0.14895211746170911        0.0000000000000000     
   1.1405965059037878E-002  0.15666379471767325        0.0000000000000000     
   1.1595037064216943E-002  0.16448776326460121        0.0000000000000000     
   5.3618261043408945E-003  0.13381442985078673        0.0000000000000000     
   5.4773366108189650E-003  0.14130508052557134        0.0000000000000000     
   5.5857253414009871E-003  0.14890813608289274        0.0000000000000000     
   5.6869922960869606E-003  0.15662359652275099        0.0000000000000000     
   5.7811374748768856E-003  0.16445146184514600        0.0000000000000000     
  -6.9944692399070973E-012  0.13379736085969382        0.0000000000000000     
   9.9478387766832599E-012  0.14128919687116070        0.0000000000000000     
   3.5032368607586239E-011  0.14889347561319530        0.0000000000000000     
   6.8259118762023854E-011  0.15661019708579751        0.0000000000000000     
   1.0962809045972355E-010  0.16443936128896747        0.0000000000000000     
   0.0000000000000000        0.0000000000000000        0.0000000000000000     
   9.7340728142866761E-014   1.0733984800162682E-003   0.0000000000000000     
   2.2210369394343177E-013   2.5156940377627471E-003   0.0000000000000000     
   3.7428897871685796E-013   4.3268866732394358E-003   0.0000000000000000     
   5.5389650114798239E-013   6.5069763864463353E-003   0.0000000000000000     
   0.0000000000000000        0.0000000000000000        0.0000000000000000     
  -2.1300072147810244E-004   1.0756863867706341E-003   0.0000000000000000     
  -4.2699400152432319E-004   2.5208480133403761E-003   0.0000000000000000     
  -6.4197984013866251E-004   4.3354848797092253E-003   0.0000000000000000     
  -8.5795823732112025E-004   6.5195969858771827E-003   0.0000000000000000     
   0.0000000000000000        0.0000000000000000        0.0000000000000000     
  -4.2428005651614877E-004   1.0825501067898340E-003   0.0000000000000000     
  -8.5301299096658884E-004   2.5363099398645582E-003   0.0000000000000000     
  -1.2861988033513205E-003   4.3612794992241724E-003   0.0000000000000000     
  -1.7238374936703433E-003   6.5574587848686782E-003   0.0000000000000000     
   0.0000000000000000        0.0000000000000000        0.0000000000000000     
  -6.3383800501679813E-004   1.0939896400738679E-003   0.0000000000000000     
  -1.2780569681046933E-003   2.5620798173352937E-003   0.0000000000000000     
  -1.9326568892636847E-003   4.4042705317842773E-003   0.0000000000000000     
  -2.5976377684937728E-003   6.6205617834208183E-003   0.0000000000000000     
   0.0000000000000000        0.0000000000000000        0.0000000000000000     
  -8.4167456698005074E-004   1.1100049866227361E-003   0.0000000000000000     
  -1.7021259329386359E-003   2.5981576457525823E-003   0.0000000000000000     
  -2.5813540978757554E-003   4.4644579773895389E-003   0.0000000000000000     
  -3.4793590617914092E-003   6.7089059815336046E-003   0.0000000000000000     
   5.5389650114798239E-013   6.5069763864463353E-003   0.0000000000000000     
   7.6193179098914959E-013   9.0286130510944234E-003   0.0000000000000000     
   9.9940025601995969E-013   1.1864446540894674E-002   0.0000000000000000     
   1.2663021232452425E-012   1.5014476855847092E-002   0.0000000000000000     
   1.5626372808566491E-012   1.8478703995951678E-002   0.0000000000000000     
  -8.5795823732112025E-004   6.5195969858771827E-003   0.0000000000000000     
  -1.0760968153393203E-003   9.0452112353016870E-003   0.0000000000000000     
  -1.2975631964608875E-003   1.1884354531440176E-002   0.0000000000000000     
  -1.5223573806858225E-003   1.5037026874292647E-002   0.0000000000000000     
  -1.7504793680141245E-003   1.8503228263859108E-002   0.0000000000000000     
  -1.7238374936703433E-003   6.5574587848686782E-003   0.0000000000000000     
  -2.1661117832067049E-003   9.0950057890941873E-003   0.0000000000000000     
  -2.6132043932434526E-003   1.1944078504196818E-002   0.0000000000000000     
  -3.0651153237805863E-003   1.5104676930176569E-002   0.0000000000000000     
  -3.5218445748181064E-003   1.8576801067033435E-002   0.0000000000000000     
  -2.5976377684937728E-003   6.6205617834208183E-003   0.0000000000000000     
  -3.2700449028402216E-003   9.1779967124719260E-003   0.0000000000000000     
  -3.9469235893482947E-003   1.2043618459164603E-002   0.0000000000000000     
  -4.6282738280179897E-003   1.5217427023498849E-002   0.0000000000000000     
  -5.3140956188493091E-003   1.8699422405474671E-002   0.0000000000000000     
  -3.4793590617914092E-003   6.7089059815336046E-003   0.0000000000000000     
  -4.3878961742398687E-003   9.2941840054348961E-003   0.0000000000000000     
  -5.2987207847754103E-003   1.2182974396343527E-002   0.0000000000000000     
  -6.2118328933980314E-003   1.5375277154259499E-002   0.0000000000000000     
  -7.1272325001077328E-003   1.8871092279182811E-002   0.0000000000000000     
   1.5626372808566491E-012   1.8478703995951678E-002   0.0000000000000000     
   1.9269951303038657E-012   2.2227865917788511E-002   0.0000000000000000     
   2.3979646664607640E-012   2.6232700577937678E-002   0.0000000000000000     
   2.9755471700411602E-012   3.0493207976399178E-002   0.0000000000000000     
   3.6597417804595800E-012   3.5009388113173015E-002   0.0000000000000000     
  -1.7504793680141245E-003   1.8503228263859108E-002   0.0000000000000000     
  -1.9783020724353628E-003   2.2253906026830753E-002   0.0000000000000000     
  -2.2021984079391068E-003   2.6260007489898797E-002   0.0000000000000000     
  -2.4221683745253558E-003   3.0521532653063243E-002   0.0000000000000000     
  -2.6382119721941118E-003   3.5038481516324091E-002   0.0000000000000000     
  -3.5218445748181064E-003   1.8576801067033435E-002   0.0000000000000000     
  -3.9774560565962579E-003   2.2332026352673034E-002   0.0000000000000000     
  -4.4260136793552868E-003   2.6341928225000966E-002   0.0000000000000000     
  -4.8675174430951934E-003   3.0606506684017237E-002   0.0000000000000000     
  -5.3019673478159777E-003   3.5125761729721851E-002   0.0000000000000000     
  -5.3140956188493091E-003   1.8699422405474671E-002   0.0000000000000000     
  -5.9974619505556931E-003   2.2462226895315351E-002   0.0000000000000000     
  -6.6714458118505770E-003   2.6478462783244186E-002   0.0000000000000000     
  -7.3360472027339660E-003   3.0748130069261165E-002   0.0000000000000000     
  -7.9912661232058556E-003   3.5271228753366295E-002   0.0000000000000000     
  -7.1272325001077328E-003   1.8871092279182811E-002   0.0000000000000000     
  -8.0383197543136640E-003   2.2644507654757711E-002   0.0000000000000000     
  -8.9384948054249784E-003   2.6669611164628446E-002   0.0000000000000000     
  -9.8277576534416718E-003   3.0946402808795022E-002   0.0000000000000000     
  -1.0706108298363746E-002   3.5474882587257436E-002   0.0000000000000000     
   3.6597417804595800E-012   3.5009388113173015E-002   0.0000000000000000     
   4.5523038463834986E-012   3.9761909880787552E-002   0.0000000000000000     
   5.7549890417410432E-012   4.4731442171771142E-002   0.0000000000000000     
   7.2677981525787888E-012   4.9917984986123792E-002   0.0000000000000000     
   9.0907296881187483E-012   5.5321538323845509E-002   0.0000000000000000     
  -2.6382119721941118E-003   3.5038481516324091E-002   0.0000000000000000     
  -2.8501859820913604E-003   3.9791468687176229E-002   0.0000000000000000     
  -3.0579471853630861E-003   4.4761108773114552E-002   0.0000000000000000     
  -3.2614955820092933E-003   4.9947401774139054E-002   0.0000000000000000     
  -3.4608311720299772E-003   5.5350347690249754E-002   0.0000000000000000     
  -5.3019673478159777E-003   3.5125761729721851E-002   0.0000000000000000     
  -5.7282331132243458E-003   3.9880145112305199E-002   0.0000000000000000     
  -6.1451844590270045E-003   4.4850108581957676E-002   0.0000000000000000     
  -6.5528213852239546E-003   5.0035652138679318E-002   0.0000000000000000     
  -6.9511438918151954E-003   5.5436775782470069E-002   0.0000000000000000     
  -7.9912661232058556E-003   3.5271228753366295E-002   0.0000000000000000     
  -8.6341413888466542E-003   4.0027939156174468E-002   0.0000000000000000     
  -9.2617118152367624E-003   4.4998441598300548E-002   0.0000000000000000     
  -9.8739774023761870E-003   5.0182736079744550E-002   0.0000000000000000     
  -1.0470938150264921E-002   5.5580822600506466E-002   0.0000000000000000     
  -1.0706108298363746E-002   3.5474882587257436E-002   0.0000000000000000     
  -1.1567910808958285E-002   4.0234850818784022E-002   0.0000000000000000     
  -1.2407529253992364E-002   4.5206107822143148E-002   0.0000000000000000     
  -1.3224963633465991E-002   5.0388653597334777E-002   0.0000000000000000     
  -1.4020213947379161E-002   5.5782488144358947E-002   0.0000000000000000     
   9.0907296881187483E-012   5.5321538323845509E-002   0.0000000000000000     
   9.9734879643181840E-012   6.0926156484405872E-002   0.0000000000000000     
   8.6657730687458856E-012   6.6715893767274451E-002   0.0000000000000000     
   5.1675864379697317E-012   7.2690750172451260E-002   0.0000000000000000     
  -5.2107341878826485E-013   7.8850725699936286E-002   0.0000000000000000     
  -3.4608311720299772E-003   5.5350347690249754E-002   0.0000000000000000     
  -3.6547755046398532E-003   6.0954171125433713E-002   0.0000000000000000     
  -3.8421501290536331E-003   6.6743096683678088E-002   0.0000000000000000     
  -4.0229550452713161E-003   7.2717124364982830E-002   0.0000000000000000     
  -4.1971902532929005E-003   7.8876254169347931E-002   0.0000000000000000     
  -6.9511438918151954E-003   5.5436775782470069E-002   0.0000000000000000     
  -7.3383926899511552E-003   6.1038215034006638E-002   0.0000000000000000     
  -7.7128084907822558E-003   6.6824705413965721E-002   0.0000000000000000     
  -8.0743912943085049E-003   7.2796246922347277E-002   0.0000000000000000     
  -8.4231411005298937E-003   7.8952839559151347E-002   0.0000000000000000     
  -1.0470938150264921E-002   5.5580822600506466E-002   0.0000000000000000     
  -1.1050851545960413E-002   6.1178288210124630E-002   0.0000000000000000     
  -1.1611975076520101E-002   6.6960719958137363E-002   0.0000000000000000     
  -1.2154308741943981E-002   7.2928117844544643E-002   0.0000000000000000     
  -1.2677852542232058E-002   7.9080481869346519E-002   0.0000000000000000     
  -1.4020213947379161E-002   5.5782488144358947E-002   0.0000000000000000     
  -1.4792152072667628E-002   6.1374390653787664E-002   0.0000000000000000     
  -1.5539649886267156E-002   6.7151140316193000E-002   0.0000000000000000     
  -1.6262707388177741E-002   7.3112737131574929E-002   0.0000000000000000     
  -1.6961324578399384E-002   7.9259181099933462E-002   0.0000000000000000     
  -5.2107341878826485E-013   7.8850725699936286E-002   0.0000000000000000     
  -7.0397316448422842E-012   8.5183266892811582E-002   0.0000000000000000     
  -1.3027916798743350E-011   9.1675820294159160E-002   0.0000000000000000     
  -1.8485627294845784E-011   9.8328385903979021E-002   0.0000000000000000     
  -2.3412864095379016E-011  0.10514096372227118        0.0000000000000000     
  -4.1971902532929005E-003   7.8876254169347931E-002   0.0000000000000000     
  -4.3650403260316450E-003   8.5207909846515537E-002   0.0000000000000000     
  -4.5266898364008049E-003   9.1699515146227761E-002   0.0000000000000000     
  -4.6821387844003786E-003   9.8351070068484564E-002   0.0000000000000000     
  -4.8313871700303669E-003  0.10516257461328597        0.0000000000000000     
  -8.4231411005298937E-003   7.8952839559151347E-002   0.0000000000000000     
  -8.7592134801674718E-003   8.5281838694603485E-002   0.0000000000000000     
  -9.0827640039422824E-003   9.1770599698929256E-002   0.0000000000000000     
  -9.3937926718543133E-003   9.8419122572128745E-002   0.0000000000000000     
  -9.6922994839035784E-003  0.10522740731420187        0.0000000000000000     
  -1.2677852542232058E-002   7.9080481869346519E-002   0.0000000000000000     
  -1.3182519469447214E-002   8.5405053437075384E-002   0.0000000000000000     
  -1.3668222515652343E-002   9.1889073952263770E-002   0.0000000000000000     
  -1.4134961680847437E-002   9.8532543414911605E-002   0.0000000000000000     
  -1.4582736965032502E-002  0.10533546182501891        0.0000000000000000     
  -1.6961324578399384E-002   7.9259181099933462E-002   0.0000000000000000     
  -1.7634958293870868E-002   8.5577554073931292E-002   0.0000000000000000     
  -1.8283065371530991E-002   9.2054937906231177E-002   0.0000000000000000     
  -1.8905645811379747E-002   9.8691332596833090E-002   0.0000000000000000     
  -1.9502699613417135E-002  0.10548673814573703        0.0000000000000000     
  -2.3412864095379016E-011  0.10514096372227118        0.0000000000000000     
  -2.5883214842259417E-011  0.11210142648525633        0.0000000000000000     
  -2.3970265442679883E-011  0.11919764692915513        0.0000000000000000     
  -1.7674017739784109E-011  0.12642962505396765        0.0000000000000000     
  -6.9944692399070973E-012  0.13379736085969382        0.0000000000000000     
  -4.8313871700303669E-003  0.10516257461328597        0.0000000000000000     
  -4.9741506827290357E-003  0.11212192508260219        0.0000000000000000     
  -5.1101450119346546E-003  0.11921701777840349        0.0000000000000000     
  -5.2393701576472192E-003  0.12644785270068987        0.0000000000000000     
  -5.3618261198667312E-003  0.13381442984946129        0.0000000000000000     
  -9.6922994839035784E-003  0.10522740731420187        0.0000000000000000     
  -9.9778346734663917E-003  0.11218342091570652        0.0000000000000000     
  -1.0249948473919071E-002  0.11927513036720064        0.0000000000000000     
  -1.0508640885261617E-002  0.12650253566868416        0.0000000000000000     
  -1.0753911907494026E-002  0.13386563682015709        0.0000000000000000     
  -1.4582736965032502E-002  0.10533546182501891        0.0000000000000000     
  -1.5011051998095278E-002  0.11228591398456933        0.0000000000000000     
  -1.5419410409923515E-002  0.11937198469554651        0.0000000000000000     
  -1.5807812200517204E-002  0.12659367395795049        0.0000000000000000     
  -1.6176257369876351E-002  0.13395098177178119        0.0000000000000000     
  -1.9502699613417135E-002  0.10548673814573703        0.0000000000000000     
  -2.0073802656615701E-002  0.11242940428919056        0.0000000000000000     
  -2.0618530819947984E-002  0.11950758076344115        0.0000000000000000     
  -2.1136884103413987E-002  0.12672126756848887        0.0000000000000000     
  -2.1628862507013714E-002  0.13407046470433365        0.0000000000000000     
  -6.9944692399070973E-012  0.13379736085969382        0.0000000000000000     
   9.9478387766832599E-012  0.14128919687116070        0.0000000000000000     
   3.5032368607586239E-011  0.14889347561319530        0.0000000000000000     
   6.8259118762023854E-011  0.15661019708579751        0.0000000000000000     
   1.0962809045972355E-010  0.16443936128896747        0.0000000000000000     
  -5.3618261198667312E-003  0.13381442984946129        0.0000000000000000     
  -5.4773365939309905E-003  0.14130508053374605        0.0000000000000000     
  -5.5857252751777935E-003  0.14890813606257242        0.0000000000000000     
  -5.6869921636071435E-003  0.15662359643594037        0.0000000000000000     
  -5.7811372592190390E-003  0.16445146165384994        0.0000000000000000     
  -1.0753911907494026E-002  0.13386563682015709        0.0000000000000000     
  -1.0985402462743288E-002  0.14135273151359659        0.0000000000000000     
  -1.1202753473136390E-002  0.14895211744097989        0.0000000000000000     
  -1.1405964938673326E-002  0.15666379460230687        0.0000000000000000     
  -1.1595036859354101E-002  0.16448776299757764        0.0000000000000000     
  -1.6176257369876351E-002  0.13395098177178119        0.0000000000000000     
  -1.6524197596489060E-002  0.14143214981071237        0.0000000000000000     
  -1.6851084558843415E-002  0.14902541974841765        0.0000000000000000     
  -1.7156918256939428E-002  0.15673079158489706        0.0000000000000000     
  -1.7441698690777094E-002  0.16454826532015060        0.0000000000000000     
  -2.1628862507013714E-002  0.13407046470433365        0.0000000000000000     
  -2.2093721995168295E-002  0.14154333542509337        0.0000000000000000     
  -2.2530718532298873E-002  0.14912804298488577        0.0000000000000000     
  -2.2939852118405445E-002  0.15682458738371091        0.0000000000000000     
  -2.3321122753488015E-002  0.16463296862156879        0.0000000000000000     
   0.0000000000000000        0.0000000000000000        0.0000000000000000     
  -8.4167456698005074E-004   1.1100049866227361E-003   0.0000000000000000     
  -1.7021259329386359E-003   2.5981576457525823E-003   0.0000000000000000     
  -2.5813540978757554E-003   4.4644579773895389E-003   0.0000000000000000     
  -3.4793590617914092E-003   6.7089059815336046E-003   0.0000000000000000     
   0.0000000000000000        0.0000000000000000        0.0000000000000000     
  -1.0566987877300756E-003   1.1341598634421724E-003   0.0000000000000000     
  -2.1397648297040040E-003   2.6503945295974626E-003   0.0000000000000000     
  -3.2491981259217843E-003   4.5487039984658710E-003   0.0000000000000000     
  -4.3849986763834156E-003   6.8290882700473982E-003   0.0000000000000000     
   0.0000000000000000        0.0000000000000000        0.0000000000000000     
  -1.2878197125910421E-003   1.1700179875379106E-003   0.0000000000000000     
  -2.6055186026363824E-003   2.7246415733509729E-003   0.0000000000000000     
  -3.9530966701360210E-003   4.6638707574391865E-003   0.0000000000000000     
  -5.3305539150899587E-003   6.9877055398025537E-003   0.0000000000000000     
   0.0000000000000000        0.0000000000000000        0.0000000000000000     
  -1.5350373415629495E-003   1.2175793589099516E-003   0.0000000000000000     
  -3.0993872517357723E-003   2.8208987770131136E-003   0.0000000000000000     
  -4.6930497305184673E-003   4.8099582543094880E-003   0.0000000000000000     
  -6.3160247779110350E-003   7.1847577907990737E-003   0.0000000000000000     
   0.0000000000000000        0.0000000000000000        0.0000000000000000     
  -1.7983516746457985E-003   1.2768439775582942E-003   0.0000000000000000     
  -3.6213707770021723E-003   2.9391661405838848E-003   0.0000000000000000     
  -5.4690573070691221E-003   4.9869664890767728E-003   0.0000000000000000     
  -7.3414112648466472E-003   7.4202450230369576E-003   0.0000000000000000     
  -3.4793590617914092E-003   6.7089059815336046E-003   0.0000000000000000     
  -4.3878961742398687E-003   9.2941840054348961E-003   0.0000000000000000     
  -5.2987207847754103E-003   1.2182974396343527E-002   0.0000000000000000     
  -6.2118328933980314E-003   1.5375277154259499E-002   0.0000000000000000     
  -7.1272325001077328E-003   1.8871092279182811E-002   0.0000000000000000     
  -4.3849986763834156E-003   6.8290882700473982E-003   0.0000000000000000     
  -5.5341852361385415E-003   9.4495488795653879E-003   0.0000000000000000     
  -6.6837765602367977E-003   1.2368087362243187E-002   0.0000000000000000     
  -7.8337726486781903E-003   1.5584703718080803E-002   0.0000000000000000     
  -8.9841735014627132E-003   1.9099397947078229E-002   0.0000000000000000     
  -5.3305539150899587E-003   6.9877055398025537E-003   0.0000000000000000     
  -6.7234317272691253E-003   9.6500725464456812E-003   0.0000000000000000     
  -8.1172714964444521E-003   1.2604898403373184E-002   0.0000000000000000     
  -9.5120732226159407E-003   1.5852183110585054E-002   0.0000000000000000     
  -1.0907836905783586E-002   1.9391926668081306E-002   0.0000000000000000     
  -6.3160247779110350E-003   7.1847577907990737E-003   0.0000000000000000     
  -7.9556356476316210E-003   9.8957550060757762E-003   0.0000000000000000     
  -9.5992055933983699E-003   1.2893407519733507E-002   0.0000000000000000     
  -1.1246734615211281E-002   1.6177715331772265E-002   0.0000000000000000     
  -1.2898222713070355E-002   1.9748678442192042E-002   0.0000000000000000     
  -7.3414112648466472E-003   7.4202450230369576E-003   0.0000000000000000     
  -9.2307969972260304E-003   1.0186596258455676E-002   0.0000000000000000     
  -1.1129578851098552E-002   1.3233614711324162E-002   0.0000000000000000     
  -1.3037756826464214E-002   1.6561300381642417E-002   0.0000000000000000     
  -1.4955330923323018E-002   2.0169653269410441E-002   0.0000000000000000     
  -7.1272325001077328E-003   1.8871092279182811E-002   0.0000000000000000     
  -8.0383197543136640E-003   2.2644507654757711E-002   0.0000000000000000     
  -8.9384948054249784E-003   2.6669611164628446E-002   0.0000000000000000     
  -9.8277576534416718E-003   3.0946402808795022E-002   0.0000000000000000     
  -1.0706108298363746E-002   3.5474882587257436E-002   0.0000000000000000     
  -8.9841735014627132E-003   1.9099397947078229E-002   0.0000000000000000     
  -1.0127942690255673E-002   2.2887345763845504E-002   0.0000000000000000     
  -1.1258043786722370E-002   2.6923722882992673E-002   0.0000000000000000     
  -1.2374476790862801E-002   3.1208529304519738E-002   0.0000000000000000     
  -1.3477241702676971E-002   3.5741765028426686E-002   0.0000000000000000     
  -1.0907836905783586E-002   1.9391926668081306E-002   0.0000000000000000     
  -1.2294243980767214E-002   2.3199218355424146E-002   0.0000000000000000     
  -1.3660975882386630E-002   2.7249147452175795E-002   0.0000000000000000     
  -1.5008032610641847E-002   3.1541713958336250E-002   0.0000000000000000     
  -1.6335414165532854E-002   3.6076917873905504E-002   0.0000000000000000     
  -1.2898222713070355E-002   1.9748678442192042E-002   0.0000000000000000     
  -1.4537223625848290E-002   2.3580125429493625E-002   0.0000000000000000     
  -1.6147291092417769E-002   2.7645884872177791E-002   0.0000000000000000     
  -1.7728425112778806E-002   3.1945956770244532E-002   0.0000000000000000     
  -1.9280625686931386E-002   3.6480341123693860E-002   0.0000000000000000     
  -1.4955330923323018E-002   2.0169653269410441E-002   0.0000000000000000     
  -1.6856881625498896E-002   2.4030066986053953E-002   0.0000000000000000     
  -1.8716989416815780E-002   2.8113935142998682E-002   0.0000000000000000     
  -2.0535654297273678E-002   3.2421257740244624E-002   0.0000000000000000     
  -2.2312876266872578E-002   3.6952034777791784E-002   0.0000000000000000     
  -1.0706108298363746E-002   3.5474882587257436E-002   0.0000000000000000     
  -1.1567910808958285E-002   4.0234850818784022E-002   0.0000000000000000     
  -1.2407529253992364E-002   4.5206107822143148E-002   0.0000000000000000     
  -1.3224963633465991E-002   5.0388653597334777E-002   0.0000000000000000     
  -1.4020213947379161E-002   5.5782488144358947E-002   0.0000000000000000     
  -1.3477241702676971E-002   3.5741765028426686E-002   0.0000000000000000     
  -1.4558574173381090E-002   4.0503629679285010E-002   0.0000000000000000     
  -1.5610709854191369E-002   4.5474322881666161E-002   0.0000000000000000     
  -1.6633648745107813E-002   5.0653844635570162E-002   0.0000000000000000     
  -1.7627390846130415E-002   5.6042194940996978E-002   0.0000000000000000     
  -1.6335414165532854E-002   3.6076917873905504E-002   0.0000000000000000     
  -1.7635164281936924E-002   4.0837025316828528E-002   0.0000000000000000     
  -1.8899326694731343E-002   4.5804302405050297E-002   0.0000000000000000     
  -2.0127901403916102E-002   5.0978749138570797E-002   0.0000000000000000     
  -2.1320888409491201E-002   5.6360365517390036E-002   0.0000000000000000     
  -1.9280625686931386E-002   3.6480341123693860E-002   0.0000000000000000     
  -2.0797681134625792E-002   4.1235037731414605E-002   0.0000000000000000     
  -2.2273379775612279E-002   4.6196046392295541E-002   0.0000000000000000     
  -2.3707721609890858E-002   5.1363367106336731E-002   0.0000000000000000     
  -2.5100706637461515E-002   5.6736999873538113E-002   0.0000000000000000     
  -2.2312876266872578E-002   3.6952034777791784E-002   0.0000000000000000     
  -2.4046124731447682E-002   4.1697666923043192E-002   0.0000000000000000     
  -2.5732869096834185E-002   4.6649554843401914E-002   0.0000000000000000     
  -2.7373109363032069E-002   5.1807698538867915E-002   0.0000000000000000     
  -2.8966845530041353E-002   5.7172098009441230E-002   0.0000000000000000     
  -1.4020213947379161E-002   5.5782488144358947E-002   0.0000000000000000     
  -1.4792152072667628E-002   6.1374390653787664E-002   0.0000000000000000     
  -1.5539649886267156E-002   6.7151140316193000E-002   0.0000000000000000     
  -1.6262707388177741E-002   7.3112737131574929E-002   0.0000000000000000     
  -1.6961324578399384E-002   7.9259181099933462E-002   0.0000000000000000     
  -1.7627390846130415E-002   5.6042194940996978E-002   0.0000000000000000     
  -1.8591459145520902E-002   6.1627219154273931E-002   0.0000000000000000     
  -1.9525376631540990E-002   6.7396762631728321E-002   0.0000000000000000     
  -2.0429143304190687E-002   7.3350825373360157E-002   0.0000000000000000     
  -2.1302759163469978E-002   7.9489407379169388E-002   0.0000000000000000     
  -2.1320888409491201E-002   5.6360365517390036E-002   0.0000000000000000     
  -2.2477937639968328E-002   6.1937470500861583E-002   0.0000000000000000     
  -2.3598699023859155E-002   6.7698383048339042E-002   0.0000000000000000     
  -2.4683172561163695E-002   7.3643103159822379E-002   0.0000000000000000     
  -2.5731358251881942E-002   7.9771630835311622E-002   0.0000000000000000     
  -2.5100706637461515E-002   5.6736999873538113E-002   0.0000000000000000     
  -2.6451587556009900E-002   6.2305144693550620E-002   0.0000000000000000     
  -2.7759617063221657E-002   6.8056001566025134E-002   0.0000000000000000     
  -2.9024795159096780E-002   7.3989570490961609E-002   0.0000000000000000     
  -3.0247121843635275E-002   8.0105851468360093E-002   0.0000000000000000     
  -2.8966845530041353E-002   5.7172098009441230E-002   0.0000000000000000     
  -3.0512408893645628E-002   6.2730241732341055E-002   0.0000000000000000     
  -3.2008130749628487E-002   6.8469618184786585E-002   0.0000000000000000     
  -3.3454011097989941E-002   7.4390227366777847E-002   0.0000000000000000     
  -3.4850049938729977E-002   8.0492069278314843E-002   0.0000000000000000     
  -1.6961324578399384E-002   7.9259181099933462E-002   0.0000000000000000     
  -1.7634958293870868E-002   8.5577554073931292E-002   0.0000000000000000     
  -1.8283065371530991E-002   9.2054937906231177E-002   0.0000000000000000     
  -1.8905645811379747E-002   9.8691332596833090E-002   0.0000000000000000     
  -1.9502699613417135E-002  0.10548673814573703        0.0000000000000000     
  -2.1302759163469978E-002   7.9489407379169388E-002   0.0000000000000000     
  -2.2145285303539437E-002   8.5799548030888947E-002   0.0000000000000000     
  -2.2955782818559613E-002   9.2268286710251654E-002   0.0000000000000000     
  -2.3734251708530510E-002   9.8895623417257508E-002   0.0000000000000000     
  -2.4480691973452127E-002  0.10568155815190654        0.0000000000000000     
  -2.5731358251881942E-002   7.9771630835311622E-002   0.0000000000000000     
  -2.6742255848553904E-002   8.6071242733666120E-002   0.0000000000000000     
  -2.7714865103719587E-002   9.2529215513745294E-002   0.0000000000000000     
  -2.8649186017378998E-002   9.9145549175549089E-002   0.0000000000000000     
  -2.9545218589532133E-002  0.10592024371907754        0.0000000000000000     
  -3.0247121843635275E-002   8.0105851468360093E-002   0.0000000000000000     
  -3.1425869928914281E-002   8.6392638182262838E-002   0.0000000000000000     
  -3.2560312227010918E-002   9.2837724316712070E-002   0.0000000000000000     
  -3.3650448737925220E-002   9.9441109871707817E-002   0.0000000000000000     
  -3.4696279461657140E-002  0.10620279484725011        0.0000000000000000     
  -3.4850049938729977E-002   8.0492069278314843E-002   0.0000000000000000     
  -3.6196127544620552E-002   8.6763734376679058E-002   0.0000000000000000     
  -3.7492124188433604E-002   9.3193813119152036E-002   0.0000000000000000     
  -3.8738039870169140E-002   9.9782305505733720E-002   0.0000000000000000     
  -3.9933874589827167E-002  0.10652921153642420        0.0000000000000000     
  -1.9502699613417135E-002  0.10548673814573703        0.0000000000000000     
  -2.0073802656615701E-002  0.11242940428919056        0.0000000000000000     
  -2.0618530819947984E-002  0.11950758076344115        0.0000000000000000     
  -2.1136884103413987E-002  0.12672126756848887        0.0000000000000000     
  -2.1628862507013714E-002  0.13407046470433365        0.0000000000000000     
  -2.4480691973452127E-002  0.10568155815190654        0.0000000000000000     
  -2.5194783331944345E-002  0.11261445784671473        0.0000000000000000     
  -2.5876205502627043E-002  0.11968268943419809        0.0000000000000000     
  -2.6524958485500221E-002  0.12688625291435671        0.0000000000000000     
  -2.7141042280563882E-002  0.13422514828719054        0.0000000000000000     
  -2.9545218589532133E-002  0.10592024371907754        0.0000000000000000     
  -3.0402690706997904E-002  0.11284164067428627        0.0000000000000000     
  -3.1221330256595251E-002  0.11989808157113091        0.0000000000000000     
  -3.2001137238324158E-002  0.12708956640961144        0.0000000000000000     
  -3.2742111652184644E-002  0.13441609518972789        0.0000000000000000     
  -3.4696279461657140E-002  0.10620279484725011        0.0000000000000000     
  -3.5697524781776381E-002  0.11311095277190522        0.0000000000000000     
  -3.6653905081852609E-002  0.12015375717423954        0.0000000000000000     
  -3.7565420361885808E-002  0.12733120805425308        0.0000000000000000     
  -3.8432070621875987E-002  0.13464330541194583        0.0000000000000000     
  -3.9933874589827167E-002  0.10652921153642420        0.0000000000000000     
  -4.1079285556279779E-002  0.11342239413957157        0.0000000000000000     
  -4.2173929978399118E-002  0.12044971624352402        0.0000000000000000     
  -4.3217807856185168E-002  0.12761117784828158        0.0000000000000000     
  -4.4210919189637925E-002  0.13490677895384423        0.0000000000000000     
  -2.1628862507013714E-002  0.13407046470433365        0.0000000000000000     
  -2.2093721995168295E-002  0.14154333542509337        0.0000000000000000     
  -2.2530718532298873E-002  0.14912804298488577        0.0000000000000000     
  -2.2939852118405445E-002  0.15682458738371091        0.0000000000000000     
  -2.3321122753488015E-002  0.16463296862156879        0.0000000000000000     
  -2.7141042280563882E-002  0.13422514828719054        0.0000000000000000     
  -2.7723542358014920E-002  0.14168748625933031        0.0000000000000000     
  -2.8271544188050224E-002  0.14926137753740679        0.0000000000000000     
  -2.8785047770669800E-002  0.15694682212142000        0.0000000000000000     
  -2.9264053105873652E-002  0.16474382001136995        0.0000000000000000     
  -3.2742111652184644E-002  0.13441609518972789        0.0000000000000000     
  -3.3443225384262844E-002  0.14186580021601397        0.0000000000000000     
  -3.4103450320644942E-002  0.14942681379300332        0.0000000000000000     
  -3.4722786461330910E-002  0.15709913592069588        0.0000000000000000     
  -3.5301233806320768E-002  0.16488276659909179        0.0000000000000000     
  -3.8432070621875987E-002  0.13464330541194583        0.0000000000000000     
  -3.9252771073912077E-002  0.14207827729514436        0.0000000000000000     
  -4.0026436930082995E-002  0.14962435175167529        0.0000000000000000     
  -4.0753068190388771E-002  0.15728152878153862        0.0000000000000000     
  -4.1432664854829382E-002  0.16504980838473438        0.0000000000000000     
  -4.4210919189637925E-002  0.13490677895384423        0.0000000000000000     
  -4.5152179426962612E-002  0.14232491749672146        0.0000000000000000     
  -4.6040504016364427E-002  0.14985399141342276        0.0000000000000000     
  -4.6875892957843390E-002  0.15749400070394820        0.0000000000000000     
  -4.7658346251399475E-002  0.16524494536829765        0.0000000000000000     
   0.0000000000000000        0.0000000000000000        0.0000000000000000     
  -1.7983516746457985E-003   1.2768439775582942E-003   0.0000000000000000     
  -3.6213707770021723E-003   2.9391661405838848E-003   0.0000000000000000     
  -5.4690573070691221E-003   4.9869664890767728E-003   0.0000000000000000     
  -7.3414112648466472E-003   7.4202450230369576E-003   0.0000000000000000     
   0.0000000000000000        0.0000000000000000        0.0000000000000000     
  -2.0694815390616145E-003   1.3549330617442872E-003   0.0000000000000000     
  -4.1641068742099569E-003   3.0939653569523355E-003   0.0000000000000000     
  -6.2838760054450254E-003   5.2170968856241435E-003   0.0000000000000000     
  -8.4287889327668217E-003   7.7243276477597144E-003   0.0000000000000000     
   0.0000000000000000        0.0000000000000000        0.0000000000000000     
  -2.3401457620324255E-003   1.4589678297292784E-003   0.0000000000000000     
  -4.7202332391334976E-003   3.2998181190075121E-003   0.0000000000000000     
  -7.1402624313032194E-003   5.5225508678347010E-003   0.0000000000000000     
  -9.6002333385415885E-003   8.1271660762108448E-003   0.0000000000000000     
   0.0000000000000000        0.0000000000000000        0.0000000000000000     
  -2.6103443435582284E-003   1.5889482815132675E-003   0.0000000000000000     
  -5.2897498717727962E-003   3.5567244267494151E-003   0.0000000000000000     
  -8.0382165846437023E-003   5.9033284357084426E-003   0.0000000000000000     
  -1.0855744482170948E-002   8.6287603083903507E-003   0.0000000000000000     
   0.0000000000000000        0.0000000000000000        0.0000000000000000     
  -2.8800772836390263E-003   1.7448744170962547E-003   0.0000000000000000     
  -5.8726567721278516E-003   3.8646842801780450E-003   0.0000000000000000     
  -8.9777384654664751E-003   6.3594295892453710E-003   0.0000000000000000     
  -1.2195322363654896E-002   9.2291103442982327E-003   0.0000000000000000     
  -7.3414112648466472E-003   7.4202450230369576E-003   0.0000000000000000     
  -9.2307969972260304E-003   1.0186596258455676E-002   0.0000000000000000     
  -1.1129578851098552E-002   1.3233614711324162E-002   0.0000000000000000     
  -1.3037756826464214E-002   1.6561300381642417E-002   0.0000000000000000     
  -1.4955330923323018E-002   2.0169653269410441E-002   0.0000000000000000     
  -8.4287889327668217E-003   7.7243276477597144E-003   0.0000000000000000     
  -1.0590582924858396E-002   1.0558229117569208E-002   0.0000000000000000     
  -1.2760995250402789E-002   1.3661372769262796E-002   0.0000000000000000     
  -1.4940025909400013E-002   1.7033758602840472E-002   0.0000000000000000     
  -1.7127674901850059E-002   2.0675386618302236E-002   0.0000000000000000     
  -9.6002333385415885E-003   8.1271660762108448E-003   0.0000000000000000     
  -1.2076660579334758E-002   1.1046286397400205E-002   0.0000000000000000     
  -1.4546058772168873E-002   1.4212534484667048E-002   0.0000000000000000     
  -1.7008427917043940E-002   1.7625910338011374E-002   0.0000000000000000     
  -1.9463768013959958E-002   2.1286413957433178E-002   0.0000000000000000     
  -1.0855744482170948E-002   8.6287603083903507E-003   0.0000000000000000     
  -1.3689029960655118E-002   1.1650768097948671E-002   0.0000000000000000     
  -1.6484769416396806E-002   1.4887099857536929E-002   0.0000000000000000     
  -1.9242962849396007E-002   1.8337755587155131E-002   0.0000000000000000     
  -2.1963610259652724E-002   2.2002735286803275E-002   0.0000000000000000     
  -1.2195322363654896E-002   9.2291103442982327E-003   0.0000000000000000     
  -1.5427691068819480E-002   1.2371674219214597E-002   0.0000000000000000     
  -1.8577127183086579E-002   1.5685068887872432E-002   0.0000000000000000     
  -2.1643630706456203E-002   1.9169294350271739E-002   0.0000000000000000     
  -2.4627201638928346E-002   2.2824350606412511E-002   0.0000000000000000     
  -1.4955330923323018E-002   2.0169653269410441E-002   0.0000000000000000     
  -1.6856881625498896E-002   2.4030066986053953E-002   0.0000000000000000     
  -1.8716989416815780E-002   2.8113935142998682E-002   0.0000000000000000     
  -2.0535654297273678E-002   3.2421257740244624E-002   0.0000000000000000     
  -2.2312876266872578E-002   3.6952034777791784E-002   0.0000000000000000     
  -1.7127674901850059E-002   2.0675386618302236E-002   0.0000000000000000     
  -1.9292571794701320E-002   2.4558591042902554E-002   0.0000000000000000     
  -2.1403346154902175E-002   2.8655706103895871E-002   0.0000000000000000     
  -2.3459997982452633E-002   3.2966731801282199E-002   0.0000000000000000     
  -2.5462527277352688E-002   3.7491668135061523E-002   0.0000000000000000     
  -1.9463768013959958E-002   2.1286413957433178E-002   0.0000000000000000     
  -2.1883647948437831E-002   2.5175245617836853E-002   0.0000000000000000     
  -2.4239636605998451E-002   2.9273605594126777E-002   0.0000000000000000     
  -2.6531733986641839E-002   3.3581493886302945E-002   0.0000000000000000     
  -2.8759940090367975E-002   3.8098910494365368E-002   0.0000000000000000     
  -2.1963610259652724E-002   2.2002735286803275E-002   0.0000000000000000     
  -2.4630110086708436E-002   2.5880030710856858E-002   0.0000000000000000     
  -2.7225860770104623E-002   2.9967633613691393E-002   0.0000000000000000     
  -2.9750862309841294E-002   3.4265543995306867E-002   0.0000000000000000     
  -3.2205114705918435E-002   3.8773761855703304E-002   0.0000000000000000     
  -2.4627201638928346E-002   2.2824350606412511E-002   0.0000000000000000     
  -2.7531958209513131E-002   2.6672946321962571E-002   0.0000000000000000     
  -3.0362018647220681E-002   3.0737790162589724E-002   0.0000000000000000     
  -3.3117382952050987E-002   3.5018882128293981E-002   0.0000000000000000     
  -3.5798051124004068E-002   3.9516222219075338E-002   0.0000000000000000     
  -2.2312876266872578E-002   3.6952034777791784E-002   0.0000000000000000     
  -2.4046124731447682E-002   4.1697666923043192E-002   0.0000000000000000     
  -2.5732869096834185E-002   4.6649554843401914E-002   0.0000000000000000     
  -2.7373109363032069E-002   5.1807698538867915E-002   0.0000000000000000     
  -2.8966845530041353E-002   5.7172098009441230E-002   0.0000000000000000     
  -2.5462527277352688E-002   3.7491668135061523E-002   0.0000000000000000     
  -2.7412059261210257E-002   4.2226542348027619E-002   0.0000000000000000     
  -2.9309719155633237E-002   4.7167381682974213E-002   0.0000000000000000     
  -3.1155506960621637E-002   5.2314186139901318E-002   0.0000000000000000     
  -3.2949422676175448E-002   5.7666955718808942E-002   0.0000000000000000     
  -2.8759940090367975E-002   3.8098910494365368E-002   0.0000000000000000     
  -3.0927048912721151E-002   4.2823293462681114E-002   0.0000000000000000     
  -3.3035854449245630E-002   4.7752080835617279E-002   0.0000000000000000     
  -3.5086356699941437E-002   5.2885272613173856E-002   0.0000000000000000     
  -3.7078555664808534E-002   5.8222868795350838E-002   0.0000000000000000     
  -3.2205114705918435E-002   3.8773761855703304E-002   0.0000000000000000     
  -3.4591093685980359E-002   4.3487920267003703E-002   0.0000000000000000     
  -3.6911274977671375E-002   4.8403652301331104E-002   0.0000000000000000     
  -3.9165658580991448E-002   5.3520957958685500E-002   0.0000000000000000     
  -4.1354244495940613E-002   5.8839837239066904E-002   0.0000000000000000     
  -3.5798051124004068E-002   3.9516222219075338E-002   0.0000000000000000     
  -3.8404193580987886E-002   4.4220422760995373E-002   0.0000000000000000     
  -4.0935980740910441E-002   4.9122096080115696E-002   0.0000000000000000     
  -4.3393412603771692E-002   5.4221242176436292E-002   0.0000000000000000     
  -4.5776489169571673E-002   5.9517861049957162E-002   0.0000000000000000     
  -2.8966845530041353E-002   5.7172098009441230E-002   0.0000000000000000     
  -3.0512408893645628E-002   6.2730241732341055E-002   0.0000000000000000     
  -3.2008130749628487E-002   6.8469618184786585E-002   0.0000000000000000     
  -3.3454011097989941E-002   7.4390227366777847E-002   0.0000000000000000     
  -3.4850049938729977E-002   8.0492069278314843E-002   0.0000000000000000     
  -3.2949422676175448E-002   5.7666955718808942E-002   0.0000000000000000     
  -3.4689032206726554E-002   6.3212683261978486E-002   0.0000000000000000     
  -3.6371901456706830E-002   6.8938361611691354E-002   0.0000000000000000     
  -3.7998030426116269E-002   7.4843990767947538E-002   0.0000000000000000     
  -3.9567419114954872E-002   8.0929570730747025E-002   0.0000000000000000     
  -3.7078555664808534E-002   5.8222868795350838E-002   0.0000000000000000     
  -3.9010088049103747E-002   6.3752390927208538E-002   0.0000000000000000     
  -4.0878590558083870E-002   6.9461360553807291E-002   0.0000000000000000     
  -4.2684063191748875E-002   7.5349777675147056E-002   0.0000000000000000     
  -4.4426505950098796E-002   8.1417642291227887E-002   0.0000000000000000     
  -4.1354244495940613E-002   5.8839837239066904E-002   0.0000000000000000     
  -4.3475576420777214E-002   6.4349364728031239E-002   0.0000000000000000     
  -4.5528198053759607E-002   7.0038615011134411E-002   0.0000000000000000     
  -4.7512109394887772E-002   7.5907588088376471E-002   0.0000000000000000     
  -4.9427310444161730E-002   8.1956283959757362E-002   0.0000000000000000     
  -4.5776489169571673E-002   5.9517861049957162E-002   0.0000000000000000     
  -4.8085497321746939E-002   6.5003604664446560E-002   0.0000000000000000     
  -5.0320723943734026E-002   7.0670124983672755E-002   0.0000000000000000     
  -5.2482169035532954E-002   7.6517422007635727E-002   0.0000000000000000     
  -5.4569832597143687E-002   8.2545495736335489E-002   0.0000000000000000     
  -3.4850049938729977E-002   8.0492069278314843E-002   0.0000000000000000     
  -3.6196127544620552E-002   8.6763734376679058E-002   0.0000000000000000     
  -3.7492124188433604E-002   9.3193813119152036E-002   0.0000000000000000     
  -3.8738039870169140E-002   9.9782305505733720E-002   0.0000000000000000     
  -3.9933874589827167E-002  0.10652921153642420        0.0000000000000000     
  -3.9567419114954872E-002   8.0929570730747025E-002   0.0000000000000000     
  -4.1080557615463489E-002   8.7184383507284566E-002   0.0000000000000000     
  -4.2537936019882948E-002   9.3597711104754761E-002   0.0000000000000000     
  -4.3939554328213247E-002  0.10016955352315765        0.0000000000000000     
  -4.5285412540454408E-002  0.10689991076249321        0.0000000000000000     
  -4.4426505950098796E-002   8.1417642291227887E-002   0.0000000000000000     
  -4.6106689061233837E-002   8.7654437764449047E-002   0.0000000000000000     
  -4.7725382753254220E-002   9.4049647457209895E-002   0.0000000000000000     
  -4.9282587026159959E-002  0.10060327136951040        0.0000000000000000     
  -5.0778301879951068E-002  0.10731530950135063        0.0000000000000000     
  -4.9427310444161730E-002   8.1956283959757362E-002   0.0000000000000000     
  -5.1274521881931587E-002   8.8173897148172531E-002   0.0000000000000000     
  -5.3054464388547426E-002   9.4549622176517453E-002   0.0000000000000000     
  -5.4767137964009290E-002  0.10108345904479205        0.0000000000000000     
  -5.6412542608317136E-002  0.10777540775299638        0.0000000000000000     
  -5.4569832597143687E-002   8.2545495736335489E-002   0.0000000000000000     
  -5.6584056077556753E-002   8.8742761658455030E-002   0.0000000000000000     
  -5.8525180925762581E-002   9.5097635262677394E-002   0.0000000000000000     
  -6.0393207141761218E-002  0.10161011654900254        0.0000000000000000     
  -6.2188134725552624E-002  0.10828020551743051        0.0000000000000000     
  -3.9933874589827167E-002  0.10652921153642420        0.0000000000000000     
  -4.1079285556279779E-002  0.11342239413957157        0.0000000000000000     
  -4.2173929978399118E-002  0.12044971624352402        0.0000000000000000     
  -4.3217807856185168E-002  0.12761117784828158        0.0000000000000000     
  -4.4210919189637925E-002  0.13490677895384423        0.0000000000000000     
  -4.5285412540454408E-002  0.10689991076249321        0.0000000000000000     
  -4.6575120842583070E-002  0.11377636493655707        0.0000000000000000     
  -4.7808289420575939E-002  0.12078649815914483        0.0000000000000000     
  -4.8984918274432986E-002  0.12793031043025643        0.0000000000000000     
  -5.0105007404154238E-002  0.13520780174989194        0.0000000000000000     
  -5.0778301879951068E-002  0.10731530950135063        0.0000000000000000     
  -5.2212178452761243E-002  0.11417326532213361        0.0000000000000000     
  -5.3583867882724248E-002  0.12116464230126245        0.0000000000000000     
  -5.4893370169840069E-002  0.12828944043873719        0.0000000000000000     
  -5.6140685314108700E-002  0.13554765973455779        0.0000000000000000     
  -5.6412542608317136E-002  0.10777540775299638        0.0000000000000000     
  -5.7990458386814284E-002  0.11461309529630111        0.0000000000000000     
  -5.9500665364844031E-002  0.12158414866987692        0.0000000000000000     
  -6.0943163542406371E-002  0.12868856787372379        0.0000000000000000     
  -6.2317952919501339E-002  0.13592635290784172        0.0000000000000000     
  -6.2188134725552624E-002  0.10828020551743051        0.0000000000000000     
  -6.3909960644742192E-002  0.11509585485905960        0.0000000000000000     
  -6.5558681866935295E-002  0.12204501726498818        0.0000000000000000     
  -6.7134298392131933E-002  0.12912769273521624        0.0000000000000000     
  -6.8636810220332120E-002  0.13634388126974376        0.0000000000000000     
  -4.4210919189637925E-002  0.13490677895384423        0.0000000000000000     
  -4.5152179426962612E-002  0.14232491749672146        0.0000000000000000     
  -4.6040504016364427E-002  0.14985399141342276        0.0000000000000000     
  -4.6875892957843390E-002  0.15749400070394820        0.0000000000000000     
  -4.7658346251399475E-002  0.16524494536829765        0.0000000000000000     
  -5.0105007404154238E-002  0.13520780174989194        0.0000000000000000     
  -5.1167565006445752E-002  0.14260749145655674        0.0000000000000000     
  -5.2171599278013625E-002  0.15011789888875623        0.0000000000000000     
  -5.3117110218857871E-002  0.15773902404649051        0.0000000000000000     
  -5.4004097828978470E-002  0.16547086692975946        0.0000000000000000     
  -5.6140685314108700E-002  0.13554765973455779        0.0000000000000000     
  -5.7325042375392807E-002  0.14292776981046168        0.0000000000000000     
  -5.8445670413555015E-002  0.15041824028818629        0.0000000000000000     
  -5.9502569428595352E-002  0.15801907116773159        0.0000000000000000     
  -6.0495739420513776E-002  0.16573026244909764        0.0000000000000000     
  -6.2317952919501339E-002  0.13592635290784172        0.0000000000000000     
  -6.3624611533803777E-002  0.14328575255843623        0.0000000000000000     
  -6.4862717422988589E-002  0.15075501561171281        0.0000000000000000     
  -6.6032270587055797E-002  0.15833414206767144        0.0000000000000000     
  -6.7133271026005387E-002  0.16602313192631218        0.0000000000000000     
  -6.8636810220332120E-002  0.13634388126974376        0.0000000000000000     
  -7.0066272481678640E-002  0.14368143970048045        0.0000000000000000     
  -7.1422740306314361E-002  0.15112822485933586        0.0000000000000000     
  -7.2706213694239255E-002  0.15868423674631008        0.0000000000000000     
  -7.3916692645453322E-002  0.16634947536140310        0.0000000000000000     
   0.0000000000000000        0.0000000000000000        0.0000000000000000     
  -2.8800772836390263E-003   1.7448744170962547E-003   0.0000000000000000     
  -5.8726567721278516E-003   3.8646842801780450E-003   0.0000000000000000     
  -8.9777384654664751E-003   6.3594295892453710E-003   0.0000000000000000     
  -1.2195322363654896E-002   9.2291103442982327E-003   0.0000000000000000     
   0.0000000000000000        0.0000000000000000        0.0000000000000000     
  -3.2831970567560723E-003   1.9993930593479592E-003   0.0000000000000000     
  -6.6769437140937696E-003   4.3309946852281038E-003   0.0000000000000000     
  -1.0181239972013093E-002   6.9948048776404311E-003   0.0000000000000000     
  -1.3796085830514039E-002   9.9908236365849439E-003   0.0000000000000000     
   0.0000000000000000        0.0000000000000000        0.0000000000000000     
  -3.9535561373906193E-003   2.4251510311381016E-003   0.0000000000000000     
  -7.9106004715656549E-003   5.0629526478342913E-003   0.0000000000000000     
  -1.1871133002525104E-002   7.9134048500885696E-003   0.0000000000000000     
  -1.5835153730268975E-002   1.0976507637900939E-002   0.0000000000000000     
   0.0000000000000000        0.0000000000000000        0.0000000000000000     
  -4.8911545255426675E-003   3.0221483324666797E-003   0.0000000000000000     
  -9.5736270445435073E-003   6.0605581679966086E-003   0.0000000000000000     
  -1.4047417557002517E-002   9.1152295065897865E-003   0.0000000000000000     
  -1.8312526062919696E-002   1.2186162348246215E-002   0.0000000000000000     
   0.0000000000000000        0.0000000000000000        0.0000000000000000     
  -6.0959922212122184E-003   3.7903849633336949E-003   0.0000000000000000     
  -1.1666023433027327E-002   7.3238112457150555E-003   0.0000000000000000     
  -1.6710093635445324E-002   1.0600278847144082E-002   0.0000000000000000     
  -2.1228202828466214E-002   1.3619787767620775E-002   0.0000000000000000     
  -1.2195322363654896E-002   9.2291103442982327E-003   0.0000000000000000     
  -1.5427691068819480E-002   1.2371674219214597E-002   0.0000000000000000     
  -1.8577127183086579E-002   1.5685068887872432E-002   0.0000000000000000     
  -2.1643630706456203E-002   1.9169294350271739E-002   0.0000000000000000     
  -2.4627201638928346E-002   2.2824350606412511E-002   0.0000000000000000     
  -1.3796085830514039E-002   9.9908236365849439E-003   0.0000000000000000     
  -1.7404395177069584E-002   1.3221086496568408E-002   0.0000000000000000     
  -2.0889081899152704E-002   1.6587628992097592E-002   0.0000000000000000     
  -2.4250145996763388E-002   2.0090451123172488E-002   0.0000000000000000     
  -2.7487587469901650E-002   2.3729552889793108E-002   0.0000000000000000     
  -1.5835153730268975E-002   1.0976507637900939E-002   0.0000000000000000     
  -1.9730893558647180E-002   1.4211086665380521E-002   0.0000000000000000     
  -2.3486583391509667E-002   1.7575967586636442E-002   0.0000000000000000     
  -2.7102223228856429E-002   2.1071150401668702E-002   0.0000000000000000     
  -3.0577813070687469E-002   2.4696635110477295E-002   0.0000000000000000     
  -1.8312526062919696E-002   1.2186162348246215E-002   0.0000000000000000     
  -2.2407186213552279E-002   1.5341674725650935E-002   0.0000000000000000     
  -2.6369631660157482E-002   1.8650084671488980E-002   0.0000000000000000     
  -3.0199862402735318E-002   2.2111392185760356E-002   0.0000000000000000     
  -3.3897878441285785E-002   2.5725597268465066E-002   0.0000000000000000     
  -2.1228202828466214E-002   1.3619787767620775E-002   0.0000000000000000     
  -2.5433273141784864E-002   1.6612850677379647E-002   0.0000000000000000     
  -2.9538226705096142E-002   1.9809980246655211E-002   0.0000000000000000     
  -3.3543063518400057E-002   2.3211176475447470E-002   0.0000000000000000     
  -3.7447783581696606E-002   2.6816439363756415E-002   0.0000000000000000     
  -2.4627201638928346E-002   2.2824350606412511E-002   0.0000000000000000     
  -2.7531958209513131E-002   2.6672946321962571E-002   0.0000000000000000     
  -3.0362018647220681E-002   3.0737790162589724E-002   0.0000000000000000     
  -3.3117382952050987E-002   3.5018882128293981E-002   0.0000000000000000     
  -3.5798051124004068E-002   3.9516222219075338E-002   0.0000000000000000     
  -2.7487587469901650E-002   2.3729552889793108E-002   0.0000000000000000     
  -3.0624400523125914E-002   2.7547456547715312E-002   0.0000000000000000     
  -3.3683579360994600E-002   3.1586684352694946E-002   0.0000000000000000     
  -3.6665123983507721E-002   3.5847236304732043E-002   0.0000000000000000     
  -3.9569034390665253E-002   4.0329112403826570E-002   0.0000000000000000     
  -3.0577813070687469E-002   2.4696635110477295E-002   0.0000000000000000     
  -3.3942645233820776E-002   2.8497025484676419E-002   0.0000000000000000     
  -3.7226012035074356E-002   3.2516925295880260E-002   0.0000000000000000     
  -4.0427913474448213E-002   3.6756334544088817E-002   0.0000000000000000     
  -4.3548349551942339E-002   4.1215253229302098E-002   0.0000000000000000     
  -3.3897878441285785E-002   2.5725597268465066E-002   0.0000000000000000     
  -3.7486692341597717E-002   2.9521653132845899E-002   0.0000000000000000     
  -4.0989316669459951E-002   3.3528512992145654E-002   0.0000000000000000     
  -4.4405751424872485E-002   3.7746176846364332E-002   0.0000000000000000     
  -4.7735996607835347E-002   4.2174644695501938E-002   0.0000000000000000     
  -3.7447783581696606E-002   2.6816439363756415E-002   0.0000000000000000     
  -4.1256541846456732E-002   3.0621339492223738E-002   0.0000000000000000     
  -4.4973493264151378E-002   3.4621447441491121E-002   0.0000000000000000     
  -4.8598637834780557E-002   3.8816763211558566E-002   0.0000000000000000     
  -5.2131975558344257E-002   4.3207286802426068E-002   0.0000000000000000     
  -3.5798051124004068E-002   3.9516222219075338E-002   0.0000000000000000     
  -3.8404193580987886E-002   4.4220422760995373E-002   0.0000000000000000     
  -4.0935980740910441E-002   4.9122096080115696E-002   0.0000000000000000     
  -4.3393412603771692E-002   5.4221242176436292E-002   0.0000000000000000     
  -4.5776489169571673E-002   5.9517861049957162E-002   0.0000000000000000     
  -3.9569034390665253E-002   4.0329112403826570E-002   0.0000000000000000     
  -4.2392868843007234E-002   4.5018790438461978E-002   0.0000000000000000     
  -4.5134185601073663E-002   4.9902748197121712E-002   0.0000000000000000     
  -4.7792984664864542E-002   5.4980985679805763E-002   0.0000000000000000     
  -5.0369266034379870E-002   6.0253502886514161E-002   0.0000000000000000     
  -4.3548349551942339E-002   4.1215253229302098E-002   0.0000000000000000     
  -4.6583639717301860E-002   4.5881012793209344E-002   0.0000000000000000     
  -4.9530103420271858E-002   5.0740944677499823E-002   0.0000000000000000     
  -5.2387740660852361E-002   5.5795048882173542E-002   0.0000000000000000     
  -5.5156551439043328E-002   6.1043325407230467E-002   0.0000000000000000     
  -4.7735996607835347E-002   4.2174644695501938E-002   0.0000000000000000     
  -5.0976506203871758E-002   4.6807089825237493E-002   0.0000000000000000     
  -5.4123734198505032E-002   5.1636685521250045E-002   0.0000000000000000     
  -5.7177680591735128E-002   5.6663431783539574E-002   0.0000000000000000     
  -6.0138345383562074E-002   6.1887328612106093E-002   0.0000000000000000     
  -5.2131975558344257E-002   4.3207286802426068E-002   0.0000000000000000     
  -5.5571468302716961E-002   4.7797021534546402E-002   0.0000000000000000     
  -5.8915077935773170E-002   5.2589970728372341E-002   0.0000000000000000     
  -6.2162804457512870E-002   5.7586134383903892E-002   0.0000000000000000     
  -6.5314647867936060E-002   6.2785512501141033E-002   0.0000000000000000     
  -4.5776489169571673E-002   5.9517861049957162E-002   0.0000000000000000     
  -4.8085497321746939E-002   6.5003604664446560E-002   0.0000000000000000     
  -5.0320723943734026E-002   7.0670124983672755E-002   0.0000000000000000     
  -5.2482169035532954E-002   7.6517422007635727E-002   0.0000000000000000     
  -5.4569832597143687E-002   8.2545495736335489E-002   0.0000000000000000     
  -5.0369266034379870E-002   6.0253502886514161E-002   0.0000000000000000     
  -5.2864985173774776E-002   6.5714011396054858E-002   0.0000000000000000     
  -5.5282097547204416E-002   7.1356222787235871E-002   0.0000000000000000     
  -5.7620603154668736E-002   7.7180137060057219E-002   0.0000000000000000     
  -5.9880501996167797E-002   8.3185754214518862E-002   0.0000000000000000     
  -5.5156551439043328E-002   6.1043325407230467E-002   0.0000000000000000     
  -5.7839174398622621E-002   6.6479485582456477E-002   0.0000000000000000     
  -6.0438248183368022E-002   7.2097240737637416E-002   0.0000000000000000     
  -6.2953772793279530E-002   7.7896590872773286E-002   0.0000000000000000     
  -6.5385748228357146E-002   8.3877535987864071E-002   0.0000000000000000     
  -6.0138345383562074E-002   6.1887328612106093E-002   0.0000000000000000     
  -6.3008064996290455E-002   6.7300027223651443E-002   0.0000000000000000     
  -6.5789175852224852E-002   7.2893178834877365E-002   0.0000000000000000     
  -6.8481677951365297E-002   7.8666783445783928E-002   0.0000000000000000     
  -7.1085571293711763E-002   8.4620841056371118E-002   0.0000000000000000     
  -6.5314647867936060E-002   6.2785512501141033E-002   0.0000000000000000     
  -6.8371656966778244E-002   6.8175636319639688E-002   0.0000000000000000     
  -7.1334880553774904E-002   7.3744037078955729E-002   0.0000000000000000     
  -7.4204318628926041E-002   7.9490714779089200E-002   0.0000000000000000     
  -7.6979971192231655E-002   8.5415669420040030E-002   0.0000000000000000     
  -5.4569832597143687E-002   8.2545495736335489E-002   0.0000000000000000     
  -5.6584056077556753E-002   8.8742761658455030E-002   0.0000000000000000     
  -5.8525180925762581E-002   9.5097635262677394E-002   0.0000000000000000     
  -6.0393207141761218E-002  0.10161011654900254        0.0000000000000000     
  -6.2188134725552624E-002  0.10828020551743051        0.0000000000000000     
  -5.9880501996167797E-002   8.3185754214518862E-002   0.0000000000000000     
  -6.2061617916979880E-002   8.9360825164936264E-002   0.0000000000000000     
  -6.4163774762383358E-002   9.5693100825624808E-002   0.0000000000000000     
  -6.6186972532378208E-002  0.10218258119658456        0.0000000000000000     
  -6.8131211226964430E-002  0.10882926627781549        0.0000000000000000     
  -6.5385748228357146E-002   8.3877535987864071E-002   0.0000000000000000     
  -6.7733533669071561E-002   9.0027881537255883E-002   0.0000000000000000     
  -6.9996488295893403E-002   9.6335432975294760E-002   0.0000000000000000     
  -7.2174612108822728E-002  0.10280019030198079        0.0000000000000000     
  -7.4267905107859480E-002  0.10942215351731387        0.0000000000000000     
  -7.1085571293711763E-002   8.4620841056371118E-002   0.0000000000000000     
  -7.3599803333831759E-002   9.0743930775413900E-002   0.0000000000000000     
  -7.6023321526292764E-002   9.7024631711687265E-002   0.0000000000000000     
  -7.8356125871094751E-002  0.10346294386519116        0.0000000000000000     
  -8.0598216368237746E-002  0.11005886723592562        0.0000000000000000     
  -7.6979971192231655E-002   8.5415669420040030E-002   0.0000000000000000     
  -7.9660426911260518E-002   9.1508972879410372E-002   0.0000000000000000     
  -8.2244274453581401E-002   9.7760697034802252E-002   0.0000000000000000     
  -8.4731513819194318E-002  0.10417084188621574        0.0000000000000000     
  -8.7122145008099255E-002  0.11073940743365075        0.0000000000000000     
  -6.2188134725552624E-002  0.10828020551743051        0.0000000000000000     
  -6.3909960644742192E-002  0.11509585485905960        0.0000000000000000     
  -6.5558681866935295E-002  0.12204501726498818        0.0000000000000000     
  -6.7134298392131933E-002  0.12912769273521624        0.0000000000000000     
  -6.8636810220332120E-002  0.13634388126974376        0.0000000000000000     
  -6.8131211226964430E-002  0.10882926627781549        0.0000000000000000     
  -6.9996718246436565E-002  0.11562139470076324        0.0000000000000000     
  -7.1783720991089178E-002  0.12254720509687343        0.0000000000000000     
  -7.3492219460922215E-002  0.12960669746614603        0.0000000000000000     
  -7.5122213655935688E-002  0.13679987180858108        0.0000000000000000     
  -7.4267905107859480E-002  0.10942215351731387        0.0000000000000000     
  -7.6276764211789042E-002  0.11618956551176617        0.0000000000000000     
  -7.8201586339396778E-002  0.12309066917580976        0.0000000000000000     
  -8.0042371490682634E-002  0.13012546450944465        0.0000000000000000     
  -8.1799119665646694E-002  0.13729395151267082        0.0000000000000000     
  -8.0598216368237746E-002  0.11005886723592562        0.0000000000000000     
  -8.2750098540799594E-002  0.11680036729206839        0.0000000000000000     
  -8.4812277911858108E-002  0.12367540950179723        0.0000000000000000     
  -8.6784754481413276E-002  0.13068399386511209        0.0000000000000000     
  -8.8667528249465138E-002  0.13782612038201303        0.0000000000000000     
  -8.7122145008099255E-002  0.11073940743365075        0.0000000000000000     
  -8.9416721233468208E-002  0.11745380004166993        0.0000000000000000     
  -9.1615795708473155E-002  0.12430142607483578        0.0000000000000000     
  -9.3719368433114084E-002  0.13128228553314839        0.0000000000000000     
  -9.5727439407391007E-002  0.13839637841660765        0.0000000000000000     
  -6.8636810220332120E-002  0.13634388126974376        0.0000000000000000     
  -7.0066272481678640E-002  0.14368143970048045        0.0000000000000000     
  -7.1422740306314361E-002  0.15112822485933586        0.0000000000000000     
  -7.2706213694239255E-002  0.15868423674631008        0.0000000000000000     
  -7.3916692645453322E-002  0.16634947536140310        0.0000000000000000     
  -7.5122213655935688E-002  0.13679987180858108        0.0000000000000000     
  -7.6674233584927531E-002  0.14411425249045737        0.0000000000000000     
  -7.8148809256695650E-002  0.15153736387805380        0.0000000000000000     
  -7.9545940671240031E-002  0.15906920597137028        0.0000000000000000     
  -8.0865627828560702E-002  0.16670977877040685        0.0000000000000000     
  -8.1799119665646694E-002  0.13729395151267082        0.0000000000000000     
  -8.3472703209460555E-002  0.14458361218223029        0.0000000000000000     
  -8.5063994467295817E-002  0.15198192851486494        0.0000000000000000     
  -8.6572993439152521E-002  0.15948890051057485        0.0000000000000000     
  -8.7999700125030653E-002  0.16710452816935997        0.0000000000000000     
  -8.8667528249465138E-002  0.13782612038201303        0.0000000000000000     
  -9.0461681355277671E-002  0.14508951877579912        0.0000000000000000     
  -9.2168295938114861E-002  0.15246191876976933        0.0000000000000000     
  -9.3787371997976710E-002  0.15994332036392375        0.0000000000000000     
  -9.5318909534863203E-002  0.16753372355826243        0.0000000000000000     
  -9.5727439407391007E-002  0.13839637841660765        0.0000000000000000     
  -9.7641168022378932E-002  0.14563197227116381        0.0000000000000000     
  -9.9461713669152768E-002  0.15297733464276697        0.0000000000000000     
 -0.10118907634771257       0.16043246553141710        0.0000000000000000     
 -0.10282325605805832       0.16799736493711426        0.0000000000000000     
 </DataArray>
 <DataArray  type="Float64" Name="stress" NumberOfComponents="3" format="ascii">
   13416733662.961107        4025020098.8883324        2893930563.0039849     
   11766550845.355026        1890561166.7934275        1715777186.6986639     
   10313623173.933598        413619388.64736366        810731553.86840606     
   9057950648.6968212       -405805235.54985714        178793664.51320988     
   7999533269.6446972       -567712705.79823685       -180036481.36692321     
   10539946609.801388        3161983982.9404163        2225736060.3016248     
   9667576472.6149960        1589648367.3364747        1446691231.3974786     
   8943829927.3480167        512724724.79724407        863135340.15088570     
   8368706974.0004482       -68786944.677277088        475068386.56184477     
   7942207612.5722961       -154886641.08708715        282490370.63035822     
   8337889136.8775463        2501366741.0632639        1712363622.8559330     
   8021563663.4893866        1424624036.9638491        1275690528.0435152     
   7805230227.7554016        681188125.04501247        956887565.07114089     
   7688888829.6755915        271059005.30675650        755954733.93881071     
   7672539469.2499514        194236677.74907780        672892034.64652181     
   6810561244.1895828        2043168373.2568748        1353813250.6669087     
   6828512417.9782019        1395488175.6755500        1202775076.6367736     
   6897824075.1557541        919009589.39067245        1091988228.6291718     
   7018496215.7222424        613732614.40224290        1021452706.6441044     
   7190528839.6776628        479657250.71026087        991168510.68157113     
   5957962931.7374983        1787388879.5212495        1150084943.7345524     
   6088422736.0814400        1502240783.4715779        1227944877.1772537     
   6221611469.5490742        1226189117.8342218        1268437330.8249788     
   6357529132.1404047        959233882.60918283        1271562304.6777291     
   6496175723.8554306        701375077.79645991        1237319798.7355032     
   7999533269.6446972       -567712705.79823685       -180036481.36692321     
   7917512373.9117346       -200368492.65624714       -78194086.091026843     
   7794060115.5510101        28871178.393206596       -9013317.1558984146     
   7629176494.5625257        120006307.35012197        27505825.438461676     
   7422861510.9462805        73036894.214503288        31363341.692053989     
   7942207612.5722961       -154886641.08708715        282490370.63035822     
   7739684985.9795036        16212043.484405994        281185012.00010568     
   7513817027.1578674        109492953.95975065        265135070.25778949     
   7264603736.1073847        124956090.33894253        234340545.40340990     
   6992045112.8280573        62601452.621986389        188801437.43696749     
   7672539469.2499514        194236677.74907780        672892034.64652181     
   7400706663.8793411        184447299.37467813        589539290.90885663     
   7123614556.6788034        157126914.90051508        509359007.28783160     
   6841263147.6483345        112275524.32658696        432351183.78344667     
   6553652436.7879381        49893127.652894497        358515820.39570034     
   7190528839.6776628        479657250.71026087        991168510.68157113     
   6900577407.6112461        304337275.01457357        846868750.63522661     
   6623452704.1138210        171773061.21550751        723658493.93422651     
   6359154729.1853771        81964609.313060760        621537740.57857037     
   6107683482.8259201        34911919.307236671        540506490.56826198     
   6496175723.8554306        701375077.79645991        1237319798.7355032     
   6239297217.1752214        375881970.40408707        1053173391.1792140     
   6013331469.4629154        153431392.90472198        908033530.19697475     
   5818278480.7185135        34023345.298361778        801900215.78878462     
   5654138250.9420109        17657827.585008860        734773447.95464432     
   7422861510.9462805        73036894.214503288        31363341.692053989     
   7219390154.5449505       -17637120.502402306        14587076.570379084     
   7027971464.2357063       -68135581.579017162        2288701.4077298366     
   6848605440.0185547       -78458489.015321732       -5531783.7958908696     
   6681292081.8934946       -48605842.811324120       -8874379.0404859185     
   6992045112.8280573        62601452.621986389        188801437.43696749     
   6808767322.3182888        3288752.4337944984        180560901.75704011     
   6633180592.1898317       -30387079.816700459        176138761.91266355     
   6465284922.4426813       -38426044.129494905        175535017.90383267     
   6305080313.0768423       -20828140.504598379        178749669.73055375     
   6553652436.7879381        49893127.652894497        358515820.39570034     
   6388683943.2455158        21376461.316165686        353722474.16160953     
   6227044904.3736181        3957977.2145161629        352088029.63958806     
   6068735320.1722469       -2362324.6520462036        353612486.82964116     
   5913755190.6414042        2415555.7164766788        358295845.73176491     
   6107683482.8259201        34911919.307236671        540506490.56826198     
   5959140017.3266268        36626006.144697428        534071793.78409100     
   5809564400.7870722        34899589.514632225        530136504.58851224     
   5658956633.2072620        29732669.417043447        528700622.98152930     
   5507316714.5871906        21125245.851926565        529764148.96314394     
   5654138250.9420109        17657827.585008860        734773447.95464432     
   5520135544.5616217        49037386.919395685        721608860.62448025     
   5380739081.4301882        62437757.083645344        710284186.75943470     
   5235948861.5477161        57858938.077761650        700799426.35950661     
   5085764884.9142036        35300929.901742935        693154579.42469251     
   6681292081.8934946       -48605842.811324120       -8874379.0404859185     
   6508997215.3471375       -9270218.9060657024       -3447085.3906326108     
   6331887548.7928495        14016071.639411688        3216899.4698032429     
   6149963082.2306271        21253028.825108290        11117575.540825807     
   5963223815.6604691        12440652.651026964        20254942.822434120     
   6305080313.0768423       -20828140.504598379        178749669.73055375     
   6132326995.8840380        329700.71808171272        175093757.06242749     
   5956711991.9006224        11948585.972053289        174043371.76703948     
   5778235301.1265860        14028515.257293463        175598513.84439427     
   5596896923.5619373        6569488.5738255978        179759183.29449502     
   5913755190.6414042        2415555.7164766788        358295845.73176491     
   5744454383.2654657        6568902.3955957890        347835358.83252233     
   5574245002.3162270        7693670.4970510006        341349235.46818274     
   5403127047.7936907        5789860.0208361149        338837475.63874042     
   5231100519.6978512        857470.96694898605        340300079.34419882     
   5507316714.5871906        21125245.851926565        529764148.96314394     
   5345379377.4914188        9447386.1264638901        514777719.91966242     
   5184486580.0396662        1251325.2143921852        505134490.57323444     
   5024638322.2319307       -3462936.8842880726        500834460.92386538     
   4865834604.0682049       -4695400.1695928574        501877630.97155011     
   5085764884.9142036        35300929.901742935        693154579.42469251     
   4935101978.5619049        8965151.9106924534        675920840.32383800     
   4787436725.0709372       -7378449.8759117126        665399137.08219445     
   4642769124.4413042       -13729875.458075047        661589469.69976258     
   4501099176.6730003       -10089124.835800409        664491838.17654157     
   5963223815.6604691        12440652.651026964        20254942.822434120     
   5779355057.0514174       -227659.93094849586        13528318.117973674     
   5597190930.0132055       -7213867.2767903805        10667813.006717820     
   5416731434.5458460       -8517969.3864600658        11673427.488655023     
   5237976570.6493292       -4139966.2599878311        16545161.563791692     
   5596896923.5619373        6569488.5738255978        179759183.29449502     
   5424511895.7200508       -951109.60056805611        174781887.91172227     
   5253176965.8285093       -4971381.2738089561        173584177.89335486     
   5082892133.8873110       -5491326.4459085464        176166053.23939493     
   4913657399.8964539       -2510945.1168658733        182527513.94984195     
   5231100519.6978512        857470.96694898605        340300079.34419882     
   5069951981.9694414       -1589584.9959449768        336308490.72585833     
   4909199008.5708675       -2718093.1927185059        336009953.24313283     
   4748841599.5021372       -2528053.6233487129        339404466.89601713     
   4588879754.7632437       -1019466.2878575325        346492031.68452013     
   4865834604.0682049       -4695400.1695928574        501877630.97155011     
   4715675315.7995758       -2143086.1171081066        498108126.56038433     
   4565257058.2402792       -454003.03351473808        497945139.05604041     
   4414579831.3903236        371849.08120942116        501388668.45852017     
   4263643635.2497015        334470.22704434395        508438714.76782322     
   4501099176.6730003       -10089124.835800409        664491838.17654157     
   4361681897.2104597       -2611612.9640471935        660180795.41530514     
   4221351114.8367524        1820889.2038166523        659389735.33209205     
   4080106829.5518732        3208381.6677796841        662118657.92690897     
   3937949041.3558316        1550864.4278578758        668367563.19976032     
   5237976570.6493292       -4139966.2599878311        16545161.563791692     
   5053798632.6208191        225419.74858021736        10865297.661819197     
   4868980440.0247602        2456623.8653101921        9542309.3640143108     
   4683521992.8611650        2553646.0902562141        12576196.670396889     
   4497423291.1300230        516486.42338085175        19966959.580963727     
   4913657399.8964539       -2510945.1168658733        182527513.94984195     
   4740314103.1698561        246432.93016505241        176085272.99144694     
   4566586356.1008549        1722309.8358733654        173991574.65223032     
   4392474158.6894560        1916685.6002373695        176246418.93219182     
   4217977510.9356489        829560.22326254845        182849805.83133489     
   4588879754.7632437       -1019466.2878575325        346492031.68452013     
   4426347290.8099756        122761.23906993866        339585851.93237758     
   4263686180.7394528        836168.37514662743        337019881.81440306     
   4100896424.5516772        1120755.1203777790        338794121.33062011     
   3937978022.2466474        976521.47476601601        344908570.48100299     
   4263643635.2497015        334470.22704434395        508438714.76782322     
   4111898195.5411968       -145595.32468581200        501367034.48459864     
   3960279913.9405785       -201800.51680183411        498627230.85054874     
   3808788790.4478521        165854.65072083473        500219303.86567384     
   3657424825.0630121        957370.17787456512        506143253.52997881     
   3937949041.3558316        1550864.4278578758        668367563.19976032     
   3796966817.3635082       -558636.76112103462        661428820.64811933     
   3656367555.7042208       -1391596.8399896622        658813621.76065445     
   3516151256.3779674       -948015.80875110626        660521966.53736579     
   3376317919.3847404        772106.33259582520        666553854.97825444     
   4497423291.1300230        516486.42338085175        19966959.580963727     
   4313461498.7079620       -1477911.1012256145        13102133.942977956     
   4129745470.3147144       -2653095.1964752674        10568783.717545677     
   3946275205.9502387       -3009065.8624858856        12366908.904642554     
   3763050705.6145887       -2545823.0990552902        18496509.504295487     
   4217977510.9356489        829560.22326254845        182849805.83133489     
   4045494179.9844470       -16733.820331573486        175969972.90337300     
   3873155850.7773542       -379688.71688556671        173323303.35253030     
   3700962523.3143787       -259304.46638226509        174909797.17879936     
   3528914197.5955195        344418.93116402626        180729454.38217035     
   3937978022.2466474        976521.47476601601        344908570.48100299     
   3776692261.2364826        1194063.4532227516        337896174.26427835     
   3615450739.6857567        1559070.2964670658        335018629.38922352     
   3454253457.5944462        2071542.0044333935        336275935.85584790     
   3293100414.9625797        2731478.5772159100        341668093.66415131     
   3657424825.0630121        957370.17787456512        506143253.52997881     
   3507055742.4640856        2154480.7194597721        498880738.02567911     
   3356630137.0398998        3163181.8435184956        495654761.82762557     
   3206148008.7904634        3983473.5500804186        496465324.93581641     
   3055609357.7157736        4615355.8391110897        501312427.35024774     
   3376317919.3847404        772106.33259582520        666553854.97825444     
   3236584623.6672397        2864517.9783504009        658923664.18758416     
   3096694042.8397980        4432645.9243167639        655231700.66773188     
   2956646176.9024158        5476490.1704813242        655477964.41867876     
   2816441025.8550959        5996050.7168512344        659662455.44044960     
   3763050705.6145887       -2545823.0990552902        18496509.504295487     
   3584532194.7169294       -1236282.3007910252        11621405.771931561     
   3405395063.4411392       -1988809.4296298027        9061530.1331219673     
   3225639311.7872133       -4803404.4855896235        10816882.587870553     
   3045264939.7551641       -9680067.4686253071        16887463.136191409     
   3528914197.5955195        344418.93116402626        180729454.38217035     
   3361328649.4055457        1972768.6728525162        172553981.39963770     
   3193390930.0772815        2427214.6202608347        168399680.34249544     
   3025101039.6107378        1707756.7733718157        168266551.21077171     
   2856458978.0059061       -185604.86778795719        172154594.00445375     
   3293100414.9625797        2731478.5772159100        341668093.66415131     
   3135607668.9998603        4426589.1182121038        332503108.87792230     
   2978029201.1387014        5835959.9977401495        327065239.84894723     
   2820365011.3790956        6959591.2157764435        325354486.57722706     
   2662615099.7210479        7797482.7723560333        327370849.06277680     
   3055609357.7157736        4615355.8391110897        501312427.35024774     
   2907369253.4998736        6125179.0352714062        491468788.20681578     
   2759309876.6253772        8237426.7027802467        485058208.65248770     
   2611431227.0922899        10952098.841635108        482080688.68726993     
   2463733304.9005976        14269195.451828957        482536228.31115234     
   2816441025.8550959        5996050.7168512344        659662455.44044960     
   2676613402.9055829        7068538.4240326881        649451019.38630247     
   2537232956.5373306        9631614.7354099751        642378586.75311005     
   2398299686.7503238        13685279.650940895        638445157.54086745     
   2259813593.5445623        19229533.170626402        637650731.74958467     
   5957962931.7374983        1787388879.5212495        1150084943.7345524     
   6088422736.0814400        1502240783.4715779        1227944877.1772537     
   6221611469.5490742        1226189117.8342218        1268437330.8249788     
   6357529132.1404047        959233882.60918283        1271562304.6777291     
   6496175723.8554306        701375077.79645991        1237319798.7355032     
   5434683958.7318172        1630405187.6195452        1033502289.1138997     
   5489910746.7026596        1372502899.8399892        1113892765.2082703     
   5547336150.0577650        1121929330.0079684        1167491675.8252079     
   5606960168.7971287        878684478.12348270        1194299020.9647126     
   5668782802.9207535        642768344.18653154        1194314800.6267834     
   4895314084.3830652        1468594225.3149197        936388873.85998535     
   4905524754.0309334        1247002815.2205162        1018691193.2433531     
   4917403725.3236246        1030972410.6088660        1084777861.4668293     
   4930950998.2611437        820503011.47996962        1134648878.5304146     
   4946166572.8434906        615594617.83382797        1168304244.4341087     
   4339853308.6912413        1301955992.6073725        858744697.97280979     
   4335264758.0662527        1125740529.6131570        942340161.28250039     
   4331814195.3466549        953318359.63691437        1020295887.7498422     
   4329501620.5324497        784689482.67864406        1092611877.3748350     
   4328327033.6236362        619853898.73834646        1159288130.1574790     
   3768301631.6563449        1130490489.4969034        800569761.45237303     
   3779130758.8086214        1008716043.0179130        884839669.32571352     
   3790567560.1268549        888967177.09211349        974045754.67424691     
   3802612035.6110463        771243891.71950555        1068188017.4979740     
   3815264185.2611942        655546186.90008879        1167266457.7968941     
   6496175723.8554306        701375077.79645991        1237319798.7355032     
   6239297217.1752214        375881970.40408707        1053173391.1792140     
   6013331469.4629154        153431392.90472198        908033530.19697475     
   5818278480.7185135        34023345.298361778        801900215.78878462     
   5654138250.9420109        17657827.585008860        734773447.95464432     
   5668782802.9207535        642768344.18653154        1194314800.6267834     
   5518848619.9686327        383282278.13099599        1073467960.8989868     
   5393061170.8657494        204285324.90625334        980647044.84870565     
   5291420455.6121044        105777484.51230121        915852052.47594118     
   5213926474.2076950        87758756.949142218        879082983.78069282     
   4946166572.8434906        615594617.83382797        1168304244.4341087     
   4871803505.3436451        412703630.63238478        1102863276.5630286     
   4814821146.5743732        267748339.19951987        1054467609.4729320     
   4775219496.5356750        180728743.53523445        1023117243.1638172     
   4752998555.2275505        151644843.63952684        1008812177.6356864     
   4328327033.6236362        619853898.73834646        1159288130.1574790     
   4298161873.3002586        464146027.90825319        1141359338.1713414     
   4278611396.5887899        343820435.78452432        1129495224.0696530     
   4269675603.4892306        258877122.36716342        1123695787.8524151     
   4271354494.0015812        209316087.65616465        1123961029.5196249     
   3815264185.2611942        655546186.90008879        1167266457.7968941     
   3797923723.8384724        537609469.95860219        1188956145.7239246     
   3784431920.9089975        432501614.66126740        1205729888.6388702     
   3774788776.4727664        340222621.00808525        1217587686.5417328     
   3768994290.5297809        260772488.99905205        1224529539.4325106     
   5654138250.9420109        17657827.585008860        734773447.95464432     
   5520135544.5616217        49037386.919395685        721608860.62448025     
   5380739081.4301882        62437757.083645344        710284186.75943470     
   5235948861.5477161        57858938.077761650        700799426.35950661     
   5085764884.9142036        35300929.901742935        693154579.42469251     
   5213926474.2076950        87758756.949142218        879082983.78069282     
   5077387567.9390450        85423590.727071285        855355594.41806746     
   4938721953.4038115        75999396.949720621        835617689.88161564     
   4797929630.6019955        59486175.617094517        819869270.17133605     
   4655010599.5335951        35883926.729188204        808110335.28723156     
   4752998555.2275505        151644843.63952684        1008812177.6356864     
   4620065081.5307970        117437441.59904456        978333542.80580199     
   4488271948.0519161        87031173.618140936        953993964.16314626     
   4357619154.7909107        60426039.696820021        935793441.70771503     
   4228106701.7477798        37622039.835075855        923731975.43951356     
   4271354494.0015812        209316087.65616465        1123961029.5196249     
   4148168085.3368788        145078939.53531718        1090542705.7876825     
   4029389065.3745074        95533087.088905573        1065413009.6040211     
   3915017434.1144691        60678530.316936493        1048571940.9686420     
   3805053191.5567627        40515269.219403505        1040019499.8815440     
   3768994290.5297809        260772488.99905205        1224529539.4325106     
   3661696579.3572869        168348084.53588748        1191983083.3637090     
   3562073305.3715820        101505137.36201739        1169874826.2042434     
   3470124468.5726681        60243647.477448225        1158204767.9541154     
   3385850068.9605374        44563614.882164955        1156972908.6133204     
   5085764884.9142036        35300929.901742935        693154579.42469251     
   4935101978.5619049        8965151.9106924534        675920840.32383800     
   4787436725.0709372       -7378449.8759117126        665399137.08219445     
   4642769124.4413042       -13729875.458075047        661589469.69976258     
   4501099176.6730003       -10089124.835800409        664491838.17654157     
   4655010599.5335951        35883926.729188204        808110335.28723156     
   4522572116.7449932        15527514.213489056        794859978.10842860     
   4392327378.6328239        2483583.9525518417        787536518.85587561     
   4264276385.1970782       -3247864.0536346436        786139957.52956569     
   4138419136.4377584       -1666829.8050656319        790670294.12950408     
   4228106701.7477798        37622039.835075855        923731975.43951356     
   4111649391.2858329        22572017.423608303        913527107.30037940     
   3996581917.3154101        12154783.317217112        908463999.15452468     
   3882904279.8365097        6370337.5159013271        908542651.00195074     
   3770616478.8491321        5218680.0196611881        913763062.84265351     
   3805053191.5567627        40515269.219403505        1040019499.8815440     
   3702333802.1844225        30098661.541052818        1031922227.8996875     
   3600200341.1187005        21635148.218098164        1028181577.9781460     
   3498652808.3595963        15124729.250534534        1028797550.1169164     
   3397691203.9071121        10567404.638369799        1033770144.3160000     
   3385850068.9605374        44563614.882164955        1156972908.6133204     
   3294625349.4407606        38107446.565823793        1150045339.9063532     
   3203182650.0426941        30924678.655189395        1146689255.3267312     
   3111521970.7663422        23015311.150266528        1146904654.8744602     
   3019643311.6117043        14379344.051055312        1150691538.5495334     
   4501099176.6730003       -10089124.835800409        664491838.17654157     
   4361681897.2104597       -2611612.9640471935        660180795.41530514     
   4221351114.8367524        1820889.2038166523        659389735.33209205     
   4080106829.5518732        3208381.6677796841        662118657.92690897     
   3937949041.3558316        1550864.4278578758        668367563.19976032     
   4138419136.4377584       -1666829.8050656319        790670294.12950408     
   4007303144.6918044        1025745.5423972607        784012996.39637876     
   3875766483.4308782        2316089.1732823849        781325538.04205310     
   3743809152.6549783        2204201.0875914097        782607919.06652069     
   3611431152.3641086        690081.28533339500        787860139.46978998     
   3770616478.8491321        5218680.0196611881        913763062.84265351     
   3649087079.6790981        3511910.3006234169        905334482.43320918     
   3527629844.3902917        2045686.8523364067        901325598.10332763     
   3406244772.9827046        820009.67479133606        901736409.85301256     
   3284931865.4563437       -165121.23200511932        906566917.68226063     
   3397691203.9071121        10567404.638369799        1033770144.3160000     
   3287033702.1723380        4846881.3106358051        1024145253.5257922     
   3176941197.7149844        1009682.2409768105        1019389915.5159189     
   3067413690.5350475       -944192.57063138485        1019504130.2863764     
   2958451180.6325378       -1014743.1241538525        1024487897.8371694     
   3019643311.6117043        14379344.051055312        1150691538.5495334     
   2921143012.1715250        5030658.5724298954        1140445309.6741295     
   2823700543.4049644       -791924.66079771519        1135518490.2798278     
   2727315905.3120151       -3088405.6486561298        1135911080.3666227     
   2631989097.8926821       -1858784.3911205530        1141623079.9345193     
   3937949041.3558316        1550864.4278578758        668367563.19976032     
   3796966817.3635082       -558636.76112103462        661428820.64811933     
   3656367555.7042208       -1391596.8399896622        658813621.76065445     
   3516151256.3779674       -948015.80875110626        660521966.53736579     
   3376317919.3847404        772106.33259582520        666553854.97825444     
   3611431152.3641086        690081.28533339500        787860139.46978998     
   3482011563.3957009       -187404.40344977379        781281665.03210580     
   3352847222.4368205       -214063.39381408691        778989670.29474676     
   3223938129.4874649        610104.31424331665        780984155.25771999     
   3095284284.5476351        2285098.7207133770        787265119.92102098     
   3284931865.4563437       -165121.23200511932        906566917.68226063     
   3166969014.4722905        157639.46754395962        900199711.31443846     
   3049133697.1742568        905512.45381879807        898081920.68309629     
   2931425913.5622363        2078497.7268167734        900213545.78823769     
   2813845663.6362367        3676595.2865446806        906594586.62986267     
   2958451180.6325378       -1014743.1241538525        1024487897.8371694     
   2851839170.5932746        476494.85185253620        1018182959.4951165     
   2745226979.9165215        1967130.7028905153        1016090372.9257004     
   2638614608.6022844        3457164.4289764166        1018210138.1289179     
   2532002056.6505513        4946596.0300859213        1024542255.1047716     
   2631989097.8926821       -1858784.3911205530        1141623079.9345193     
   2536622031.7586513        769161.74947881699        1135231409.5741470     
   2441127070.6636271        2970791.3534284830        1133015027.0225580     
   2345504214.6076035        4746104.4207158089        1134973932.2797637     
   2249753463.5905824        6095100.9513518810        1141108125.3457592     
   3376317919.3847404        772106.33259582520        666553854.97825444     
   3236584623.6672397        2864517.9783504009        658923664.18758416     
   3096694042.8397980        4432645.9243167639        655231700.66773188     
   2956646176.9024158        5476490.1704813242        655477964.41867876     
   2816441025.8550959        5996050.7168512344        659662455.44044960     
   3095284284.5476351        2285098.7207133770        787265119.92102098     
   2965815443.0315962        4058620.2458044291        779430907.54045129     
   2836317524.5553679        5735218.5702624321        775627791.91804779     
   2706790529.1189442        7314893.6940654516        775855773.05380297     
   2577234456.7223225        8797645.6172192097        780114850.94772398     
   2813845663.6362367        3676595.2865446806        906594586.62986267     
   2694906617.7141018        5210829.1087089777        898705928.83409297     
   2576066702.9815164        7075500.2293814421        894941237.28383923     
   2457325919.4384851        9270608.6485633850        895300511.97909951     
   2338684267.0850039        11796154.366240263        899783752.91987228     
   2532002056.6505513        4946596.0300859213        1024542255.1047716     
   2423858147.7147517        6321144.5670604706        1016748728.0685077     
   2315941578.1182442        8453490.9016741514        1013172036.7651087     
   2208252347.8610377        11343635.033958077        1013812181.1945753     
   2100790456.9431200        14991576.963883400        1018669161.3569095     
   2249753463.5905824        6095100.9513518810        1141108125.3457592     
   2152670033.0335464        7389566.6208437681        1133559305.2437003     
   2055942149.9655542        9869190.5871509314        1130320190.3618543     
   1959569814.3866029        13533972.850263953        1131390780.7002332     
   1863553026.2966897        18383913.410169363        1136771076.2588272     
   2816441025.8550959        5996050.7168512344        659662455.44044960     
   2676613402.9055829        7068538.4240326881        649451019.38630247     
   2537232956.5373306        9631614.7354099751        642378586.75311005     
   2398299686.7503238        13685279.650940895        638445157.54086745     
   2259813593.5445623        19229533.170626402        637650731.74958467     
   2577234456.7223225        8797645.6172192097        780114850.94772398     
   2446062624.6865563        10295712.366545677        770744328.06148648     
   2315249568.1063123        12989697.300935745        764794891.90898621     
   2184795286.9815793        16879600.420370340        762266542.49023485     
   2054699781.3123693        21965421.724876165        763159279.80521953     
   2338684267.0850039        11796154.366240263        899783752.91987228     
   2216974178.2852221        13961585.854359865        891151008.55486262     
   2095534463.8152282        17028265.108434796        886221434.23637474     
   1974365123.6750231        20996192.128459692        884995029.96441555     
   1853466157.8645964        25865366.914445162        887471795.73898578     
   2100790456.9431200        14991576.963883400        1018669161.3569095     
   1989348063.7015729        18066158.887482762        1010671060.8664351     
   1878087643.6640787        21747318.157917738        1006658213.7352744     
   1767009196.8306398        26035054.775202394        1006630619.9634299     
   1656112723.2012506        30929368.739342332        1010588279.5508912     
   1863553026.2966897        18383913.410169363        1136771076.2588272     
   1763184280.9356167        22609431.465913773        1129304484.9962046     
   1662909107.6528614        27146856.449378550        1126105230.4056768     
   1562727506.4484315        31996188.360597312        1127173312.4872513     
   1462639477.3223267        37157427.199572802        1132508731.2409246     
   3768301631.6563449        1130490489.4969034        800569761.45237303     
   3779130758.8086214        1008716043.0179130        884839669.32571352     
   3790567560.1268549        888967177.09211349        974045754.67424691     
   3802612035.6110463        771243891.71950555        1068188017.4979740     
   3815264185.2611942        655546186.90008879        1167266457.7968941     
   3207836955.9920936        962351086.79762805        756708428.37920105     
   3235874589.7136745        868209426.73642457        853058516.67691731     
   3263636063.8922501        773147234.86520123        951332943.37941611     
   3291121378.5278187        677164511.18395805        1051531708.4866984     
   3318330533.6203823        580261255.69269431        1153654811.9987628     
   2685637184.4122024        805691155.32366061        722005062.83382010     
   2722278070.2162008        736600705.33417797        829404192.22878826     
   2757758962.7682304        663643611.17146444        935715820.95812893     
   2792079862.0682921        586819872.83552003        1040939949.0218415     
   2825240768.1163826        506129490.32634395        1145076576.4199269     
   2201702316.9166708        660510695.07500124        696459664.81623018     
   2238341200.3162007        613889878.81117368        813876695.98132646     
   2272936256.7547984        560456306.01090372        927194387.41038454     
   2305487486.2324629        500209976.67419142        1036412739.1034048     
   2335994888.7491946        433150890.80103689        1141531751.0603864     
   1756032353.5055001        526809706.05164999        680072234.32643127     
   1784063980.0136738        500076947.16741103        806476027.93453169     
   1809167945.8519511        463585319.38351864        925768642.73618317     
   1831344251.0203333        417334822.69997311        1037950078.7313865     
   1850592895.5188191        361325457.11677366        1143020335.9201410     
   3815264185.2611942        655546186.90008879        1167266457.7968941     
   3797923723.8384724        537609469.95860219        1188956145.7239246     
   3784431920.9089975        432501614.66126740        1205729888.6388702     
   3774788776.4727664        340222621.00808525        1217587686.5417328     
   3768994290.5297809        260772488.99905205        1224529539.4325106     
   3318330533.6203823        580261255.69269431        1153654811.9987628     
   3293774454.5338831        473069571.93209863        1182012723.6965263     
   3272950233.0020738        378317413.35380113        1207256482.2386470     
   3255857869.0249524        296004779.95779979        1229386087.6251249     
   3242497362.6025224        226131671.74409628        1248401539.8559594     
   2825240768.1163826        506129490.32634395        1145076576.4199269     
   2798617048.0987940        411227232.76644588        1179966444.1267748     
   2775608384.6973400        328375163.92699122        1213543950.5344212     
   2756214777.9120188        257573283.80797982        1245809095.6428659     
   2740436227.7428303        198821592.40941143        1276761879.4521081     
   2335994888.7491946        433150890.80103689        1141531751.0603864     
   2312451504.5332079        352082452.46164364        1182817307.0146694     
   2292406375.9947963        282674866.38083851        1224592293.5261924     
   2275859503.1339626        224928132.55862296        1266856710.5949543     
   2262810885.9507065        178842250.99499595        1309610558.2209556     
   1850592895.5188191        361325457.11677366        1143020335.9201410     
   1835277823.8371210        295635231.01769054        1190565312.3602107     
   1823344206.8944438        241216520.71534300        1240401511.2139606     
   1814792044.6907861        198069326.20972919        1292528932.4813912     
   1809621337.2261500        166193647.50085175        1346947576.1625025     
   3768994290.5297809        260772488.99905205        1224529539.4325106     
   3661696579.3572869        168348084.53588748        1191983083.3637090     
   3562073305.3715820        101505137.36201739        1169874826.2042434     
   3470124468.5726681        60243647.477448225        1158204767.9541154     
   3385850068.9605374        44563614.882164955        1156972908.6133204     
   3242497362.6025224        226131671.74409628        1248401539.8559594     
   3164638723.9704084        151776932.73284352        1231225397.4048724     
   3092851178.6838379        97659171.540071845        1222086573.6635311     
   3027134726.7428131        63778388.165781379        1220985068.6319370     
   2967489368.1473317        50134582.609971285        1227920882.3100874     
   2740436227.7428303        198821592.40941143        1276761879.4521081     
   2685157003.9379802        140478621.53613532        1273085482.8039505     
   2634345529.6374316        97028149.010524511        1275045524.6659496     
   2588001804.8411841        68470174.832585573        1282642005.0381029     
   2546125829.5492349        54804699.002309322        1295874923.9204111     
   2262810885.9507065        178842250.99499595        1309610558.2209556     
   2223251419.2600055        134453150.94576073        1317563339.5609441     
   2186556358.2323618        99612069.773380518        1328751679.2114961     
   2152725702.8677750        74319007.477854609        1343175577.1726124     
   2121759453.1662421        58573964.059178233        1360835033.4442954     
   1809621337.2261500        166193647.50085175        1346947576.1625025     
   1778921969.9364848        133700520.96172667        1364658967.6758497     
   1749483664.4686303        105410933.82863796        1383205037.3001709     
   1721306420.8225892        81324886.101591647        1402585785.0354676     
   1694390238.9983578        61442377.780579567        1422801210.8817384     
   3385850068.9605374        44563614.882164955        1156972908.6133204     
   3294625349.4407606        38107446.565823793        1150045339.9063532     
   3203182650.0426941        30924678.655189395        1146689255.3267312     
   3111521970.7663422        23015311.150266528        1146904654.8744602     
   3019643311.6117043        14379344.051055312        1150691538.5495334     
   2967489368.1473317        50134582.609971285        1227920882.3100874     
   2884812240.8832893        39227729.190423489        1220213471.9436398     
   2802424338.5617208        29284958.912458777        1216536729.5934613     
   2720325661.1826267        20306271.776076198        1216890655.2595434     
   2638516208.7460089        12291667.781274796        1221275248.9418933     
   2546125829.5492349        54804699.002309322        1295874923.9204111     
   2473308248.5092611        39840746.670057893        1287979410.8520429     
   2401287097.2325230        27531560.215257645        1284573749.6888573     
   2330062375.7190218        17877139.637916207        1285657940.4308538     
   2259634083.9687557        10877484.938024044        1291231983.0780318     
   2121759453.1662421        58573964.059178233        1360835033.4442954     
   2060113372.3186748        39946499.004723787        1353343156.6315596     
   1999770926.0551038        25664482.563591599        1350800315.6129229     
   1940732114.3755295        15727914.735787034        1353206510.3883862     
   1882996937.2799568        10136795.521311879        1360561740.9579499     
   1694390238.9983578        61442377.780579567        1422801210.8817384     
   1645227612.3115301        39544986.194421649        1416304709.2821908     
   1597875825.0294609        23683725.957458735        1415216427.3656592     
   1552334877.1521530        13858597.069700122        1419536365.1321442     
   1508604768.6796017        10069599.531129420        1429264522.5816464     
   3019643311.6117043        14379344.051055312        1150691538.5495334     
   2921143012.1715250        5030658.5724298954        1140445309.6741295     
   2823700543.4049644       -791924.66079771519        1135518490.2798278     
   2727315905.3120151       -3088405.6486561298        1135911080.3666227     
   2631989097.8926821       -1858784.3911205530        1141623079.9345193     
   2638516208.7460089        12291667.781274796        1221275248.9418933     
   2554105374.8242531        5171226.3457940817        1212749694.4557972     
   2470509432.6665277        767090.79040420055        1209228570.7235878     
   2387728382.2728291       -920738.88489103317        1210711877.7452662     
   2305762223.6431594        107737.31990551949        1217199615.5208292     
   2259634083.9687557        10877484.938024044        1291231983.0780318     
   2188412776.3448172        5715305.7795040607        1284143674.2533908     
   2117763421.5753191        2459636.1357831955        1281744817.4554231     
   2047686019.6602557        1110476.0068514347        1284035412.6841278     
   1978180570.5996354        1667825.3927274942        1291015459.9395034     
   1882996937.2799568        10136795.521311879        1360561740.9579499     
   1824065216.7332211        6662896.8735703230        1354627249.0669115     
   1765462510.1313362        4285711.3753305674        1353067230.4753308     
   1707188817.4743001        3005239.0265890360        1355881685.1832106     
   1649244138.7621160        2821479.8273510933        1363070613.1905470     
   1508604768.6796017        10069599.531129420        1429264522.5816464     
   1461062695.9894578        8013999.6279821396        1424200418.8963563     
   1413606698.3345747        6245316.5090357065        1423195809.7833114     
   1366236775.7149546        4763550.1742998362        1426250695.2425096     
   1318952928.1305985        3568700.6237753034        1433365075.2739542     
   2631989097.8926821       -1858784.3911205530        1141623079.9345193     
   2536622031.7586513        769161.74947881699        1135231409.5741470     
   2441127070.6636271        2970791.3534284830        1133015027.0225580     
   2345504214.6076035        4746104.4207158089        1134973932.2797637     
   2249753463.5905824        6095100.9513518810        1141108125.3457592     
   2305762223.6431594        107737.31990551949        1217199615.5208292     
   2221126571.8902106        1545965.3367631435        1210338883.3766992     
   2136474226.0099673        2928546.2626390457        1207832347.8993237     
   2051805186.0024321        4255480.0975421667        1209680009.0886965     
   1967119451.8676031        5526766.8414653540        1215881866.9448249     
   1978180570.5996354        1667825.3927274942        1291015459.9395034     
   1904787501.3933766        2069685.7355260849        1283815400.3176100     
   1831488938.8935270        2786568.4330250025        1281148446.2204278     
   1758284883.1000888        3818473.4852231741        1283014597.6479614     
   1685175334.0130558        5165400.8921136856        1289413854.6002111     
   1649244138.7621160        2821479.8273510933        1363070613.1905470     
   1587604820.2681515        2340322.9457700253        1355660960.3968720     
   1526171209.3143015        2544857.8645723462        1352963321.9858723     
   1464943305.9005632        3435084.5837463140        1354977697.9575496     
   1403921110.0269361        5011003.1032893062        1361704088.3119080     
   1318952928.1305985        3568700.6237753034        1433365075.2739542     
   1269578528.5145378        2357876.9675039649        1425875563.6144853     
   1220521037.2722919        2203414.5572826862        1423276975.1956549     
   1171780454.4038622        3105313.3931139112        1425569310.0174644     
   1123356779.9092453        5063573.4749902487        1432752568.0799129     
   2249753463.5905824        6095100.9513518810        1141108125.3457592     
   2152670033.0335464        7389566.6208437681        1133559305.2437003     
   2055942149.9655542        9869190.5871509314        1130320190.3618543     
   1959569814.3866029        13533972.850263953        1131390780.7002332     
   1863553026.2966897        18383913.410169363        1136771076.2588272     
   1967119451.8676031        5526766.8414653540        1215881866.9448249     
   1881388569.5352046        6893308.3979699612        1208997224.1618161     
   1795943919.3115394        9213956.9835846424        1206518972.6651623     
   1710785501.1966112        12488712.598325253        1208447112.4548495     
   1625913315.1904173        16717575.242173851        1214781643.5308869     
   1685175334.0130558        5165400.8921136856        1289413854.6002111     
   1611073245.8085258        6686892.1065976024        1283112521.1925611     
   1537188074.3324206        8931439.0824942589        1281314265.1373928     
   1463519819.5847483        11899041.819831967        1284019086.4347043     
   1390068481.5654969        15589700.318580747        1291226985.0844939     
   1403921110.0269361        5011003.1032893062        1361704088.3119080     
   1341724061.8535058        6770317.7467148900        1355905196.3359268     
   1279674615.0281966        9021636.8838788271        1354706067.7785592     
   1217772769.5510042        11764960.514767706        1358106702.6397986     
   1156018525.4219322        15000288.639386058        1366107100.9196494     
   1123356779.9092453        5063573.4749902487        1432752568.0799129     
   1073341017.6701503        7143585.3183432221        1427375249.5919120     
   1023403541.3988601        9484550.3877137899        1426694380.5886495     
   973544351.09538937        12086468.683151484        1430709961.0701311     
   923763446.75972855        14949340.204616249        1439421991.0363505     
   1863553026.2966897        18383913.410169363        1136771076.2588272     
   1763184280.9356167        22609431.465913773        1129304484.9962046     
   1662909107.6528614        27146856.449378550        1126105230.4056768     
   1562727506.4484315        31996188.360597312        1127173312.4872513     
   1462639477.3223267        37157427.199572802        1132508731.2409246     
   1625913315.1904173        16717575.242173851        1214781643.5308869     
   1536665804.0710649        20247105.392234743        1208157112.9482844     
   1447536411.4189160        24170363.766310155        1205980653.8577592     
   1358525137.2339652        28487350.364375830        1208252266.2593098     
   1269631981.5162210        33198065.186462820        1214971950.1529365     
   1390068481.5654969        15589700.318580747        1291226985.0844939     
   1312458589.8878133        18578158.122972488        1285473152.6356018     
   1234991363.0662074        22042165.447613716        1284348126.4987688     
   1157666801.1006799        25981722.292520404        1287851906.6739838     
   1080484903.9912283        30396828.657693386        1295984493.1612635     
   1156018525.4219322        15000288.639386058        1366107100.9196494     
   1090562638.3858593        17602589.658092737        1361252604.0581608     
   1025273962.5947299        20762261.493282855        1361207648.3287041     
   960152498.04855978        24479304.145008802        1365972233.7312806     
   895198244.74734664        28753717.613250583        1375546360.2658863     
   923763446.75972855        14949340.204616249        1439421991.0363505     
   870977949.56519580        17320399.997596890        1435495467.2159495     
   818384210.00448751        20330651.903323323        1436559219.3475614     
   765982228.07761836        23980095.921840876        1442613247.4311874     
   713772003.78458428        28268732.053150266        1453657551.4668283     
   1756032353.5055001        526809706.05164999        680072234.32643127     
   1784063980.0136738        500076947.16741103        806476027.93453169     
   1809167945.8519511        463585319.38351864        925768642.73618317     
   1831344251.0203333        417334822.69997311        1037950078.7313865     
   1850592895.5188191        361325457.11677366        1143020335.9201410     
   1326377197.8956912        397913159.36870730        669739843.45896316     
   1339590861.7392364        375520573.45278800        791883805.69341469     
   1350608780.0582774        345808835.78852230        908738935.53806531     
   1359430952.8528154        308777946.37591058        1020305232.9929150     
   1366057380.1228487        264427905.21495247        1126582698.0579638     
   890486753.80424631        267146026.14127392        662359564.30836558     
   894089159.03072762        250655624.40794355        781097596.17212605     
   896227733.87809730        229285788.07757425        896369142.06273305     
   896902478.34635520        203036517.15016592        1008174201.9801869     
   896113392.43550158        171907811.62571865        1116512775.9244874     
   448361021.23116577        134508306.36934972        657931396.87463856     
   447558871.88814783        125482100.03287779        774117399.37066531     
   446024807.31141037        114016176.25067414        888659262.31018662     
   443758827.50095338        100110535.02273855        1001556985.6932020     
   440760932.45677710        83765176.349071711        1112810569.5197115     
  0.17644922839693361        5.2934768519080085E-002   656455341.15778196     
  0.31149671898654696       0.32759057600284158        770943215.28903282     
  0.35821691881081108       0.30782199419926498        885609296.28042543     
  0.31660974494613109       -6.3712099355452689E-003   1000453584.1319603     
  0.18667518309533562      -0.61498904069074056        1115476078.8436368     
   1850592895.5188191        361325457.11677366        1143020335.9201410     
   1835277823.8371210        295635231.01769054        1190565312.3602107     
   1823344206.8944438        241216520.71534300        1240401511.2139606     
   1814792044.6907861        198069326.20972919        1292528932.4813912     
   1809621337.2261500        166193647.50085175        1346947576.1625025     
   1366057380.1228487        264427905.21495247        1126582698.0579638     
   1360385782.9044299        216904647.49027592        1182008228.5003655     
   1357250276.7816029        177835026.75090441        1238368216.4913611     
   1356650861.7543678        147219042.99683899        1295662662.0309522     
   1358587537.8227246        125056696.22808129        1353891565.1191363     
   896113392.43550158        171907811.62571865        1116512775.9244874     
   896208798.63725841        141388580.96251622        1178832602.7852209     
   897994932.29117858        116505108.47319111        1240730122.3294625     
   901471793.39726150        97257394.157742739        1302205334.5572126     
   906639381.95550799        83645438.016172886        1363258239.4684706     
   440760932.45677710        83765176.349071711        1112810569.5197115     
   442746871.03560591        69087031.434412107        1181038435.2147775     
   445578173.42317003        57226765.882202774        1247487228.7282650     
   449254839.61946839        48184379.692441136        1312156950.0601737     
   453776869.62450117        41959872.865128130        1375047599.2105060     
  0.18667518309533562      -0.61498904069074056        1115476078.8436368     
   9.9472868129315439E-002  -1.0940360053330438        1188625725.7890341     
  0.17757706363056380       -1.0220617020986542        1258639535.6877673     
  0.42098650858855391      -0.39906942362616932        1325517508.5398366     
  0.82970290436669503       0.77494550382977589        1389259644.3452418     
   1809621337.2261500        166193647.50085175        1346947576.1625025     
   1778921969.9364848        133700520.96172667        1364658967.6758497     
   1749483664.4686303        105410933.82863796        1383205037.3001709     
   1721306420.8225892        81324886.101591647        1402585785.0354676     
   1694390238.9983578        61442377.780579567        1422801210.8817384     
   1358587537.8227246        125056696.22808129        1353891565.1191363     
   1333034692.9963939        99928355.692772627        1372865236.3612885     
   1308427644.4383316        77952669.385024488        1393263526.9249198     
   1284766392.1485391        59129637.304841220        1415086436.8100295     
   1262050936.1270139        43459259.452218592        1438333966.0166192     
   906639381.95550799        83645438.016172886        1363258239.4684706     
   887918605.90823781        66387547.379397124        1383126380.6269627     
   869828360.57569385        51231425.791708499        1405009082.3174365     
   852368645.95787549        38177073.253105998        1428906344.5398943     
   835539462.05478418        27224489.763592541        1454818167.2943347     
   453776869.62450117        41959872.865128130        1375047599.2105060     
   443573708.67201751        33078096.021603703        1395442400.4728701     
   433685812.88071644        25247203.048688889        1418441703.4777205     
   424113182.25059974        18467193.946388409        1444045508.2250588     
   414855816.78166735        12738068.714701757        1472253814.7148838     
  0.82970290436669503       0.77494550382977589        1389259644.3452418     
   1.2877319746243794        1.6193911539111712        1409813295.8990114     
   1.3534015025900576        1.1559714895468645        1433561390.4057729     
   1.0267120973232353      -0.61531171927331241        1460503927.8655262     
  0.30766328129838461       -3.6944585897861653        1490640908.2782691     
   1694390238.9983578        61442377.780579567        1422801210.8817384     
   1645227612.3115301        39544986.194421649        1416304709.2821908     
   1597875825.0294609        23683725.957458735        1415216427.3656592     
   1552334877.1521530        13858597.069700122        1419536365.1321442     
   1508604768.6796017        10069599.531129420        1429264522.5816464     
   1262050936.1270139        43459259.452218592        1438333966.0166192     
   1227991893.6357551        27880093.535343826        1435397594.9913559     
   1195290980.9487529        16828026.965990245        1437213093.8944476     
   1163948198.0660105        10303059.744167924        1443780462.7258959     
   1133963544.9875243        8305191.8698695898        1455099701.4856997     
   835539462.05478418        27224489.763592541        1454818167.2943347     
   814708718.74577487        17400964.012001604        1454913765.6427722     
   794783395.64052296        10595505.606268436        1459104884.1649036     
   775763492.73902655        6808114.5463865995        1467391522.8607285     
   757649010.04128671        6038790.8323606849        1479773681.7302473     
   414855816.78166735        12738068.714701757        1472253814.7148838     
   405378087.64158922        8107597.6244000494        1474853221.2364373     
   396353069.10476595        4986161.8782801926        1480891798.1770234     
   387780761.17119986        3373761.4763524830        1490369545.5366416     
   379661163.84088892        3270396.4186067134        1503286463.3152912     
  0.30766328129838461       -3.6944585897861653        1490640908.2782691     
  0.32319799309371278       -5.6274652863443642        1495215961.7723536     
   1.3414886646578248       -4.2179524639513089        1502573835.9308090     
   3.3625307895222631       0.53406520277616509        1512714530.7536345     
   6.3863275473779701        8.6285986597525639        1525638046.2408314     
   1508604768.6796017        10069599.531129420        1429264522.5816464     
   1461062695.9894578        8013999.6279821396        1424200418.8963563     
   1413606698.3345747        6245316.5090357065        1423195809.7833114     
   1366236775.7149546        4763550.1742998362        1426250695.2425096     
   1318952928.1305985        3568700.6237753034        1433365075.2739542     
   1133963544.9875243        8305191.8698695898        1455099701.4856997     
   1097337214.1616592        6472560.8544161916        1449650947.4871752     
   1060775439.3665164        4855116.6080377102        1448487969.0686932     
   1024278220.6020992        3452859.1307452917        1451610766.2302511     
   987845557.86840653        2265788.4225361347        1459019338.9718499     
   757649010.04128671        6038790.8323606849        1479773681.7302473     
   732584938.24482799        4623083.8541342914        1473915171.9131970     
   707563903.47455692        3350833.6298662722        1472568718.6839833     
   682585905.73047280        2222040.1595543027        1475734322.0426059     
   657650945.01257622        1236703.4432037771        1483411981.9890659     
   379661163.84088892        3270396.4186067134        1503286463.3152912     
   366805868.23896718        2465568.6271457225        1496993092.1744232     
   353972090.65869695        1732467.5745228976        1495438058.6291845     
   341159831.10007817        1071093.2607370913        1498621362.6795774     
   328369089.56310791        481445.68578085303        1506543004.3256028     
   6.3863275473779701        8.6285986597525639        1525638046.2408314     
   4.1440765654208560        15.173450774230101        1518884708.2708483     
  0.91893850587551373        18.442013323969597        1517095988.9042931     
  -3.2890883697941149        18.434279126072092        1520271888.1411643     
  -8.4799990289836575        15.150266343664256        1528412405.9814637     
   1318952928.1305985        3568700.6237753034        1433365075.2739542     
   1269578528.5145378        2357876.9675039649        1425875563.6144853     
   1220521037.2722919        2203414.5572826862        1423276975.1956549     
   1171780454.4038622        3105313.3931139112        1425569310.0174644     
   1123356779.9092453        5063573.4749902487        1432752568.0799129     
   987845557.86840653        2265788.4225361347        1459019338.9718499     
   951196855.84450483        1472298.6889514327        1452128224.7655306     
   914785834.77561092        1471078.8053951859        1450038877.6380739     
   878612494.66172302        2262128.7718592286        1452751297.5894816     
   842676835.50284135        3845448.5883440375        1460265484.6197507     
   657650945.01257622        1236703.4432037771        1483411981.9890659     
   633473208.69004345        784128.06507703662        1477026833.2472868     
   609453925.90370929        859731.14094486833        1475354295.4225953     
   585593096.65357220        1463512.6708045304        1478394368.5149906     
   561890720.93963230        2595472.6546528935        1486147052.5244672     
   328369089.56310791        481445.68578085303        1506543004.3256028     
   316407587.05115062        293365.09586483240        1500571389.0597560     
   304525310.65658575        369371.56392459571        1499223228.5492177     
   292722260.37940943        709465.08994452655        1502498522.7939870     
   280998436.21962029        1313645.6739226133        1510397271.7940648     
  -8.4799990289836575        15.150266343664256        1528412405.9814637     
  -9.0721699841123353        9.7813309878420558        1522761892.2029364     
  -10.965756507958373        7.4343736295317431E-002   1521645677.0179410     
  -14.160767624896428       -13.970726012641848        1525063760.4264762     
  -18.657196026212425       -32.353852335338068        1533016142.4285424     
   1123356779.9092453        5063573.4749902487        1432752568.0799129     
   1073341017.6701503        7143585.3183432221        1427375249.5919120     
   1023403541.3988601        9484550.3877137899        1426694380.5886495     
   973544351.09538937        12086468.683151484        1430709961.0701311     
   923763446.75972855        14949340.204616249        1439421991.0363505     
   842676835.50284135        3845448.5883440375        1460265484.6197507     
   804794816.00502539        5294394.9584714472        1454974114.0054553     
   766971512.02823794        6939059.7320262492        1454465572.6627641     
   729206923.57248163        8779442.9090178907        1458739860.5916770     
   691501050.63774836        10815544.489421099        1467796977.7921898     
   561890720.93963230        2595472.6546528935        1486147052.5244672     
   536389243.57413381        3487393.3688771725        1480918797.5959663     
   510926911.28287756        4509797.6639068127        1480559751.7259290     
   485503724.06586999        5662685.5397664011        1485069914.9143577     
   460119681.92310524        6946056.9964354336        1494449287.1612520     
   280998436.21962029        1313645.6739226133        1510397271.7940648     
   268124300.37746981        1722580.5495407730        1505209300.3634434     
   255269739.16278455        2196764.1833744943        1504976917.7781458     
   242434752.57555971        2736196.5754119754        1509700124.0381758     
   229619340.61579657        3340877.7256525755        1519378919.1435339     
  -18.657196026212425       -32.353852335338068        1533016142.4285424     
  -13.584958798910170       -43.499511685004457        1527845622.3078833     
  -4.3320462144242828       -40.709585816836011        1527717070.8194139     
   9.1015482696309213       -23.984053616769849        1532630487.9631331     
   26.715816921345088        6.6770584482701425        1542585873.7390394     
   923763446.75972855        14949340.204616249        1439421991.0363505     
   870977949.56519580        17320399.997596890        1435495467.2159495     
   818384210.00448751        20330651.903323323        1436559219.3475614     
   765982228.07761836        23980095.921840876        1442613247.4311874     
   713772003.78458428        28268732.053150266        1453657551.4668283     
   691501050.63774836        10815544.489421099        1467796977.7921898     
   651582682.59424531        12495068.021603703        1464412976.4782708     
   611808129.01942575        14653973.116061449        1466096076.1579361     
   572177389.91328669        17292259.772792846        1472846276.8311791     
   532690465.27583289        20409927.991806209        1484663578.4979904     
   460119681.92310524        6946056.9964354336        1494449287.1612520     
   433287943.14939350        7999894.3034617603        1491551874.6611414     
   406552075.67920923        9373302.6222494245        1493798388.1961756     
   379912079.51256102        11066281.952821568        1501188827.7663558     
   353367954.64944339        13078832.295164108        1513723193.3716731     
   229619340.61579657        3340877.7256525755        1519378919.1435339     
   216093731.23062834        3834878.8431349620        1516912161.7645564     
   202616049.98384288        4488640.4218909889        1519666155.4622915     
   189186296.87543797        5302162.4619169310        1527640900.2367411     
   175804471.90542054        6275444.9632353187        1540836396.0878866     
   26.715816921345088        6.6770584482701425        1542585873.7390394     
   46.837957139152252        21.640643032140169        1540493837.7885220     
   51.933326686689639       -13.485006563776889        1543699377.9562819     
   42.001929956048365       -98.699876740011490        1552202494.2423165     
   17.043762738141126       -234.00398395546750        1566003186.6466191     
  0.17644922839693361        5.2934768519080085E-002   656455341.15778196     
  0.31149671898654696       0.32759057600284158        770943215.28903282     
  0.35821691881081108       0.30782199419926498        885609296.28042543     
  0.31660974494613109       -6.3712099355452689E-003   1000453584.1319603     
  0.18667518309533562      -0.61498904069074056        1115476078.8436368     
  -448361020.89292651       -134508306.26787794        657931397.07402849     
  -447558871.37644321       -125482099.71030986        774117399.40685046     
  -446024806.71298468       -114016175.99615644        888659262.18457818     
  -443758826.90255010       -100110535.12541741        1001556985.4072117     
  -440760931.94513983       -83765177.098092705        1112810569.0747507     
  -890486753.50998449       -267146026.05299535        662359564.53961027     
  -894089158.65559781       -250655624.42557478        781097596.18185663     
  -896227733.41893244       -229285788.19055879        896369141.85377336     
  -896902477.79998815       -203036517.34794730        1008174201.5553591     
  -896113391.79876542       -171907811.89774013        1116512775.2866147     
  -1326377197.6747248       -397913159.30241746        669739843.55452740     
  -1339590861.5259666       -375520573.81820405        791883805.61405218     
  -1350608779.7596264       -345808836.27538490        908738935.28801060     
  -1359430952.3757048       -308777946.67396057        1020305232.5764023     
  -1366057379.3742013       -264427905.01393029        1126582697.4792273     
  -1756032353.3871481       -526809706.01614439        680072234.11877978     
  -1784063979.9875498       -500076947.88819754        806476027.70343637     
  -1809167945.7350669       -463585320.25063503        925768642.48729038     
  -1831344250.6296992       -417334823.10345733        1037950078.4703414     
  -1850592894.6714470       -361325456.44666362        1143020335.6525898     
  0.18667518309533562      -0.61498904069074056        1115476078.8436368     
   9.9472868129315439E-002  -1.0940360053330438        1188625725.7890341     
  0.17757706363056380       -1.0220617020986542        1258639535.6877673     
  0.42098650858855391      -0.39906942362616932        1325517508.5398366     
  0.82970290436669503       0.77494550382977589        1389259644.3452418     
  -440760931.94513983       -83765177.098092705        1112810569.0747507     
  -442746870.58268654       -69087032.695031539        1181038435.0502236     
  -445578172.85892880       -57226767.087622359        1247487228.8300705     
  -449254838.77386671       -48184380.275865629        1312156950.4142923     
  -453776868.32750058       -41959872.259761468        1375047599.8028879     
  -896113391.79876542       -171907811.89774013        1116512775.2866147     
  -896208797.98368883       -141388581.31167904        1178832602.5208268     
  -897994931.61130953       -116505108.86794338        1240730122.4104517     
  -901471792.68162823       -97257394.566533893        1302205334.9554892     
  -906639381.19464469       -83645438.407449961        1363258240.1559405     
  -1366057379.3742013       -264427905.01393029        1126582697.4792273     
  -1360385782.1035342       -216904646.94397992        1182008228.2008438     
  -1357250276.0795658       -177835026.36302811        1238368216.4289110     
  -1356650861.3022976       -147219043.27107412        1295662662.1634305     
  -1358587537.7717290       -125056697.66812050        1353891565.4044011     
  -1850592894.6714470       -361325456.44666362        1143020335.6525898     
  -1835277822.9422219       -295635229.59193367        1190565312.0902741     
  -1823344206.2636981       -241216519.57287532        1240401510.8854487     
  -1814792044.6358759       -198069326.38948929        1292528932.0381136     
  -1809621338.0587554       -166193650.04177487        1346947575.5482681     
  0.82970290436669503       0.77494550382977589        1389259644.3452418     
   1.2877319746243794        1.6193911539111712        1409813295.8990114     
   1.3534015025900576        1.1559714895468645        1433561390.4057729     
   1.0267120973232353      -0.61531171927331241        1460503927.8655262     
  0.30766328129838461       -3.6944585897861653        1490640908.2782691     
  -453776868.32750058       -41959872.259761468        1375047599.8028879     
  -443573706.68268126       -33078094.515661061        1395442400.3137631     
  -433685810.60677528       -25247202.001271740        1418441702.5769506     
  -424113180.09978282       -18467194.716593504        1444045506.5924489     
  -414855815.16170436       -12738072.661628962        1472253812.3602583     
  -906639381.19464469       -83645438.407449961        1363258240.1559405     
  -887918604.65069175       -66387547.649992675        1383126380.2512748     
  -869828358.85220575       -51231426.044092804        1405009080.8982410     
  -852368643.79918838       -38177073.589753479        1428906342.0968394     
  -835539459.49163723       -27224490.286968887        1454818163.8470702     
  -1358587537.7717290       -125056697.66812050        1353891565.4044011     
  -1333034692.6162989       -99928357.783603132        1372865235.7115471     
  -1308427643.3828886       -77952670.972488344        1393263525.3696461     
  -1284766390.0715013       -59129637.234781504        1415086434.3786969     
  -1262050932.6821356       -43459256.570480168        1438333962.7387009     
  -1809621338.0587554       -166193650.04177487        1346947575.5482681     
  -1778921970.5795019       -133700524.91649026        1364658966.6945801     
  -1749483664.1988244       -105410936.78645939        1383205035.9911652     
  -1721306418.9167240       -81324885.651684225        1402585783.4380233     
  -1694390234.7331975       -61442371.512157202        1422801209.0351527     
  0.30766328129838461       -3.6944585897861653        1490640908.2782691     
  0.32319799309371278       -5.6274652863443642        1495215961.7723536     
   1.3414886646578248       -4.2179524639513089        1502573835.9308090     
   3.3625307895222631       0.53406520277616509        1512714530.7536345     
   6.3863275473779701        8.6285986597525639        1525638046.2408314     
  -414855815.16170436       -12738072.661628962        1472253812.3602583     
  -405378085.67597061       -8107603.4458496422        1474853220.5589459     
  -396353065.70054030       -4986165.9310824275        1480891798.9590776     
  -387780755.23541701       -3373760.1173370630        1490369547.5606587     
  -379661154.28059781       -3270386.0046075732        1503286466.3636856     
  -835539459.49163723       -27224490.286968887        1454818163.8470702     
  -814708716.14405775       -17400964.604908466        1454913764.4851229     
  -794783392.81984162       -10595505.667390764        1459104884.8616974     
  -775763489.51899064       -6808113.4744245708        1467391524.9767962     
  -757649006.24150383       -6038788.0260046721        1479773684.8304181     
  -1262050932.6821356       -43459256.570480168        1438333962.7387009     
  -1227991891.0810633       -27880089.104640067        1435397593.5508840     
  -1195290980.0164177       -16828023.426884830        1437213093.6386671     
  -1163948199.4881938       -10303059.537202179        1443780463.0020483     
  -1133963549.4963913       -8305197.4355945587        1455099701.6410291     
  -1694390234.7331975       -61442371.512157202        1422801209.0351527     
  -1645227610.4869912       -39544976.945055842        1416304707.7562315     
  -1597875827.2902651       -23683719.209554434        1415216425.2899852     
  -1552334885.1430228       -13858598.305666924        1419536361.6364141     
  -1508604784.0452628       -10069614.233386338        1429264516.7955172     
   6.3863275473779701        8.6285986597525639        1525638046.2408314     
   4.1440765654208560        15.173450774230101        1518884708.2708483     
  0.91893850587551373        18.442013323969597        1517095988.9042931     
  -3.2890883697941149        18.434279126072092        1520271888.1411643     
  -8.4799990289836575        15.150266343664256        1528412405.9814637     
  -379661154.28059781       -3270386.0046075732        1503286466.3636856     
  -366805864.23921525       -2465551.6550209969        1496993092.9859786     
  -353972093.14188951       -1732447.1189548522        1495438057.8834691     
  -341159840.98861915       -1071072.3964064270        1498621361.0561585     
  -328369107.77940160       -481427.48737014830        1506543002.5040452     
  -757649006.24150383       -6038788.0260046721        1479773684.8304181     
  -732584939.14000034       -4623080.4387378395        1473915171.7569568     
  -707563908.94372129       -3350829.2022174895        1472568716.6304631     
  -682585915.65266538       -2222034.3164415956        1475734319.4509394     
  -657650959.26683271       -1236695.7814118862        1483411980.2183850     
  -1133963549.4963913       -8305197.4355945587        1455099701.6410291     
  -1097337220.5582800       -6472571.1777053475        1449650944.5837824     
  -1060775446.4865574       -4855127.8077781200        1448487965.1452758     
  -1024278227.2812310       -3452867.3258367777        1451610763.3255100     
  -987845562.94229376       -2265789.7318625450        1459019339.1244824     
  -1508604784.0452628       -10069614.233386338        1429264516.7955172     
  -1461062708.4940524       -8014023.8719189763        1424200411.4664574     
  -1413606705.7704029       -6245342.9356523752        1423195803.4279089     
  -1366236775.8743143       -4763571.4245891571        1426250692.6798711     
  -1318952918.8057840       -3568709.3387220502        1433365079.2223420     
  -8.4799990289836575        15.150266343664256        1528412405.9814637     
  -9.0721699841123353        9.7813309878420558        1522761892.2029364     
  -10.965756507958373        7.4343736295317431E-002   1521645677.0179410     
  -14.160767624896428       -13.970726012641848        1525063760.4264762     
  -18.657196026212425       -32.353852335338068        1533016142.4285424     
  -328369107.77940160       -481427.48737014830        1506543002.5040452     
  -316407605.34892303       -293351.88445308805        1500571386.0007629     
  -304525331.27493060       -369370.80315618217        1499223223.7740259     
  -292722285.55742991       -709484.24349857867        1502498515.8238242     
  -280998468.19641763       -1313692.2054690868        1510397262.1501670     
  -657650959.26683271       -1236695.7814118862        1483411980.2183850     
  -633473223.29082465       -784120.04978510737        1477026829.4261038     
  -609453942.72637033       -859729.02333912253        1475354288.5933735     
  -585593117.57347476       -1463522.7020892501        1478394357.7201941     
  -561890747.83213544       -2595501.0860262811        1486147036.8065629     
  -987845562.94229376       -2265789.7318625450        1459019339.1244824     
  -951196862.89786923       -1472294.7146517038        1452128222.4789584     
  -914785845.32007253       -1471074.5861957669        1450038871.4759927     
  -878612510.20890129       -2262129.3464910984        1452751286.1155813     
  -842676857.56435215       -3845458.9955324531        1460265466.3977337     
  -1318952918.8057840       -3568709.3387220502        1433365079.2223420     
  -1269578524.1700659       -2357875.8790737987        1425875565.1593251     
  -1220521039.0560412       -2203407.4917374253        1423276972.4218736     
  -1171780463.4637091       -3105304.1767101884        1425569301.0099921     
  -1123356797.3930717       -5063565.9339960217        1432752550.9236763     
  -18.657196026212425       -32.353852335338068        1533016142.4285424     
  -13.584958798910170       -43.499511685004457        1527845622.3078833     
  -4.3320462144242828       -40.709585816836011        1527717070.8194139     
   9.1015482696309213       -23.984053616769849        1532630487.9631331     
   26.715816921345088        6.6770584482701425        1542585873.7390394     
  -280998468.19641763       -1313692.2054690868        1510397262.1501670     
  -268124321.16313586       -1722643.1167338192        1505209298.7819207     
  -255269742.59819764       -2196822.2558094859        1504976923.6205037     
  -242434732.50158578       -2736229.6226391047        1509700136.6659141     
  -229619290.87331864       -3340865.2172854096        1519378937.9181635     
  -561890747.83213544       -2595501.0860262811        1486147036.8065629     
  -536389260.05312133       -3487432.1275017858        1480918795.4335437     
  -510926913.39146024       -4509833.5601532161        1480559761.8419995     
  -485503707.84714520       -5662705.3839588463        1485069936.0319285     
  -460119643.42018336       -6946047.5989430249        1494449318.0033314     
  -842676857.56435215       -3845458.9955324531        1460265466.3977337     
  -804794830.25491583       -5294410.5318191648        1454974112.2627616     
  -766971516.71183777       -6939074.6226314008        1454465585.4839039     
  -729206916.93513393       -8779451.2680240571        1458739886.0611625     
  -691501030.92478180       -10815540.467926562        1467797013.9945374     
  -1123356797.3930717       -5063565.9339960217        1432752550.9236763     
  -1073341031.7685125       -7143578.3296588659        1427375249.2695673     
  -1023403552.5593358       -9484545.4432598352        1426694394.5462160     
  -973544359.76553297       -12086467.274775922        1430709986.7536230     
  -923763453.38711143       -14949343.824229479        1439422025.8917882     
   26.715816921345088        6.6770584482701425        1542585873.7390394     
   46.837957139152252        21.640643032140169        1540493837.7885220     
   51.933326686689639       -13.485006563776889        1543699377.9562819     
   42.001929956048365       -98.699876740011490        1552202494.2423165     
   17.043762738141126       -234.00398395546750        1566003186.6466191     
  -229619290.87331864       -3340865.2172854096        1519378937.9181635     
  -216093639.64514279       -3834835.1550753862        1516912150.3089206     
  -202615934.60125643       -4488625.7071622908        1519666114.7171321     
  -189186175.74164936       -5302236.8735132888        1527640831.1428022     
  -175804363.06632566       -6275668.6541439742        1540836299.5859203     
  -460119643.42018336       -6946047.5989430249        1494449318.0033314     
  -433287858.51688766       -7999851.6673972756        1491551859.0515912     
  -406551950.95539045       -9373246.8751828820        1493798328.0164907     
  -379911920.73568815       -11066233.222285911        1501188724.8980238     
  -353367767.85778540       -13078810.708715379        1513723049.6961963     
  -691501030.92478180       -10815540.467926562        1467797013.9945374     
  -651582609.77727103       -12495027.896305740        1464412964.0165396     
  -611807997.12907588       -14653876.989072472        1466096017.8543534     
  -572177192.98018622       -17292087.746187240        1472846175.5079954     
  -532690197.33061361       -20409660.167694002        1484663436.9774401     
  -923763453.38711143       -14949343.824229479        1439422025.8917882     
  -870977893.42629611       -17320363.841806710        1435495465.2037578     
  -818384073.12230873       -20330516.048811197        1436559184.2307243     
  -765981992.47514796       -23979800.445240527        1442613182.9726973     
  -713771651.48481560       -28268217.031091452        1453657461.4296608     
  -1756032353.3871481       -526809706.01614439        680072234.11877978     
  -1784063979.9875498       -500076947.88819754        806476027.70343637     
  -1809167945.7350669       -463585320.25063503        925768642.48729038     
  -1831344250.6296992       -417334823.10345733        1037950078.4703414     
  -1850592894.6714470       -361325456.44666362        1143020335.6525898     
  -2201702316.8875241       -660510695.06625724        696459664.30937600     
  -2238341200.2772236       -613889879.20459938        813876695.62577415     
  -2272936256.6106625       -560456306.48874366        927194387.19727480     
  -2305487485.8878427       -500209976.91869003        1036412739.0238775     
  -2335994888.1087642       -433150890.49443966        1141531751.1055834     
  -2685637184.4161253       -805691155.32483757        722005062.20332408     
  -2722278070.1496778       -736600705.39583528        829404191.82206750     
  -2757758962.6235962       -663643611.26805353        935715820.75181854     
  -2792079861.8378806       -586819872.94149160        1040939948.9925772     
  -2825240767.7925305       -506129490.41614968        1145076576.5443437     
  -3207836955.9729505       -962351086.79188514        756708427.80062449     
  -3235874589.6049132       -868209426.46190572        853058516.29231644     
  -3263636063.7738662       -773147234.58856392        951332943.15092194     
  -3291121378.4798102       -677164511.17186046        1051531708.3764399     
  -3318330533.7227473       -580261256.21179509        1153654811.9688716     
  -3768301631.5580006       -1130490489.4674001        800569761.10127676     
  -3779130758.6429286       -1008716042.4028101        884839669.03652143     
  -3790567560.0614734       -888967176.45027602        974045754.39458489     
  -3802612035.8136349       -771243891.60979772        1068188017.1754664     
  -3815264185.8994131       -655546187.88137519        1167266457.3791661     
  -1850592894.6714470       -361325456.44666362        1143020335.6525898     
  -1835277822.9422219       -295635229.59193367        1190565312.0902741     
  -1823344206.2636981       -241216519.57287532        1240401510.8854487     
  -1814792044.6358759       -198069326.38948929        1292528932.0381136     
  -1809621338.0587554       -166193650.04177487        1346947575.5482681     
  -2335994888.1087642       -433150890.49443966        1141531751.1055834     
  -2312451504.0529022       -352082451.84551686        1182817306.7691834     
  -2292406375.8390355       -282674866.00324208        1224592292.9894307     
  -2275859503.4671612       -224928132.96761119        1266856709.7663252     
  -2262810886.9372821       -178842252.73862827        1309610557.0998666     
  -2825240767.7925305       -506129490.41614968        1145076576.5443437     
  -2798617047.9838696       -411227232.94518626        1179966443.8440185     
  -2775608384.8084955       -328375164.25184393        1213543949.8994975     
  -2756214778.2664065       -257573284.33612192        1245809094.7107806     
  -2740436228.3576040       -198821593.19801915        1276761878.2778683     
  -3318330533.7227473       -580261256.21179509        1153654811.9688716     
  -3293774454.7351236       -473069572.89094198        1182012723.3147800     
  -3272950233.1720796       -378317414.31868434        1207256481.6156495     
  -3255857869.0336127       -296004780.49501944        1229386086.8714809     
  -3242497362.3197250       -226131671.41994989        1248401539.0822737     
  -3815264185.8994131       -655546187.88137519        1167266457.3791661     
  -3797923724.3066645       -537609471.68278253        1188956145.1814668     
  -3784431920.9297857       -432501616.20376015        1205729888.1378868     
  -3774788775.7687788       -340222621.44430685        1217587686.2484248     
  -3768994288.8236418       -260772487.40442073        1224529539.5130811     
  -1809621338.0587554       -166193650.04177487        1346947575.5482681     
  -1778921970.5795019       -133700524.91649026        1364658966.6945801     
  -1749483664.1988244       -105410936.78645939        1383205035.9911652     
  -1721306418.9167240       -81324885.651684225        1402585783.4380233     
  -1694390234.7331975       -61442371.512157202        1422801209.0351527     
  -2262810886.9372821       -178842252.73862827        1309610557.0998666     
  -2223251419.8432255       -134453153.31318998        1317563338.8778694     
  -2186556357.9881420       -99612071.350994587        1328751678.9092588     
  -2152725701.3720312       -74319006.852037072        1343175577.1940339     
  -2121759449.9948912       -58573959.816323638        1360835033.7321956     
  -2740436228.3576040       -198821593.19801915        1276761878.2778683     
  -2685157004.2112789       -140478622.24118662        1273085482.5237665     
  -2634345529.4443221       -97028149.215582728        1275045525.1261647     
  -2588001804.0567341       -68470174.121210337        1282642006.0850623     
  -2546125828.0485163       -54804696.958068013        1295874925.4004593     
  -3242497362.3197250       -226131671.41994989        1248401539.0822737     
  -3164638723.6836619       -151776931.70048213        1231225397.6322708     
  -3092851178.5673656       -97659170.380232692        1222086574.6418812     
  -3027134726.9708347       -63778387.459202647        1220985070.1111047     
  -2967489368.8940678       -50134582.937387824        1227920884.0399404     
  -3768994288.8236418       -260772487.40442073        1224529539.5130811     
  -3661696578.2603769       -168348081.69107866        1191983084.2033823     
  -3562073305.3572721       -101505134.84494114        1169874827.4564104     
  -3470124470.1143322       -60243646.866013050        1158204769.2721636     
  -3385850072.5315533       -44563617.754292488        1156972909.6506426     
  -1694390234.7331975       -61442371.512157202        1422801209.0351527     
  -1645227610.4869912       -39544976.945055842        1416304707.7562315     
  -1597875827.2902651       -23683719.209554434        1415216425.2899852     
  -1552334885.1430228       -13858598.305666924        1419536361.6364141     
  -1508604784.0452628       -10069614.233386338        1429264516.7955172     
  -2121759449.9948912       -58573959.816323638        1360835033.7321956     
  -2060113373.6450634       -39946493.970799208        1353343155.7886140     
  -1999770932.9454865       -25664480.292777181        1350800313.4324300     
  -1940732127.8961668       -15727918.782278180        1353206506.6636453     
  -1882996958.4970975       -10136809.439284921        1360561735.4822552     
  -2546125828.0485163       -54804696.958068013        1295874925.4004593     
  -2473308251.6672873       -39840745.455786943        1287979410.4246509     
  -2401287105.5370817       -27531561.456915736        1284573747.8109629     
  -2330062389.6579032       -17877144.961466312        1285657937.5593963     
  -2259634104.0297465       -10877495.969426155        1291231979.6699491     
  -2967489368.8940678       -50134582.937387824        1227920884.0399404     
  -2884812244.5536609       -39227731.400018454        1220213471.6643395     
  -2802424345.0650492       -29284962.701968908        1216536728.4255822     
  -2720325670.4282308       -20306276.843227267        1216890654.3236685     
  -2638516220.6432099       -12291673.823813558        1221275249.3585956     
  -3385850072.5315533       -44563617.754292488        1156972909.6506426     
  -3294625352.3041887       -38107451.803502202        1150045339.5076833     
  -3203182651.5293870       -30924684.027924180        1146689255.2762899     
  -3111521970.2071557       -23015314.427578330        1146904656.9564619     
  -3019643308.3374896       -14379343.002445579        1150691544.5481997     
  -1508604784.0452628       -10069614.233386338        1429264516.7955172     
  -1461062708.4940524       -8014023.8719189763        1424200411.4664574     
  -1413606705.7704029       -6245342.9356523752        1423195803.4279089     
  -1366236775.8743143       -4763571.4245891571        1426250692.6798711     
  -1318952918.8057840       -3568709.3387220502        1433365079.2223420     
  -1882996958.4970975       -10136809.439284921        1360561735.4822552     
  -1824065228.6119373       -6662915.3926231861        1354627245.5743947     
  -1765462511.4999237       -4285730.5897797346        1353067230.0901713     
  -1707188807.1610560       -3005255.0307575464        1355881689.0295854     
  -1649244115.5953336       -2821488.7155588865        1363070622.3926344     
  -2259634104.0297465       -10877495.969426155        1291231979.6699491     
  -2188412785.1445608       -5715317.8377455473        1284143675.2467701     
  -2117763418.9781072       -2459648.7685036659        1281744822.3803554     
  -2047686005.5303855       -1110488.7617073059        1284035421.0707030     
  -1978180544.8013990       -1667837.8173520565        1291015471.3178163     
  -2638516220.6432099       -12291673.823813558        1221275249.3585956     
  -2554105378.0919237       -5171231.2072938681        1212749700.4835823     
  -2470509428.2049541       -767097.47182786465        1209228580.2984586     
  -2387728370.9823055        920727.38256847858        1210711888.8032258     
  -2305762206.4239736       -107756.64409542084        1217199625.9978807     
  -3019643308.3374896       -14379343.002445579        1150691544.5481997     
  -2921143007.4540243       -5030655.5012593269        1140445321.2848341     
  -2823700539.1804643        791923.30024850368        1135518503.8444846     
  -2727315903.5168114        3088393.4020682573        1135911092.2271528     
  -2631989100.4630623        1858754.8042033911        1141623086.4328327     
  -1318952918.8057840       -3568709.3387220502        1433365079.2223420     
  -1269578524.1700659       -2357875.8790737987        1425875565.1593251     
  -1220521039.0560412       -2203407.4917374253        1423276972.4218736     
  -1171780463.4637091       -3105304.1767101884        1425569301.0099921     
  -1123356797.3930717       -5063565.9339960217        1432752550.9236763     
  -1649244115.5953336       -2821488.7155588865        1363070622.3926344     
  -1587604807.5630972       -2340328.9234964848        1355660963.5935576     
  -1526171206.4036992       -2544858.7075589895        1352963318.4664481     
  -1464943312.1171489       -3435078.0677868128        1354977687.0113065     
  -1403921124.7034392       -5010987.0041477084        1361704069.2281301     
  -1978180544.8013990       -1667837.8173520565        1291015471.3178163     
  -1904787488.0972133       -2069701.1102410555        1283815404.2063367     
  -1831488935.6170192       -2786578.4830992222        1281148443.1132252     
  -1758284887.3608208       -3818469.9359432459        1283014588.0384803     
  -1685175343.3286123       -5165375.4687560797        1289413838.9821012     
  -2305762206.4239736       -107756.64409542084        1217199625.9978807     
  -2221126565.7724128       -1545992.4393092394        1210338886.9976594     
  -2136474226.6959968       -2928566.8183369637        1207832346.3622091     
  -2051805189.1947217       -4255479.7811632156        1209680004.0915203     
  -1967119453.2685895       -5526731.3278013468        1215881860.1856019     
  -2631989100.4630623        1858754.8042033911        1141623086.4328327     
  -2536622040.5886989       -769202.91070997715        1135231411.9675312     
  -2441127079.6406269       -2970823.7132533789        1133015028.2133944     
  -2345504217.6188507       -4746107.6034506559        1134973935.1704228     
  -2249753454.5233641       -6095054.5812827349        1141108132.8386180     
  -1123356797.3930717       -5063565.9339960217        1432752550.9236763     
  -1073341031.7685125       -7143578.3296588659        1427375249.2695673     
  -1023403552.5593358       -9484545.4432598352        1426694394.5462160     
  -973544359.76553297       -12086467.274775922        1430709986.7536230     
  -923763453.38711143       -14949343.824229479        1439422025.8917882     
  -1403921124.7034392       -5010987.0041477084        1361704069.2281301     
  -1341724075.9344525       -6770293.0884470940        1355905193.3203874     
  -1279674631.6472492       -9021614.1120185256        1354706079.1365173     
  -1217772791.8418221       -11764950.074850142        1358106726.6765165     
  -1156018556.5181792       -15000300.976961732        1366107135.9403908     
  -1685175343.3286123       -5165375.4687560797        1289413838.9821012     
  -1611073254.8634405       -6686848.2761506438        1283112517.7432575     
  -1537188088.9464545       -8931396.2441644669        1281314273.0213957     
  -1463519845.5776517       -11899019.372789621        1284019104.8165212     
  -1390068524.7570372       -15589717.662034333        1291227013.1286333     
  -1967119453.2685895       -5526731.3278013468        1215881860.1856019     
  -1881388568.5554764       -6893243.8927680254        1208997222.5381789     
  -1795943924.4569547       -9213891.8396955729        1206518976.2008605     
  -1710785520.9730225       -12488675.168593168        1208447121.1736362     
  -1625913358.1036754       -16717593.879439473        1214781657.4565148     
  -2249753454.5233641       -6095054.5812827349        1141108132.8386180     
  -2152670017.0105596       -7389479.9382997751        1133559307.7051504     
  -2055942138.1787505       -9869100.8986239433        1130320188.6748993     
  -1959569818.0279298       -13533917.462248087        1131390775.7478604     
  -1863553056.5581009       -18383929.629177451        1136771068.9240341     
  -923763453.38711143       -14949343.824229479        1439422025.8917882     
  -870977893.42629611       -17320363.841806710        1435495465.2037578     
  -818384073.12230873       -20330516.048811197        1436559184.2307243     
  -765981992.47514796       -23979800.445240527        1442613182.9726973     
  -713771651.48481560       -28268217.031091452        1453657461.4296608     
  -1156018556.5181792       -15000300.976961732        1366107135.9403908     
  -1090562605.9359958       -17602582.497016490        1361252625.6449387     
  -1025273849.9020256       -20762179.177789032        1361207657.9976494     
  -960152288.41626894       -24479091.019283473        1365972232.9985189     
  -895197921.47874260       -28753318.021519899        1375546350.6475692     
  -1390068524.7570372       -15589717.662034333        1291227013.1286333     
  -1312458575.1730058       -18578178.170409381        1285473189.1858082     
  -1234991275.0285840       -22042136.810810328        1284348170.8243108     
  -1157666624.3237720       -25981593.583242774        1287851958.0441384     
  -1080484623.0585685       -30396548.487711370        1295984550.8453007     
  -1625913358.1036754       -16717593.879439473        1214781657.4565148     
  -1536665801.1373410       -20247150.862011433        1208157155.8263535     
  -1447536348.5019984       -24170388.947896183        1205980722.7106893     
  -1358525000.1976535       -28487308.137121439        1208252358.1095150     
  -1269631756.2243197       -33197908.429687083        1214972062.0228338     
  -1863553056.5581009       -18383929.629177451        1136771068.9240341     
  -1763184283.8289838       -22609500.571792483        1129304525.5665901     
  -1662909070.3222516       -27146935.589022934        1126105313.6568003     
  -1562727416.0379162       -31996234.680903375        1127173433.1946676     
  -1462639320.9759696       -37157397.847425699        1132508884.1801960     
  -3768301631.5580006       -1130490489.4674001        800569761.10127676     
  -3779130758.6429286       -1008716042.4028101        884839669.03652143     
  -3790567560.0614734       -888967176.45027602        974045754.39458489     
  -3802612035.8136349       -771243891.60979772        1068188017.1754664     
  -3815264185.8994131       -655546187.88137519        1167266457.3791661     
  -4339853308.5220251       -1301955992.5566075        858744697.85531580     
  -4335264758.0399065       -1125740529.3278272        942340161.07041550     
  -4331814195.5407362       -953318359.37553942        1020295887.4148422     
  -4329501621.0245132       -784689482.69974422        1092611876.8885956     
  -4328327034.4912395       -619853899.30044127        1159288129.4916768     
  -4895314084.2157745       -1468594225.2647324        936388873.81277585     
  -4905524754.1480122       -1247002815.2661827        1018691193.0501777     
  -4917403725.7125311       -1030972410.7085626        1084777861.1234152     
  -4930950998.9093275       -820503011.59187138        1134648878.0324879     
  -4946166573.7384033       -615594617.91610944        1168304243.7773974     
  -5434683958.6392469       -1630405187.5917740        1033502288.9736573     
  -5489910746.9672470       -1372502900.2178769        1113892764.9758084     
  -5547336150.5768585       -1121929330.4493454        1167491675.5203035     
  -5606960169.4680777       -878684478.28617895        1194299020.6071434     
  -5668782803.6409073       -642768343.72837853        1194314800.2363276     
  -5957962931.7924452       -1787388879.5377336        1150084943.3379595     
  -6088422736.4976101       -1502240784.1829095        1227944876.8473070     
  -6221611470.1337166       -1226189118.5978875        1268437330.6055074     
  -6357529132.7007637       -959233882.78266764        1271562304.6125612     
  -6496175724.1987514       -701375076.73725080        1237319798.8684683     
  -3815264185.8994131       -655546187.88137519        1167266457.3791661     
  -3797923724.3066645       -537609471.68278253        1188956145.1814668     
  -3784431920.9297857       -432501616.20376015        1205729888.1378868     
  -3774788775.7687788       -340222621.44430685        1217587686.2484248     
  -3768994288.8236418       -260772487.40442073        1224529539.5130811     
  -4328327034.4912395       -619853899.30044127        1159288129.4916768     
  -4298161873.5324240       -464146028.67297792        1141359337.6225305     
  -4278611396.0848384       -343820436.41627991        1129495223.7049623     
  -4269675602.1484795       -258877122.53034258        1123695787.7389717     
  -4271354491.7233524       -209316087.01517272        1123961029.7245595     
  -4946166573.7384033       -615594617.91610944        1168304243.7773974     
  -4871803505.4207802       -412703630.46195197        1102863276.0588856     
  -4814821145.9097452       -267748339.02975488        1054467609.0894111     
  -4775219495.2052937       -180728743.61951447        1023117242.8689739     
  -4752998553.3074341       -151644844.23123622        1008812177.3975748     
  -5668782803.6409073       -642768343.72837853        1194314800.2363276     
  -5518848619.9717360       -383282277.04970598        1073467960.4905318     
  -5393061170.4045067       -204285324.04418564        980647044.29123223     
  -5291420454.9392252       -105777484.71182060        915852051.63843071     
  -5213926473.5758924       -87758759.052613258        879082982.53212523     
  -6496175724.1987514       -701375076.73725080        1237319798.8684683     
  -6239297217.1852884       -375881968.43623829        1053173390.9174702     
  -6013331469.5691280       -153431391.45957613        908033529.31042659     
  -5818278481.3502741       -34023345.807263374        801900214.04734242     
  -5654138252.5287237       -17657831.479301453        734773445.12821174     
  -3768994288.8236418       -260772487.40442073        1224529539.5130811     
  -3661696578.2603769       -168348081.69107866        1191983084.2033823     
  -3562073305.3572721       -101505134.84494114        1169874827.4564104     
  -3470124470.1143322       -60243646.866013050        1158204769.2721636     
  -3385850072.5315533       -44563617.754292488        1156972909.6506426     
  -4271354491.7233524       -209316087.01517272        1123961029.7245595     
  -4148168084.5896225       -145078938.86530209        1090542706.2109661     
  -4029389066.2817287       -95533086.801548481        1065413010.1650357     
  -3915017436.7996683       -60678530.823910952        1048571941.5867682     
  -3805053196.1434441       -40515270.932393789        1040019500.4761622     
  -4752998553.3074341       -151644844.23123622        1008812177.3975748     
  -4620065081.3034239       -117437443.15489244        978333542.65346861     
  -4488271949.2909203       -87031175.383575678        953993964.28196084     
  -4357619157.2699261       -60426040.917287111        935793442.28305280     
  -4228106705.2404399       -37622039.756026983        923731976.65674281     
  -5213926473.5758924       -87758759.052613258        879082982.53212523     
  -5077387568.4017801       -85423594.559847832        855355593.53088617     
  -4938721954.3848486       -75999400.591023445        835617689.80718327     
  -4797929631.5251007       -59486177.146137238        819869271.36101675     
  -4655010599.8225327       -35883924.225190639        808110338.19238424     
  -5654138252.5287237       -17657831.479301453        734773445.12821174     
  -5520135545.8846941       -49037393.080173731        721608858.84322321     
  -5380739081.5635157       -62437762.423894644        710284186.74070501     
  -5235948859.5651970       -57858939.510465145        700799428.82066035     
  -5085764879.8897276       -35300924.339883327        693154585.08308613     
  -3385850072.5315533       -44563617.754292488        1156972909.6506426     
  -3294625352.3041887       -38107451.803502202        1150045339.5076833     
  -3203182651.5293870       -30924684.027924180        1146689255.2762899     
  -3111521970.2071557       -23015314.427578330        1146904656.9564619     
  -3019643308.3374896       -14379343.002445579        1150691544.5481997     
  -3805053196.1434441       -40515270.932393789        1040019500.4761622     
  -3702333801.9050612       -30098662.519119024        1031922227.6821772     
  -3600200335.9086795       -21635148.245849371        1028181577.6476041     
  -3498652798.1543026       -15124728.112593412        1028797550.3724459     
  -3397691188.6419301       -10567402.119353771        1033770145.8567032     
  -4228106705.2404399       -37622039.756026983        923731976.65674281     
  -4111649388.8543267       -22572014.439252138        913527107.62405336     
  -3996581909.4996567       -12154779.227281809        908463998.19862556     
  -3882904267.1764235       -6370334.1201097965        908542648.38046026     
  -3770616461.8846350       -5218679.1177439690        913763058.16955757     
  -4655010599.8225327       -35883924.225190639        808110338.19238424     
  -4522572113.1519804       -15527507.563903570        794859979.33331418     
  -4392327372.3023081       -2483576.9722127914        787536516.92935526     
  -4264276377.2735143        3247867.5498857498        786139950.98050523     
  -4138419128.0655994        1666826.0023872852        790670281.48676729     
  -5085764879.8897276       -35300924.339883327        693154585.08308613     
  -4935101974.7980299       -8965141.8930735588        675920842.80995989     
  -4787436724.3166485        7378458.5193448067        665399133.83979106     
  -4642769128.4455776        13729876.897392273        661589458.17258143     
  -4501099187.1848269        10089113.241043329        664491815.80833113     
  -3019643308.3374896       -14379343.002445579        1150691544.5481997     
  -2921143007.4540243       -5030655.5012593269        1140445321.2848341     
  -2823700539.1804643        791923.30024850368        1135518503.8444846     
  -2727315903.5168114        3088393.4020682573        1135911092.2271528     
  -2631989100.4630623        1858754.8042033911        1141623086.4328327     
  -3397691188.6419301       -10567402.119353771        1033770145.8567032     
  -3287033693.6135001       -4846881.0112535954        1024145256.8951147     
  -3176941195.9738064       -1009684.5322773457        1019389919.0819691     
  -3067413695.7228441        944187.31759345531        1019504132.4172612     
  -2958451192.8606229        1014734.5383260250        1024487896.9009941     
  -3770616461.8846350       -5218679.1177439690        913763058.16955757     
  -3649087071.7814536       -3511914.1237907410        905334477.93444753     
  -3527629843.8458395       -2045689.6883938313        901325594.17320096     
  -3406244778.0777941       -820005.81155920029        901736406.88581610     
  -3284931874.4773188        165137.50671124458        906566916.07229781     
  -4138419128.0655994        1666826.0023872852        790670281.48676729     
  -4007303141.9578881       -1025754.8388757706        784012984.40282845     
  -3875766482.7965755       -2316092.1681308746        781325529.11817956     
  -3743809150.5816636       -2204185.9853882790        782607915.63281560     
  -3611431145.3131471       -690036.29064154625        787860143.94673765     
  -4501099187.1848269        10089113.241043329        664491815.80833113     
  -4361681904.1428013        2611596.8435029984        660180776.30026424     
  -4221351112.8260069       -1820891.9714703560        659389723.91690373     
  -4080106813.2344456       -3208353.2038869858        662118658.65825677     
  -3937949005.3681154       -1550786.8537428379        668367580.52432144     
  -2631989100.4630623        1858754.8042033911        1141623086.4328327     
  -2536622040.5886989       -769202.91070997715        1135231411.9675312     
  -2441127079.6406269       -2970823.7132533789        1133015028.2133944     
  -2345504217.6188507       -4746107.6034506559        1134973935.1704228     
  -2249753454.5233641       -6095054.5812827349        1141108132.8386180     
  -2958451192.8606229        1014734.5383260250        1024487896.9009941     
  -2851839179.1793323       -476501.49461400509        1018182962.7302551     
  -2745226983.3836355       -1967130.4795367718        1016090381.9270703     
  -2638614605.4735370       -3457152.4164490700        1018210154.4914421     
  -2532002045.4490271       -4946567.3053287268        1024542280.4233692     
  -3284931874.4773188        165137.50671124458        906566916.07229781     
  -3166969013.6851301       -157608.85306584835        900199716.74360144     
  -3049133689.7378426       -905478.02917599678        898081933.43884873     
  -2931425902.6354456       -2078470.0216008425        900213566.15804183     
  -2813845652.3779526       -3676584.8303518295        906594614.90117836     
  -3611431145.3131471       -690036.29064154625        787860143.94673765     
  -3482011544.1060982        187475.01392197609        781281674.00756776     
  -3352847198.7032466        214133.63782382011        778989682.74873090     
  -3223938109.1045909       -610060.41893529892        780984170.17022550     
  -3095284275.3101373       -2285107.1563569307        787265136.27205384     
  -3937949005.3681154       -1550786.8537428379        668367580.52432144     
  -3796966770.4422259        558750.10637688637        661428834.52215528     
  -3656367510.2798481        1391704.5214643478        658813629.85671294     
  -3516151224.8809633        948076.39157056808        660521966.52799153     
  -3376317914.2455831       -772134.28333711624        666553844.53599203     
  -2249753454.5233641       -6095054.5812827349        1141108132.8386180     
  -2152670017.0105596       -7389479.9382997751        1133559307.7051504     
  -2055942138.1787505       -9869100.8986239433        1130320188.6748993     
  -1959569818.0279298       -13533917.462248087        1131390775.7478604     
  -1863553056.5581009       -18383929.629177451        1136771068.9240341     
  -2532002045.4490271       -4946567.3053287268        1024542280.4233692     
  -2423858136.6360469       -6321105.7312470675        1016748738.5243603     
  -2315941571.3706007       -8453455.9822793007        1013172032.9997169     
  -2208252349.6526885       -11343618.058421731        1013812163.8494349     
  -2100790471.4823079       -14991591.959671617        1018669131.0735139     
  -2813845652.3779526       -3676584.8303518295        906594614.90117836     
  -2694906614.3472295       -5210838.9499095678        898705940.55900145     
  -2576066704.7305803       -7075521.1163794994        894941232.86233139     
  -2457325923.5280108       -9270631.3297710419        895300491.81117404     
  -2338684270.7395120       -11796169.590073466        899783717.40552735     
  -3095284275.3101373       -2285107.1563569307        787265136.27205384     
  -2965815450.1441011       -4058679.5942721367        779430913.80907202     
  -2836317538.2586870       -5735296.3009114265        775627788.26274836     
  -2706790539.6538868       -7314957.2762733698        775855759.63308537     
  -2577234454.3297081       -8797662.5203720331        780114827.92007458     
  -3376317914.2455831       -772134.28333711624        666553844.53599203     
  -3236584644.0266719       -2864627.6643476486        658923658.27457297     
  -3096694071.9549236       -4432781.5358909369        655231699.20096350     
  -2956646198.0303297       -5476595.8979593515        655477967.31515670     
  -2816441022.2528987       -5996070.7505592108        659662462.61716139     
  -1863553056.5581009       -18383929.629177451        1136771068.9240341     
  -1763184283.8289838       -22609500.571792483        1129304525.5665901     
  -1662909070.3222516       -27146935.589022934        1126105313.6568003     
  -1562727416.0379162       -31996234.680903375        1127173433.1946676     
  -1462639320.9759696       -37157397.847425699        1132508884.1801960     
  -2100790471.4823079       -14991591.959671617        1018669131.0735139     
  -1989348057.7448788       -18066196.132855296        1010671085.6987525     
  -1878087613.1689503       -21747364.177724123        1006658286.5513235     
  -1767009137.7545288       -26035096.094270110        1006630733.6312261     
  -1656112631.5016105       -30929391.882498801        1010588426.9384609     
  -2338684270.7395120       -11796169.590073466        899783717.40552735     
  -2216974173.7661247       -13961594.325533271        891151025.08448517     
  -2095534455.8933506       -17028282.729716182        886221493.77044773     
  -1974365117.1212032       -20996234.802642107        884995123.46341634     
  -1853466157.4496720       -25865450.544291377        887471914.16339576     
  -2577234454.3297081       -8797662.5203720331        780114827.92007458     
  -2446062631.8927207       -10295695.149814725        770744343.72378492     
  -2315249598.4954581       -12989691.245026946        764794935.31417418     
  -2184795354.1379328       -16879650.806027174        762266602.69124734     
  -2054699898.8201437       -21965573.832810283        763159345.85500515     
  -2816441022.2528987       -5996070.7505592108        659662462.61716139     
  -2676613432.1246643       -7068498.6056938171        649451041.61665201     
  -2537233040.9752727       -9631589.7236555815        642378611.18250000     
  -2398299848.8047423       -13685344.104446054        638445171.31470871     
  -2259813855.6130486       -19229761.748059273        637650722.01327550     
  -5957962931.7924452       -1787388879.5377336        1150084943.3379595     
  -6088422736.4976101       -1502240784.1829095        1227944876.8473070     
  -6221611470.1337166       -1226189118.5978875        1268437330.6055074     
  -6357529132.7007637       -959233882.78266764        1271562304.6125612     
  -6496175724.1987514       -701375076.73725080        1237319798.8684683     
  -6810561244.4102173       -2043168373.3230653        1353813250.0296867     
  -6828512418.3362274       -1395488176.0206957        1202775076.2374811     
  -6897824075.5623512       -919009589.71870875        1091988228.5001857     
  -7018496216.0885897       -613732614.41710615        1021452706.8178010     
  -7190528839.9149437       -479657250.11588597        991168511.19032657     
  -8337889137.2274170       -2501366741.1682248        1712363622.1728418     
  -8021563663.7855358       -1424624036.9416897        1275690527.6483798     
  -7805230228.0129433       -681188124.94611812        956887564.98488557     
  -7688888829.9096375       -271059005.18151045        755954734.18235874     
  -7672539469.4756231       -194236677.64786673        672892035.24080014     
  -10539946610.244041       -3161983983.0732126        2225736059.7674251     
  -9667576472.8455334       -1589648366.9458899        1446691231.0800035     
  -8943829927.4854889       -512724724.28011227        863135340.05960703     
  -8368706974.1639071        68786944.924118996        475068386.70623553     
  -7942207612.8807888        154886640.66680670        282490371.01988780     
  -13416733663.460093       -4025020099.0380278        2893930562.8134365     
  -11766550845.516222       -1890561166.0332983        1715777186.5323517     
  -10313623173.979990       -413619387.72069502        810731553.72434950     
  -9057950648.8513985        405805235.89978218        178793664.38942933     
  -7999533270.1304407        567712704.82813454       -180036481.47240886     
  -6496175724.1987514       -701375076.73725080        1237319798.8684683     
  -6239297217.1852884       -375881968.43623829        1053173390.9174702     
  -6013331469.5691280       -153431391.45957613        908033529.31042659     
  -5818278481.3502741       -34023345.807263374        801900214.04734242     
  -5654138252.5287237       -17657831.479301453        734773445.12821174     
  -7190528839.9149437       -479657250.11588597        991168511.19032657     
  -6900577408.1289349       -304337274.11939478        846868750.40674710     
  -6623452705.1230984       -171773060.72348070        723658492.86682820     
  -6359154730.8974361       -81964609.928144217        621537738.57056999     
  -6107683485.4519453       -34911921.733389139        540506487.51797068     
  -7672539469.4756231       -194236677.64786673        672892035.24080014     
  -7400706664.6322021       -184447299.47043657        589539290.67796099     
  -7123614557.9518194       -157126915.16981077        509359006.25848436     
  -6841263149.4344788       -112275524.74599028        432351181.98237318     
  -6553652439.0801840       -49893128.198979616        358515817.84962565     
  -7942207612.8807888        154886640.66680670        282490371.01988780     
  -7739684986.6950846       -16212044.489365101        281185011.73110920     
  -7513817028.0552921       -109492954.79857111        265135069.48539624     
  -7264603736.9614077       -124956090.26080418        234340544.28275046     
  -6992045113.4134369       -62601450.876080036        188801436.12317589     
  -7999533270.1304407        567712704.82813454       -180036481.47240886     
  -7917512374.3175869        200368490.82382441       -78194086.433808267     
  -7794060115.4335127       -28871179.609749317       -9013317.4524366502     
  -7629176493.4782133       -120006306.47257757        27505825.471707210     
  -7422861508.4516993       -73036889.764676094        31363342.338622686     
  -5654138252.5287237       -17657831.479301453        734773445.12821174     
  -5520135545.8846941       -49037393.080173731        721608858.84322321     
  -5380739081.5635157       -62437762.423894644        710284186.74070501     
  -5235948859.5651970       -57858939.510465145        700799428.82066035     
  -5085764879.8897276       -35300924.339883327        693154585.08308613     
  -6107683485.4519453       -34911921.733389139        540506487.51797068     
  -5959140018.2281723       -36626009.263153553        534071792.71170473     
  -5809564399.5372000       -34899591.902242899        530136505.53712666     
  -5658956629.3790236       -29732669.650658607        528700625.99423838     
  -5507316707.7536440       -21125242.508399725        529764154.08303946     
  -6553652439.0801840       -49893128.198979616        358515817.84962565     
  -6388683944.2789078       -21376461.558310747        353722473.94381630     
  -6227044904.2203722       -3957977.3934426308        352088031.11891311     
  -6068735318.9045773        2362324.2956292629        353612489.37491184     
  -5913755188.3315229       -2415556.4911074638        358295848.71181989     
  -6992045113.4134369       -62601450.876080036        188801436.12317589     
  -6808767324.0368929       -3288749.9656395912        180560902.53955519     
  -6633180595.6130352        30387081.102512836        176138763.48605990     
  -6465284928.1418581        38426042.328398943        175535018.96268547     
  -6305080321.6233664        20828133.711994886        178749668.96943554     
  -7422861508.4516993       -73036889.764676094        31363342.338622686     
  -7219390157.5021276        17637125.514849186        14587078.498927111     
  -7027971473.7151833        68135583.585623741        2288702.6385717075     
  -6848605457.0908651        78458484.447648048       -5531785.2424487676     
  -6681292107.6291704        48605828.100915909       -8874385.1441227458     
  -5085764879.8897276       -35300924.339883327        693154585.08308613     
  -4935101974.7980299       -8965141.8930735588        675920842.80995989     
  -4787436724.3166485        7378458.5193448067        665399133.83979106     
  -4642769128.4455776        13729876.897392273        661589458.17258143     
  -4501099187.1848269        10089113.241043329        664491815.80833113     
  -5507316707.7536440       -21125242.508399725        529764154.08303946     
  -5345379376.6092825       -9447382.0573718548        514777719.50074565     
  -5184486585.6443834       -1251322.2045497894        505134484.42426002     
  -5024638334.8589449        3462937.0500721931        500834448.85358244     
  -4865834624.2529697        4695395.7064821720        501877612.78871465     
  -5913755188.3315229       -2415556.4911074638        358295848.71181989     
  -5744454384.8406429       -6568904.1476998329        347835355.32302403     
  -5574245007.0983715       -7693670.9663209915        341349227.64288568     
  -5403127055.1047115       -5789856.9469640255        338837465.67140454     
  -5231100528.8596535       -857462.08963775635        340300069.40857822     
  -6305080321.6233664        20828133.711994886        178749668.96943554     
  -6132326999.4921141       -329708.16405916214        175093750.27679908     
  -5956711988.6786156       -11948587.765965223        174043363.49566773     
  -5778235289.1828747       -14028505.093721151        175598508.62604249     
  -5596896901.0048819       -6569460.1473145485        179759185.66792467     
  -6681292107.6291704        48605828.100915909       -8874385.1441227458     
  -6508997220.5636950        9270205.8935387135       -3447095.6379336957     
  -6331887530.3851175       -14016072.603496313        3216891.9826068031     
  -6149963037.0934401       -21253007.390197754        11117577.717501072     
  -5963223740.6886625       -12440598.466570377        20254961.566755597     
  -4501099187.1848269        10089113.241043329        664491815.80833113     
  -4361681904.1428013        2611596.8435029984        660180776.30026424     
  -4221351112.8260069       -1820891.9714703560        659389723.91690373     
  -4080106813.2344456       -3208353.2038869858        662118658.65825677     
  -3937949005.3681154       -1550786.8537428379        668367580.52432144     
  -4865834624.2529697        4695395.7064821720        501877612.78871465     
  -4715675327.3897810        2143083.0725884438        498108119.57392049     
  -4565257059.9081068        454005.83364844322        497945141.30523998     
  -4414579821.8079462       -371836.01032996178        501388677.98266780     
  -4263643613.0892920       -334442.45934867859        508438729.60621065     
  -5231100528.8596535       -857462.08963775635        340300069.40857822     
  -5069951995.8284473        1589595.7441661358        336308495.22140157     
  -4909199029.8350372        2718096.7853178978        336009963.80173373     
  -4748841630.8794165        2528041.0338459015        339404475.14957500     
  -4588879798.9615955        1019428.4897043705        346492029.26493347     
  -5596896901.0048819       -6569460.1473145485        179759185.66792467     
  -5424511909.4587994        951134.85824680328        174781903.24270409     
  -5253177022.6067944        4971380.8835499287        173584191.40638518     
  -5082892240.4488583        5491277.9286217690        176166050.15898585     
  -4913657562.9850044        2510825.9934241772        182527479.50049534     
  -5963223740.6886625       -12440598.466570377        20254961.566755597     
  -5779355068.2808428        227700.41481375694        13528343.637820806     
  -5597191038.2233839        7213858.1283221245        10667824.119199267     
  -5416731650.5162716        8517874.6740076542        11673403.010889215     
  -5237976905.1595268        4139750.0518097878        16545080.312892094     
  -3937949005.3681154       -1550786.8537428379        668367580.52432144     
  -3796966770.4422259        558750.10637688637        661428834.52215528     
  -3656367510.2798481        1391704.5214643478        658813629.85671294     
  -3516151224.8809633        948076.39157056808        660521966.52799153     
  -3376317914.2455831       -772134.28333711624        666553844.53599203     
  -4263643613.0892920       -334442.45934867859        508438729.60621065     
  -4111898165.3541751        145634.04254102707        501367022.61827111     
  -3960279878.6248188        201840.52523136139        498627198.09876674     
  -3808788752.9012251       -165823.01127314568        500219256.04769301     
  -3657424788.1833835       -957356.56698536873        506143196.46504861     
  -4588879798.9615955        1019428.4897043705        346492029.26493347     
  -4426347306.6123543       -122805.92514300346        339585810.67525679     
  -4263686161.5111399       -836197.83341336250        337019815.68572456     
  -4100896363.6579380       -1120747.2350521088        338794044.29632550     
  -3937977913.0527611       -976454.13011169434        344908496.50707024     
  -4913657562.9850044        2510825.9934241772        182527479.50049534     
  -4740314194.2167692       -246569.79672336578        176085198.69310871     
  -4566586358.9388008       -1722410.5544300079        173991482.61757272     
  -4392474057.1511297       -1916696.2797966003        176246331.27388695     
  -4217977288.8537292       -829426.97272276878        182849744.66204616     
  -5237976905.1595268        4139750.0518097878        16545080.312892094     
  -5053798828.1674061       -225657.57214689255        10865186.671830203     
  -4868980470.9078245       -2456797.6379084587        9542198.8943203408     
  -4683521833.3807716       -2553670.1454260349        12576116.980372997     
  -4497422915.5862684       -516275.09478497505        19966940.929988094     
  -3376317914.2455831       -772134.28333711624        666553844.53599203     
  -3236584644.0266719       -2864627.6643476486        658923658.27457297     
  -3096694071.9549236       -4432781.5358909369        655231699.20096350     
  -2956646198.0303297       -5476595.8979593515        655477967.31515670     
  -2816441022.2528987       -5996070.7505592108        659662462.61716139     
  -3657424788.1833835       -957356.56698536873        506143196.46504861     
  -3507055720.4178586       -2154489.5270531178        498880708.43485272     
  -3356630127.0215278       -3163203.7177438736        495654754.30940878     
  -3206148007.9943728       -3983499.1390268803        496465334.08872044     
  -3055609363.3364010       -4615375.7909350395        501312447.77278411     
  -3937977913.0527611       -976454.13011169434        344908496.50707024     
  -3776692171.4064922       -1193963.7689909935        337896134.44906443     
  -3615450680.3514442       -1558975.3785862923        335018613.01275808     
  -3454253439.8875895       -2071488.9588427544        336275932.19815868     
  -3293100450.0149517       -2731504.5098204613        341668092.00524783     
  -4217977288.8537292       -829426.97272276878        182849744.66204616     
  -4045493996.9925871        16949.609813690186        175969936.31720668     
  -3873155731.9446697        379903.48159360886        173323275.31100637     
  -3700962493.7099886        259434.64258146286        174909761.64346600     
  -3528914282.2885475       -344456.90721154213        180729395.31456447     
  -4497422915.5862684       -516275.09478497505        19966940.929988094     
  -4313461197.1761084        1478250.6094305515        13102114.039285159     
  -4129745281.8012176        2653432.8627545834        10568741.204169525     
  -3946275169.4615703        3009271.6652650833        12366822.424648875     
  -3763050860.1571951        2545767.0168681145        18496357.700720649     
  -2816441022.2528987       -5996070.7505592108        659662462.61716139     
  -2676613432.1246643       -7068498.6056938171        649451041.61665201     
  -2537233040.9752727       -9631589.7236555815        642378611.18250000     
  -2398299848.8047423       -13685344.104446054        638445171.31470871     
  -2259813855.6130486       -19229761.748059273        637650722.01327550     
  -3055609363.3364010       -4615375.7909350395        501312447.77278411     
  -2907369342.8413143       -6125220.3725235462        491468803.08583587     
  -2759310055.0193596       -8237507.1978739500        485058210.43621904     
  -2611431499.8705292       -10952236.266980052        482080669.82392114     
  -2463733677.3948255       -14269407.579835176        482536181.24894500     
  -3293100450.0149517       -2731504.5098204613        341668092.00524783     
  -3135607823.5216942       -4426713.1284856796        332503100.98854756     
  -2978029463.3958406       -5836142.9718241692        327065223.48013467     
  -2820365369.6373963       -6959794.0398483276        325354459.48000813     
  -2662615542.2463474       -7797666.3325412273        327370808.98817164     
  -3528914282.2885475       -344456.90721154213        180729395.31456447     
  -3361328874.1657944       -1972976.8735604286        172553935.32477790     
  -3193391266.1047182       -2427497.0455098152        168399650.31424811     
  -3025101458.1053176       -1708017.4230242968        168266540.28297302     
  -2856459450.1675916        185461.99383914471        172154605.23095170     
  -3763050860.1571951        2545767.0168681145        18496357.700720649     
  -3584532494.7735968        1235988.3922669888        11621306.094530612     
  -3405395463.1459637        1988430.5811493397        9061490.9385628309     
  -3225639765.2742982        4803093.5834673643        10816912.232816346     
  -3045265401.1585717        9679977.3992989063        16887569.977281231     
 </DataArray>
 <DataArray  type="Float64" Name="VM" NumberOfComponents="1" format="ascii">
   12935664213.132017     
   11340733234.212440     
   10210183466.419058     
   9272691797.0689831     
   8303824801.2574959     
   10130309862.732599     
   9322001726.3916359     
   8826339304.6530743     
   8443501392.1840563     
   8035682666.7815123     
   7982335484.3767843     
   7734952088.7388496     
   7669139942.7929955     
   7669598720.9680910     
   7666397608.3065090     
   6491655341.8308535     
   6586870608.1967592     
   6757418442.0225449     
   6961219269.3645773     
   7171612916.7505035     
   5657823852.6152096     
   5890915693.4859571     
   6116364650.5139961     
   6331710751.3189039     
   6536730921.0562315     
   8303824801.2574959     
   8020717716.5850611     
   7779680369.3609324     
   7570036717.9461899     
   7386813631.4155502     
   8035682666.7815123     
   7746915866.0671339     
   7473795208.5402727     
   7214365631.1634512     
   6968632546.5737104     
   7666397608.3065090     
   7381199719.5573788     
   7101380248.6697397     
   6827017172.9777031     
   6558312904.1853523     
   7171612916.7505035     
   6911009105.3004637     
   6658299017.6861038     
   6409623149.8312092     
   6161836350.8476086     
   6536730921.0562315     
   6328696569.0938711     
   6142852546.3737240     
   5965290993.5452614     
   5787005047.5804100     
   7386813631.4155502     
   7228269009.5263033     
   7062286881.5340071     
   6888176481.7789164     
   6705744739.2550840     
   6968632546.5737104     
   6814303899.3714886     
   6655422279.7401428     
   6491706912.7081785     
   6323104379.7905102     
   6558312904.1853523     
   6407380961.8898506     
   6254866533.0820808     
   6100738943.9692488     
   5945027251.7286997     
   6161836350.8476086     
   6012497796.6137552     
   5864523785.9425917     
   5717953424.7450609     
   5572844014.6646490     
   5787005047.5804100     
   5636112677.7502966     
   5489426302.8229580     
   5346860873.8639479     
   5208465052.5381737     
   6705744739.2550840     
   6513640008.6736193     
   6324893614.6509323     
   6139394356.3540201     
   5957116537.1724806     
   6323104379.7905102     
   6139656841.5362892     
   5958377255.8962345     
   5779242549.5506554     
   5602273616.3726501     
   5945027251.7286997     
   5772697191.2875643     
   5601690640.8476028     
   5432031348.6290751     
   5263776239.3194265     
   5572844014.6646490     
   5414578319.8897982     
   5257175833.6910267     
   5100677184.2860756     
   4945185431.4033899     
   5208465052.5381737     
   5067709040.6784496     
   4927798365.8911743     
   4788772303.3631058     
   4650812396.6881104     
   5957116537.1724806     
   5779516389.8929605     
   5600831826.2645769     
   5421033144.0659637     
   5240126140.4071712     
   5602273616.3726501     
   5433427614.4792967     
   5264257107.6063194     
   5094785359.0056162     
   4925070776.3952904     
   5263776239.3194265     
   5104094919.6365795     
   4944926088.4492550     
   4786344579.2040901     
   4628462685.9529819     
   4945185431.4033899     
   4795001511.1987295     
   4646234275.0891590     
   4499004940.9965706     
   4353476872.3912125     
   4650812396.6881104     
   4510341768.1888657     
   4372242720.4907598     
   4236672614.8994613     
   4103837646.7669363     
   5240126140.4071712     
   5053720966.5707531     
   4867780651.7754917     
   4682296360.0422554     
   4497298045.1279516     
   4925070776.3952904     
   4749992395.5769968     
   4575660394.0447836     
   4402113392.1138630     
   4229437085.3626657     
   4628462685.9529819     
   4465194578.3527822     
   4303045734.0905447     
   4142113109.3044014     
   3982550954.2452402     
   4353476872.3912125     
   4202667269.0863180     
   4053455756.5187531     
   3906007991.3249087     
   3760558301.2860293     
   4103837646.7669363     
   3966300884.1780300     
   3830955493.4946389     
   3698042959.2251229     
   3567884322.2867236     
   4497298045.1279516     
   4314260330.0487547     
   4131113214.8534474     
   3947838709.8371601     
   3764460587.9518118     
   4229437085.3626657     
   4056967728.6406479     
   3884962018.4249873     
   3713470567.2424459     
   3542599259.6966643     
   3982550954.2452402     
   3821180148.2546148     
   3660950994.7623434     
   3501993735.6547732     
   3344508039.9739103     
   3760558301.2860293     
   3610891124.2070727     
   3463145850.2156940     
   3317538661.8896842     
   3174367586.3746371     
   3567884322.2867236     
   3430562368.2508216     
   3296026826.3109326     
   3164577167.5100965     
   3036602072.5253129     
   3764460587.9518118     
   3585207002.1522307     
   3406426061.0309854     
   3228098063.5085473     
   3050256741.0495820     
   3542599259.6966643     
   3373607518.1862273     
   3205475914.0469813     
   3038258378.7863955     
   2872072372.5005922     
   3344508039.9739103     
   3185882915.9333258     
   3028568529.0787640     
   2872706958.8753066     
   2718516745.0429416     
   3174367586.3746371     
   3026491375.5303726     
   2880446776.9645662     
   2736475419.3305135     
   2594909160.3454471     
   3036602072.5253129     
   2900129205.3821082     
   2766072475.4725771     
   2634775878.5156722     
   2506684555.1765370     
   5657823852.6152096     
   5890915693.4859571     
   6116364650.5139961     
   6331710751.3189039     
   6536730921.0562315     
   5151471132.8450241     
   5311331007.7859383     
   5467819957.9421053     
   5618041503.1597815     
   5760529403.1174335     
   4643502057.4159422     
   4755542155.9210615     
   4868704649.3718472     
   4980354106.7094641     
   5088564768.3169479     
   4134180147.7737160     
   4224386814.2588439     
   4320514229.8742113     
   4420905973.1337099     
   4524107678.3321810     
   3625025876.6937633     
   3719689670.3595772     
   3825607183.5627656     
   3942716202.1914911     
   4070925284.0508733     
   6536730921.0562315     
   6328696569.0938711     
   6142852546.3737240     
   5965290993.5452614     
   5787005047.5804100     
   5760529403.1174335     
   5652107475.3022146     
   5559687393.4470263     
   5474208720.4528065     
   5390132080.8290720     
   5088564768.3169479     
   5054018688.8660088     
   5029983826.9509897     
   5011254471.5767317     
   4994630089.5170832     
   4524107678.3321810     
   4539025851.4364901     
   4558610788.7977467     
   4580382348.7516232     
   4602617126.5855522     
   4070925284.0508733     
   4112456558.2547288     
   4151332724.2443590     
   4186654097.3432541     
   4217687519.2134099     
   5787005047.5804100     
   5636112677.7502966     
   5489426302.8229580     
   5346860873.8639479     
   5208465052.5381737     
   5390132080.8290720     
   5248650550.9564257     
   5110399330.9855652     
   4975420959.1960688     
   4843810299.8243542     
   4994630089.5170832     
   4866994334.2899323     
   4742557683.4313669     
   4621288828.1379452     
   4503229284.3951321     
   4602617126.5855522     
   4493816275.2285900     
   4389245661.5563641     
   4288588956.2366142     
   4191757412.2994914     
   4217687519.2134099     
   4133085327.5287108     
   4054987313.4888620     
   3982543787.9319677     
   3915461635.6855078     
   5208465052.5381737     
   5067709040.6784496     
   4927798365.8911743     
   4788772303.3631058     
   4650812396.6881104     
   4843810299.8243542     
   4720072298.8560505     
   4598073353.1643133     
   4477941661.7939959     
   4359918842.0858040     
   4503229284.3951321     
   4395106064.5278692     
   4289540498.3092332     
   4186717098.4958143     
   4086904333.2767849     
   4191757412.2994914     
   4097723352.4849310     
   4006930468.5401726     
   3919586362.3332806     
   3835955492.8593745     
   3915461635.6855078     
   3833832477.1335740     
   3755924223.9432006     
   3681936568.5626688     
   3612105349.4431725     
   4650812396.6881104     
   4510341768.1888657     
   4372242720.4907598     
   4236672614.8994613     
   4103837646.7669363     
   4359918842.0858040     
   4230649856.4438448     
   4104144657.1429329     
   3980613669.6188560     
   3860325641.9015594     
   4086904333.2767849     
   3970129110.9156280     
   3856698533.6248617     
   3746878251.3958349     
   3641004055.0183320     
   3835955492.8593745     
   3733001833.6742034     
   3634173371.1609912     
   3539786700.4400206     
   3450240983.5151844     
   3612105349.4431725     
   3524237938.1962695     
   3441471817.3141165     
   3364159120.9340835     
   3292745379.8730998     
   4103837646.7669363     
   3966300884.1780300     
   3830955493.4946389     
   3698042959.2251229     
   3567884322.2867236     
   3860325641.9015594     
   3735807841.3360133     
   3614246392.2591896     
   3495943255.9353132     
   3381283203.2850547     
   3641004055.0183320     
   3529911059.0665622     
   3422588129.3888874     
   3319385866.2139926     
   3220735443.6421938     
   3450240983.5151844     
   3352867073.4631104     
   3260091065.9739337     
   3172291370.0217018     
   3089918217.3414912     
   3292745379.8730998     
   3209166856.1831717     
   3130978645.0742016     
   3058558160.1779647     
   2992339984.6788015     
   3567884322.2867236     
   3430562368.2508216     
   3296026826.3109326     
   3164577167.5100965     
   3036602072.5253129     
   3381283203.2850547     
   3256774203.8416772     
   3135802689.3733201     
   3018745622.4345741     
   2906076184.4917369     
   3220735443.6421938     
   3109907261.1020207     
   3003448387.2607327     
   2901800257.0573215     
   2805499630.3325419     
   3089918217.3414912     
   2993516435.1372542     
   2902349357.3231483     
   2816895972.0600367     
   2737720166.5695601     
   2992339984.6788015     
   2910842777.2223353     
   2835414650.1407232     
   2766534213.9887953     
   2704746548.5840039     
   3036602072.5253129     
   2900129205.3821082     
   2766072475.4725771     
   2634775878.5156722     
   2506684555.1765370     
   2906076184.4917369     
   2782136744.6773973     
   2661805512.0269113     
   2545562362.4030051     
   2434004433.6279621     
   2805499630.3325419     
   2695675670.0094733     
   2590759854.9375825     
   2491335573.8207817     
   2398100039.2007904     
   2737720166.5695601     
   2643153458.7056165     
   2554784736.8139687     
   2473238920.8641605     
   2399231016.1813846     
   2704746548.5840039     
   2625919126.7565150     
   2554447076.5974326     
   2490923266.7783999     
   2435995704.8670635     
   3625025876.6937633     
   3719689670.3595772     
   3825607183.5627656     
   3942716202.1914911     
   4070925284.0508733     
   3138008143.1317177     
   3255515572.8589945     
   3382441265.3274550     
   3518317482.2251129     
   3662687577.2739782     
   2694784802.2519407     
   2830526538.7029848     
   2973580420.1936870     
   3122865271.2093167     
   3277470958.8927922     
   2298844870.1636295     
   2449514836.2326851     
   2604906396.8010082     
   2763097686.5748634     
   2922659364.9504704     
   1955397130.1723099     
   2119434528.3808856     
   2284828011.9673495     
   2448617464.9169955     
   2608844627.7952156     
   4070925284.0508733     
   4112456558.2547288     
   4151332724.2443590     
   4186654097.3432541     
   4217687519.2134099     
   3662687577.2739782     
   3702164602.3539004     
   3740256390.7427087     
   3776062798.5103216     
   3808833488.6633143     
   3277470958.8927922     
   3320761976.1751738     
   3364291612.6281629     
   3407236052.2342491     
   3448916574.7671452     
   2922659364.9504704     
   2975632833.9623718     
   3030825838.4228101     
   3087556006.0271235     
   3145290273.8078055     
   2608844627.7952156     
   2676828232.4500327     
   2749315639.9536271     
   2825799021.4910746     
   2905925921.4190121     
   4217687519.2134099     
   4133085327.5287108     
   4054987313.4888620     
   3982543787.9319677     
   3915461635.6855078     
   3808833488.6633143     
   3755716079.4548078     
   3708599091.8473392     
   3667009704.9889846     
   3630854150.9139252     
   3448916574.7671452     
   3422694138.2430124     
   3401589103.7187696     
   3385373260.0590444     
   3374032615.5147429     
   3145290273.8078055     
   3141643013.7177734     
   3141637621.1576896     
   3145174831.7684646     
   3152242089.2377453     
   2905925921.4190121     
   2920869511.7159410     
   2937202474.4748750     
   2954871424.6132355     
   2973838586.6902061     
   3915461635.6855078     
   3833832477.1335740     
   3755924223.9432006     
   3681936568.5626688     
   3612105349.4431725     
   3630854150.9139252     
   3560516619.5195847     
   3494603803.5693560     
   3433338459.2755685     
   3376984868.9730744     
   3374032615.5147429     
   3316168786.1460977     
   3263620027.6687813     
   3216613815.1456628     
   3175425243.9270172     
   3152242089.2377453     
   3107729333.7123866     
   3069593428.1721320     
   3038036934.7858639     
   3013316680.7330852     
   2973838586.6902061     
   2942963521.2884660     
   2919663855.1024365     
   2904078670.3796053     
   2896409833.8422036     
   3612105349.4431725     
   3524237938.1962695     
   3441471817.3141165     
   3364159120.9340835     
   3292745379.8730998     
   3376984868.9730744     
   3304929441.6812778     
   3238552693.5734420     
   3178193811.3305545     
   3124262431.2014871     
   3175425243.9270172     
   3118292902.3066120     
   3067299848.9477816     
   3022744809.7971025     
   2984973139.7720847     
   3013316680.7330852     
   2969873684.5874043     
   2932862555.5585432     
   2902519183.7706542     
   2879104959.9750051     
   2896409833.8422036     
   2864978179.5772147     
   2840062221.0188651     
   2821823987.8373690     
   2810435719.0934644     
   3292745379.8730998     
   3209166856.1831717     
   3130978645.0742016     
   3058558160.1779647     
   2992339984.6788015     
   3124262431.2014871     
   3053642495.6955166     
   2989122090.6939006     
   2931069495.5000224     
   2879899966.2494416     
   2984973139.7720847     
   2927255257.7150869     
   2876330988.0383139     
   2832533445.5228848     
   2796230006.0731115     
   2879104959.9750051     
   2833765860.6689754     
   2795863086.6968188     
   2765670293.2616224     
   2743482934.6413550     
   2810435719.0934644     
   2776365440.3584714     
   2750298018.0346322     
   2732431866.2587638     
   2722977719.1834426     
   2992339984.6788015     
   2910842777.2223353     
   2835414650.1407232     
   2766534213.9887953     
   2704746548.5840039     
   2879899966.2494416     
   2812778757.6958666     
   2752456321.6336269     
   2699372290.2568421     
   2654011224.9254580     
   2796230006.0731115     
   2742984117.8976789     
   2697145969.9028883     
   2659084881.8648210     
   2629194563.3937201     
   2743482934.6413550     
   2703076414.2887645     
   2670541020.2431760     
   2646156331.6009035     
   2630210839.7946777     
   2722977719.1834426     
   2693816025.1456871     
   2672846574.2721024     
   2660255805.5720291     
   2656230362.5899849     
   2704746548.5840039     
   2625919126.7565150     
   2554447076.5974326     
   2490923266.7783999     
   2435995704.8670635     
   2654011224.9254580     
   2590283678.0733237     
   2534586041.0877237     
   2487432795.6402011     
   2449364953.1482697     
   2629194563.3937201     
   2579890174.6697474     
   2539117557.3567605     
   2507284765.5385985     
   2484804962.1640134     
   2630210839.7946777     
   2594121421.3970819     
   2566902715.2132301     
   2548848489.1788812     
   2540246004.5948606     
   2656230362.5899849     
   2631683607.0473833     
   2616225322.5156527     
   2610044910.8050451     
   2613322214.3253078     
   1955397130.1723099     
   2119434528.3808856     
   2284828011.9673495     
   2448617464.9169955     
   2608844627.7952156     
   1653929498.4721789     
   1820361319.7680302     
   1988490567.4231348     
   2155621103.8350124     
   2319995025.4485121     
   1393773381.0293388     
   1571131934.0360985     
   1749496143.9952493     
   1926862629.2885199     
   2101981196.8583198     
   1207241888.4441543     
   1399166651.3059795     
   1590669553.2418008     
   1780973966.4964042     
   1969621404.7421117     
   1137014003.7852390     
   1335312818.6311162     
   1533920296.8130159     
   1732836438.3309395     
   1932061243.1848857     
   2608844627.7952156     
   2676828232.4500327     
   2749315639.9536271     
   2825799021.4910746     
   2905925921.4190121     
   2319995025.4485121     
   2407084016.4953589     
   2496608597.7045112     
   2588179933.2957630     
   2681523059.0998425     
   2101981196.8583198     
   2205766571.3905730     
   2309454708.6039767     
   2412809938.1270151     
   2515665789.0950508     
   1969621404.7421117     
   2086807393.8653815     
   2201133565.0232897     
   2312525062.4308095     
   2420929854.1804585     
   1932061243.1848857     
   2058760148.2500396     
   2180027624.2261143     
   2295863671.1131101     
   2406268288.9110274     
   2905925921.4190121     
   2920869511.7159410     
   2937202474.4748750     
   2954871424.6132355     
   2973838586.6902061     
   2681523059.0998425     
   2703337950.6970472     
   2727565555.2509394     
   2754189916.5714955     
   2783204496.0669780     
   2515665789.0950508     
   2544204349.6946197     
   2576201671.6335597     
   2611660177.3006268     
   2650586336.9509091     
   2420929854.1804585     
   2454578925.3649611     
   2492729839.0064230     
   2535386191.0356078     
   2582552425.4192572     
   2406268288.9110274     
   2441868257.6832232     
   2483001163.9518814     
   2529667007.7170019     
   2581865788.9785810     
   2973838586.6902061     
   2942963521.2884660     
   2919663855.1024365     
   2904078670.3796053     
   2896409833.8422036     
   2783204496.0669780     
   2766876149.8694453     
   2757831349.9114370     
   2756155911.1640291     
   2761968489.4200778     
   2650586336.9509091     
   2645788836.8545713     
   2647703338.3259320     
   2656367351.1887321     
   2671831516.5705614     
   2582552425.4192572     
   2585862826.4533544     
   2595046413.9123731     
   2610111332.4908175     
   2631068646.8946857     
   2581865788.9785810     
   2589790014.0776806     
   2602534225.9558234     
   2620098424.6130080     
   2642482610.0492358     
   2896409833.8422036     
   2864978179.5772147     
   2840062221.0188651     
   2821823987.8373690     
   2810435719.0934644     
   2761968489.4200778     
   2738896106.5332513     
   2722952461.2225013     
   2714248064.7384238     
   2712898454.6884184     
   2671831516.5705614     
   2655295287.7289271     
   2646443437.9753690     
   2645333077.4466057     
   2652023058.0915780     
   2631068646.8946857     
   2618513546.4641075     
   2614132926.7712660     
   2617942652.0914969     
   2629958910.4273429     
   2642482610.0492358     
   2630785485.5645413     
   2627687332.7411852     
   2633188151.5791655     
   2647287942.0784850     
   2810435719.0934644     
   2776365440.3584714     
   2750298018.0346322     
   2732431866.2587638     
   2722977719.1834426     
   2712898454.6884184     
   2688755534.4118176     
   2672700470.5936661     
   2664852058.9973760     
   2665333829.5297422     
   2652023058.0915780     
   2635453849.9584846     
   2626960553.8499651     
   2626597441.6288619     
   2634419999.1528959     
   2629958910.4273429     
   2618236907.7794852     
   2614504577.4181023     
   2618775397.3626480     
   2631062992.4750133     
   2647287942.0784850     
   2637500965.1252079     
   2635567623.7126155     
   2641487917.8407068     
   2655261847.5094819     
   2722977719.1834426     
   2693816025.1456871     
   2672846574.2721024     
   2660255805.5720291     
   2656230362.5899849     
   2665333829.5297422     
   2644675942.7476096     
   2632371876.4380131     
   2628532618.7982802     
   2633267100.5246916     
   2634419999.1528959     
   2620155804.0434561     
   2614370670.9740558     
   2617115708.8907614     
   2628440291.7995534     
   2631062992.4750133     
   2620762647.7294331     
   2619059615.0565276     
   2625966896.2976217     
   2641496918.9309478     
   2655261847.5094819     
   2646306243.9589434     
   2646083586.2495255     
   2654593874.3812275     
   2671837108.3540459     
   2656230362.5899849     
   2631683607.0473833     
   2616225322.5156527     
   2610044910.8050451     
   2613322214.3253078     
   2633267100.5246916     
   2617267782.6456175     
   2610339368.6194501     
   2612588795.2833166     
   2624115345.5733585     
   2628440291.7995534     
   2618877081.2420416     
   2618370215.8282647     
   2626966906.2244058     
   2644710200.6579089     
   2641496918.9309478     
   2636086120.2211404     
   2639757491.3587108     
   2652522692.0045328     
   2674392218.9520030     
   2671837108.3540459     
   2668213595.7964888     
   2673765754.2327518     
   2688493583.6628327     
   2712397084.0867229     
   1137014003.7852390     
   1335312818.6311162     
   1533920296.8130159     
   1732836438.3309395     
   1932061243.1848857     
   1207241888.6709099     
   1399166651.2479658     
   1590669552.9023681     
   1780973965.8746076     
   1969621403.8323531     
   1393773381.2104967     
   1571131933.8648548     
   1749496143.4547992     
   1926862628.3709602     
   2101981195.5607080     
   1653929498.4482799     
   1820361319.4704404     
   1988490566.8227572     
   2155621102.9255733     
   2319995024.2435312     
   1955397129.8716855     
   2119434527.9648743     
   2284828011.4167528     
   2448617464.2440438     
   2608844627.0460033     
   1932061243.1848857     
   2058760148.2500396     
   2180027624.2261143     
   2295863671.1131101     
   2406268288.9110274     
   1969621403.8323531     
   2086807393.4054003     
   2201133564.9988308     
   2312525062.8336239     
   2420929855.0042219     
   2101981195.5607080     
   2205766570.6735191     
   2309454708.4304681     
   2412809938.4590311     
   2515665789.8936243     
   2319995024.2435312     
   2407084015.7427106     
   2496608597.3327351     
   2588179933.2143421     
   2681523059.2096438     
   2608844627.0460033     
   2676828231.8570132     
   2749315639.3969507     
   2825799020.8043413     
   2905925920.4137287     
   2406268288.9110274     
   2441868257.6832232     
   2483001163.9518814     
   2529667007.7170019     
   2581865788.9785810     
   2420929855.0042219     
   2454578924.8632846     
   2492729837.1651249     
   2535386187.8352580     
   2582552420.8385262     
   2515665789.8936243     
   2544204348.6192756     
   2576201668.7091875     
   2611660172.5518837     
   2650586330.4027157     
   2681523059.2096438     
   2703337949.0885353     
   2727565552.0409904     
   2754189911.8921247     
   2783204490.0581603     
   2905925920.4137287     
   2920869509.6941943     
   2937202471.6949458     
   2954871421.3731236     
   2973838583.3099427     
   2581865788.9785810     
   2589790014.0776806     
   2602534225.9558234     
   2620098424.6130080     
   2642482610.0492358     
   2582552420.8385262     
   2585862824.5510116     
   2595046414.4328504     
   2610111335.1791115     
   2631068651.4846954     
   2650586330.4027157     
   2645788834.0648355     
   2647703338.6279130     
   2656367353.9130430     
   2671831521.0399284     
   2783204490.0581603     
   2766876147.4452047     
   2757831349.8556595     
   2756155912.2388768     
   2761968490.3841677     
   2973838583.3099427     
   2942963520.5387163     
   2919663855.1039677     
   2904078669.1812901     
   2896409829.4753208     
   2642482610.0492358     
   2630785485.5645413     
   2627687332.7411852     
   2633188151.5791655     
   2647287942.0784850     
   2631068651.4846954     
   2618513548.4703484     
   2614132927.1982636     
   2617942651.9411101     
   2629958910.7025018     
   2671831521.0399284     
   2655295288.1801429     
   2646443436.5925159     
   2645333076.4142675     
   2652023059.5981560     
   2761968490.3841677     
   2738896102.4347329     
   2722952455.5670900     
   2714248061.0583506     
   2712898456.5428228     
   2896409829.4753208     
   2864978168.7423091     
   2840062208.6387815     
   2821823978.9201622     
   2810435718.7304916     
   2647287942.0784850     
   2637500965.1252079     
   2635567623.7126155     
   2641487917.8407068     
   2655261847.5094819     
   2629958910.7025018     
   2618236905.5269685     
   2614504571.6477246     
   2618775387.1111050     
   2631062976.8119740     
   2652023059.5981560     
   2635453848.0020709     
   2626960546.4887247     
   2626597426.9467106     
   2634419975.2707996     
   2712898456.5428228     
   2688755533.9012012     
   2672700464.8900795     
   2664852045.2574201     
   2665333804.9085975     
   2810435718.7304916     
   2776365441.0017872     
   2750298016.0813227     
   2732431858.0063848     
   2722977700.8402195     
   2655261847.5094819     
   2646306243.9589434     
   2646083586.2495255     
   2654593874.3812275     
   2671837108.3540459     
   2631062976.8119740     
   2620762643.9647112     
   2619059622.6800766     
   2625966914.7432675     
   2641496947.5635304     
   2634419975.2707996     
   2620155799.8237119     
   2614370685.1253099     
   2617115740.0510321     
   2628440338.5155663     
   2665333804.9085975     
   2644675941.8550878     
   2632371896.9186487     
   2628532658.2403865     
   2633267156.4381595     
   2722977700.8402195     
   2693816031.6058054     
   2672846601.8051004     
   2660255850.4150071     
   2656230420.9320350     
   2671837108.3540459     
   2668213595.7964888     
   2673765754.2327518     
   2688493583.6628327     
   2712397084.0867229     
   2641496947.5635304     
   2636086094.7310033     
   2639757412.7712455     
   2652522561.6033225     
   2674392038.3003974     
   2628440338.5155663     
   2618877044.0950837     
   2618370097.8153024     
   2626966710.5616102     
   2644709930.7955561     
   2633267156.4381595     
   2617267748.5766516     
   2610339250.5642285     
   2612588599.1413789     
   2624115077.1166849     
   2656230420.9320350     
   2631683591.1048017     
   2616225242.5743661     
   2610044776.5050392     
   2613322034.5210123     
   1955397129.8716855     
   2119434527.9648743     
   2284828011.4167528     
   2448617464.2440438     
   2608844627.0460033     
   2298844869.6809058     
   2449514835.7663894     
   2604906396.3575201     
   2763097686.1712804     
   2922659364.6160979     
   2694784801.7482491     
   2830526538.2765236     
   2973580419.8576941     
   3122865270.9682355     
   3277470958.7441983     
   3138008142.6976995     
   3255515572.5262756     
   3382441265.1041903     
   3518317482.0892949     
   3662687577.1774564     
   3625025876.3803864     
   3719689670.1529851     
   3825607183.4607978     
   3942716202.1363831     
   4070925283.9364839     
   2608844627.0460033     
   2676828231.8570132     
   2749315639.3969507     
   2825799020.8043413     
   2905925920.4137287     
   2922659364.6160979     
   2975632833.4912887     
   3030825837.7692161     
   3087556005.1196647     
   3145290272.5610914     
   3277470958.7441983     
   3320761975.7308364     
   3364291611.9250703     
   3407236051.3114266     
   3448916573.6659837     
   3662687577.1774564     
   3702164601.8504238     
   3740256389.9550443     
   3776062797.5918570     
   3808833487.7889299     
   4070925283.9364839     
   4112456557.6152596     
   4151332723.2833247     
   4186654096.3200159     
   4217687518.4255977     
   2905925920.4137287     
   2920869509.6941943     
   2937202471.6949458     
   2954871421.3731236     
   2973838583.3099427     
   3145290272.5610914     
   3141643012.5222421     
   3141637620.1091113     
   3145174830.9891982     
   3152242088.8545346     
   3448916573.6659837     
   3422694137.8915405     
   3401589104.0159349     
   3385373260.9148235     
   3374032616.8379045     
   3808833487.7889299     
   3755716079.8358498     
   3708599093.1720109     
   3667009706.9321194     
   3630854153.1448584     
   4217687518.4255977     
   4133085328.4500332     
   4054987315.6027770     
   3982543790.6706905     
   3915461638.4636002     
   2973838583.3099427     
   2942963520.5387163     
   2919663855.1039677     
   2904078669.1812901     
   2896409829.4753208     
   3152242088.8545346     
   3107729335.0856643     
   3069593430.4743304     
   3038036937.1392398     
   3013316682.2369246     
   3374032616.8379045     
   3316168788.4227314     
   3263620031.0802770     
   3216613819.8623624     
   3175425250.1233668     
   3630854153.1448584     
   3560516621.3152423     
   3494603806.0499306     
   3433338463.6011987     
   3376984876.3604836     
   3915461638.4636002     
   3833832477.0228229     
   3755924222.9119940     
   3681936568.6731544     
   3612105352.8795505     
   2896409829.4753208     
   2864978168.7423091     
   2840062208.6387815     
   2821823978.9201622     
   2810435718.7304916     
   3013316682.2369246     
   2969873681.4452558     
   2932862550.0932236     
   2902519178.4103303     
   2879104957.2484474     
   3175425250.1233668     
   3118292905.4923177     
   3067299848.9787369     
   3022744806.5998363     
   2984973133.3359542     
   3376984876.3604836     
   3304929448.9688330     
   3238552698.3489823     
   3178193811.1597991     
   3124262423.6090255     
   3612105352.8795505     
   3524237946.8295422     
   3441471826.7160215     
   3364159126.5166626     
   3292745376.8459172     
   2810435718.7304916     
   2776365441.0017872     
   2750298016.0813227     
   2732431858.0063848     
   2722977700.8402195     
   2879104957.2484474     
   2833765856.4745512     
   2795863079.7707090     
   2765670282.1796417     
   2743482917.8119431     
   2984973133.3359542     
   2927255249.1929922     
   2876330978.6117282     
   2832533436.2036309     
   2796229997.6867313     
   3124262423.6090255     
   3053642485.7097039     
   2989122081.9946198     
   2931069491.6555004     
   2879899970.7045689     
   3292745376.8459172     
   3209166849.4439306     
   3130978640.7775521     
   3058558164.4874339     
   2992340003.7799387     
   2722977700.8402195     
   2693816031.6058054     
   2672846601.8051004     
   2660255850.4150071     
   2656230420.9320350     
   2743482917.8119431     
   2703076422.7805982     
   2670541050.8425732     
   2646156381.1751499     
   2630210905.3007178     
   2796229997.6867313     
   2742984131.1293502     
   2697146001.5094800     
   2659084928.8182087     
   2629194622.9376822     
   2879899970.7045689     
   2812778776.3628983     
   2752456350.6665998     
   2699372326.1422062     
   2654011264.6105232     
   2992340003.7799387     
   2910842800.1011086     
   2835414671.8013434     
   2766534229.8282199     
   2704746554.6057587     
   2656230420.9320350     
   2631683591.1048017     
   2616225242.5743661     
   2610044776.5050392     
   2613322034.5210123     
   2630210905.3007178     
   2594121443.3046584     
   2566902701.8127317     
   2548848448.1342735     
   2540245942.7638421     
   2629194622.9376822     
   2579890216.9171925     
   2539117588.8971419     
   2507284792.3709469     
   2484804989.4669890     
   2654011264.6105232     
   2590283723.2099199     
   2534586096.7870612     
   2487432866.4761848     
   2449365042.8718967     
   2704746554.6057587     
   2625919158.4242973     
   2554447137.6772881     
   2490923360.5681305     
   2435995833.8560972     
   3625025876.3803864     
   3719689670.1529851     
   3825607183.4607978     
   3942716202.1363831     
   4070925283.9364839     
   4134180147.5601678     
   4224386814.1637588     
   4320514229.8834133     
   4420905973.2048264     
   4524107678.3991022     
   4643502057.2480555     
   4755542155.8907623     
   4868704649.4646873     
   4980354106.9205437     
   5088564768.6503201     
   5151471132.6834650     
   5311331007.7813330     
   5467819958.0868483     
   5618041503.4931564     
   5760529403.7173901     
   5657823852.4190702     
   5890915693.4704943     
   6116364650.6782436     
   6331710751.7390261     
   6536730921.8671770     
   4070925283.9364839     
   4112456557.6152596     
   4151332723.2833247     
   4186654096.3200159     
   4217687518.4255977     
   4524107678.3991022     
   4539025850.9465885     
   4558610787.8238459     
   4580382347.3893852     
   4602617124.9415112     
   5088564768.6503201     
   5054018688.6754055     
   5029983826.1634960     
   5011254470.1152983     
   4994630087.3111496     
   5760529403.7173901     
   5652107475.5269871     
   5559687393.0995302     
   5474208719.2959690     
   5390132078.6290703     
   6536730921.8671770     
   6328696569.8259735     
   6142852546.7544661     
   5965290993.2120790     
   5787005046.1611004     
   4217687518.4255977     
   4133085328.4500332     
   4054987315.6027770     
   3982543790.6706905     
   3915461638.4636002     
   4602617124.9415112     
   4493816275.1466436     
   4389245662.9135075     
   4288588958.8980813     
   4191757416.1225381     
   4994630087.3111496     
   4866994333.2840605     
   4742557683.8612814     
   4621288830.2493649     
   4503229288.4453278     
   5390132078.6290703     
   5248650549.1750755     
   5110399330.1845016     
   4975420959.9498787     
   4843810302.7396383     
   5787005046.1611004     
   5636112675.3928089     
   5489426300.3891010     
   5346860872.2150211     
   5208465052.5859070     
   3915461638.4636002     
   3833832477.0228229     
   3755924222.9119940     
   3681936568.6731544     
   3612105352.8795505     
   4191757416.1225381     
   4097723351.6345634     
   4006930463.6062999     
   3919586353.9483347     
   3835955481.7135935     
   4503229288.4453278     
   4395106063.8418665     
   4289540492.3247161     
   4186717086.6269326     
   4086904314.9164410     
   4843810302.7396383     
   4720072299.2019005     
   4598073349.4591045     
   4477941652.4636555     
   4359918825.4529104     
   5208465052.5859070     
   5067709042.8711977     
   4927798368.0559044     
   4788772303.1752892     
   4650812391.6493702     
   3612105352.8795505     
   3524237946.8295422     
   3441471826.7160215     
   3364159126.5166626     
   3292745376.8459172     
   3835955481.7135935     
   3733001829.0479450     
   3634173371.6390910     
   3539786704.4999619     
   3450240989.4846244     
   4086904314.9164410     
   3970129098.8288455     
   3856698529.0760179     
   3746878255.6400447     
   3641004069.2970181     
   4359918825.4529104     
   4230649842.7861567     
   4104144650.0350561     
   3980613672.7377348     
   3860325659.0857482     
   4650812391.6493702     
   4510341758.6971531     
   4372242712.0502434     
   4236672613.2185631     
   4103837657.8952494     
   3292745376.8459172     
   3209166849.4439306     
   3130978640.7775521     
   3058558164.4874339     
   2992340003.7799387     
   3450240989.4846244     
   3352867080.8887019     
   3260091077.4028659     
   3172291388.1593800     
   3089918245.0797095     
   3641004069.2970181     
   3529911076.2459946     
   3422588148.1312470     
   3319385885.3567228     
   3220735462.2423248     
   3860325659.0857482     
   3735807861.8978686     
   3614246410.8801508     
   3495943267.3667006     
   3381283202.3976951     
   4103837657.8952494     
   3966300900.4667125     
   3830955505.7351756     
   3698042958.0852981     
   3567884298.3526101     
   2992340003.7799387     
   2910842800.1011086     
   2835414671.8013434     
   2766534229.8282199     
   2704746554.6057587     
   3089918245.0797095     
   2993516452.4732194     
   2902349361.8356490     
   2816895961.3186684     
   2737720138.2108650     
   3220735462.2423248     
   3109907264.1046257     
   3003448375.8981881     
   2901800232.3154359     
   2805499592.9193163     
   3381283202.3976951     
   3256774187.8658648     
   3135802664.0316796     
   3018745593.1684341     
   2906076156.3846202     
   3567884298.3526101     
   3430562332.3929667     
   3296026789.2481990     
   3164577139.8240261     
   3036602064.6139340     
   2704746554.6057587     
   2625919158.4242973     
   2554447137.6772881     
   2490923360.5681305     
   2435995833.8560972     
   2737720138.2108650     
   2643153468.9667158     
   2554784784.0773997     
   2473239003.4342761     
   2399231132.0308428     
   2805499592.9193163     
   2695675679.2583899     
   2590759902.6398263     
   2491335651.7454185     
   2398100138.9430351     
   2906076156.3846202     
   2782136771.5214620     
   2661805578.4033189     
   2545562452.6121759     
   2434004531.5921311     
   3036602064.6139340     
   2900129265.5260420     
   2766072581.1821222     
   2634776006.6177878     
   2506684681.7203302     
   5657823852.4190702     
   5890915693.4704943     
   6116364650.6782436     
   6331710751.7390261     
   6536730921.8671770     
   6491655341.6150465     
   6586870608.2054768     
   6757418442.2245960     
   6961219269.7880688     
   7171612917.4496346     
   7982335484.2258854     
   7734952088.8306055     
   7669139943.0529232     
   7669598721.3289595     
   7666397608.7340670     
   10130309862.744328     
   9322001726.5991821     
   8826339304.9935722     
   8443501392.4954443     
   8035682666.9146729     
   12935664213.412989     
   11340733234.558384     
   10210183466.861153     
   9272691797.4024277     
   8303824801.2153053     
   6536730921.8671770     
   6328696569.8259735     
   6142852546.7544661     
   5965290993.2120790     
   5787005046.1611004     
   7171612917.4496346     
   6911009106.1294718     
   6658299018.5610809     
   6409623150.6374416     
   6161836351.4517469     
   7666397608.7340670     
   7381199720.2018843     
   7101380249.5820522     
   6827017174.2074623     
   6558312905.7810059     
   8035682666.9146729     
   7746915866.2520990     
   7473795208.9443607     
   7214365631.9448080     
   6968632547.9118462     
   8303824801.2153053     
   8020717716.0505867     
   7779680368.6395845     
   7570036717.2906523     
   7386813631.1211367     
   5787005046.1611004     
   5636112675.3928089     
   5489426300.3891010     
   5346860872.2150211     
   5208465052.5859070     
   6161836351.4517469     
   6012497795.6923885     
   5864523783.7969990     
   5717953421.6875820     
   5572844011.0239553     
   6558312905.7810059     
   6407380962.7625217     
   6254866533.0904274     
   6100738942.9731607     
   5945027249.5852823     
   6968632547.9118462     
   6814303902.3823671     
   6655422283.9312696     
   6491706917.5793762     
   6323104384.8532047     
   7386813631.1211367     
   7228269015.0105066     
   7062286892.0321360     
   6888176496.5311213     
   6705744757.5794077     
   5208465052.5859070     
   5067709042.8711977     
   4927798368.0559044     
   4788772303.1752892     
   4650812391.6493702     
   5572844011.0239553     
   5414578320.9016666     
   5257175838.9285116     
   5100677193.2553720     
   4945185443.5378399     
   5945027249.5852823     
   5772697191.3499689     
   5601690643.9396467     
   5432031355.5575609     
   5263776250.9062681     
   6323104384.8532047     
   6139656840.8412695     
   5958377251.0604343     
   5779242542.2040834     
   5602273608.2452164     
   6705744757.5794077     
   6513640007.3862944     
   6324893595.7513781     
   6139394321.8907862     
   5957116489.4001417     
   4650812391.6493702     
   4510341758.6971531     
   4372242712.0502434     
   4236672613.2185631     
   4103837657.8952494     
   4945185443.5378399     
   4795001518.9240685     
   4646234278.8270912     
   4499004941.1903620     
   4353476869.4830408     
   5263776250.9062681     
   5104094939.6351776     
   4944926113.5033169     
   4786344605.8475266     
   4628462710.4890394     
   5602273608.2452164     
   5433427642.2887383     
   5264257165.4335604     
   5094785440.8019867     
   4925070875.8328791     
   5957116489.4001417     
   5779516421.5444613     
   5600831929.9545517     
   5421033312.4090919     
   5240126365.9121103     
   4103837657.8952494     
   3966300900.4667125     
   3830955505.7351756     
   3698042958.0852981     
   3567884298.3526101     
   4353476869.4830408     
   4202667254.2460427     
   4053455729.4736118     
   3906007951.7669387     
   3760558248.9963126     
   4628462710.4890394     
   4465194562.4570112     
   4303045684.9134579     
   4142113034.0236297     
   3982550860.3462758     
   4925070875.8328791     
   4749992409.8864355     
   4575660336.1560917     
   4402113274.9678764     
   4229436922.3893361     
   5240126365.9121103     
   5053721042.4971170     
   4867780595.1887026     
   4682296187.9038744     
   4497297774.9898596     
   3567884298.3526101     
   3430562332.3929667     
   3296026789.2481990     
   3164577139.8240261     
   3036602064.6139340     
   3760558248.9963126     
   3610891086.2646766     
   3463145826.7012076     
   3317538652.8958049     
   3174367591.8829093     
   3982550860.3462758     
   3821180098.1529431     
   3660950978.5108800     
   3501993743.2707105     
   3344508061.2189555     
   4229436922.3893361     
   4056967648.9956813     
   3884962003.2715163     
   3713470597.5933990     
   3542599316.1072378     
   4497297774.9898596     
   4314260198.1787310     
   4131113195.0096498     
   3947838775.5538278     
   3764460712.1826463     
   3036602064.6139340     
   2900129265.5260420     
   2766072581.1821222     
   2634776006.6177878     
   2506684681.7203302     
   3174367591.8829093     
   3026491448.7420578     
   2880446910.1775074     
   2736475604.1060028     
   2594909387.1952715     
   3344508061.2189555     
   3185883004.5848222     
   3028568691.7958713     
   2872707201.8922763     
   2718517073.9898763     
   3542599316.1072378     
   3373607631.3930573     
   3205476103.4813623     
   3038258663.9214873     
   2872072773.0716567     
   3764460712.1826463     
   3585207154.2069097     
   3406426270.8306489     
   3228098361.4903564     
   3050257158.9577856     
 </DataArray>
 <DataArray  type="Float64" Name="strain" NumberOfComponents="3" format="ascii">
  0.20348712722157680        0.0000000000000000       0.12540365773017267     
  0.18665637492194997       -2.7323401446884676E-002   7.4350344756942105E-002
  0.16982562262232315       -4.4674459392211929E-002   3.5131700667630932E-002
  0.15299487032269629       -5.2053173835981723E-002   7.7477254622390947E-003
  0.13616411802306946       -4.9459544778194101E-002  -7.8015808592333397E-003
  0.15985585691532106        0.0000000000000000        9.6448562613070415E-002
  0.15317803270690089       -2.1843742907467066E-002   6.2689953360557410E-002
  0.14650020849848072       -3.6173737556786018E-002   3.7402531406538382E-002
  0.13982238429006053       -4.2989983947956861E-002   2.0586296751013273E-002
  0.13314456008164038       -4.2292482080979604E-002   1.2241249393982190E-002
  0.12645798524264279        0.0000000000000000        7.4202423657090427E-002
  0.12656960754000388       -1.6364084368049453E-002   5.5279922881885657E-002
  0.12668122983736496       -2.7673015721360134E-002   4.1465127819749439E-002
  0.12679285213472608       -3.3926794059932014E-002   3.2758038470681795E-002
  0.12690447443208713       -3.5125419383765129E-002   2.9158654834682610E-002
  0.10329351220354201        0.0000000000000000        5.8665240862232716E-002
  0.10683109942125894       -1.0884425828631843E-002   5.2120253320926853E-002
  0.11036868663897587       -1.9172293885934232E-002   4.7319489907264110E-002
  0.11390627385669282       -2.4863604171907163E-002   4.4262950621244523E-002
  0.11744386107440974       -2.7958356686550632E-002   4.2950635462868085E-002
   9.0362437798018724E-002   0.0000000000000000        4.9837014228497276E-002
   9.3962508350666107E-002  -5.4047672892142346E-003   5.3210944677680991E-002
   9.7562578903313463E-002  -1.0671572050508341E-002   5.4965617669082416E-002
  0.10116264945596083       -1.5800414283882309E-002   5.5101033202701592E-002
  0.10476272000860820       -2.0791293989336150E-002   5.3617191278538472E-002
  0.13616411802306946       -4.9459544778194101E-002  -7.8015808592333397E-003
  0.13296038202847682       -4.2927036747162792E-002  -3.3884103972778301E-003
  0.12975664603388415       -3.8489114271201608E-002  -3.9057707675559800E-004
  0.12655291003929148       -3.6145777350310597E-002   1.1919191023333393E-003
  0.12334917404469883       -3.5897025984489683E-002   1.3590781399890062E-003
  0.13314456008164038       -4.2292482080979604E-002   1.2241249393982190E-002
  0.12891368954890303       -3.8428224205157416E-002   1.2184683853337912E-002
  0.12468281901616571       -3.5744202569793493E-002   1.1489186377837544E-002
  0.12045194848342837       -3.4240417174887884E-002   1.0154756967481096E-002
  0.11622107795069103       -3.3916868020440513E-002   8.1813956222685918E-003
  0.12690447443208713       -3.5125419383765129E-002   2.9158654834682610E-002
  0.12242287456778229       -3.3929411663152075E-002   2.5546702606050454E-002
  0.11794127470347748       -3.2999290868385434E-002   2.2072223649139369E-002
  0.11345967483917264       -3.2335056999465227E-002   1.8735217963949356E-002
  0.10897807497486783       -3.1936710056391454E-002   1.5535685550480349E-002
  0.11744386107440974       -2.7958356686550632E-002   4.2950635462868085E-002
  0.11348793708511458       -2.9430599121146674E-002   3.6697645860859822E-002
  0.10953201309581947       -3.0254379166977312E-002   3.1358534737149814E-002
  0.10557608910652432       -3.0429696824042538E-002   2.6933302091738047E-002
  0.10162016511722916       -2.9956552092342326E-002   2.3421947924624684E-002
  0.10476272000860820       -2.0791293989336150E-002   5.3617191278538472E-002
  0.10210887710089993       -2.4931786579141323E-002   4.5637513617765940E-002
   9.9455034193191655E-002  -2.7509467465569211E-002   3.9348119641868906E-002
   9.6801191285483409E-002  -2.8524336648619870E-002   3.4749009350847335E-002
   9.4147348377775136E-002  -2.7976394128293239E-002   3.1840182744701254E-002
  0.12334917404469883       -3.5897025984489683E-002   1.3590781399890062E-003
  0.12041135484492785       -3.6390902781098119E-002   6.3210665138309363E-004
  0.11747353564515685       -3.6275450347495478E-002   9.9177061001626265E-005
  0.11453571644538585       -3.5550668683681466E-002  -2.3971063115527103E-004
  0.11159789724561486       -3.4216557789656210E-002  -3.8455642508772314E-004
  0.11622107795069103       -3.3916868020440513E-002   8.1813956222685918E-003
  0.11346301160980250       -3.3989024071028204E-002   7.8243057428050711E-003
  0.11070494526891403       -3.3672354291227502E-002   7.6326796828820875E-003
  0.10794687892802550       -3.2966858681038325E-002   7.6065174424994157E-003
  0.10518881258713703       -3.1872537240460852E-002   7.7458190216573297E-003
  0.10897807497486783       -3.1936710056391454E-002   1.5535685550480349E-002
  0.10637118341417778       -3.1587145360958156E-002   1.5327973880336413E-002
  0.10376429185348773       -3.1069258234959492E-002   1.5257147951048815E-002
  0.10115740029279770       -3.0383048678395343E-002   1.5323207762617783E-002
   9.8550508732107689E-002  -2.9528516691265744E-002   1.5526153315043145E-002
  0.10162016511722916       -2.9956552092342326E-002   2.3421947924624684E-002
   9.9135870258053621E-002  -2.9185266650888175E-002   2.3143111063977276E-002
   9.6651575398878031E-002  -2.8466162178691485E-002   2.2972581865502197E-002
   9.4167280539702483E-002  -2.7799238675752253E-002   2.2910360329199603E-002
   9.1682985680526879E-002  -2.7184496142070511E-002   2.2956446455069571E-002
   9.4147348377775136E-002  -2.7976394128293239E-002   3.1840182744701254E-002
   9.1757072141430043E-002  -2.6783387940818179E-002   3.1269717293727475E-002
   8.9366795905084923E-002  -2.5863066122423523E-002   3.0778981426242170E-002
   8.6976519668739802E-002  -2.5215428673109223E-002   3.0367975142245287E-002
   8.4586243432394681E-002  -2.4840475592875305E-002   3.0036698441736676E-002
  0.11159789724561486       -3.4216557789656210E-002  -3.8455642508772314E-004
  0.10852963801698262       -3.2699489725170117E-002  -1.4937370026074648E-004
  0.10546137878835043       -3.1425836549974051E-002   1.3939897702480719E-004
  0.10239311955971825       -3.0395598264067999E-002   4.8176160676911828E-004
   9.9324860331086007E-002  -2.9608774867451892E-002   8.7771418897214515E-004
  0.10518881258713703       -3.1872537240460852E-002   7.7458190216573297E-003
  0.10220380142781021       -3.0656139967452159E-002   7.5873961393718575E-003
   9.9218790268483431E-002  -2.9584416859968890E-002   7.5418794432383779E-003
   9.6233779109156620E-002  -2.8657367918011368E-002   7.6092689332570851E-003
   9.3248767949829836E-002  -2.7874993141579263E-002   7.7895646094281179E-003
   9.8550508732107689E-002  -2.9528516691265744E-002   1.5526153315043145E-002
   9.5708061875779779E-002  -2.8612790209734063E-002   1.5072865549409301E-002
   9.2865615019451869E-002  -2.7742997169963618E-002   1.4791800203621253E-002
   9.0023168163123987E-002  -2.6919137571954514E-002   1.4682957277678751E-002
   8.7180721306796105E-002  -2.6141211415706772E-002   1.4746336771581950E-002
   9.1682985680526879E-002  -2.7184496142070511E-002   2.2956446455069571E-002
   8.9042419360891342E-002  -2.6569440452016035E-002   2.2307034529852037E-002
   8.6401853041255805E-002  -2.5901577479958457E-002   2.1889161258173494E-002
   8.3761286721620282E-002  -2.5180907225897785E-002   2.1702826640034166E-002
   8.1120720401984717E-002  -2.4407429689834240E-002   2.1748030675433839E-002
   8.4586243432394681E-002  -2.4840475592875305E-002   3.0036698441736676E-002
   8.2206873883144946E-002  -2.4526090694297981E-002   2.9289903080699647E-002
   7.9827504333895183E-002  -2.4060157789953213E-002   2.8833962606895094E-002
   7.7448134784645448E-002  -2.3442676879841105E-002   2.8668877020323044E-002
   7.5068765235395685E-002  -2.2673647963961679E-002   2.8794646320983469E-002
   9.9324860331086007E-002  -2.9608774867451892E-002   8.7771418897214515E-004
   9.6323722583845028E-002  -2.8900569617439559E-002   5.8622711844552589E-004
   9.3322584836604050E-002  -2.8106185771345868E-002   4.6227189695777215E-004
   9.0321447089363072E-002  -2.7225623329170234E-002   5.0584852450838436E-004
   8.7320309342122093E-002  -2.6258882290913110E-002   7.1695700109764005E-004
   9.3248767949829836E-002  -2.7874993141579263E-002   7.7895646094281179E-003
   9.0413287143337018E-002  -2.7138411305276389E-002   7.5738818095079652E-003
   8.7577806336844199E-002  -2.6348741183706031E-002   7.5219810420453781E-003
   8.4742325530351395E-002  -2.5505982776868365E-002   7.6338623070404468E-003
   8.1906844723858563E-002  -2.4610136084763368E-002   7.9095256044931506E-003
   8.7180721306796105E-002  -2.6141211415706772E-002   1.4746336771581950E-002
   8.4507147624470411E-002  -2.5376252993112955E-002   1.4573367931453862E-002
   8.1833573942144716E-002  -2.4591296596066313E-002   1.4560431307202422E-002
   7.9160000259819036E-002  -2.3786342224566499E-002   1.4707526898827410E-002
   7.6486426577493355E-002  -2.2961389878613847E-002   1.5014654706329206E-002
   8.1120720401984717E-002  -2.4407429689834240E-002   2.1748030675433839E-002
   7.8605304027245138E-002  -2.3614094680949681E-002   2.1584685484283321E-002
   7.6089887652505572E-002  -2.2833852008426647E-002   2.1577622692428418E-002
   7.3574471277766021E-002  -2.2066701672264797E-002   2.1726842299869209E-002
   7.1059054903026470E-002  -2.1312643672464437E-002   2.2032344306605674E-002
   7.5068765235395685E-002  -2.2673647963961679E-002   2.8794646320983469E-002
   7.2707756351661240E-002  -2.1851936368786420E-002   2.8607834467996557E-002
   7.0346747467926796E-002  -2.1076407420786820E-002   2.8573555197723990E-002
   6.7985738584192323E-002  -2.0347061119963039E-002   2.8691808510166054E-002
   6.5624729700457907E-002  -1.9663897466314861E-002   2.8962594405322950E-002
   8.7320309342122093E-002  -2.6258882290913110E-002   7.1695700109764005E-004
   8.4228850111604081E-002  -2.5265236167294425E-002   4.7082956534549858E-004
   8.1137390881086124E-002  -2.4303958469035297E-002   4.1350007244062015E-004
   7.8045931650568140E-002  -2.3375049196134888E-002   5.4496852238386517E-004
   7.4954472420050156E-002  -2.2478508348593773E-002   8.6523491517509488E-004
   8.1906844723858563E-002  -2.4610136084763368E-002   7.9095256044931506E-003
   7.9004002888180103E-002  -2.3697463300346527E-002   7.6303618296293674E-003
   7.6101161052501559E-002  -2.2804226616573053E-002   7.5396349015966480E-003
   7.3198319216823071E-002  -2.1930426033443320E-002   7.6373448203949784E-003
   7.0295477381144500E-002  -2.1076061550957204E-002   7.9234915860245114E-003
   7.6486426577493355E-002  -2.2961389878613847E-002   1.5014654706329206E-002
   7.3771841040637581E-002  -2.2129690433398713E-002   1.4715386917069695E-002
   7.1057255503781822E-002  -2.1304494764111490E-002   1.4604194878624133E-002
   6.8342669966926062E-002  -2.0485802870752089E-002   1.4681078590993539E-002
   6.5628084430070288E-002  -1.9673614753320467E-002   1.4946038054176797E-002
   7.1059054903026470E-002  -2.1312643672464437E-002   2.2032344306605674E-002
   6.8532364568976711E-002  -2.0561917566450746E-002   2.1725904827665940E-002
   6.6005674234926981E-002  -1.9804762911649586E-002   2.1607180003523779E-002
   6.3478983900877264E-002  -1.9041179708060581E-002   2.1676169834179200E-002
   6.0952293566827492E-002  -1.8271167955683815E-002   2.1932874319632416E-002
   6.5624729700457907E-002  -1.9663897466314861E-002   2.8962594405322950E-002
   6.3285573473197410E-002  -1.8994144699502891E-002   2.8661915561418505E-002
   6.0946417245936968E-002  -1.8305031059187599E-002   2.8548590276295027E-002
   5.8607261018676540E-002  -1.7596556545369020E-002   2.8622618549952517E-002
   5.6268104791416029E-002  -1.6868721158047106E-002   2.8884000382391029E-002
   7.4954472420050156E-002  -2.2478508348593773E-002   8.6523491517509488E-004
   7.1898414533972166E-002  -2.1591939345226907E-002   5.6775913752904472E-004
   6.8842356647894287E-002  -2.0692945604848162E-002   4.5798062776031268E-004
   6.5786298761816409E-002  -1.9781527127459293E-002   5.3589938586784402E-004
   6.2730240875738419E-002  -1.8857683913057199E-002   8.0151541185280450E-004
   7.0295477381144500E-002  -2.1076061550957204E-002   7.9234915860245114E-003
   6.7424986668842446E-002  -2.0227749796927763E-002   7.6253654924794967E-003
   6.4554495956540336E-002  -1.9372107399168198E-002   7.5106764786096458E-003
   6.1684005244238227E-002  -1.8509134357678265E-002   7.5794245444146396E-003
   5.8813514531936173E-002  -1.7638830672458194E-002   7.8316096898940479E-003
   6.5628084430070288E-002  -1.9673614753320467E-002   1.4946038054176797E-002
   6.2938900703341932E-002  -1.8863560248628702E-002   1.4642167551452062E-002
   6.0249716976613604E-002  -1.8051269193487665E-002   1.4517473940199685E-002
   5.7560533249885276E-002  -1.7236741587898344E-002   1.4571957220420075E-002
   5.4871349523156920E-002  -1.6419977431859301E-002   1.4805617392113224E-002
   6.0952293566827492E-002  -1.8271167955683815E-002   2.1932874319632416E-002
   5.8440156637470798E-002  -1.7499370700329434E-002   2.1618165314446096E-002
   5.5928019708114077E-002  -1.6730430987807528E-002   2.1478373012530440E-002
   5.3415882778757327E-002  -1.5964348818117646E-002   2.1513497413885377E-002
   5.0903745849400675E-002  -1.5201124191260351E-002   2.1723538518510735E-002
   5.6268104791416029E-002  -1.6868721158047106E-002   2.8884000382391029E-002
   5.3928754471228912E-002  -1.6135181152030359E-002   2.8553358781461979E-002
   5.1589404151041712E-002  -1.5409592782127043E-002   2.8393373695601715E-002
   4.9250053830854526E-002  -1.4691956048337392E-002   2.8404045124809416E-002
   4.6910703510667340E-002  -1.3982270950661291E-002   2.8585373069086151E-002
   6.2730240875738419E-002  -1.8857683913057199E-002   8.0151541185280450E-004
   5.9748384656786113E-002  -1.7943265678597831E-002   5.0359425011703429E-004
   5.6766528437833808E-002  -1.7060122141032863E-002   3.9266630576861861E-004
   5.3784672218881502E-002  -1.6208253300362560E-002   4.6873157880772398E-004
   5.0802815999929196E-002  -1.5387659156586242E-002   7.3179006923496104E-004
   5.8813514531936173E-002  -1.7638830672458194E-002   7.8316096898940479E-003
   5.6012280313394835E-002  -1.6773763769146854E-002   7.4773391939843004E-003
   5.3211046094853387E-002  -1.5926501073382060E-002   7.2973194815081355E-003
   5.0409811876312105E-002  -1.5097042585164158E-002   7.2915505524667745E-003
   4.7608577657770712E-002  -1.4285388304492663E-002   7.4600324068596624E-003
   5.4871349523156920E-002  -1.6419977431859301E-002   1.4805617392113224E-002
   5.2237994871073279E-002  -1.5604261859695767E-002   1.4408468051376633E-002
   4.9604640218989665E-002  -1.4792880005731174E-002   1.4172827060121046E-002
   4.6971285566906051E-002  -1.3985831869965874E-002   1.4098694418346505E-002
   4.4337930914822354E-002  -1.3183117452399307E-002   1.4186070126053663E-002
   5.0903745849400675E-002  -1.5201124191260351E-002   2.1723538518510735E-002
   4.8425528329821541E-002  -1.4434759950244846E-002   2.1296980822295350E-002
   4.5947310810242392E-002  -1.3659258938080551E-002   2.1019189041607801E-002
   4.3469093290663327E-002  -1.2874621154767531E-002   2.0890163176448363E-002
   4.0990875771084151E-002  -1.2080846600305839E-002   2.0909903226816601E-002
   4.6910703510667340E-002  -1.3982270950661291E-002   2.8585373069086151E-002
   4.4574880689639551E-002  -1.3265258040794037E-002   2.8142877506739772E-002
   4.2239057868611790E-002  -1.2525637870429818E-002   2.7836405425968103E-002
   3.9903235047584029E-002  -1.1763410439569272E-002   2.7665956826770921E-002
   3.7567412226556240E-002  -1.0978575748212371E-002   2.7631531709148671E-002
   9.0362437798018724E-002   0.0000000000000000        4.9837014228497276E-002
   9.3962508350666107E-002  -5.4047672892142346E-003   5.3210944677680991E-002
   9.7562578903313463E-002  -1.0671572050508341E-002   5.4965617669082416E-002
  0.10116264945596083       -1.5800414283882309E-002   5.5101033202701592E-002
  0.10476272000860820       -2.0791293989336150E-002   5.3617191278538472E-002
   8.2426040040765897E-002   0.0000000000000000        4.4785099194935653E-002
   8.4635997945844393E-002  -4.5745054028468162E-003   4.8268686492358381E-002
   8.6845955850922904E-002  -9.0378585834893499E-003   5.0591305952425683E-002
   8.9055913756001401E-002  -1.3390059541927599E-002   5.1752957575137551E-002
   9.1265871661079898E-002  -1.7631108278161573E-002   5.1753641360493950E-002
   7.4245596946476491E-002   0.0000000000000000        4.0576851200599368E-002
   7.5523731824412965E-002  -3.7442435164793957E-003   4.4143285040545301E-002
   7.6801866702349425E-002  -7.4041451164703603E-003   4.7007040663562608E-002
   7.8080001580285885E-002  -1.0979704799972892E-002   4.9168118069651302E-002
   7.9358136458222373E-002  -1.4470922566986989E-002   5.0626517258811378E-002
   6.5821108515150495E-002   0.0000000000000000        3.7212270245488427E-002
   6.6625709986371753E-002  -2.9139816301119769E-003   4.0834740322241686E-002
   6.7430311457593012E-002  -5.7704316494513680E-003   4.4212821802493162E-002
   6.8234912928814284E-002  -8.5693500580181839E-003   4.7346514686242853E-002
   6.9039514400035529E-002  -1.1310736855812405E-002   5.0235818973490762E-002
   5.7152574746787900E-002   0.0000000000000000        3.4691356329602831E-002
   5.7941932431720793E-002  -2.0837197437445568E-003   3.8343052337447586E-002
   5.8731290116653678E-002  -4.1367181824323810E-003   4.2208649369217366E-002
   5.9520647801586578E-002  -6.1589953160634727E-003   4.6288147424912211E-002
   6.0310005486519463E-002  -8.1505511446378250E-003   5.0581546504532074E-002
  0.10476272000860820       -2.0791293989336150E-002   5.3617191278538472E-002
  0.10210887710089993       -2.4931786579141323E-002   4.5637513617765940E-002
   9.9455034193191655E-002  -2.7509467465569211E-002   3.9348119641868906E-002
   9.6801191285483409E-002  -2.8524336648619870E-002   3.4749009350847335E-002
   9.4147348377775136E-002  -2.7976394128293239E-002   3.1840182744701254E-002
   9.1265871661079898E-002  -1.7631108278161573E-002   5.1753641360493950E-002
   9.0064398942155566E-002  -2.1206205130993229E-002   4.6516944972289427E-002
   8.8862926223231234E-002  -2.3560550439224528E-002   4.2494705276777248E-002
   8.7661453504306888E-002  -2.4694144202855497E-002   3.9686922273957453E-002
   8.6459980785382543E-002  -2.4606986421886107E-002   3.8093595963830024E-002
   7.9358136458222373E-002  -1.4470922566986989E-002   5.0626517258811378E-002
   7.9133206935898842E-002  -1.7480623682845153E-002   4.7790741984397908E-002
   7.8908277413575284E-002  -1.9611633412879869E-002   4.5693596410493718E-002
   7.8683347891251740E-002  -2.0863951757091135E-002   4.4335080537098746E-002
   7.8458418368928196E-002  -2.1237578715478968E-002   4.3715194364213075E-002
   6.9039514400035529E-002  -1.1310736855812405E-002   5.0235818973490762E-002
   6.9315301082129702E-002  -1.3755042234697069E-002   4.9458904654091466E-002
   6.9591087764223875E-002  -1.5662716386535210E-002   4.8944793043018298E-002
   6.9866874446318034E-002  -1.7033759311326765E-002   4.8693484140271324E-002
   7.0142661128412206E-002  -1.7868171009071832E-002   4.8704977945850415E-002
   6.0310005486519463E-002  -8.1505511446378250E-003   5.0581546504532074E-002
   6.0610681380848193E-002  -1.0029460786548990E-002   5.1521432981370067E-002
   6.0911357275176950E-002  -1.1713799360190531E-002   5.2248295174351048E-002
   6.1212033169505679E-002  -1.3203566865562412E-002   5.2762133083475091E-002
   6.1512709063834423E-002  -1.4498763302664704E-002   5.3062946708742127E-002
   9.4147348377775136E-002  -2.7976394128293239E-002   3.1840182744701254E-002
   9.1757072141430043E-002  -2.6783387940818179E-002   3.1269717293727475E-002
   8.9366795905084923E-002  -2.5863066122423523E-002   3.0778981426242170E-002
   8.6976519668739802E-002  -2.5215428673109223E-002   3.0367975142245287E-002
   8.4586243432394681E-002  -2.4840475592875305E-002   3.0036698441736676E-002
   8.6459980785382543E-002  -2.4606986421886107E-002   3.8093595963830024E-002
   8.4196008178682058E-002  -2.3963211327577366E-002   3.7065409091449592E-002
   8.1932035571981587E-002  -2.3426953151190380E-002   3.6210099894870014E-002
   7.9668062965281117E-002  -2.2998211892725069E-002   3.5527668374091229E-002
   7.7404090358580646E-002  -2.2676987552181505E-002   3.5018114529113367E-002
   7.8458418368928196E-002  -2.1237578715478968E-002   4.3715194364213075E-002
   7.6413897484184728E-002  -2.1143034714336574E-002   4.2394453521584753E-002
   7.4369376599441234E-002  -2.0990840179957233E-002   4.1339738447069674E-002
   7.2324855714697753E-002  -2.0780995112340887E-002   4.0551049140667650E-002
   7.0280334829954286E-002  -2.0513499511487635E-002   4.0028385602378924E-002
   7.0142661128412206E-002  -1.7868171009071832E-002   4.8704977945850415E-002
   6.8410740057938069E-002  -1.8322858101095778E-002   4.7256850584132912E-002
   6.6678818987463931E-002  -1.8554727208724111E-002   4.6167897082840914E-002
   6.4946897916989807E-002  -1.8563778331956739E-002   4.5438117441974485E-002
   6.3214976846515697E-002  -1.8350011470793758E-002   4.5067511661533576E-002
   6.1512709063834423E-002  -1.4498763302664704E-002   5.3062946708742127E-002
   6.0186535899942009E-002  -1.5502681487854976E-002   5.1652600279094060E-002
   5.8860362736049616E-002  -1.6118614237490954E-002   5.0694575802183880E-002
   5.7534189572157224E-002  -1.6346561551572537E-002   5.0188873278011671E-002
   5.6208016408264797E-002  -1.6186523430099936E-002   5.0135492706577217E-002
   8.4586243432394681E-002  -2.4840475592875305E-002   3.0036698441736676E-002
   8.2206873883144946E-002  -2.4526090694297981E-002   2.9289903080699647E-002
   7.9827504333895183E-002  -2.4060157789953213E-002   2.8833962606895094E-002
   7.7448134784645448E-002  -2.3442676879841105E-002   2.8668877020323044E-002
   7.5068765235395685E-002  -2.2673647963961679E-002   2.8794646320983469E-002
   7.7404090358580646E-002  -2.2676987552181505E-002   3.5018114529113367E-002
   7.5298564374682450E-002  -2.2354068680166816E-002   3.4443932384698575E-002
   7.3193038390784296E-002  -2.1920243827288251E-002   3.4126582483754608E-002
   7.1087512406886141E-002  -2.1375512993545967E-002   3.4066064826281182E-002
   6.8981986422987973E-002  -2.0719876178939889E-002   3.4262379412278512E-002
   7.0280334829954286E-002  -2.0513499511487635E-002   4.0028385602378924E-002
   6.8414629767645840E-002  -2.0182046666035694E-002   3.9586174649683108E-002
   6.6548924705337409E-002  -1.9780329864623428E-002   3.9366773296696071E-002
   6.4683219643028991E-002  -1.9308349107250860E-002   3.9370181543417863E-002
   6.2817514580720560E-002  -1.8766104393917973E-002   3.9596399389848318E-002
   6.3214976846515697E-002  -1.8350011470793758E-002   4.5067511661533576E-002
   6.1555070062035110E-002  -1.8010024651904565E-002   4.4716629875653127E-002
   5.9895163277554522E-002  -1.7640415901958535E-002   4.4554535045719657E-002
   5.8235256493073935E-002  -1.7241185220955739E-002   4.4581227171733046E-002
   5.6575349708593355E-002  -1.6812332608896065E-002   4.4796706253693336E-002
   5.6208016408264797E-002  -1.6186523430099936E-002   5.0135492706577217E-002
   5.4719885257850223E-002  -1.5838002637773407E-002   4.9835298062608641E-002
   5.3231754107435629E-002  -1.5500501939293650E-002   4.9689867730825024E-002
   5.1743622957021035E-002  -1.5174021334660602E-002   4.9699201711226611E-002
   5.0255491806606462E-002  -1.4858560823874267E-002   4.9863300003813116E-002
   7.5068765235395685E-002  -2.2673647963961679E-002   2.8794646320983469E-002
   7.2707756351661240E-002  -2.1851936368786420E-002   2.8607834467996557E-002
   7.0346747467926796E-002  -2.1076407420786820E-002   2.8573555197723990E-002
   6.7985738584192323E-002  -2.0347061119963039E-002   2.8691808510166054E-002
   6.5624729700457907E-002  -1.9663897466314861E-002   2.8962594405322950E-002
   6.8981986422987973E-002  -2.0719876178939889E-002   3.4262379412278512E-002
   6.6783257017151418E-002  -2.0019419964419069E-002   3.3973896510509749E-002
   6.4584527611314890E-002  -1.9340230930933018E-002   3.3857439981822300E-002
   6.2385798205478349E-002  -1.8682309078481701E-002   3.3913009826215895E-002
   6.0187068799641807E-002  -1.8045654407064987E-002   3.4140606043690902E-002
   6.2817514580720560E-002  -1.8766104393917973E-002   3.9596399389848318E-002
   6.0800558443148515E-002  -1.8186903560051766E-002   3.9231160905439065E-002
   5.8783602305576513E-002  -1.7604054441079185E-002   3.9057442584477534E-002
   5.6766646168004455E-002  -1.7017557037000336E-002   3.9075244426963876E-002
   5.4749690030432424E-002  -1.6427411347815141E-002   3.9284566432897960E-002
   5.6575349708593355E-002  -1.6812332608896065E-002   4.4796706253693336E-002
   5.4759660629652450E-002  -1.6354387155684425E-002   4.4379627652784331E-002
   5.2943971550711524E-002  -1.5867877951225309E-002   4.4173563005689816E-002
   5.1128282471770620E-002  -1.5352804995519095E-002   4.4178512312409643E-002
   4.9312593392829729E-002  -1.4809168288565253E-002   4.4394475572944007E-002
   5.0255491806606462E-002  -1.4858560823874267E-002   4.9863300003813116E-002
   4.8660563576663263E-002  -1.4521870751317126E-002   4.9419296752545611E-002
   4.7065635346720064E-002  -1.4131701461371451E-002   4.9205801245459202E-002
   4.5470707116776865E-002  -1.3688052954037678E-002   4.9222813482553654E-002
   4.3875778886833638E-002  -1.3190925229315420E-002   4.9470333463829175E-002
   6.5624729700457907E-002  -1.9663897466314861E-002   2.8962594405322950E-002
   6.3285573473197410E-002  -1.8994144699502891E-002   2.8661915561418505E-002
   6.0946417245936968E-002  -1.8305031059187599E-002   2.8548590276295027E-002
   5.8607261018676540E-002  -1.7596556545369020E-002   2.8622618549952517E-002
   5.6268104791416029E-002  -1.6868721158047106E-002   2.8884000382391029E-002
   6.0187068799641807E-002  -1.8045654407064987E-002   3.4140606043690902E-002
   5.8034463078612264E-002  -1.7413181223702667E-002   3.3855538818057918E-002
   5.5881857357582748E-002  -1.6767803835414340E-002   3.3756219046105693E-002
   5.3729251636553198E-002  -1.6109522242199935E-002   3.3842646727834533E-002
   5.1576645915523689E-002  -1.5438336444059619E-002   3.4114821863244243E-002
   5.4749690030432424E-002  -1.6427411347815141E-002   3.9284566432897960E-002
   5.2782028710533793E-002  -1.5832217747902388E-002   3.9008654156958998E-002
   5.0814367390635183E-002  -1.5230576611640970E-002   3.8916883229600838E-002
   4.8846706070736517E-002  -1.4622487939030902E-002   3.9009253650823632E-002
   4.6879044750837887E-002  -1.4007951730072105E-002   3.9285765420627380E-002
   4.9312593392829729E-002  -1.4809168288565253E-002   4.4394475572944007E-002
   4.7528270368961983E-002  -1.4251254272102165E-002   4.4121261578121712E-002
   4.5743947345094245E-002  -1.3693349387867766E-002   4.4030582826780351E-002
   4.3959624321226520E-002  -1.3135453635861815E-002   4.4122439318919779E-002
   4.2175301297358761E-002  -1.2577567016084659E-002   4.4396831054540106E-002
   4.3875778886833638E-002  -1.3190925229315420E-002   4.9470333463829175E-002
   4.2273188053896793E-002  -1.2670290796301942E-002   4.9193361081546372E-002
   4.0670597220959975E-002  -1.2156122164094327E-002   4.9097317837644178E-002
   3.9068006388023144E-002  -1.1648419332692752E-002   4.9182203732123092E-002
   3.7465415555086284E-002  -1.1147182302097047E-002   4.9448018764982893E-002
   5.6268104791416029E-002  -1.6868721158047106E-002   2.8884000382391029E-002
   5.3928754471228912E-002  -1.6135181152030359E-002   2.8553358781461979E-002
   5.1589404151041712E-002  -1.5409592782127043E-002   2.8393373695601715E-002
   4.9250053830854526E-002  -1.4691956048337392E-002   2.8404045124809416E-002
   4.6910703510667340E-002  -1.3982270950661291E-002   2.8585373069086151E-002
   5.1576645915523689E-002  -1.5438336444059619E-002   3.4114821863244243E-002
   4.9409964282630919E-002  -1.4761433544394575E-002   3.3775339326752890E-002
   4.7243282649738150E-002  -1.4086000646605798E-002   3.3610537649782071E-002
   4.5076601016845408E-002  -1.3412037750693630E-002   3.3620416832331461E-002
   4.2909919383952611E-002  -1.2739544856657958E-002   3.3804976874401371E-002
   4.6879044750837887E-002  -1.4007951730072105E-002   3.9285765420627380E-002
   4.4889056149691492E-002  -1.3387685936758695E-002   3.8943923582810694E-002
   4.2899067548545035E-002  -1.2762408511084559E-002   3.8780786948966368E-002
   4.0909078947398606E-002  -1.2132119453049704E-002   3.8796355519094314E-002
   3.8919090346252197E-002  -1.1496818762654348E-002   3.8990629293194468E-002
   4.2175301297358761E-002  -1.2577567016084659E-002   4.4396831054540106E-002
   4.0366030072410561E-002  -1.2013938329122752E-002   4.4059111549635335E-002
   3.8556758847462368E-002  -1.1438816375563318E-002   4.3904121593154710E-002
   3.6747487622514174E-002  -1.0852201155405888E-002   4.3931861185098266E-002
   3.4938216397565919E-002  -1.0254092668650877E-002   4.4142330325466078E-002
   3.7465415555086284E-002  -1.1147182302097047E-002   4.9448018764982893E-002
   3.5840886050788223E-002  -1.0640190721487003E-002   4.9120903227227009E-002
   3.4216356546490148E-002  -1.0115224240041923E-002   4.8980541582347020E-002
   3.2591827042192066E-002  -9.5722828577619497E-003   4.9026933830343442E-002
   3.0967297537893984E-002  -9.0113665746472948E-003   4.9260079971215842E-002
   4.6910703510667340E-002  -1.3982270950661291E-002   2.8585373069086151E-002
   4.4574880689639551E-002  -1.3265258040794037E-002   2.8142877506739772E-002
   4.2239057868611790E-002  -1.2525637870429818E-002   2.7836405425968103E-002
   3.9903235047584029E-002  -1.1763410439569272E-002   2.7665956826770921E-002
   3.7567412226556240E-002  -1.0978575748212371E-002   2.7631531709148671E-002
   4.2909919383952611E-002  -1.2739544856657958E-002   3.3804976874401371E-002
   4.0716231849609874E-002  -1.2058717917323686E-002   3.3398920882664412E-002
   3.8522544315267193E-002  -1.1359752885515967E-002   3.3141111982722737E-002
   3.6328856780924471E-002  -1.0642649761235058E-002   3.3031550174576846E-002
   3.4135169246581776E-002  -9.9074085444805782E-003   3.3070235458226183E-002
   3.8919090346252197E-002  -1.1496818762654348E-002   3.8990629293194468E-002
   3.6879761708815240E-002  -1.0852177793853446E-002   3.8616543704044048E-002
   3.4840433071378296E-002  -1.0193867900602227E-002   3.8402928816909571E-002
   3.2801104433941422E-002  -9.5218890829007891E-003   3.8349784631791339E-002
   3.0761775796504381E-002  -8.8362413407488960E-003   3.8457111148689382E-002
   3.4938216397565919E-002  -1.0254092668650877E-002   4.4142330325466078E-002
   3.3065470267255467E-002  -9.6456376703831503E-003   4.3795745970878854E-002
   3.1192724136945058E-002  -9.0279829156884317E-003   4.3621855928528561E-002
   2.9319978006634651E-002  -8.4011284045664922E-003   4.3620660198415297E-002
   2.7447231876324134E-002  -7.7650741370172138E-003   4.3792158780538618E-002
   3.0967297537893984E-002  -9.0113665746472948E-003   4.9260079971215842E-002
   2.9273357524930710E-002  -8.4390975469128549E-003   4.8936527683168862E-002
   2.7579417511967463E-002  -7.8620979307746641E-003   4.8797893317579333E-002
   2.5885477499004203E-002  -7.2803677262322022E-003   4.8844176874447559E-002
   2.4191537486040915E-002  -6.6939069332854206E-003   4.9075378353773402E-002
   5.7152574746787900E-002   0.0000000000000000        3.4691356329602831E-002
   5.7941932431720793E-002  -2.0837197437445568E-003   3.8343052337447586E-002
   5.8731290116653678E-002  -4.1367181824323810E-003   4.2208649369217366E-002
   5.9520647801586578E-002  -6.1589953160634727E-003   4.6288147424912211E-002
   6.0310005486519463E-002  -8.1505511446378250E-003   5.0581546504532074E-002
   4.8652193832546750E-002   0.0000000000000000        3.2790698563098714E-002
   4.9590196028212456E-002  -1.7092158362946308E-003   3.6965869055999752E-002
   5.0528198223878162E-002  -3.4323930717078972E-003   4.1224427546441365E-002
   5.1466200419543862E-002  -5.1695317062397939E-003   4.5566374034423596E-002
   5.2404202615209568E-002  -6.9206317398903391E-003   4.9991708519946387E-002
   4.0732163963585068E-002   0.0000000000000000        3.1286886056132203E-002
   4.1688297643599125E-002  -1.3347119288447040E-003   3.5940848329914156E-002
   4.2644431323613188E-002  -2.7280679609834125E-003   4.0547685574852256E-002
   4.3600565003627266E-002  -4.1800680964161263E-003   4.5107397790946469E-002
   4.4556698683641323E-002  -5.6907123351428463E-003   4.9619984978196828E-002
   3.3392485139902839E-002   0.0000000000000000        3.0179918808703309E-002
   3.4236237277880818E-002  -9.6020802139477760E-004   3.5267990159190812E-002
   3.5079989415858791E-002  -2.0237428502589317E-003   4.0178423454449996E-002
   3.5923741553836756E-002  -3.1906044865924574E-003   4.4911218694480871E-002
   3.6767493691814729E-002  -4.4607929303953587E-003   4.9466375879283410E-002
   2.6633157361500084E-002   0.0000000000000000        2.9469796820812022E-002
   2.7234014931057506E-002  -5.8570411394485121E-004   3.4947294543829707E-002
   2.7834872500614928E-002  -1.3194177395344456E-003   4.0116641185234607E-002
   2.8435730070172357E-002  -2.2011408767687816E-003   4.4977836745026749E-002
   2.9036587639729782E-002  -3.2308735256478677E-003   4.9530881223206105E-002
   6.0310005486519463E-002  -8.1505511446378250E-003   5.0581546504532074E-002
   6.0610681380848193E-002  -1.0029460786548990E-002   5.1521432981370067E-002
   6.0911357275176950E-002  -1.1713799360190531E-002   5.2248295174351048E-002
   6.1212033169505679E-002  -1.3203566865562412E-002   5.2762133083475091E-002
   6.1512709063834423E-002  -1.4498763302664704E-002   5.3062946708742127E-002
   5.2404202615209568E-002  -6.9206317398903391E-003   4.9991708519946387E-002
   5.2530893049237554E-002  -8.5843794071344369E-003   5.1220551360182810E-002
   5.2657583483265553E-002  -1.0059460942447015E-002   5.2314447563674704E-002
   5.2784273917293539E-002  -1.1345876345828098E-002   5.3273397130422076E-002
   5.2910964351321560E-002  -1.2443625617277673E-002   5.4097400060424912E-002
   4.4556698683641323E-002  -5.6907123351428463E-003   4.9619984978196828E-002
   4.4587481304481008E-002  -7.1392980277198738E-003   5.1131879245493575E-002
   4.4618263925320714E-002  -8.4051225247035125E-003   5.2586904523158250E-002
   4.4649046546160413E-002  -9.4881858260937642E-003   5.3985060811190852E-002
   4.4679829167000112E-002  -1.0388487931890625E-002   5.5326348109591354E-002
   3.6767493691814729E-002  -4.4607929303953587E-003   4.9466375879283410E-002
   3.6780446146578577E-002  -5.6942166483053124E-003   5.1255416637302341E-002
   3.6793398601342418E-002  -6.7507841069600087E-003   5.3065666052801677E-002
   3.6806351056106267E-002  -7.6304953063594310E-003   5.4897124125781349E-002
   3.6819303510870129E-002  -8.3333502465036003E-003   5.6749790856241406E-002
   2.9036587639729782E-002  -3.2308735256478677E-003   4.9530881223206105E-002
   2.9109787575530233E-002  -4.2491352688907632E-003   5.1591163535609129E-002
   2.9182987511330680E-002  -5.0964456892165014E-003   5.3750732152604959E-002
   2.9256187447131123E-002  -5.7728047866251100E-003   5.6009587074193623E-002
   2.9329387382931574E-002  -6.2782125611165543E-003   5.8367728300375114E-002
   6.1512709063834423E-002  -1.4498763302664704E-002   5.3062946708742127E-002
   6.0186535899942009E-002  -1.5502681487854976E-002   5.1652600279094060E-002
   5.8860362736049616E-002  -1.6118614237490954E-002   5.0694575802183880E-002
   5.7534189572157224E-002  -1.6346561551572537E-002   5.0188873278011671E-002
   5.6208016408264797E-002  -1.6186523430099936E-002   5.0135492706577217E-002
   5.2910964351321560E-002  -1.2443625617277673E-002   5.4097400060424912E-002
   5.1985094069175924E-002  -1.3293578074304650E-002   5.3353100554211136E-002
   5.1059223787030275E-002  -1.3836603034417992E-002   5.2957084858753015E-002
   5.0133353504884647E-002  -1.4072700497617710E-002   5.2909352974050604E-002
   4.9207483222739004E-002  -1.4001870463903804E-002   5.3209904900103785E-002
   4.4679829167000112E-002  -1.0388487931890625E-002   5.5326348109591354E-002
   4.4050223624618995E-002  -1.1084474660754313E-002   5.5167037588171187E-002
   4.3420618082237905E-002  -1.1554591831345083E-002   5.5251972735524478E-002
   4.2791012539856808E-002  -1.1798839443662829E-002   5.5581153551651122E-002
   4.2161406997475698E-002  -1.1817217497707685E-002   5.6154580036551154E-002
   3.6819303510870129E-002  -8.3333502465036003E-003   5.6749790856241406E-002
   3.6381924566271290E-002  -8.8753712472040159E-003   5.7094411380974243E-002
   3.5944545621672458E-002  -9.2725806282721330E-003   5.7579239432498167E-002
   3.5507166677073640E-002  -9.5249783897079637E-003   5.8204275010813204E-002
   3.5069787732474808E-002  -9.6325645315115740E-003   5.8969518115919467E-002
   2.9329387382931574E-002  -6.2782125611165543E-003   5.8367728300375114E-002
   2.8980196894132781E-002  -6.6662678336536461E-003   5.9135221932620156E-002
   2.8631006405333982E-002  -6.9905694251991852E-003   5.9938884949674073E-002
   2.8281815916535197E-002  -7.2511173357530864E-003   6.0778717351536934E-002
   2.7932625427736398E-002  -7.4479115653154626E-003   6.1654719138208663E-002
   5.6208016408264797E-002  -1.6186523430099936E-002   5.0135492706577217E-002
   5.4719885257850223E-002  -1.5838002637773407E-002   4.9835298062608641E-002
   5.3231754107435629E-002  -1.5500501939293650E-002   4.9689867730825024E-002
   5.1743622957021035E-002  -1.5174021334660602E-002   4.9699201711226611E-002
   5.0255491806606462E-002  -1.4858560823874267E-002   4.9863300003813116E-002
   4.9207483222739004E-002  -1.4001870463903804E-002   5.3209904900103785E-002
   4.7884065368769373E-002  -1.3770265717909388E-002   5.2875917117557722E-002
   4.6560647514799720E-002  -1.3524039044267626E-002   5.2716591615716651E-002
   4.5237229660830061E-002  -1.3263190442978528E-002   5.2731928394580213E-002
   4.3913811806860437E-002  -1.2987719914042128E-002   5.2921927454148712E-002
   4.2161406997475698E-002  -1.1817217497707685E-002   5.6154580036551154E-002
   4.1022600408470736E-002  -1.1702528798045342E-002   5.5812441136921860E-002
   3.9883793819465760E-002  -1.1547576149241654E-002   5.5664862486517155E-002
   3.8744987230460784E-002  -1.1352359551296508E-002   5.5711844085336998E-002
   3.7606180641455808E-002  -1.1116879004210045E-002   5.5953385933381380E-002
   3.5069787732474808E-002  -9.6325645315115740E-003   5.8969518115919467E-002
   3.4135490376954292E-002  -9.6347918781813091E-003   5.8644870120700916E-002
   3.3201193021433768E-002  -9.5711132542156564E-003   5.8534680343226661E-002
   3.2266895665913224E-002  -9.4415286596145308E-003   5.8638948783496736E-002
   3.1332598310392722E-002  -9.2460380943779202E-003   5.8957675441511162E-002
   2.7932625427736398E-002  -7.4479115653154626E-003   6.1654719138208663E-002
   2.7222735274220061E-002  -7.5670549583172902E-003   6.1373204068894932E-002
   2.6512845120703721E-002  -7.5946503591896586E-003   6.1326045185845238E-002
   2.5802954967187382E-002  -7.5306977679324288E-003   6.1513242489059580E-002
   2.5093064813671045E-002  -7.3751971845458508E-003   6.1934795978538015E-002
   5.0255491806606462E-002  -1.4858560823874267E-002   4.9863300003813116E-002
   4.8660563576663263E-002  -1.4521870751317126E-002   4.9419296752545611E-002
   4.7065635346720064E-002  -1.4131701461371451E-002   4.9205801245459202E-002
   4.5470707116776865E-002  -1.3688052954037678E-002   4.9222813482553654E-002
   4.3875778886833638E-002  -1.3190925229315420E-002   4.9470333463829175E-002
   4.3913811806860437E-002  -1.2987719914042128E-002   5.2921927454148712E-002
   4.2542566782008587E-002  -1.2684339768358033E-002   5.2552486759751216E-002
   4.1171321757156779E-002  -1.2339762316825903E-002   5.2399904731355466E-002
   3.9800076732304943E-002  -1.1953987559445663E-002   5.2464181368961540E-002
   3.8428831707453134E-002  -1.1527015496217374E-002   5.2745316672569265E-002
   3.7606180641455808E-002  -1.1116879004210045E-002   5.5953385933381380E-002
   3.6444969743516097E-002  -1.0846808785399016E-002   5.5646225884313602E-002
   3.5283758845576399E-002  -1.0547823172280209E-002   5.5542275423068339E-002
   3.4122547947636674E-002  -1.0219922164853757E-002   5.5641534549645544E-002
   3.2961337049696948E-002  -9.8631057631193841E-003   5.5944003264045153E-002
   3.1332598310392722E-002  -9.2460380943779202E-003   5.8957675441511162E-002
   3.0367772461185834E-002  -9.0092778024399335E-003   5.8700514126232832E-002
   2.9402946611978949E-002  -8.7558840277345042E-003   5.8632913320597675E-002
   2.8438120762772058E-002  -8.4858567702616843E-003   5.8754873024605796E-002
   2.7473294913565177E-002  -8.1991960300213940E-003   5.9066393238257034E-002
   2.5093064813671045E-002  -7.3751971845458508E-003   6.1934795978538015E-002
   2.4310974935017722E-002  -7.1717468194809203E-003   6.1715351485508774E-002
   2.3528885056364399E-002  -6.9639448831889453E-003   6.1671818423943495E-002
   2.2746795177711075E-002  -6.7517913756697748E-003   6.1804196793842088E-002
   2.1964705299057766E-002  -6.5352862969234038E-003   6.2112486595204686E-002
   4.3875778886833638E-002  -1.3190925229315420E-002   4.9470333463829175E-002
   4.2273188053896793E-002  -1.2670290796301942E-002   4.9193361081546372E-002
   4.0670597220959975E-002  -1.2156122164094327E-002   4.9097317837644178E-002
   3.9068006388023144E-002  -1.1648419332692752E-002   4.9182203732123092E-002
   3.7465415555086284E-002  -1.1147182302097047E-002   4.9448018764982893E-002
   3.8428831707453134E-002  -1.1527015496217374E-002   5.2745316672569265E-002
   3.7011046371486361E-002  -1.1079866770505001E-002   5.2448018279656963E-002
   3.5593261035519595E-002  -1.0633562025672519E-002   5.2339401742304031E-002
   3.4175475699552829E-002  -1.0188101261719793E-002   5.2419467060510178E-002
   3.2757690363586056E-002  -9.7434844786469244E-003   5.2688214234275749E-002
   3.2961337049696948E-002  -9.8631057631193841E-003   5.5944003264045153E-002
   3.1736109927878647E-002  -9.4894427447081153E-003   5.5632000680429769E-002
   3.0510882806060326E-002  -9.1110018872505513E-003   5.5516432669551870E-002
   2.9285655684242032E-002  -8.7277831907467251E-003   5.5597299231411657E-002
   2.8060428562423696E-002  -8.3397866551967181E-003   5.5874600366009150E-002
   2.7473294913565177E-002  -8.1991960300213940E-003   5.9066393238257034E-002
   2.6448378723073675E-002  -7.8990187189112576E-003   5.8745308283864456E-002
   2.5423462532582167E-002  -7.5884417488286358E-003   5.8628410619387797E-002
   2.4398546342090658E-002  -7.2674651197737116E-003   5.8715700244827147E-002
   2.3373630151599156E-002  -6.9360888317465258E-003   5.9007177160182681E-002
   2.1964705299057766E-002  -6.5352862969234038E-003   6.2112486595204686E-002
   2.1147852757071442E-002  -6.3085946931142889E-003   6.1787941089961024E-002
   2.0331000215085118E-002  -6.0658816104067481E-003   6.1675335591811709E-002
   1.9514147673098801E-002  -5.8071470488007468E-003   6.1774670100756796E-002
   1.8697295131112471E-002  -5.5323910082963890E-003   6.2085944616796229E-002
   3.7465415555086284E-002  -1.1147182302097047E-002   4.9448018764982893E-002
   3.5840886050788223E-002  -1.0640190721487003E-002   4.9120903227227009E-002
   3.4216356546490148E-002  -1.0115224240041923E-002   4.8980541582347020E-002
   3.2591827042192066E-002  -9.5722828577619497E-003   4.9026933830343442E-002
   3.0967297537893984E-002  -9.0113665746472948E-003   4.9260079971215842E-002
   3.2757690363586056E-002  -9.7434844786469244E-003   5.2688214234275749E-002
   3.1322009616930227E-002  -9.2920543743765238E-003   5.2389879713678700E-002
   2.9886328870274398E-002  -8.8261536468312862E-003   5.2282488815490372E-002
   2.8450648123618562E-002  -8.3457822960109687E-003   5.2366041539710147E-002
   2.7014967376962754E-002  -7.8509403219158558E-003   5.2640537886338434E-002
   2.8060428562423696E-002  -8.3397866551967181E-003   5.5874600366009150E-002
   2.6817786302942445E-002  -7.9439180272660032E-003   5.5601542585010988E-002
   2.5575144043461204E-002  -7.5370830536205316E-003   5.5523618155953684E-002
   2.4332501783979978E-002  -7.1192817342598750E-003   5.5640827078837191E-002
   2.3089859524498713E-002  -6.6905140691844722E-003   5.5953169353661403E-002
   2.3373630151599156E-002  -6.9360888317465258E-003   5.9007177160182681E-002
   2.2328216108824857E-002  -6.5957816801556143E-003   5.8755891841223491E-002
   2.1282802066050550E-002  -6.2480124604096694E-003   5.8703929603737569E-002
   2.0237388023276234E-002  -5.8927811725088932E-003   5.8851290447724608E-002
   1.9191973980501941E-002  -5.5300878164532274E-003   5.9197974373184810E-002
   1.8697295131112471E-002  -5.5323910082963890E-003   6.2085944616796229E-002
   1.7853299034577455E-002  -5.2476453330450312E-003   6.1852927482316189E-002
   1.7009302938042432E-002  -4.9589418671990709E-003   6.1823423158841484E-002
   1.6165306841507399E-002  -4.6662806107577552E-003   6.1997431646372350E-002
   1.5321310744972394E-002  -4.3696615637217051E-003   6.2374952944908524E-002
   3.0967297537893984E-002  -9.0113665746472948E-003   4.9260079971215842E-002
   2.9273357524930710E-002  -8.4390975469128549E-003   4.8936527683168862E-002
   2.7579417511967463E-002  -7.8620979307746641E-003   4.8797893317579333E-002
   2.5885477499004203E-002  -7.2803677262322022E-003   4.8844176874447559E-002
   2.4191537486040915E-002  -6.6939069332854206E-003   4.9075378353773402E-002
   2.7014967376962754E-002  -7.8509403219158558E-003   5.2640537886338434E-002
   2.5509861207556578E-002  -7.3458772638180792E-003   5.2353474894425656E-002
   2.4004755038150381E-002  -6.8348426609894097E-003   5.2259161667169568E-002
   2.2499648868744209E-002  -6.3178365134302292E-003   5.2357598204570088E-002
   2.0994542699338037E-002  -5.7948588211400587E-003   5.2648784506627244E-002
   2.3089859524498713E-002  -6.6905140691844722E-003   5.5953169353661403E-002
   2.1781419040848696E-002  -6.2526569807228594E-003   5.5703836614209412E-002
   2.0472978557198721E-002  -5.8075873912041415E-003   5.5655085481613312E-002
   1.9164538073548728E-002  -5.3553053006280583E-003   5.5806915955872637E-002
   1.7856097589898673E-002  -4.8958107089945857E-003   5.6159328036988088E-002
   1.9191973980501941E-002  -5.5300878164532274E-003   5.9197974373184810E-002
   1.8088031024807192E-002  -5.1594366976277506E-003   5.8987612842520305E-002
   1.6984088069112419E-002  -4.7803321214189357E-003   5.8985664760910508E-002
   1.5880145113417621E-002  -4.3927740878259864E-003   5.9192130128355488E-002
   1.4776202157722858E-002  -3.9967625968492237E-003   5.9607008944855072E-002
   1.5321310744972394E-002  -4.3696615637217051E-003   6.2374952944908524E-002
   1.4429697159431945E-002  -4.0662164145326973E-003   6.2204803579357815E-002
   1.3538083573891510E-002  -3.7530768516337160E-003   6.2250899505060991E-002
   1.2646469988351103E-002  -3.4302428750240775E-003   6.2513240722018124E-002
   1.1754856402810654E-002  -3.0977144847037508E-003   6.2991827230229225E-002
   2.6633157361500084E-002   0.0000000000000000        2.9469796820812022E-002
   2.7234014931057506E-002  -5.8570411394485121E-004   3.4947294543829707E-002
   2.7834872500614928E-002  -1.3194177395344456E-003   4.0116641185234607E-002
   2.8435730070172357E-002  -2.2011408767687816E-003   4.4977836745026749E-002
   2.9036587639729782E-002  -3.2308735256478677E-003   4.9530881223206105E-002
   2.0116720834751314E-002   0.0000000000000000        2.9022059883221738E-002
   2.0448911495056666E-002  -4.3927808448304857E-004   3.4314964913381305E-002
   2.0781102155362014E-002  -9.8956330381601634E-004   3.9378687206649499E-002
   2.1113292815667369E-002  -1.6508556579988998E-003   4.4213226763026317E-002
   2.1445483475972717E-002  -2.4231551470317025E-003   4.8818583582511767E-002
   1.3505715766031070E-002   0.0000000000000000        2.8702247786695841E-002
   1.3648207861805744E-002  -2.9285205502124594E-004   3.3847562500792128E-002
   1.3790699957580418E-002  -6.5970886809758270E-004   3.8842662822718435E-002
   1.3933192053355090E-002  -1.1005704392290103E-003   4.3687548752474770E-002
   1.4075684149129766E-002  -1.6154367684155305E-003   4.8382220290061118E-002
   6.8001421553393476E-003   0.0000000000000000        2.8510360531234336E-002
   6.8319040313047415E-003  -1.4642602555944286E-004   3.3545087306062163E-002
   6.8636659072701363E-003  -3.2985443237914950E-004   3.8508568033441423E-002
   6.8954277832355302E-003  -5.5028522045912466E-004   4.3400802713372086E-002
   6.9271896592009259E-003  -8.0771838979935666E-004   4.8221791345854165E-002
   2.6761466306868265E-012   0.0000000000000000        2.8446398116837218E-002
   3.5536591030949083E-012   3.9023593384479582E-012   3.3407539329191424E-002
   4.4311720091838591E-012   3.3392819759336945E-012   3.8376402838818435E-002
   5.3086851321132444E-012  -1.6892355569897433E-012   4.3352988645718279E-002
   6.1861982550426298E-012  -1.1183193260322355E-011   4.8337296749890922E-002
   2.9036587639729782E-002  -3.2308735256478677E-003   4.9530881223206105E-002
   2.9109787575530233E-002  -4.2491352688907632E-003   5.1591163535609129E-002
   2.9182987511330680E-002  -5.0964456892165014E-003   5.3750732152604959E-002
   2.9256187447131123E-002  -5.7728047866251100E-003   5.6009587074193623E-002
   2.9329387382931574E-002  -6.2782125611165543E-003   5.8367728300375114E-002
   2.1445483475972717E-002  -2.4231551470317025E-003   4.8818583582511767E-002
   2.1588573144289122E-002  -3.1868514563508856E-003   5.1220356568349168E-002
   2.1731662812605527E-002  -3.8223342713929413E-003   5.3662622714625650E-002
   2.1874752480921935E-002  -4.3296035921578553E-003   5.6145382021341263E-002
   2.2017842149238336E-002  -4.7086594186456013E-003   5.8668634488495908E-002
   1.4075684149129766E-002  -1.6154367684155305E-003   4.8382220290061118E-002
   1.4229870405808392E-002  -2.1245676438110218E-003   5.1082746120692905E-002
   1.4384056662487021E-002  -2.5482228535693742E-003   5.3764971967610042E-002
   1.4538242919165644E-002  -2.8864023976905946E-003   5.6428897830812549E-002
   1.4692429175844270E-002  -3.1391062761746587E-003   5.9074523710300392E-002
   6.9271896592009259E-003  -8.0771838979935666E-004   4.8221791345854165E-002
   7.0336793600880385E-003  -1.0622838312711615E-003   5.1178332192640355E-002
   7.1401690609751529E-003  -1.2741114357458037E-003   5.4057779911558149E-002
   7.2466587618622673E-003  -1.4432012032233230E-003   5.6860134502607532E-002
   7.3531484627493791E-003  -1.5695531337037039E-003   5.9585395965788594E-002
   6.1861982550426298E-012  -1.1183193260322355E-011   4.8337296749890922E-002
   7.1280611621538092E-012  -1.8731297762863974E-011   5.1507114784191482E-002
   8.0699262376693337E-012  -1.7922247019797055E-011   5.4541046546469921E-002
   9.0117889279400787E-012  -8.7560896033789248E-012   5.7439092036726258E-002
   9.9536542202960376E-012   8.7672438753294557E-012   6.0201251254960474E-002
   2.9329387382931574E-002  -6.2782125611165543E-003   5.8367728300375114E-002
   2.8980196894132781E-002  -6.6662678336536461E-003   5.9135221932620156E-002
   2.8631006405333982E-002  -6.9905694251991852E-003   5.9938884949674073E-002
   2.8281815916535197E-002  -7.2511173357530864E-003   6.0778717351536934E-002
   2.7932625427736398E-002  -7.4479115653154626E-003   6.1654719138208663E-002
   2.2017842149238336E-002  -4.7086594186456013E-003   5.8668634488495908E-002
   2.1717603104809372E-002  -4.9997008701024269E-003   5.9490826908989172E-002
   2.1417364060380403E-002  -5.2429270657745834E-003   6.0374752833413189E-002
   2.1117125015951442E-002  -5.4383380056620082E-003   6.1320412261767945E-002
   2.0816885971522474E-002  -5.5859336897647605E-003   6.2327805194053496E-002
   1.4692429175844270E-002  -3.1391062761746587E-003   5.9074523710300392E-002
   1.4466705694906979E-002  -3.3331339065512371E-003   5.9935476493835051E-002
   1.4240982213969688E-002  -3.4952847063499945E-003   6.0883726900422250E-002
   1.4015258733032394E-002  -3.6255586755709439E-003   6.1919274930062086E-002
   1.3789535252095106E-002  -3.7239558142140444E-003   6.3042120582754504E-002
   7.3531484627493791E-003  -1.5695531337037039E-003   5.9585395965788594E-002
   7.2275046644256066E-003  -1.6665669430000257E-003   6.0469170687157701E-002
   7.1018608661018289E-003  -1.7476423469254339E-003   6.1465807150701227E-002
   6.9762170677780538E-003  -1.8127793454798587E-003   6.2575305356419211E-002
   6.8505732694542805E-003  -1.8619779386633076E-003   6.3797665304311635E-002
   9.9536542202960376E-012   8.7672438753294557E-012   6.0201251254960474E-002
   1.3365243807517135E-011   2.0551192692064291E-011   6.1091909488957159E-002
   1.6776834262099971E-011   1.2499183979497452E-011   6.2120993584250161E-002
   2.0188426885087152E-011  -1.5388755807838050E-011   6.3288503540839466E-002
   2.3600014303903905E-011  -6.3112626236261349E-011   6.4594439358724998E-002
   2.7932625427736398E-002  -7.4479115653154626E-003   6.1654719138208663E-002
   2.7222735274220061E-002  -7.5670549583172902E-003   6.1373204068894932E-002
   2.6512845120703721E-002  -7.5946503591896586E-003   6.1326045185845238E-002
   2.5802954967187382E-002  -7.5306977679324288E-003   6.1513242489059580E-002
   2.5093064813671045E-002  -7.3751971845458508E-003   6.1934795978538015E-002
   2.0816885971522474E-002  -5.5859336897647605E-003   6.2327805194053496E-002
   2.0327131092919198E-002  -5.6752912425897112E-003   6.2200562449625421E-002
   1.9837376214315933E-002  -5.6959877886439275E-003   6.2279234068759397E-002
   1.9347621335712668E-002  -5.6480233279272533E-003   6.2563820051455485E-002
   1.8857866457109393E-002  -5.5313978604397962E-003   6.3054320397713651E-002
   1.3789535252095106E-002  -3.7239558142140444E-003   6.3042120582754504E-002
   1.3491473825702906E-002  -3.7835275268621807E-003   6.3046263177853459E-002
   1.3193412399310708E-002  -3.7973252180981409E-003   6.3227878313812491E-002
   1.2895350972918508E-002  -3.7653488879220223E-003   6.3586965990631572E-002
   1.2597289546526308E-002  -3.6875985363337555E-003   6.4123526208310716E-002
   6.8505732694542805E-003  -1.8619779386633076E-003   6.3797665304311635E-002
   6.7157634725711537E-003  -1.8917638111346120E-003   6.3910306253578950E-002
   6.5809536756880312E-003  -1.8986626475524931E-003   6.4171977921004347E-002
   6.4461438788049018E-003  -1.8826744479167913E-003   6.4582680306587800E-002
   6.3113340819217819E-003  -1.8437992122276661E-003   6.5142413410329281E-002
   2.3600014303903905E-011  -6.3112626236261349E-011   6.4594439358724998E-002
   3.3523959649950363E-011  -9.5407078071207962E-011   6.4792691676801989E-002
   4.3447906730720298E-011  -7.7006651055810948E-011   6.5111532890335055E-002
   5.3371853811490233E-011  -7.9115672346752319E-012   6.5550962999324155E-002
   6.3295799157536692E-011   1.1187833992565288E-010   6.6110982003769359E-002
   2.5093064813671045E-002  -7.3751971845458508E-003   6.1934795978538015E-002
   2.4310974935017722E-002  -7.1717468194809203E-003   6.1715351485508774E-002
   2.3528885056364399E-002  -6.9639448831889453E-003   6.1671818423943495E-002
   2.2746795177711075E-002  -6.7517913756697748E-003   6.1804196793842088E-002
   2.1964705299057766E-002  -6.5352862969234038E-003   6.2112486595204686E-002
   1.8857866457109393E-002  -5.5313978604397962E-003   6.3054320397713651E-002
   1.8256590765088905E-002  -5.3788100565680258E-003   6.2818207724444255E-002
   1.7655315073068417E-002  -5.2229585866986200E-003   6.2767811992976708E-002
   1.7054039381047929E-002  -5.0638434508314088E-003   6.2903133203310882E-002
   1.6452763689027428E-002  -4.9014646489664304E-003   6.3224171355446834E-002
   1.2597289546526308E-002  -3.6875985363337555E-003   6.4123526208310716E-002
   1.2186633551476462E-002  -3.5858732936552354E-003   6.3869657449571876E-002
   1.1775977556426617E-002  -3.4819722902083468E-003   6.3811311142972615E-002
   1.1365321561376774E-002  -3.3758955259931252E-003   6.3948487288512920E-002
   1.0954665566326918E-002  -3.2676430010094848E-003   6.4281185886192860E-002
   6.3113340819217819E-003  -1.8437992122276661E-003   6.5142413410329281E-002
   6.1011032941803902E-003  -1.7929365307424068E-003   6.4869700660891677E-002
   5.8908725064390011E-003  -1.7409859937181030E-003   6.4802315873931329E-002
   5.6806417186976172E-003  -1.6879476011547726E-003   6.4940259049448348E-002
   5.4704109309562272E-003  -1.6338213530525253E-003   6.5283530187442790E-002
   6.3295799157536692E-011   1.1187833992565288E-010   6.6110982003769359E-002
  -6.7993111141362306E-012   2.3217046341006409E-010   6.5818337358403423E-002
  -7.6894424855256105E-011   3.0277219620344908E-010   6.5740826185852697E-002
  -1.4698953512692903E-010   3.2368342728350541E-010   6.5878448486117125E-002
  -2.1708464886804890E-010   2.9490443420598922E-010   6.6231204259196763E-002
   2.1964705299057766E-002  -6.5352862969234038E-003   6.2112486595204686E-002
   2.1147852757071442E-002  -6.3085946931142889E-003   6.1787941089961024E-002
   2.0331000215085118E-002  -6.0658816104067481E-003   6.1675335591811709E-002
   1.9514147673098801E-002  -5.8071470488007468E-003   6.1774670100756796E-002
   1.8697295131112471E-002  -5.5323910082963890E-003   6.2085944616796229E-002
   1.6452763689027428E-002  -4.9014646489664304E-003   6.3224171355446834E-002
   1.5845919437296990E-002  -4.7314459677400000E-003   6.2925556406506322E-002
   1.5239075185566539E-002  -4.5494111937881346E-003   6.2835018030983208E-002
   1.4632230933836088E-002  -4.3553603271109607E-003   6.2952556228877535E-002
   1.4025386682105637E-002  -4.1492933677084731E-003   6.3278171000189204E-002
   1.0954665566326918E-002  -3.2676430010094848E-003   6.4281185886192860E-002
   1.0553966171175339E-002  -3.1542972423656002E-003   6.4004496107382430E-002
   1.0153266776023764E-002  -3.0329407771694655E-003   6.3932019468312465E-002
   9.7525673808721812E-003  -2.9035736054211191E-003   6.4063755968982922E-002
   9.3518679857206057E-003  -2.7661957271206128E-003   6.4399705609393579E-002
   5.4704109309562272E-003  -1.6338213530525253E-003   6.5283530187442790E-002
   5.2719929587065192E-003  -1.5771485169913391E-003   6.5024760192589431E-002
   5.0735749864568060E-003  -1.5164703605508520E-003   6.4966339903799436E-002
   4.8751570142071014E-003  -1.4517868837313052E-003   6.5108269321072776E-002
   4.6767390419573925E-003  -1.3830980865327247E-003   6.5450548444409479E-002
  -2.1708464886804890E-010   2.9490443420598922E-010   6.6231204259196763E-002
  -2.0010948800774919E-010   2.0838303305126260E-010   6.5986348662127242E-002
  -1.8313432714744948E-010   5.6067844811380496E-011   6.5937979337444108E-002
  -1.6615916368506456E-010  -1.6204159541954866E-010   6.6086096285147305E-002
  -1.4918400542685006E-010  -4.4594489212457233E-010   6.6430699505236834E-002
   1.8697295131112471E-002  -5.5323910082963890E-003   6.2085944616796229E-002
   1.7853299034577455E-002  -5.2476453330450312E-003   6.1852927482316189E-002
   1.7009302938042432E-002  -4.9589418671990709E-003   6.1823423158841484E-002
   1.6165306841507399E-002  -4.6662806107577552E-003   6.1997431646372350E-002
   1.5321310744972394E-002  -4.3696615637217051E-003   6.2374952944908524E-002
   1.4025386682105637E-002  -4.1492933677084731E-003   6.3278171000189204E-002
   1.3386774958624732E-002  -3.9357341640506027E-003   6.3048878273569725E-002
   1.2748163235143835E-002  -3.7192065646074191E-003   6.3026841482053106E-002
   1.2109551511662937E-002  -3.4997105693787764E-003   6.3212060625639332E-002
   1.1470939788182033E-002  -3.2772461783650564E-003   6.3604535704328224E-002
   9.3518679857206057E-003  -2.7661957271206128E-003   6.4399705609393579E-002
   8.9223837593911774E-003  -2.6238229950560493E-003   6.4173147895825206E-002
   8.4928995330617579E-003  -2.4794712620159406E-003   6.4157589241456925E-002
   8.0634153067323348E-003  -2.3331405279999103E-003   6.4353029646288834E-002
   7.6339310804029101E-003  -2.1848307930082689E-003   6.4759469110320919E-002
   4.6767390419573925E-003  -1.3830980865327247E-003   6.5450548444409479E-002
   4.4601254368767931E-003  -1.3119118260616694E-003   6.5225736349082547E-002
   4.2435118317962033E-003  -1.2397359594243477E-003   6.5215666437052983E-002
   4.0268982267156021E-003  -1.1665704866209324E-003   6.5420338708320952E-002
   3.8102846216350131E-003  -1.0924154076514397E-003   6.5839753162886469E-002
  -1.4918400542685006E-010  -4.4594489212457233E-010   6.6430699505236834E-002
  -8.9184215568138825E-012  -6.5706706742219012E-010   6.6206643633341611E-002
   1.3134715884377535E-010  -6.5683286587514544E-010   6.6201073068841265E-002
   2.7161273924436458E-010  -4.4524196829431872E-010   6.6413987811735770E-002
   4.1187832311440076E-010  -2.2294777135556387E-011   6.6845387862025041E-002
   1.5321310744972394E-002  -4.3696615637217051E-003   6.2374952944908524E-002
   1.4429697159431945E-002  -4.0662164145326973E-003   6.2204803579357815E-002
   1.3538083573891510E-002  -3.7530768516337160E-003   6.2250899505060991E-002
   1.2646469988351103E-002  -3.4302428750240775E-003   6.2513240722018124E-002
   1.1754856402810654E-002  -3.0977144847037508E-003   6.2991827230229225E-002
   1.1470939788182033E-002  -3.2772461783650564E-003   6.3604535704328224E-002
   1.0797236036462737E-002  -3.0496622792778316E-003   6.3457895647391738E-002
   1.0123532284743456E-002  -2.8148077598294380E-003   6.3530829966843894E-002
   9.4498285330241460E-003  -2.5726826200198859E-003   6.3823338662684428E-002
   8.7761247813048504E-003  -2.3232868598490608E-003   6.4335421734912912E-002
   7.6339310804029101E-003  -2.1848307930082689E-003   6.4759469110320919E-002
   7.1814662476392503E-003  -2.0331081440226051E-003   6.4633914568649461E-002
   6.7290014148755732E-003  -1.8765386680252225E-003   6.4731263488500945E-002
   6.2765365821119100E-003  -1.7151223650157792E-003   6.5051515869875412E-002
   5.8240717493482363E-003  -1.5488592349944819E-003   6.5594671712772501E-002
   3.8102846216350131E-003  -1.0924154076514397E-003   6.5839753162886469E-002
   3.5823877929614641E-003  -1.0165540087675590E-003   6.5732860343130778E-002
   3.3544909642879263E-003  -9.3826957622103122E-004   6.5852200070032632E-002
   3.1265941356143816E-003  -8.5756211001190765E-004   6.6197772343592115E-002
   2.8986973069408326E-003  -7.7443161013984740E-004   6.6769577163808422E-002
   4.1187832311440076E-010  -2.2294777135556387E-011   6.6845387862025041E-002
   6.7242940382516991E-010   1.2648759817324162E-010   6.6754732970835950E-002
   9.3298047759704517E-010  -4.8441674282972969E-010   6.6893639711438885E-002
   1.1935315496341969E-009  -1.8550075954471001E-009   6.7262108083833719E-002
   1.4540826320796896E-009  -3.9852852129484972E-009   6.7860138088020161E-002
   2.6761466306868265E-012   0.0000000000000000        2.8446398116837218E-002
   3.5536591030949083E-012   3.9023593384479582E-012   3.3407539329191424E-002
   4.4311720091838591E-012   3.3392819759336945E-012   3.8376402838818435E-002
   5.3086851321132444E-012  -1.6892355569897433E-012   4.3352988645718279E-002
   6.1861982550426298E-012  -1.1183193260322355E-011   4.8337296749890922E-002
  -6.8001421502093852E-003   0.0000000000000000        2.8510360539874567E-002
  -6.8319040243891710E-003   1.4642602837705142E-004   3.3545087307630186E-002
  -6.8636658985689620E-003   3.2985443362898263E-004   3.8508568027998388E-002
  -6.8954277727487478E-003   5.5028521575579362E-004   4.3400802700979173E-002
  -6.9271896469285344E-003   8.0771837475748787E-004   4.8221791326572533E-002
  -1.3505715761568098E-002   0.0000000000000000        2.8702247796716443E-002
  -1.3648207855465421E-002   2.9285205285174178E-004   3.3847562501213790E-002
  -1.3790699949362746E-002   6.5970886391868242E-004   3.8842662813663512E-002
  -1.3933192043260066E-002   1.1005704332008193E-003   4.3687548734065565E-002
  -1.4075684137157391E-002   1.6154367606981586E-003   4.8382220262419971E-002
  -2.0116720831399995E-002   0.0000000000000000        2.9022059887362853E-002
  -2.0448911489675092E-002   4.3927807732643299E-004   3.4314964909942264E-002
  -2.0781102147950183E-002   9.8956329420838351E-004   3.9378687195813791E-002
  -2.1113292806225276E-002   1.6508556506458468E-003   4.4213226744977435E-002
  -2.1445483464500370E-002   2.4231551466388345E-003   4.8818583557433182E-002
  -2.6633157359705079E-002   0.0000000000000000        2.9469796811813789E-002
  -2.7234014927018175E-002   5.8570410180112421E-004   3.4947294533815579E-002
  -2.7834872494331274E-002   1.3194177244980829E-003   4.0116641174449248E-002
  -2.8435730061644370E-002   2.2011408680908742E-003   4.4977836733714797E-002
  -2.9036587628957469E-002   3.2308735325795096E-003   4.9530881211612227E-002
   6.1861982550426298E-012  -1.1183193260322355E-011   4.8337296749890922E-002
   7.1280611621538092E-012  -1.8731297762863974E-011   5.1507114784191482E-002
   8.0699262376693337E-012  -1.7922247019797055E-011   5.4541046546469921E-002
   9.0117889279400787E-012  -8.7560896033789248E-012   5.7439092036726258E-002
   9.9536542202960376E-012   8.7672438753294557E-012   6.0201251254960474E-002
  -6.9271896469285344E-003   8.0771837475748787E-004   4.8221791326572533E-002
  -7.0336793462362854E-003   1.0622838079962409E-003   5.1178332185509691E-002
  -7.1401690455440356E-003   1.2741114128342716E-003   5.4057779915969724E-002
  -7.2466587448517840E-003   1.4432011892715731E-003   5.6860134517952667E-002
  -7.3531484441595359E-003   1.5695531373081453E-003   5.9585395991458477E-002
  -1.4075684137157391E-002   1.6154367606981586E-003   4.8382220262419971E-002
  -1.4229870393169752E-002   2.1245676347237934E-003   5.1082746109235827E-002
  -1.4384056649182108E-002   2.5482228435908250E-003   5.3764971971119568E-002
  -1.4538242905194468E-002   2.8864023872992427E-003   5.6428897848071202E-002
  -1.4692429161206827E-002   3.1391062658490572E-003   5.9074523740090756E-002
  -2.1445483464500370E-002   2.4231551466388345E-003   4.8818583557433182E-002
  -2.1588573133672337E-002   3.1868514614513390E-003   5.1220356555369898E-002
  -2.1731662802844290E-002   3.8223342743473609E-003   5.3662622711919475E-002
  -2.1874752472016257E-002   4.3296035853269193E-003   5.6145382027081983E-002
  -2.2017842141188217E-002   4.7086593943899708E-003   5.8668634500857381E-002
  -2.9036587628957469E-002   3.2308735325795096E-003   4.9530881211612227E-002
  -2.9109787567744030E-002   4.2491352881788812E-003   5.1591163523911882E-002
  -2.9182987506530589E-002   5.0964457051039004E-003   5.3750732138369443E-002
  -2.9256187445317151E-002   5.7728047833545586E-003   5.6009587054984919E-002
  -2.9329387384103716E-002   6.2782125229308636E-003   5.8367728273758281E-002
   9.9536542202960376E-012   8.7672438753294557E-012   6.0201251254960474E-002
   1.3365243807517135E-011   2.0551192692064291E-011   6.1091909488957159E-002
   1.6776834262099971E-011   1.2499183979497452E-011   6.2120993584250161E-002
   2.0188426885087152E-011  -1.5388755807838050E-011   6.3288503540839466E-002
   2.3600014303903905E-011  -6.3112626236261349E-011   6.4594439358724998E-002
  -7.3531484441595359E-003   1.5695531373081453E-003   5.9585395991458477E-002
  -7.2275046387997163E-003   1.6665669581523886E-003   6.0469170680263071E-002
  -7.1018608334398959E-003   1.7476423530126805E-003   6.1465807111667853E-002
  -6.9762170280800798E-003   1.8127793218890224E-003   6.2575305285672789E-002
  -6.8505732227202611E-003   1.8619778647813723E-003   6.3797665202277865E-002
  -1.4692429161206827E-002   3.1391062658490572E-003   5.9074523740090756E-002
  -1.4466705672594900E-002   3.3331338957535810E-003   5.9935476477555247E-002
  -1.4240982183982965E-002   3.4952846935261484E-003   6.0883726838923784E-002
  -1.4015258695371039E-002   3.6255586591667169E-003   6.1919274824196381E-002
  -1.3789535206759108E-002   3.7239557926753708E-003   6.3042120433373039E-002
  -2.2017842141188217E-002   4.7086593943899708E-003   5.8668634500857381E-002
  -2.1717603088020298E-002   4.9997008333547751E-003   5.9490826880833715E-002
  -2.1417364034852369E-002   5.2429270340396371E-003   6.0374752766017996E-002
  -2.1117124981684447E-002   5.4383379964444813E-003   6.1320412156410202E-002
  -2.0816885928516524E-002   5.5859337205693416E-003   6.2327805052010375E-002
  -2.9329387384103716E-002   6.2782125229308636E-003   5.8367728273758281E-002
  -2.8980196885075912E-002   6.6662677709560039E-003   5.9135221890098469E-002
  -2.8631006386048111E-002   6.9905693745531319E-003   5.9938884892950489E-002
  -2.8281815887020313E-002   7.2511173337222162E-003   6.0778717282314342E-002
  -2.7932625387992505E-002   7.4479116484633678E-003   6.1654719058189950E-002
   2.3600014303903905E-011  -6.3112626236261349E-011   6.4594439358724998E-002
   3.3523959649950363E-011  -9.5407078071207962E-011   6.4792691676801989E-002
   4.3447906730720298E-011  -7.7006651055810948E-011   6.5111532890335055E-002
   5.3371853811490233E-011  -7.9115672346752319E-012   6.5550962999324155E-002
   6.3295799157536692E-011   1.1187833992565288E-010   6.6110982003769359E-002
  -6.8505732227202611E-003   1.8619778647813723E-003   6.3797665202277865E-002
  -6.7157634107035957E-003   1.8917637042823593E-003   6.3910306224220989E-002
  -6.5809535986869269E-003   1.8986625629846612E-003   6.4171977954893364E-002
  -6.4461437866702651E-003   1.8826744408881341E-003   6.4582680394295211E-002
  -6.3113339746535928E-003   1.8437993379928630E-003   6.5142413542426378E-002
  -1.3789535206759108E-002   3.7239557926753708E-003   6.3042120433373039E-002
  -1.3491473779376420E-002   3.7835275039718140E-003   6.3046263127688656E-002
  -1.3193412351993741E-002   3.7973252029760290E-003   6.3227878344006894E-002
  -1.2895350924611054E-002   3.7653488896878771E-003   6.3586966082327834E-002
  -1.2597289497228374E-002   3.6875985641074416E-003   6.4123526342651449E-002
  -2.0816885928516524E-002   5.5859337205693416E-003   6.2327805052010375E-002
  -2.0327131072494523E-002   5.6752913036613156E-003   6.2200562387204977E-002
  -1.9837376216472538E-002   5.6959878429673413E-003   6.2279234057675575E-002
  -1.9347621360450554E-002   5.6480233384875993E-003   6.2563820063422093E-002
  -1.8857866504428552E-002   5.5313977902220479E-003   6.3054320404444600E-002
  -2.7932625387992505E-002   7.4479116484633678E-003   6.1654719058189950E-002
  -2.7222735290057906E-002   7.5670551033506922E-003   6.1373204002770035E-002
  -2.6512845192123310E-002   7.5946504829587508E-003   6.1326045095899354E-002
  -2.5802955094188711E-002   7.5306977872873319E-003   6.1513242337577947E-002
  -2.5093064996254119E-002   7.3751970163365432E-003   6.1934795727805747E-002
   6.3295799157536692E-011   1.1187833992565288E-010   6.6110982003769359E-002
  -6.7993111141362306E-012   2.3217046341006409E-010   6.5818337358403423E-002
  -7.6894424855256105E-011   3.0277219620344908E-010   6.5740826185852697E-002
  -1.4698953512692903E-010   3.2368342728350541E-010   6.5878448486117125E-002
  -2.1708464886804890E-010   2.9490443420598922E-010   6.6231204259196763E-002
  -6.3113339746535928E-003   1.8437993379928630E-003   6.5142413542426378E-002
  -6.1011033123784825E-003   1.7929367936123930E-003   6.4869700696059074E-002
  -5.8908726501033844E-003   1.7409863470601999E-003   6.4802315841616998E-002
  -5.6806419878282872E-003   1.6879479983363220E-003   6.4940258979100204E-002
  -5.4704113255531761E-003   1.6338217474408390E-003   6.5283530108508625E-002
  -1.2597289497228374E-002   3.6875985641074416E-003   6.4123526342651449E-002
  -1.2186633583472984E-002   3.5858733550543712E-003   6.3869657442801459E-002
  -1.1775977669717601E-002   3.4819723913483147E-003   6.3811311053986741E-002
  -1.1365321755962214E-002   3.3758956729893000E-003   6.3948487176207380E-002
  -1.0954665842206820E-002   3.2676431999772992E-003   6.4281185809463348E-002
  -1.8857866504428552E-002   5.5313977902220479E-003   6.3054320404444600E-002
  -1.8256590820082807E-002   5.3788099164963112E-003   6.2818207598630577E-002
  -1.7655315135737065E-002   5.2229584356364850E-003   6.2767811822961955E-002
  -1.7054039451391334E-002   5.0638433476422086E-003   6.2903133077438764E-002
  -1.6452763767045582E-002   4.9014646525137595E-003   6.3224171362060905E-002
  -2.5093064996254119E-002   7.3751970163365432E-003   6.1934795727805747E-002
  -2.4310975022207946E-002   7.1717464779382789E-003   6.1715351163546484E-002
  -2.3528885048161786E-002   6.9639444799244749E-003   6.1671818148542723E-002
  -2.2746795074115627E-002   6.7517910222950860E-003   6.1804196682794410E-002
  -2.1964705100069457E-002   6.5352861050502198E-003   6.2112486766301489E-002
  -2.1708464886804890E-010   2.9490443420598922E-010   6.6231204259196763E-002
  -2.0010948800774919E-010   2.0838303305126260E-010   6.5986348662127242E-002
  -1.8313432714744948E-010   5.6067844811380496E-011   6.5937979337444108E-002
  -1.6615916368506456E-010  -1.6204159541954866E-010   6.6086096285147305E-002
  -1.4918400542685006E-010  -4.4594489212457233E-010   6.6430699505236834E-002
  -5.4704113255531761E-003   1.6338217474408390E-003   6.5283530108508625E-002
  -5.2719933297264510E-003   1.5771488286703966E-003   6.5024760060033063E-002
  -5.0735753338997294E-003   1.5164704763220502E-003   6.4966339696874459E-002
  -4.8751573380730051E-003   1.4517866903955064E-003   6.5108269019032383E-002
  -4.6767393422462826E-003   1.3830974708909372E-003   6.5450548026507238E-002
  -1.0954665842206820E-002   3.2676431999772992E-003   6.4281185809463348E-002
  -1.0553966454598152E-002   3.1542974489577047E-003   6.4004495941797829E-002
  -1.0153267066989477E-002   3.0329408965762000E-003   6.3932019172379520E-002
  -9.7525676793808001E-003   2.9035735428325528E-003   6.4063755501208408E-002
  -9.3518682917721248E-003   2.7661953877269052E-003   6.4399704928284396E-002
  -1.6452763767045582E-002   4.9014646525137595E-003   6.3224171362060905E-002
  -1.5845919574724563E-002   4.7314460692451515E-003   6.2925556307421526E-002
  -1.5239075382403563E-002   4.5494113168304331E-003   6.2835017763959680E-002
  -1.4632231190082567E-002   4.3553603952696546E-003   6.2952555731675186E-002
  -1.4025386997761541E-002   4.1492933045628871E-003   6.3278170210568460E-002
  -2.1964705100069457E-002   6.5352861050502198E-003   6.2112486766301489E-002
  -2.1147852690105728E-002   6.3085946895324319E-003   6.1787941156904086E-002
  -2.0331000280142002E-002   6.0658817370845830E-003   6.1675335471614523E-002
  -1.9514147870178265E-002   5.8071472477067079E-003   6.1774669710432994E-002
  -1.8697295460214550E-002   5.5323912213987581E-003   6.2085943873359306E-002
  -1.4918400542685006E-010  -4.4594489212457233E-010   6.6430699505236834E-002
  -8.9184215568138825E-012  -6.5706706742219012E-010   6.6206643633341611E-002
   1.3134715884377535E-010  -6.5683286587514544E-010   6.6201073068841265E-002
   2.7161273924436458E-010  -4.4524196829431872E-010   6.6413987811735770E-002
   4.1187832311440076E-010  -2.2294777135556387E-011   6.6845387862025041E-002
  -4.6767393422462826E-003   1.3830974708909372E-003   6.5450548026507238E-002
  -4.4601254704685952E-003   1.3119108872034491E-003   6.5225736280549895E-002
  -4.2435115986909130E-003   1.2397350087274966E-003   6.5215666690221830E-002
  -4.0268977269132342E-003   1.1665698354639438E-003   6.5420339255522944E-002
  -3.8102838551355503E-003   1.0924153674118364E-003   6.5839753976453752E-002
  -9.3518682917721248E-003   2.7661953877269052E-003   6.4399704928284396E-002
  -8.9223838402478460E-003   2.6238224314739100E-003   6.4173147802120231E-002
  -8.4928993887235724E-003   2.4794706742880812E-003   6.4157589679819979E-002
  -8.0634149371992918E-003   2.3331401161697449E-003   6.4353030561383570E-002
  -7.6339304856750077E-003   2.1848307571185333E-003   6.4759470446811032E-002
  -1.4025386997761541E-002   4.1492933045628871E-003   6.3278170210568460E-002
  -1.3386775118256169E-002   3.9357339757442600E-003   6.3048878198053007E-002
  -1.2748163238750807E-002   3.7192063398486658E-003   6.3026842037635838E-002
  -1.2109551359245444E-002   3.4997103968752684E-003   6.3212061729317037E-002
  -1.1470939479740065E-002   3.2772461468251329E-003   6.3604537273096617E-002
  -1.8697295460214550E-002   5.5323912213987581E-003   6.2085943873359306E-002
  -1.7853299304493583E-002   5.2476455200149152E-003   6.1852927468347918E-002
  -1.7009303148772630E-002   4.9589420054090144E-003   6.1823423763669366E-002
  -1.6165306993051669E-002   4.6662806775813991E-003   6.1997432759323665E-002
  -1.5321310837330709E-002   4.3696615365317326E-003   6.2374954455310827E-002
   4.1187832311440076E-010  -2.2294777135556387E-011   6.6845387862025041E-002
   6.7242940382516991E-010   1.2648759817324162E-010   6.6754732970835950E-002
   9.3298047759704517E-010  -4.8441674282972969E-010   6.6893639711438885E-002
   1.1935315496341969E-009  -1.8550075954471001E-009   6.7262108083833719E-002
   1.4540826320796896E-009  -3.9852852129484972E-009   6.7860138088020161E-002
  -3.8102838551355503E-003   1.0924153674118364E-003   6.5839753976453752E-002
  -3.5823864849770029E-003   1.0165542789744575E-003   6.5732859846719893E-002
  -3.3544891148184625E-003   9.3826924455357730E-004   6.5852198304409054E-002
  -3.1265917446599229E-003   8.5756026414969197E-004   6.6197769349521429E-002
  -2.8986943745013746E-003   7.7442733776256212E-004   6.6769572982056546E-002
  -7.6339304856750077E-003   2.1848307571185333E-003   6.4759470446811032E-002
  -7.1814650502778077E-003   2.0331084314611503E-003   6.4633913892235620E-002
  -6.7289996148805938E-003   1.8765389735239044E-003   6.4731260880714597E-002
  -6.2765341794833729E-003   1.7151223833070089E-003   6.5051511412247701E-002
  -5.8240687440861798E-003   1.5488586608103372E-003   6.5594665486835180E-002
  -1.1470939479740065E-002   3.2772461468251329E-003   6.3604537273096617E-002
  -1.0797235023472990E-002   3.0496625839479263E-003   6.3457895107383380E-002
  -1.0123530567205904E-002   2.8148087024941724E-003   6.3530827440355320E-002
  -9.4498261109388360E-003   2.5726845024644776E-003   6.3823334272013130E-002
  -8.7761216546717556E-003   2.3232899838581678E-003   6.4335415602355742E-002
  -1.5321310837330709E-002   4.3696615365317326E-003   6.2374954455310827E-002
  -1.4429696404562570E-002   4.0662167364347024E-003   6.2204803492162841E-002
  -1.3538081971794423E-002   3.7530784314646903E-003   6.2250897983331388E-002
  -1.2646467539026263E-002   3.4302466216217312E-003   6.2513237928816884E-002
  -1.1754853106258137E-002   3.0977213069058873E-003   6.2991823328618635E-002
  -2.6633157359705079E-002   0.0000000000000000        2.9469796811813789E-002
  -2.7234014927018175E-002   5.8570410180112421E-004   3.4947294533815579E-002
  -2.7834872494331274E-002   1.3194177244980829E-003   4.0116641174449248E-002
  -2.8435730061644370E-002   2.2011408680908742E-003   4.4977836733714797E-002
  -2.9036587628957469E-002   3.2308735325795096E-003   4.9530881211612227E-002
  -3.3392485139460783E-002   0.0000000000000000        3.0179918786739625E-002
  -3.4236237275264064E-002   9.6020801464279451E-004   3.5267990143783547E-002
  -3.5079989411067325E-002   2.0237428415742515E-003   4.0178423445215244E-002
  -3.5923741546870593E-002   3.1906044807943797E-003   4.4911218691034691E-002
  -3.6767493682673867E-002   4.4607929323031590E-003   4.9466375881241947E-002
  -4.0732163963644569E-002   0.0000000000000000        3.1286886028810711E-002
  -4.1688297642182119E-002   1.3347119274844657E-003   3.5940848312289594E-002
  -4.2644431320719670E-002   2.7280679586504236E-003   4.0547685565912137E-002
  -4.3600564999257220E-002   4.1800680934978782E-003   4.5107397789678344E-002
  -4.4556698677794764E-002   5.6907123320268267E-003   4.9619984983588231E-002
  -4.8652193832256413E-002   0.0000000000000000        3.2790698538027060E-002
  -4.9590196027772357E-002   1.7092158403261368E-003   3.6965869039333715E-002
  -5.0528198223288280E-002   3.4323930757265979E-003   4.1224427536539952E-002
  -5.1466200418804203E-002   5.1695317062013784E-003   4.5566374029645730E-002
  -5.2404202614320147E-002   6.9206317317504849E-003   4.9991708518651104E-002
  -5.7152574745296343E-002   0.0000000000000000        3.4691356314388661E-002
  -5.7941932432034757E-002   2.0837197531678080E-003   3.8343052324915930E-002
  -5.8731290118773177E-002   4.1367181928027661E-003   4.2208649357098678E-002
  -5.9520647805511591E-002   6.1589953189048786E-003   4.6288147410936877E-002
  -6.0310005492250005E-002   8.1505511314741430E-003   5.0581546486430533E-002
  -2.9036587628957469E-002   3.2308735325795096E-003   4.9530881211612227E-002
  -2.9109787567744030E-002   4.2491352881788812E-003   5.1591163523911882E-002
  -2.9182987506530589E-002   5.0964457051039004E-003   5.3750732138369443E-002
  -2.9256187445317151E-002   5.7728047833545586E-003   5.6009587054984919E-002
  -2.9329387384103716E-002   6.2782125229308636E-003   5.8367728273758281E-002
  -3.6767493682673867E-002   4.4607929323031590E-003   4.9466375881241947E-002
  -3.6780446141654127E-002   5.6942166561725661E-003   5.1255416626664614E-002
  -3.6793398600634381E-002   6.7507841124744760E-003   5.3065666029541991E-002
  -3.6806351059614634E-002   7.6304953012089529E-003   5.4897124089874093E-002
  -3.6819303518594894E-002   8.3333502223759404E-003   5.6749790807660884E-002
  -4.4556698677794764E-002   5.6907123320268267E-003   4.9619984983588231E-002
  -4.4587481301671901E-002   7.1392980241662459E-003   5.1131879233240800E-002
  -4.4618263925549038E-002   8.4051225198450794E-003   5.2586904495644890E-002
  -4.4649046549426169E-002   9.4881858190633359E-003   5.3985060770800494E-002
  -4.4679829173303306E-002   1.0388487921821035E-002   5.5326348058707626E-002
  -5.2404202614320147E-002   6.9206317317504849E-003   4.9991708518651104E-002
  -5.2530893047797352E-002   8.5843793921599187E-003   5.1220551343640466E-002
  -5.2657583481274570E-002   1.0059460927215658E-002   5.2314447536678139E-002
  -5.2784273914751781E-002   1.1345876336917740E-002   5.3273397097764172E-002
  -5.2910964348228999E-002   1.2443625621266127E-002   5.4097400026898529E-002
  -6.0310005492250005E-002   8.1505511314741430E-003   5.0581546486430533E-002
  -6.0610681380030493E-002   1.0029460760153611E-002   5.1521432957863558E-002
  -6.0911357267810967E-002   1.1713799334586260E-002   5.2248295152641760E-002
  -6.1212033155591442E-002   1.3203566854772111E-002   5.2762133070765070E-002
  -6.1512709043371930E-002   1.4498763320711198E-002   5.3062946712233515E-002
  -2.9329387384103716E-002   6.2782125229308636E-003   5.8367728273758281E-002
  -2.8980196885075912E-002   6.6662677709560039E-003   5.9135221890098469E-002
  -2.8631006386048111E-002   6.9905693745531319E-003   5.9938884892950489E-002
  -2.8281815887020313E-002   7.2511173337222162E-003   6.0778717282314342E-002
  -2.7932625387992505E-002   7.4479116484633678E-003   6.1654719058189950E-002
  -3.6819303518594894E-002   8.3333502223759404E-003   5.6749790807660884E-002
  -3.6381924564154469E-002   8.8753712106629593E-003   5.7094411351374337E-002
  -3.5944545609714065E-002   9.2725806007574671E-003   5.7579239419401212E-002
  -3.5507166655273668E-002   9.5249783926595385E-003   5.8204275011741469E-002
  -3.5069787700833230E-002   9.6325645863690607E-003   5.8969518128395140E-002
  -4.4679829173303306E-002   1.0388487921821035E-002   5.5326348058707626E-002
  -4.4050223625648720E-002   1.1084474650369953E-002   5.5167037576029886E-002
  -4.3420618077994126E-002   1.1554591826961901E-002   5.5251972755467137E-002
  -4.2791012530339519E-002   1.1798839451596833E-002   5.5581153597019366E-002
  -4.2161406982684932E-002   1.1817217524274781E-002   5.6154580100686566E-002
  -5.2910964348228999E-002   1.2443625621266127E-002   5.4097400026898529E-002
  -5.1985094069558625E-002   1.3293578090076941E-002   5.3353100564065066E-002
  -5.1059223790888265E-002   1.3836603053166285E-002   5.2957084901148185E-002
  -5.0133353512217899E-002   1.4072700510534129E-002   5.2909353038147873E-002
  -4.9207483233547532E-002   1.4001870462180543E-002   5.3209904975064087E-002
  -6.1512709043371930E-002   1.4498763320711198E-002   5.3062946712233515E-002
  -6.0186535895884220E-002   1.5502681529783905E-002   5.1652600315479899E-002
  -5.8860362748396497E-002   1.6118614279370676E-002   5.0694575856444449E-002
  -5.7534189600908801E-002   1.6346561569471445E-002   5.0188873335127088E-002
  -5.6208016453421085E-002   1.6186523400086222E-002   5.0135492751527844E-002
  -2.7932625387992505E-002   7.4479116484633678E-003   6.1654719058189950E-002
  -2.7222735290057906E-002   7.5670551033506922E-003   6.1373204002770035E-002
  -2.6512845192123310E-002   7.5946504829587508E-003   6.1326045095899354E-002
  -2.5802955094188711E-002   7.5306977872873319E-003   6.1513242337577947E-002
  -2.5093064996254119E-002   7.3751970163365432E-003   6.1934795727805747E-002
  -3.5069787700833230E-002   9.6325645863690607E-003   5.8969518128395140E-002
  -3.4135490424230391E-002   9.6347919687119962E-003   5.8644870084173274E-002
  -3.3201193147627553E-002   9.5711133265144778E-003   5.8534680248738639E-002
  -3.2266895871024721E-002   9.4415286597761966E-003   5.8638948622091291E-002
  -3.1332598594421869E-002   9.2460379684974059E-003   5.8957675204231064E-002
  -4.2161406982684932E-002   1.1817217524274781E-002   5.6154580100686566E-002
  -4.1022600467175853E-002   1.1702528834073321E-002   5.5812441118401543E-002
  -3.9883793951666788E-002   1.1547576170070149E-002   5.5664862405141728E-002
  -3.8744987436157723E-002   1.1352359532265077E-002   5.5711843960907170E-002
  -3.7606180920648644E-002   1.1116878920658296E-002   5.5953385785697793E-002
  -4.9207483233547532E-002   1.4001870462180543E-002   5.3209904975064087E-002
  -4.7884065418894256E-002   1.3770265699434663E-002   5.2875917105454716E-002
  -4.6560647604240980E-002   1.3524039013625765E-002   5.2716591565108557E-002
  -4.5237229789587712E-002   1.3263190404754033E-002   5.2731928354025639E-002
  -4.3913811974934436E-002   1.2987719872819159E-002   5.2921927472205810E-002
  -5.6208016453421085E-002   1.6186523400086222E-002   5.0135492751527844E-002
  -5.4719885279385636E-002   1.5838002564795908E-002   4.9835298045332946E-002
  -5.3231754105350165E-002   1.5500501857181534E-002   4.9689867728639231E-002
  -5.1743622931314702E-002   1.5174021277242804E-002   4.9699201801446685E-002
  -5.0255491757279266E-002   1.4858560824980022E-002   4.9863300263755322E-002
  -2.5093064996254119E-002   7.3751970163365432E-003   6.1934795727805747E-002
  -2.4310975022207946E-002   7.1717464779382789E-003   6.1715351163546484E-002
  -2.3528885048161786E-002   6.9639444799244749E-003   6.1671818148542723E-002
  -2.2746795074115627E-002   6.7517910222950860E-003   6.1804196682794410E-002
  -2.1964705100069457E-002   6.5352861050502198E-003   6.2112486766301489E-002
  -3.1332598594421869E-002   9.2460379684974059E-003   5.8957675204231064E-002
  -3.0367772566569175E-002   9.0092775531826347E-003   5.8700513974890442E-002
  -2.9402946538716498E-002   8.7558837143366236E-003   5.8632913303907422E-002
  -2.8438120510863814E-002   8.4858564519593206E-003   5.8754873191282031E-002
  -2.7473294483011099E-002   8.1991957660506876E-003   5.9066393637014158E-002
  -3.7606180920648644E-002   1.1116878920658296E-002   5.5953385785697793E-002
  -3.6444969829887292E-002   1.0846808628427046E-002   5.5646225927360043E-002
  -3.5283758739125932E-002   1.0547822948748807E-002   5.5542275636482070E-002
  -3.4122547648364560E-002   1.0219921881623474E-002   5.5641534913063798E-002
  -3.2961336557603221E-002   9.8631054270511276E-003   5.5944003757105371E-002
  -4.3913811974934436E-002   1.2987719872819159E-002   5.2921927472205810E-002
  -4.2542566812162258E-002   1.2684339703671388E-002   5.2552487020955232E-002
  -4.1171321649390094E-002   1.2339762183160973E-002   5.2399905146266537E-002
  -3.9800076486617937E-002   1.1953987311287669E-002   5.2464181848139786E-002
  -3.8428831323845745E-002   1.1527015088051609E-002   5.2745317126574827E-002
  -5.0255491757279266E-002   1.4858560824980022E-002   4.9863300263755322E-002
  -4.8660563513394109E-002   1.4521870778915799E-002   4.9419297255676148E-002
  -4.7065635269508986E-002   1.4131701417573132E-002   4.9205801833260995E-002
  -4.5470707025623863E-002   1.3688052740951860E-002   4.9222813996509955E-002
  -4.3875778781738720E-002   1.3190924749052035E-002   4.9470333745422757E-002
  -2.1964705100069457E-002   6.5352861050502198E-003   6.2112486766301489E-002
  -2.1147852690105728E-002   6.3085946895324319E-003   6.1787941156904086E-002
  -2.0331000280142002E-002   6.0658817370845830E-003   6.1675335471614523E-002
  -1.9514147870178265E-002   5.8071472477067079E-003   6.1774669710432994E-002
  -1.8697295460214550E-002   5.5323912213987581E-003   6.2085943873359306E-002
  -2.7473294483011099E-002   8.1991957660506876E-003   5.9066393637014158E-002
  -2.6448378481434137E-002   7.8990185557572118E-003   5.8745308422387496E-002
  -2.5423462479857190E-002   7.5884417202258456E-003   5.8628410466879416E-002
  -2.4398546478280211E-002   7.2674652594559627E-003   5.8715699770489946E-002
  -2.3373630476703249E-002   6.9360891734480679E-003   5.9007176333218975E-002
  -3.2961336557603221E-002   9.8631054270511276E-003   5.5944003757105371E-002
  -3.1736109629402348E-002   9.4894424219820472E-003   5.5632000848941258E-002
  -3.0510882701201489E-002   9.1110017033667751E-003   5.5516432534906429E-002
  -2.9285655773000633E-002   8.7277832712050508E-003   5.5597298815000813E-002
  -2.8060428844799760E-002   8.3397871254971279E-003   5.5874599689224383E-002
  -3.8428831323845745E-002   1.1527015088051609E-002   5.2745317126574827E-002
  -3.7011046134010336E-002   1.1079866288206910E-002   5.2448018436565248E-002
  -3.5593260944174934E-002   1.0633561686507705E-002   5.2339401675695729E-002
  -3.4175475754339546E-002   1.0188101282954222E-002   5.2419466843965881E-002
  -3.2757690564504151E-002   9.7434850775462573E-003   5.2688213941376086E-002
  -4.3875778781738720E-002   1.3190924749052035E-002   4.9470333745422757E-002
  -4.2273187995258102E-002   1.2670290154431663E-002   4.9193361185259687E-002
  -4.0670597208777519E-002   1.2156121669648912E-002   4.9097317889247094E-002
  -3.9068006422296922E-002   1.1648419294703408E-002   4.9182203857384990E-002
  -3.7465415635816318E-002   1.1147183029595442E-002   4.9448019089673445E-002
  -1.8697295460214550E-002   5.5323912213987581E-003   6.2085943873359306E-002
  -1.7853299304493583E-002   5.2476455200149152E-003   6.1852927468347918E-002
  -1.7009303148772630E-002   4.9589420054090144E-003   6.1823423763669366E-002
  -1.6165306993051669E-002   4.6662806775813991E-003   6.1997432759323665E-002
  -1.5321310837330709E-002   4.3696615365317326E-003   6.2374954455310827E-002
  -2.3373630476703249E-002   6.9360891734480679E-003   5.9007176333218975E-002
  -2.2328216466798639E-002   6.5957821615314771E-003   5.8755891710550123E-002
  -2.1282802456894061E-002   6.2480129230359366E-003   5.8703930095915749E-002
  -2.0237388446989454E-002   5.8927814579616093E-003   5.8851291489315720E-002
  -1.9191974437084845E-002   5.5300877663082004E-003   5.9197975890750265E-002
  -2.8060428844799760E-002   8.3397871254971279E-003   5.5874599689224383E-002
  -2.6817786673009922E-002   7.9439188030480251E-003   5.5601542435541162E-002
  -2.5575144501220087E-002   7.5370838406628657E-003   5.5523618497593817E-002
  -2.4332502329430249E-002   7.1192822383417658E-003   5.5640827875382590E-002
  -2.3089860157640446E-002   6.6905139960846127E-003   5.5953170568907445E-002
  -3.2757690564504151E-002   9.7434850775462573E-003   5.2688213941376086E-002
  -3.1322009923127433E-002   9.2920554445645800E-003   5.2389879643321091E-002
  -2.9886329281750768E-002   8.8261547582898468E-003   5.2282488968703952E-002
  -2.8450648640374079E-002   8.3457830187218945E-003   5.2366041917524239E-002
  -2.7014967998997393E-002   7.8509402258610528E-003   5.2640538489782306E-002
  -3.7465415635816318E-002   1.1147183029595442E-002   4.9448019089673445E-002
  -3.5840886217151161E-002   1.0640192086081135E-002   4.9120903333889854E-002
  -3.4216356798486058E-002   1.0115225675916689E-002   4.8980541509245634E-002
  -3.2591827379820922E-002   9.5722837991021811E-003   4.9026933615740620E-002
  -3.0967297961155799E-002   9.0113664556375483E-003   4.9260079653374811E-002
  -1.5321310837330709E-002   4.3696615365317326E-003   6.2374954455310827E-002
  -1.4429696404562570E-002   4.0662167364347024E-003   6.2204803492162841E-002
  -1.3538081971794423E-002   3.7530784314646903E-003   6.2250897983331388E-002
  -1.2646467539026263E-002   3.4302466216217312E-003   6.2513237928816884E-002
  -1.1754853106258137E-002   3.0977213069058873E-003   6.2991823328618635E-002
  -1.9191974437084845E-002   5.5300877663082004E-003   5.9197975890750265E-002
  -1.8088030519781514E-002   5.1594366547297044E-003   5.8987613777947340E-002
  -1.6984086602478146E-002   4.7803329298803099E-003   5.8985665179898145E-002
  -1.5880142685174733E-002   4.3927765917599546E-003   5.9192130096602485E-002
  -1.4776198767871444E-002   3.9967676403683816E-003   5.9607008528061334E-002
  -2.3089860157640446E-002   6.6905139960846127E-003   5.5953170568907445E-002
  -2.1781418695364718E-002   6.2526565730248729E-003   5.5703838198051692E-002
  -2.0472977233089017E-002   5.8075874282960821E-003   5.5655087402386796E-002
  -1.9164535770813319E-002   5.3553065618981467E-003   5.5806918181912669E-002
  -1.7856094308537587E-002   4.8958139738309869E-003   5.6159330536629692E-002
  -2.7014967998997393E-002   7.8509402258610528E-003   5.2640538489782306E-002
  -2.5509860931312290E-002   7.3458764913198471E-003   5.2353476752475321E-002
  -2.4004753863627160E-002   6.8348419267117225E-003   5.2259164650796538E-002
  -2.2499646795941953E-002   6.3178365320362435E-003   5.2357602184745652E-002
  -2.0994539728256895E-002   5.7948603072934812E-003   5.2648789354322795E-002
  -3.0967297961155799E-002   9.0113664556375483E-003   4.9260079653374811E-002
  -2.9273357227624100E-002   8.4390964096150434E-003   4.8936529441218901E-002
  -2.7579416494092415E-002   7.8620964251275433E-003   4.8797896925128009E-002
  -2.5885475760560751E-002   7.2803665021745241E-003   4.8844182105102260E-002
  -2.4191535027029032E-002   6.6939066407560865E-003   4.9075384981141834E-002
  -5.7152574745296343E-002   0.0000000000000000        3.4691356314388661E-002
  -5.7941932432034757E-002   2.0837197531678080E-003   3.8343052324915930E-002
  -5.8731290118773177E-002   4.1367181928027661E-003   4.2208649357098678E-002
  -5.9520647805511591E-002   6.1589953189048786E-003   4.6288147410936877E-002
  -6.0310005492250005E-002   8.1505511314741430E-003   5.0581546486430533E-002
  -6.5821108512584048E-002   0.0000000000000000        3.7212270240397020E-002
  -6.6625709987359311E-002   2.9139816347357453E-003   4.0834740313051336E-002
  -6.7430311462134573E-002   5.7704316547780229E-003   4.4212821787976496E-002
  -6.8234912936909836E-002   8.5693500601268287E-003   4.7346514665172479E-002
  -6.9039514411685113E-002   1.1310736850782176E-002   5.0235818944639334E-002
  -7.4245596943939243E-002   0.0000000000000000        4.0576851198553622E-002
  -7.5523731826135962E-002   3.7442435163036838E-003   4.4143285032174365E-002
  -7.6801866708332708E-002   7.4041451167532798E-003   4.7007040648681324E-002
  -7.8080001590529441E-002   1.0979704801348782E-002   4.9168118048074479E-002
  -7.9358136472726173E-002   1.4470922570090194E-002   5.0626517230353885E-002
  -8.2426040039361909E-002   0.0000000000000000        4.4785099188858479E-002
  -8.4635997948364738E-002   4.5745053978716215E-003   4.8268686482285030E-002
  -8.6845955857367582E-002   9.0378585787285366E-003   5.0591305939213148E-002
  -8.9055913766370398E-002   1.3390059542570739E-002   5.1752957559642883E-002
  -9.1265871675373242E-002   1.7631108289398231E-002   5.1753641343574200E-002
  -9.0362437798852085E-002   0.0000000000000000        4.9837014211311578E-002
  -9.3962508354045626E-002   5.4047672794395596E-003   5.3210944663383303E-002
  -9.7562578909239167E-002   1.0671572040703792E-002   5.4965617659571989E-002
 -0.10116264946443272        1.5800414283792689E-002   5.5101033199877650E-002
 -0.10476272001962628        2.0791294008706246E-002   5.3617191284300293E-002
  -6.0310005492250005E-002   8.1505511314741430E-003   5.0581546486430533E-002
  -6.0610681380030493E-002   1.0029460760153611E-002   5.1521432957863558E-002
  -6.0911357267810967E-002   1.1713799334586260E-002   5.2248295152641760E-002
  -6.1212033155591442E-002   1.3203566854772111E-002   5.2762133070765070E-002
  -6.1512709043371930E-002   1.4498763320711198E-002   5.3062946712233515E-002
  -6.9039514411685113E-002   1.1310736850782176E-002   5.0235818944639334E-002
  -6.9315301082175512E-002   1.3755042223112489E-002   4.9458904630309657E-002
  -6.9591087752665898E-002   1.5662716373486190E-002   4.8944793027215036E-002
  -6.9866874423156283E-002   1.7033759301903355E-002   4.8693484135355444E-002
  -7.0142661093646669E-002   1.7868171008363881E-002   4.8704977954730916E-002
  -7.9358136472726173E-002   1.4470922570090194E-002   5.0626517230353885E-002
  -7.9133206938036577E-002   1.7480623686071367E-002   4.7790741962551710E-002
  -7.8908277403346966E-002   1.9611633412386142E-002   4.5693596393874485E-002
  -7.8683347868657327E-002   2.0863951749034562E-002   4.4335080524322203E-002
  -7.8458418333967717E-002   2.1237578696016567E-002   4.3715194353894905E-002
  -9.1265871675373242E-002   1.7631108289398231E-002   5.1753641343574200E-002
  -9.0064398947613741E-002   2.1206205149030249E-002   4.6516944954589710E-002
  -8.8862926219854199E-002   2.3560550451286109E-002   4.2494705252620064E-002
  -8.7661453492094657E-002   2.4694144196165783E-002   3.9686922237665331E-002
  -8.6459980764335143E-002   2.4606986383669240E-002   3.8093595909725428E-002
 -0.10476272001962628        2.0791294008706246E-002   5.3617191284300293E-002
 -0.10210887711090694        2.4931786611989130E-002   4.5637513606423707E-002
  -9.9455034202187598E-002   2.7509467490186040E-002   3.9348119603451817E-002
  -9.6801191293468258E-002   2.8524336643296986E-002   3.4749009275384837E-002
  -9.4147348384748891E-002   2.7976394071321929E-002   3.1840182622222511E-002
  -6.1512709043371930E-002   1.4498763320711198E-002   5.3062946712233515E-002
  -6.0186535895884220E-002   1.5502681529783905E-002   5.1652600315479899E-002
  -5.8860362748396497E-002   1.6118614279370676E-002   5.0694575856444449E-002
  -5.7534189600908801E-002   1.6346561569471445E-002   5.0188873335127088E-002
  -5.6208016453421085E-002   1.6186523400086222E-002   5.0135492751527844E-002
  -7.0142661093646669E-002   1.7868171008363881E-002   4.8704977954730916E-002
  -6.8410740048833865E-002   1.8322858108526411E-002   4.7256850602475198E-002
  -6.6678819004021062E-002   1.8554727218049499E-002   4.6167897107151551E-002
  -6.4946897959208258E-002   1.8563778336933161E-002   4.5438117468759955E-002
  -6.3214976914395440E-002   1.8350011465177327E-002   4.5067511687300360E-002
  -7.8458418333967717E-002   2.1237578696016567E-002   4.3715194353894905E-002
  -7.6413897472615941E-002   2.1143034687268913E-002   4.2394453514983638E-002
  -7.4369376611264124E-002   2.0990840156728339E-002   4.1339738452218305E-002
  -7.2324855749912334E-002   2.0780995104394847E-002   4.0551049165598957E-002
  -7.0280334888560531E-002   2.0513499530268417E-002   4.0028385655125523E-002
  -8.6459980764335143E-002   2.4606986383669240E-002   3.8093595909725428E-002
  -8.4196008167230427E-002   2.3963211266011433E-002   3.7065409053005066E-002
  -8.1932035570125683E-002   2.3426953095407183E-002   3.6210099891644608E-002
  -7.9668062973020995E-002   2.2998211871856550E-002   3.5527668425644060E-002
  -7.7404090375916251E-002   2.2676987595359487E-002   3.5018114655003318E-002
  -9.4147348384748891E-002   2.7976394071321929E-002   3.1840182622222511E-002
  -9.1757072132677364E-002   2.6783387844753908E-002   3.1269717216539671E-002
  -8.9366795880605795E-002   2.5863066034086002E-002   3.0778981425430552E-002
  -8.6976519628534296E-002   2.5215428639318235E-002   3.0367975248895285E-002
  -8.4586243376462714E-002   2.4840475660450584E-002   3.0036698686933733E-002
  -5.6208016453421085E-002   1.6186523400086222E-002   5.0135492751527844E-002
  -5.4719885279385636E-002   1.5838002564795908E-002   4.9835298045332946E-002
  -5.3231754105350165E-002   1.5500501857181534E-002   4.9689867728639231E-002
  -5.1743622931314702E-002   1.5174021277242804E-002   4.9699201801446685E-002
  -5.0255491757279266E-002   1.4858560824980022E-002   4.9863300263755322E-002
  -6.3214976914395440E-002   1.8350011465177327E-002   4.5067511687300360E-002
  -6.1555070052488767E-002   1.8010024634206659E-002   4.4716629866227681E-002
  -5.9895163190582072E-002   1.7640415875445906E-002   4.4554535031396177E-002
  -5.8235256328675405E-002   1.7241185188894954E-002   4.4581227182805994E-002
  -5.6575349466768732E-002   1.6812332574553751E-002   4.4796706320457139E-002
  -7.0280334888560531E-002   2.0513499530268417E-002   4.0028385655125523E-002
  -6.8414629742042515E-002   2.0182046703617430E-002   3.9586174663708978E-002
  -6.6548924595524528E-002   1.9780329893710251E-002   3.9366773255273775E-002
  -6.4683219449006513E-002   1.9308349100546955E-002   3.9370181429819948E-002
  -6.2817514302488525E-002   1.8766104324127439E-002   3.9596399187347496E-002
  -7.7404090375916251E-002   2.2676987595359487E-002   3.5018114655003318E-002
  -7.5298564348046826E-002   2.2354068773028177E-002   3.4443932437776950E-002
  -7.3193038320177414E-002   2.1920243911974665E-002   3.4126582400272061E-002
  -7.1087512292308003E-002   2.1375513012199001E-002   3.4066064542488561E-002
  -6.8981986264438591E-002   2.0719876073701120E-002   3.4262378864426582E-002
  -8.4586243376462714E-002   2.4840475660450584E-002   3.0036698686933733E-002
  -8.2206873870501795E-002   2.4526090842438925E-002   2.9289903188431596E-002
  -7.9827504364540863E-002   2.4060157930238989E-002   2.8833962466390944E-002
  -7.7448134858579931E-002   2.3442676923851095E-002   2.8668876520811862E-002
  -7.5068765352618999E-002   2.2673647823274856E-002   2.8794645351694348E-002
  -5.0255491757279266E-002   1.4858560824980022E-002   4.9863300263755322E-002
  -4.8660563513394109E-002   1.4521870778915799E-002   4.9419297255676148E-002
  -4.7065635269508986E-002   1.4131701417573132E-002   4.9205801833260995E-002
  -4.5470707025623863E-002   1.3688052740951860E-002   4.9222813996509955E-002
  -4.3875778781738720E-002   1.3190924749052035E-002   4.9470333745422757E-002
  -5.6575349466768732E-002   1.6812332574553751E-002   4.4796706320457139E-002
  -5.4759660488502067E-002   1.6354387117879940E-002   4.4379627798788304E-002
  -5.2943971510235388E-002   1.5867877904331078E-002   4.4173563160218664E-002
  -5.1128282531968709E-002   1.5352804933907447E-002   4.4178512404747988E-002
  -4.9312593553702010E-002   1.4809168206608547E-002   4.4394475532376410E-002
  -6.2817514302488525E-002   1.8766104324127439E-002   3.9596399187347496E-002
  -6.0800558292405271E-002   1.8186903456844088E-002   3.9231160710492728E-002
  -5.8783602282322031E-002   1.7604054391089304E-002   3.9057442414172042E-002
  -5.6766646272238770E-002   1.7017557126862981E-002   3.9075244298385367E-002
  -5.4749690262155537E-002   1.6427411664165115E-002   3.9284566363132906E-002
  -6.8981986264438591E-002   2.0719876073701120E-002   3.4262378864426582E-002
  -6.6783256925103757E-002   2.0019419795808176E-002   3.3973895990789232E-002
  -6.4584527585768936E-002   1.9340230877847364E-002   3.3857439595121115E-002
  -6.2385798246434122E-002   1.8682309319818513E-002   3.3913009677422008E-002
  -6.0187068907099239E-002   1.8045655121721710E-002   3.4140606237691967E-002
  -7.5068765352618999E-002   2.2673647823274856E-002   2.8794645351694348E-002
  -7.2707756386597544E-002   2.1851936134772390E-002   2.8607833639678115E-002
  -7.0346747420576103E-002   2.1076407364605532E-002   2.8573554703065829E-002
  -6.7985738454554662E-002   2.0347061512774114E-002   2.8691808541857794E-002
  -6.5624729488533207E-002   1.9663898579278194E-002   2.8962595156053927E-002
  -4.3875778781738720E-002   1.3190924749052035E-002   4.9470333745422757E-002
  -4.2273187995258102E-002   1.2670290154431663E-002   4.9193361185259687E-002
  -4.0670597208777519E-002   1.2156121669648912E-002   4.9097317889247094E-002
  -3.9068006422296922E-002   1.1648419294703408E-002   4.9182203857384990E-002
  -3.7465415635816318E-002   1.1147183029595442E-002   4.9448019089673445E-002
  -4.9312593553702010E-002   1.4809168206608547E-002   4.4394475532376410E-002
  -4.7528270478849131E-002   1.4251254204319760E-002   4.4121261718311058E-002
  -4.5743947403996246E-002   1.3693349408925901E-002   4.4030583216839711E-002
  -4.3959624329143368E-002   1.3135453820426867E-002   4.4122440027962492E-002
  -4.2175301254290476E-002   1.2577567438822990E-002   4.4396832151679333E-002
  -5.4749690262155537E-002   1.6427411664165115E-002   3.9284566363132906E-002
  -5.2782028850486842E-002   1.5832218254207886E-002   3.9008654392222730E-002
  -5.0814367438818162E-002   1.5230577148202945E-002   3.8916883782350115E-002
  -4.8846706027149425E-002   1.4622488346150549E-002   3.9009254533515149E-002
  -4.6879044615480779E-002   1.4007951848050565E-002   3.9285766645717729E-002
  -6.0187068907099239E-002   1.8045655121721710E-002   3.4140606237691967E-002
  -5.8034463110171249E-002   1.7413182304095859E-002   3.3855539206994606E-002
  -5.5881857313243230E-002   1.6767804887479962E-002   3.3756219585778340E-002
  -5.3729251516315177E-002   1.6109522871874036E-002   3.3842647374043106E-002
  -5.1576645719387172E-002   1.5438336257278071E-002   3.4114822571789001E-002
  -6.5624729488533207E-002   1.9663898579278194E-002   2.8962595156053927E-002
  -6.3285573257902322E-002   1.8994146353984082E-002   2.8661916162626727E-002
  -6.0946417027271452E-002   1.8305032626756979E-002   2.8548590627124226E-002
  -5.8607260796640574E-002   1.7596557397597662E-002   2.8622618549546300E-002
  -5.6268104566009697E-002   1.6868720666505632E-002   2.8883999929892989E-002
  -3.7465415635816318E-002   1.1147183029595442E-002   4.9448019089673445E-002
  -3.5840886217151161E-002   1.0640192086081135E-002   4.9120903333889854E-002
  -3.4216356798486058E-002   1.0115225675916689E-002   4.8980541509245634E-002
  -3.2591827379820922E-002   9.5722837991021811E-003   4.9026933615740620E-002
  -3.0967297961155799E-002   9.0113664556375483E-003   4.9260079653374811E-002
  -4.2175301254290476E-002   1.2577567438822990E-002   4.4396832151679333E-002
  -4.0366030081944546E-002   1.2013938920992784E-002   4.4059112002722278E-002
  -3.8556758909598615E-002   1.1438816923815015E-002   4.3904121429987730E-002
  -3.6747487737252699E-002   1.0852201447289746E-002   4.3931860433475509E-002
  -3.4938216564906768E-002   1.0254092491417011E-002   4.4142329013185599E-002
  -4.6879044615480779E-002   1.4007951848050565E-002   3.9285766645717729E-002
  -4.4889056044370941E-002   1.3387685755904322E-002   3.8943924090890064E-002
  -4.2899067473261110E-002   1.2762408171713244E-002   3.8780786757367694E-002
  -4.0909078902151327E-002   1.2132119095477203E-002   3.8796354645150875E-002
  -3.8919090331041496E-002   1.1496818527196334E-002   3.8990627754239518E-002
  -5.1576645719387172E-002   1.5438336257278071E-002   3.4114822571789001E-002
  -4.9409964104430326E-002   1.4761432590815970E-002   3.3775339598393121E-002
  -4.7243282489473556E-002   1.4085999419611576E-002   3.3610537491385761E-002
  -4.5076600874516752E-002   1.3412036743664880E-002   3.3620416250767032E-002
  -4.2909919259559941E-002   1.2739544562975672E-002   3.3804975876536567E-002
  -5.6268104566009697E-002   1.6868720666505632E-002   2.8883999929892989E-002
  -5.3928754262122791E-002   1.6135179425727564E-002   2.8553358525231498E-002
  -5.1589403958235941E-002   1.5409590667509770E-002   2.8393373632041752E-002
  -4.9250053654349035E-002   1.4691954391852328E-002   2.8404045250323459E-002
  -4.6910703350462185E-002   1.3982270598755175E-002   2.8585373380076995E-002
  -3.0967297961155799E-002   9.0113664556375483E-003   4.9260079653374811E-002
  -2.9273357227624100E-002   8.4390964096150434E-003   4.8936529441218901E-002
  -2.7579416494092415E-002   7.8620964251275433E-003   4.8797896925128009E-002
  -2.5885475760560751E-002   7.2803665021745241E-003   4.8844182105102260E-002
  -2.4191535027029032E-002   6.6939066407560865E-003   4.9075384981141834E-002
  -3.4938216564906768E-002   1.0254092491417011E-002   4.4142329013185599E-002
  -3.3065469981750369E-002   9.6456370198434727E-003   4.3795747046945943E-002
  -3.1192723398593886E-002   9.0279819962160168E-003   4.3621859083890685E-002
  -2.9319976815437465E-002   8.4011274205348097E-003   4.3620665124019797E-002
  -2.7447230232281017E-002   7.7650732927997401E-003   4.3792165167333308E-002
  -3.8919090331041496E-002   1.1496818527196334E-002   3.8990627754239518E-002
  -3.6879761591141078E-002   1.0852177630071735E-002   3.8616544420327692E-002
  -3.4840432851240596E-002   1.0193867567304817E-002   3.8402931396719402E-002
  -3.2801104111340178E-002   9.5218883388953155E-003   3.8349788683414709E-002
  -3.0761775371439745E-002   8.8362399448435047E-003   3.8457116280413817E-002
  -4.2909919259559941E-002   1.2739544562975672E-002   3.3804975876536567E-002
  -4.0716232055796275E-002   1.2058718240300026E-002   3.3398921561364016E-002
  -3.8522544852032506E-002   1.1359753138393509E-002   3.3141113863614215E-002
  -3.6328857648268743E-002   1.0642649257255877E-002   3.3031552783287385E-002
  -3.4135170444505009E-002   9.9074065968872138E-003   3.3070238320383555E-002
  -4.6910703350462185E-002   1.3982270598755175E-002   2.8585373380076995E-002
  -4.4574881375715941E-002   1.3265258850528427E-002   2.8142878470054922E-002
  -4.2239059400969600E-002   1.2525638709482104E-002   2.7836406484574999E-002
  -3.9903237426223474E-002   1.1763410175616277E-002   2.7665957423637380E-002
  -3.7567415451477182E-002   1.0978573248930923E-002   2.7631531287241939E-002
  -9.0362437798852085E-002   0.0000000000000000        4.9837014211311578E-002
  -9.3962508354045626E-002   5.4047672794395596E-003   5.3210944663383303E-002
  -9.7562578909239167E-002   1.0671572040703792E-002   5.4965617659571989E-002
 -0.10116264946443272        1.5800414283792689E-002   5.5101033199877650E-002
 -0.10476272001962628        2.0791294008706246E-002   5.3617191284300293E-002
 -0.10329351220688830        0.0000000000000000        5.8665240834619756E-002
 -0.10683109942550031        1.0884425824669544E-002   5.2120253303624180E-002
 -0.11036868664411231        1.9172293882499941E-002   4.7319489901674713E-002
 -0.11390627386272431        2.4863604173491184E-002   4.4262950628771378E-002
 -0.11744386108133631        2.7958356697643291E-002   4.2950635484914151E-002
 -0.12645798524794916        0.0000000000000000        7.4202423627489814E-002
 -0.12656960754505048        1.6364084369899518E-002   5.5279922864763124E-002
 -0.12668122984215180        2.7673015724296080E-002   4.1465127816011707E-002
 -0.12679285213925306        3.3926794063189679E-002   3.2758038481235548E-002
 -0.12690447443635439        3.5125419386580342E-002   2.9158654860434674E-002
 -0.15985585692203463        0.0000000000000000        9.6448562589921752E-002
 -0.15317803271269612        2.1843742915129499E-002   6.2689953346800151E-002
 -0.14650020850335757        3.6173737566092233E-002   3.7402531402582970E-002
 -0.13982238429401905        4.2989983952888187E-002   2.0586296757270205E-002
 -0.13314456008468051        4.2292482075517390E-002   1.2241249410861806E-002
 -0.20348712722914475        0.0000000000000000       0.12540365772191558     
 -0.18665637492843723        2.7323401460359477E-002   7.4350344749735245E-002
 -0.16982562262772971        4.4674459407888376E-002   3.5131700661388481E-002
 -0.15299487032702219        5.2053173842586682E-002   7.7477254568752707E-003
 -0.13616411802631467        4.9459544764454438E-002  -7.8015808638043846E-003
 -0.10476272001962628        2.0791294008706246E-002   5.3617191284300293E-002
 -0.10210887711090694        2.4931786611989130E-002   4.5637513606423707E-002
  -9.9455034202187598E-002   2.7509467490186040E-002   3.9348119603451817E-002
  -9.6801191293468258E-002   2.8524336643296986E-002   3.4749009275384837E-002
  -9.4147348384748891E-002   2.7976394071321929E-002   3.1840182622222511E-002
 -0.11744386108133631        2.7958356697643291E-002   4.2950635484914151E-002
 -0.11348793709821861        2.9430599138654763E-002   3.6697645850959040E-002
 -0.10953201311510090        3.0254379180224143E-002   3.1358534690895890E-002
 -0.10557608913198321        3.0429696822351443E-002   2.6933302004724699E-002
 -0.10162016514886549        2.9956552065036578E-002   2.3421947792445396E-002
 -0.12690447443635439        3.5125419386580342E-002   2.9158654860434674E-002
 -0.12242287457985120        3.3929411665320403E-002   2.5546702596044978E-002
 -0.11794127472334794        3.2999290870262252E-002   2.2072223604534324E-002
 -0.11345967486684469        3.2335057001405890E-002   1.8735217885902839E-002
 -0.10897807501034150        3.1936710058751261E-002   1.5535685440150446E-002
 -0.13314456008468051        4.2292482075517390E-002   1.2241249410861806E-002
 -0.12891368955580459        3.8428224191986007E-002   1.2184683841681400E-002
 -0.12468281902692868        3.5744202560300274E-002   1.1489186344367170E-002
 -0.12045194849805277        3.4240417180460302E-002   1.0154756918919186E-002
 -0.11622107796917687        3.3916868052465847E-002   8.1813955653376215E-003
 -0.13616411802631467        4.9459544764454438E-002  -7.8015808638043846E-003
 -0.13296038202607890        4.2927036718651675E-002  -3.3884104121316913E-003
 -0.12975664602584314        3.8489114250338408E-002  -3.9057708960558817E-004
 -0.12655291002560734        3.6145777359514776E-002   1.1919191037739790E-003
 -0.12334917402537160        3.5897026046180558E-002   1.3590781680069830E-003
  -9.4147348384748891E-002   2.7976394071321929E-002   3.1840182622222511E-002
  -9.1757072132677364E-002   2.6783387844753908E-002   3.1269717216539671E-002
  -8.9366795880605795E-002   2.5863066034086002E-002   3.0778981425430552E-002
  -8.6976519628534296E-002   2.5215428639318235E-002   3.0367975248895285E-002
  -8.4586243376462714E-002   2.4840475660450584E-002   3.0036698686933733E-002
 -0.10162016514886549        2.9956552065036578E-002   2.3421947792445396E-002
  -9.9135870257487116E-002   2.9185266603421640E-002   2.3143111017507205E-002
  -9.6651575366108786E-002   2.8466162132648617E-002   2.2972581906608822E-002
  -9.4167280474730441E-002   2.7799238652717478E-002   2.2910360459750329E-002
  -9.1682985583352070E-002   2.7184496163628225E-002   2.2956446676931710E-002
 -0.10897807501034150        3.1936710058751261E-002   1.5535685440150446E-002
 -0.10637118343019025        3.1587145362089362E-002   1.5327973870898707E-002
 -0.10376429185003899        3.1069258231211150E-002   1.5257148015152901E-002
 -0.10115740026988776        3.0383048666116706E-002   1.5323207872912848E-002
  -9.8550508689736513E-002   2.9528516666805824E-002   1.5526153444178861E-002
 -0.11622107796917687        3.3916868052465847E-002   8.1813955653376215E-003
 -0.11346301165078668        3.3989024120757140E-002   7.8243057767140578E-003
 -0.11070494533239648        3.3672354329773724E-002   7.6326797510625956E-003
 -0.10794687901400629        3.2966858679515938E-002   7.6065174883830373E-003
 -0.10518881269561609        3.1872537169983416E-002   7.7458189886755405E-003
 -0.12334917402537160        3.5897026046180558E-002   1.3590781680069830E-003
 -0.12041135491927638        3.6390902879424786E-002   6.3210673495350811E-004
 -0.11747353581318118        3.6275450428336312E-002   9.9177114338107331E-005
 -0.11453571670708598        3.5550668692915122E-002  -2.3971069383944658E-004
 -0.11159789760099076        3.4216557673161119E-002  -3.8455668957865230E-004
  -8.4586243376462714E-002   2.4840475660450584E-002   3.0036698686933733E-002
  -8.2206873870501795E-002   2.4526090842438925E-002   2.9289903188431596E-002
  -7.9827504364540863E-002   2.4060157930238989E-002   2.8833962466390944E-002
  -7.7448134858579931E-002   2.3442676923851095E-002   2.8668876520811862E-002
  -7.5068765352618999E-002   2.2673647823274856E-002   2.8794645351694348E-002
  -9.1682985583352070E-002   2.7184496163628225E-002   2.2956446676931710E-002
  -8.9042419366534523E-002   2.6569440515423551E-002   2.2307034511698978E-002
  -8.6401853149716989E-002   2.5901577558146094E-002   2.1889160991717935E-002
  -8.3761286932899442E-002   2.5180907291795930E-002   2.1702826116988573E-002
  -8.1120720716081909E-002   2.4407429716372886E-002   2.1748029887510970E-002
  -9.8550508689736513E-002   2.9528516666805824E-002   1.5526153444178861E-002
  -9.5708061893272217E-002   2.8612790188408219E-002   1.5072865397331041E-002
  -9.2865615096807921E-002   2.7742997186053175E-002   1.4791799864525047E-002
  -9.0023168300343709E-002   2.6919137659740824E-002   1.4682956845760863E-002
  -8.7180721503879371E-002   2.6141211609470971E-002   1.4746336341038391E-002
 -0.10518881269561609        3.1872537169983416E-002   7.7458189886755405E-003
 -0.10220380145071495        3.0656139861392921E-002   7.5873958453279607E-003
  -9.9218790205813770E-002   2.9584416813960325E-002   7.5418790848122688E-003
  -9.6233778960912633E-002   2.8657368027685686E-002   7.6092687071285074E-003
  -9.3248767716011469E-002   2.7874993502569168E-002   7.7895647122767364E-003
 -0.11159789760099076        3.4216557673161119E-002  -3.8455668957865230E-004
 -0.10852963803886262        3.2699489534377457E-002  -1.4937414431046014E-004
 -0.10546137847673448        3.1425836441867319E-002   1.3939865257962814E-004
 -0.10239311891460634        3.0395598395630569E-002   4.8176170109171315E-004
  -9.9324859352478201E-002   2.9608775395667142E-002   8.7771500122607593E-004
  -7.5068765352618999E-002   2.2673647823274856E-002   2.8794645351694348E-002
  -7.2707756386597544E-002   2.1851936134772390E-002   2.8607833639678115E-002
  -7.0346747420576103E-002   2.1076407364605532E-002   2.8573554703065829E-002
  -6.7985738454554662E-002   2.0347061512774114E-002   2.8691808541857794E-002
  -6.5624729488533207E-002   1.9663898579278194E-002   2.8962595156053927E-002
  -8.1120720716081909E-002   2.4407429716372886E-002   2.1748029887510970E-002
  -7.8605304205192628E-002   2.3614094688158713E-002   2.1584685181536556E-002
  -7.6089887694303360E-002   2.2833852063434676E-002   2.1577622789893731E-002
  -7.3574471183414120E-002   2.2066701842200897E-002   2.1726842712582271E-002
  -7.1059054672524796E-002   2.1312644024457317E-002   2.2032344949602461E-002
  -8.7180721503879371E-002   2.6141211609470971E-002   1.4746336341038391E-002
  -8.4507147909194946E-002   2.5376253241545001E-002   1.4573368126260734E-002
  -8.1833574314510549E-002   2.4591296762263820E-002   1.4560431764741796E-002
  -7.9160000719826165E-002   2.3786342171627846E-002   1.4707527256481584E-002
  -7.6486427125141782E-002   2.2961389469636384E-002   1.5014654601480451E-002
  -9.3248767716011469E-002   2.7874993502569168E-002   7.7895647122767364E-003
  -9.0413287498604569E-002   2.7138411794931445E-002   7.5738824738505114E-003
  -8.7577807281197642E-002   2.6348741461093131E-002   7.5219816276100252E-003
  -8.4742327063790743E-002   2.5505982501054656E-002   7.6338621735560531E-003
  -8.1906846846383857E-002   2.4610134914815424E-002   7.9095241116881321E-003
  -9.9324859352478201E-002   2.9608775395667142E-002   8.7771500122607593E-004
  -9.6323722973421455E-002   2.8900570348317778E-002   5.8622822430556831E-004
  -9.3322586594364682E-002   2.8106186159922289E-002   4.6227237849863489E-004
  -9.0321450215307894E-002   2.7225622830481484E-002   5.0584746380519935E-004
  -8.7320313836251162E-002   2.6258880359994463E-002   7.1695348022532412E-004
  -6.5624729488533207E-002   1.9663898579278194E-002   2.8962595156053927E-002
  -6.3285573257902322E-002   1.8994146353984082E-002   2.8661916162626727E-002
  -6.0946417027271452E-002   1.8305032626756979E-002   2.8548590627124226E-002
  -5.8607260796640574E-002   1.7596557397597662E-002   2.8622618549546300E-002
  -5.6268104566009697E-002   1.6868720666505632E-002   2.8883999929892989E-002
  -7.1059054672524796E-002   2.1312644024457317E-002   2.2032344949602461E-002
  -6.8532364259448961E-002   2.0561918060813228E-002   2.1725904313458416E-002
  -6.6005673846373139E-002   1.9804763401877951E-002   2.1607178584279893E-002
  -6.3478983433297387E-002   1.9041180047651575E-002   2.1676167762066698E-002
  -6.0952293020221468E-002   1.8271167998133830E-002   2.1932871846818774E-002
  -7.6486427125141782E-002   2.2961389469636384E-002   1.5014654601480451E-002
  -7.3771841080580186E-002   2.2129689767642721E-002   1.4715385129261127E-002
  -7.1057255036018604E-002   2.1304494176998812E-002   1.4604192013048065E-002
  -6.8342668991457037E-002   2.0485802697705488E-002   1.4681075252840771E-002
  -6.5628082946895469E-002   1.9673615329761945E-002   1.4946034848639711E-002
  -8.1906846846383857E-002   2.4610134914815424E-002   7.9095241116881321E-003
  -7.9004003721295873E-002   2.3697461474471791E-002   7.6303586100347105E-003
  -7.6101160596207862E-002   2.2804224952120172E-002   7.5396309134281511E-003
  -7.3198317471119850E-002   2.1930425347759040E-002   7.6373410218684348E-003
  -7.0295474346031880E-002   2.1076062661389935E-002   7.9234889353553342E-003
  -8.7320313836251162E-002   2.6258880359994463E-002   7.1695348022532412E-004
  -8.4228852181596037E-002   2.5265233181301250E-002   4.7082475577930882E-004
  -8.1137390526940856E-002   2.4303955727240645E-002   4.1349528542054814E-004
  -7.8045928872285730E-002   2.3375047997813425E-002   5.4496506914949658E-004
  -7.4954467217630549E-002   2.2478509993018259E-002   8.6523410696615066E-004
  -5.6268104566009697E-002   1.6868720666505632E-002   2.8883999929892989E-002
  -5.3928754262122791E-002   1.6135179425727564E-002   2.8553358525231498E-002
  -5.1589403958235941E-002   1.5409590667509770E-002   2.8393373632041752E-002
  -4.9250053654349035E-002   1.4691954391852328E-002   2.8404045250323459E-002
  -4.6910703350462185E-002   1.3982270598755175E-002   2.8585373380076995E-002
  -6.0952293020221468E-002   1.8271167998133830E-002   2.1932871846818774E-002
  -5.8440156225995715E-002   1.7499370443305073E-002   2.1618164032176951E-002
  -5.5928019431770080E-002   1.6730430573145244E-002   2.1478372686741048E-002
  -5.3415882637544418E-002   1.5964348387654752E-002   2.1513497810511220E-002
  -5.0903745843318679E-002   1.5201123886833090E-002   2.1723539403487313E-002
  -6.5628082946895469E-002   1.9673615329761945E-002   1.4946034848639711E-002
  -6.2938899704596582E-002   1.8863561460882611E-002   1.4642165826126124E-002
  -6.0249716462297813E-002   1.8051270478780787E-002   1.4517473230552851E-002
  -5.7560533219998947E-002   1.7236742383457234E-002   1.4571957061920209E-002
  -5.4871349977700094E-002   1.6419977174911088E-002   1.4805617320227407E-002
  -7.0295474346031880E-002   2.1076062661389935E-002   7.9234889353553342E-003
  -6.7424984697925516E-002   2.0227752478459829E-002   7.6253639070789567E-003
  -6.4554495049819124E-002   1.9372110384416573E-002   7.5106752634769430E-003
  -6.1684005401712719E-002   1.8509136379259633E-002   7.5794230045501936E-003
  -5.8813515753606396E-002   1.7638830462989211E-002   7.8316071302977942E-003
  -7.4954467217630549E-002   2.2478509993018259E-002   8.6523410696615066E-004
  -7.1898411205982282E-002   2.1591943496037713E-002   5.6775827503569021E-004
  -6.8842355194334071E-002   2.0692950290051998E-002   4.5797878551401272E-004
  -6.5786299182685831E-002   1.9781530375062271E-002   5.3589563840145127E-004
  -6.2730243171037592E-002   1.8857683751067111E-002   8.0150883369789483E-004
  -4.6910703350462185E-002   1.3982270598755175E-002   2.8585373380076995E-002
  -4.4574881375715941E-002   1.3265258850528427E-002   2.8142878470054922E-002
  -4.2239059400969600E-002   1.2525638709482104E-002   2.7836406484574999E-002
  -3.9903237426223474E-002   1.1763410175616277E-002   2.7665957423637380E-002
  -3.7567415451477182E-002   1.0978573248930923E-002   2.7631531287241939E-002
  -5.0903745843318679E-002   1.5201123886833090E-002   2.1723539403487313E-002
  -4.8425529612159290E-002   1.4434759707997846E-002   2.1296981467052889E-002
  -4.5947313380999964E-002   1.3659258488465567E-002   2.1019189118902826E-002
  -4.3469097149840583E-002   1.2874620228236312E-002   2.0890162359036582E-002
  -4.0990880918681250E-002   1.2080844927310208E-002   2.0909901187454283E-002
  -5.4871349977700094E-002   1.6419977174911088E-002   1.4805617320227407E-002
  -5.2237996826385809E-002   1.5604260565467043E-002   1.4408467709503728E-002
  -4.9604643675071558E-002   1.4792878267448802E-002   1.4172826350805835E-002
  -4.6971290523757370E-002   1.3985830280856178E-002   1.4098693244133684E-002
  -4.4337937372443084E-002   1.3183116605689382E-002   1.4186068389487438E-002
  -5.8813515753606396E-002   1.7638830462989211E-002   7.8316071302977942E-003
  -5.6012283018395434E-002   1.6773761422936295E-002   7.4773371974070427E-003
  -5.3211050283184423E-002   1.5926498046431762E-002   7.2973181802840851E-003
  -5.0409817547973509E-002   1.5097040333476183E-002   7.2915500789288304E-003
  -4.7608584812762395E-002   1.4285388284068612E-002   7.4600328933412396E-003
  -6.2730243171037592E-002   1.8857683751067111E-002   8.0150883369789483E-004
  -5.9748388188187951E-002   1.7943262280405770E-002   5.0358993076299319E-004
  -5.6766533205338476E-002   1.7060117825415638E-002   3.9266460733772268E-004
  -5.3784678222488974E-002   1.6208250386095947E-002   4.6873286342204168E-004
  -5.0802823239639361E-002   1.5387659962447842E-002   7.3179469901551997E-004
 </DataArray>
 </PointData>
 </Piece>
 <Piece  NumberOfPoints="          1600 "  NumberOfCells="         1024 ">
 <Points>
 <DataArray  type="Float64" NumberOfComponents="3"  format="ascii" >
  0.50000000000000000        0.0000000000000000        0.0000000000000000     
  0.53125000000000000        0.0000000000000000        0.0000000000000000     
  0.56250000000000000        0.0000000000000000        0.0000000000000000     
  0.59375000000000000        0.0000000000000000        0.0000000000000000     
  0.62500000000000000        0.0000000000000000        0.0000000000000000     
  0.50000000000000000        3.1250000000000000E-002   0.0000000000000000     
  0.53125000000000000        3.1250000000000000E-002   0.0000000000000000     
  0.56250000000000000        3.1250000000000000E-002   0.0000000000000000     
  0.59375000000000000        3.1250000000000000E-002   0.0000000000000000     
  0.62500000000000000        3.1250000000000000E-002   0.0000000000000000     
  0.50000000000000000        6.2500000000000000E-002   0.0000000000000000     
  0.53125000000000000        6.2500000000000000E-002   0.0000000000000000     
  0.56250000000000000        6.2500000000000000E-002   0.0000000000000000     
  0.59375000000000000        6.2500000000000000E-002   0.0000000000000000     
  0.62500000000000000        6.2500000000000000E-002   0.0000000000000000     
  0.50000000000000000        9.3750000000000000E-002   0.0000000000000000     
  0.53125000000000000        9.3750000000000000E-002   0.0000000000000000     
  0.56250000000000000        9.3750000000000000E-002   0.0000000000000000     
  0.59375000000000000        9.3750000000000000E-002   0.0000000000000000     
  0.62500000000000000        9.3750000000000000E-002   0.0000000000000000     
  0.50000000000000000       0.12500000000000000        0.0000000000000000     
  0.53125000000000000       0.12500000000000000        0.0000000000000000     
  0.56250000000000000       0.12500000000000000        0.0000000000000000     
  0.59375000000000000       0.12500000000000000        0.0000000000000000     
  0.62500000000000000       0.12500000000000000        0.0000000000000000     
  0.62500000000000000        0.0000000000000000        0.0000000000000000     
  0.65625000000000000        0.0000000000000000        0.0000000000000000     
  0.68750000000000000        0.0000000000000000        0.0000000000000000     
  0.71875000000000000        0.0000000000000000        0.0000000000000000     
  0.75000000000000000        0.0000000000000000        0.0000000000000000     
  0.62500000000000000        3.1250000000000000E-002   0.0000000000000000     
  0.65625000000000000        3.1250000000000000E-002   0.0000000000000000     
  0.68750000000000000        3.1250000000000000E-002   0.0000000000000000     
  0.71875000000000000        3.1250000000000000E-002   0.0000000000000000     
  0.75000000000000000        3.1250000000000000E-002   0.0000000000000000     
  0.62500000000000000        6.2500000000000000E-002   0.0000000000000000     
  0.65625000000000000        6.2500000000000000E-002   0.0000000000000000     
  0.68750000000000000        6.2500000000000000E-002   0.0000000000000000     
  0.71875000000000000        6.2500000000000000E-002   0.0000000000000000     
  0.75000000000000000        6.2500000000000000E-002   0.0000000000000000     
  0.62500000000000000        9.3750000000000000E-002   0.0000000000000000     
  0.65625000000000000        9.3750000000000000E-002   0.0000000000000000     
  0.68750000000000000        9.3750000000000000E-002   0.0000000000000000     
  0.71875000000000000        9.3750000000000000E-002   0.0000000000000000     
  0.75000000000000000        9.3750000000000000E-002   0.0000000000000000     
  0.62500000000000000       0.12500000000000000        0.0000000000000000     
  0.65625000000000000       0.12500000000000000        0.0000000000000000     
  0.68750000000000000       0.12500000000000000        0.0000000000000000     
  0.71875000000000000       0.12500000000000000        0.0000000000000000     
  0.75000000000000000       0.12500000000000000        0.0000000000000000     
  0.75000000000000000        0.0000000000000000        0.0000000000000000     
  0.78125000000000000        0.0000000000000000        0.0000000000000000     
  0.81250000000000000        0.0000000000000000        0.0000000000000000     
  0.84375000000000000        0.0000000000000000        0.0000000000000000     
  0.87500000000000000        0.0000000000000000        0.0000000000000000     
  0.75000000000000000        3.1250000000000000E-002   0.0000000000000000     
  0.78125000000000000        3.1250000000000000E-002   0.0000000000000000     
  0.81250000000000000        3.1250000000000000E-002   0.0000000000000000     
  0.84375000000000000        3.1250000000000000E-002   0.0000000000000000     
  0.87500000000000000        3.1250000000000000E-002   0.0000000000000000     
  0.75000000000000000        6.2500000000000000E-002   0.0000000000000000     
  0.78125000000000000        6.2500000000000000E-002   0.0000000000000000     
  0.81250000000000000        6.2500000000000000E-002   0.0000000000000000     
  0.84375000000000000        6.2500000000000000E-002   0.0000000000000000     
  0.87500000000000000        6.2500000000000000E-002   0.0000000000000000     
  0.75000000000000000        9.3750000000000000E-002   0.0000000000000000     
  0.78125000000000000        9.3750000000000000E-002   0.0000000000000000     
  0.81250000000000000        9.3750000000000000E-002   0.0000000000000000     
  0.84375000000000000        9.3750000000000000E-002   0.0000000000000000     
  0.87500000000000000        9.3750000000000000E-002   0.0000000000000000     
  0.75000000000000000       0.12500000000000000        0.0000000000000000     
  0.78125000000000000       0.12500000000000000        0.0000000000000000     
  0.81250000000000000       0.12500000000000000        0.0000000000000000     
  0.84375000000000000       0.12500000000000000        0.0000000000000000     
  0.87500000000000000       0.12500000000000000        0.0000000000000000     
  0.87500000000000000        0.0000000000000000        0.0000000000000000     
  0.90625000000000000        0.0000000000000000        0.0000000000000000     
  0.93750000000000000        0.0000000000000000        0.0000000000000000     
  0.96875000000000000        0.0000000000000000        0.0000000000000000     
   1.0000000000000000        0.0000000000000000        0.0000000000000000     
  0.87500000000000000        3.1250000000000000E-002   0.0000000000000000     
  0.90625000000000000        3.1250000000000000E-002   0.0000000000000000     
  0.93750000000000000        3.1250000000000000E-002   0.0000000000000000     
  0.96875000000000000        3.1250000000000000E-002   0.0000000000000000     
   1.0000000000000000        3.1250000000000000E-002   0.0000000000000000     
  0.87500000000000000        6.2500000000000000E-002   0.0000000000000000     
  0.90625000000000000        6.2500000000000000E-002   0.0000000000000000     
  0.93750000000000000        6.2500000000000000E-002   0.0000000000000000     
  0.96875000000000000        6.2500000000000000E-002   0.0000000000000000     
   1.0000000000000000        6.2500000000000000E-002   0.0000000000000000     
  0.87500000000000000        9.3750000000000000E-002   0.0000000000000000     
  0.90625000000000000        9.3750000000000000E-002   0.0000000000000000     
  0.93750000000000000        9.3750000000000000E-002   0.0000000000000000     
  0.96875000000000000        9.3750000000000000E-002   0.0000000000000000     
   1.0000000000000000        9.3750000000000000E-002   0.0000000000000000     
  0.87500000000000000       0.12500000000000000        0.0000000000000000     
  0.90625000000000000       0.12500000000000000        0.0000000000000000     
  0.93750000000000000       0.12500000000000000        0.0000000000000000     
  0.96875000000000000       0.12500000000000000        0.0000000000000000     
   1.0000000000000000       0.12500000000000000        0.0000000000000000     
   1.0000000000000000        0.0000000000000000        0.0000000000000000     
   1.0312500000000000        0.0000000000000000        0.0000000000000000     
   1.0625000000000000        0.0000000000000000        0.0000000000000000     
   1.0937500000000000        0.0000000000000000        0.0000000000000000     
   1.1250000000000000        0.0000000000000000        0.0000000000000000     
   1.0000000000000000        3.1250000000000000E-002   0.0000000000000000     
   1.0312500000000000        3.1250000000000000E-002   0.0000000000000000     
   1.0625000000000000        3.1250000000000000E-002   0.0000000000000000     
   1.0937500000000000        3.1250000000000000E-002   0.0000000000000000     
   1.1250000000000000        3.1250000000000000E-002   0.0000000000000000     
   1.0000000000000000        6.2500000000000000E-002   0.0000000000000000     
   1.0312500000000000        6.2500000000000000E-002   0.0000000000000000     
   1.0625000000000000        6.2500000000000000E-002   0.0000000000000000     
   1.0937500000000000        6.2500000000000000E-002   0.0000000000000000     
   1.1250000000000000        6.2500000000000000E-002   0.0000000000000000     
   1.0000000000000000        9.3750000000000000E-002   0.0000000000000000     
   1.0312500000000000        9.3750000000000000E-002   0.0000000000000000     
   1.0625000000000000        9.3750000000000000E-002   0.0000000000000000     
   1.0937500000000000        9.3750000000000000E-002   0.0000000000000000     
   1.1250000000000000        9.3750000000000000E-002   0.0000000000000000     
   1.0000000000000000       0.12500000000000000        0.0000000000000000     
   1.0312500000000000       0.12500000000000000        0.0000000000000000     
   1.0625000000000000       0.12500000000000000        0.0000000000000000     
   1.0937500000000000       0.12500000000000000        0.0000000000000000     
   1.1250000000000000       0.12500000000000000        0.0000000000000000     
   1.1250000000000000        0.0000000000000000        0.0000000000000000     
   1.1562500000000000        0.0000000000000000        0.0000000000000000     
   1.1875000000000000        0.0000000000000000        0.0000000000000000     
   1.2187500000000000        0.0000000000000000        0.0000000000000000     
   1.2500000000000000        0.0000000000000000        0.0000000000000000     
   1.1250000000000000        3.1250000000000000E-002   0.0000000000000000     
   1.1562500000000000        3.1250000000000000E-002   0.0000000000000000     
   1.1875000000000000        3.1250000000000000E-002   0.0000000000000000     
   1.2187500000000000        3.1250000000000000E-002   0.0000000000000000     
   1.2500000000000000        3.1250000000000000E-002   0.0000000000000000     
   1.1250000000000000        6.2500000000000000E-002   0.0000000000000000     
   1.1562500000000000        6.2500000000000000E-002   0.0000000000000000     
   1.1875000000000000        6.2500000000000000E-002   0.0000000000000000     
   1.2187500000000000        6.2500000000000000E-002   0.0000000000000000     
   1.2500000000000000        6.2500000000000000E-002   0.0000000000000000     
   1.1250000000000000        9.3750000000000000E-002   0.0000000000000000     
   1.1562500000000000        9.3750000000000000E-002   0.0000000000000000     
   1.1875000000000000        9.3750000000000000E-002   0.0000000000000000     
   1.2187500000000000        9.3750000000000000E-002   0.0000000000000000     
   1.2500000000000000        9.3750000000000000E-002   0.0000000000000000     
   1.1250000000000000       0.12500000000000000        0.0000000000000000     
   1.1562500000000000       0.12500000000000000        0.0000000000000000     
   1.1875000000000000       0.12500000000000000        0.0000000000000000     
   1.2187500000000000       0.12500000000000000        0.0000000000000000     
   1.2500000000000000       0.12500000000000000        0.0000000000000000     
   1.2500000000000000        0.0000000000000000        0.0000000000000000     
   1.2812500000000000        0.0000000000000000        0.0000000000000000     
   1.3125000000000000        0.0000000000000000        0.0000000000000000     
   1.3437500000000000        0.0000000000000000        0.0000000000000000     
   1.3750000000000000        0.0000000000000000        0.0000000000000000     
   1.2500000000000000        3.1250000000000000E-002   0.0000000000000000     
   1.2812500000000000        3.1250000000000000E-002   0.0000000000000000     
   1.3125000000000000        3.1250000000000000E-002   0.0000000000000000     
   1.3437500000000000        3.1250000000000000E-002   0.0000000000000000     
   1.3750000000000000        3.1250000000000000E-002   0.0000000000000000     
   1.2500000000000000        6.2500000000000000E-002   0.0000000000000000     
   1.2812500000000000        6.2500000000000000E-002   0.0000000000000000     
   1.3125000000000000        6.2500000000000000E-002   0.0000000000000000     
   1.3437500000000000        6.2500000000000000E-002   0.0000000000000000     
   1.3750000000000000        6.2500000000000000E-002   0.0000000000000000     
   1.2500000000000000        9.3750000000000000E-002   0.0000000000000000     
   1.2812500000000000        9.3750000000000000E-002   0.0000000000000000     
   1.3125000000000000        9.3750000000000000E-002   0.0000000000000000     
   1.3437500000000000        9.3750000000000000E-002   0.0000000000000000     
   1.3750000000000000        9.3750000000000000E-002   0.0000000000000000     
   1.2500000000000000       0.12500000000000000        0.0000000000000000     
   1.2812500000000000       0.12500000000000000        0.0000000000000000     
   1.3125000000000000       0.12500000000000000        0.0000000000000000     
   1.3437500000000000       0.12500000000000000        0.0000000000000000     
   1.3750000000000000       0.12500000000000000        0.0000000000000000     
   1.3750000000000000        0.0000000000000000        0.0000000000000000     
   1.4062500000000000        0.0000000000000000        0.0000000000000000     
   1.4375000000000000        0.0000000000000000        0.0000000000000000     
   1.4687500000000000        0.0000000000000000        0.0000000000000000     
   1.5000000000000000        0.0000000000000000        0.0000000000000000     
   1.3750000000000000        3.1250000000000000E-002   0.0000000000000000     
   1.4062500000000000        3.1250000000000000E-002   0.0000000000000000     
   1.4375000000000000        3.1250000000000000E-002   0.0000000000000000     
   1.4687500000000000        3.1250000000000000E-002   0.0000000000000000     
   1.5000000000000000        3.1250000000000000E-002   0.0000000000000000     
   1.3750000000000000        6.2500000000000000E-002   0.0000000000000000     
   1.4062500000000000        6.2500000000000000E-002   0.0000000000000000     
   1.4375000000000000        6.2500000000000000E-002   0.0000000000000000     
   1.4687500000000000        6.2500000000000000E-002   0.0000000000000000     
   1.5000000000000000        6.2500000000000000E-002   0.0000000000000000     
   1.3750000000000000        9.3750000000000000E-002   0.0000000000000000     
   1.4062500000000000        9.3750000000000000E-002   0.0000000000000000     
   1.4375000000000000        9.3750000000000000E-002   0.0000000000000000     
   1.4687500000000000        9.3750000000000000E-002   0.0000000000000000     
   1.5000000000000000        9.3750000000000000E-002   0.0000000000000000     
   1.3750000000000000       0.12500000000000000        0.0000000000000000     
   1.4062500000000000       0.12500000000000000        0.0000000000000000     
   1.4375000000000000       0.12500000000000000        0.0000000000000000     
   1.4687500000000000       0.12500000000000000        0.0000000000000000     
   1.5000000000000000       0.12500000000000000        0.0000000000000000     
  0.50000000000000000       0.12500000000000000        0.0000000000000000     
  0.53125000000000000       0.12500000000000000        0.0000000000000000     
  0.56250000000000000       0.12500000000000000        0.0000000000000000     
  0.59375000000000000       0.12500000000000000        0.0000000000000000     
  0.62500000000000000       0.12500000000000000        0.0000000000000000     
  0.50000000000000000       0.15625000000000000        0.0000000000000000     
  0.53125000000000000       0.15625000000000000        0.0000000000000000     
  0.56250000000000000       0.15625000000000000        0.0000000000000000     
  0.59375000000000000       0.15625000000000000        0.0000000000000000     
  0.62500000000000000       0.15625000000000000        0.0000000000000000     
  0.50000000000000000       0.18750000000000000        0.0000000000000000     
  0.53125000000000000       0.18750000000000000        0.0000000000000000     
  0.56250000000000000       0.18750000000000000        0.0000000000000000     
  0.59375000000000000       0.18750000000000000        0.0000000000000000     
  0.62500000000000000       0.18750000000000000        0.0000000000000000     
  0.50000000000000000       0.21875000000000000        0.0000000000000000     
  0.53125000000000000       0.21875000000000000        0.0000000000000000     
  0.56250000000000000       0.21875000000000000        0.0000000000000000     
  0.59375000000000000       0.21875000000000000        0.0000000000000000     
  0.62500000000000000       0.21875000000000000        0.0000000000000000     
  0.50000000000000000       0.25000000000000000        0.0000000000000000     
  0.53125000000000000       0.25000000000000000        0.0000000000000000     
  0.56250000000000000       0.25000000000000000        0.0000000000000000     
  0.59375000000000000       0.25000000000000000        0.0000000000000000     
  0.62500000000000000       0.25000000000000000        0.0000000000000000     
  0.62500000000000000       0.12500000000000000        0.0000000000000000     
  0.65625000000000000       0.12500000000000000        0.0000000000000000     
  0.68750000000000000       0.12500000000000000        0.0000000000000000     
  0.71875000000000000       0.12500000000000000        0.0000000000000000     
  0.75000000000000000       0.12500000000000000        0.0000000000000000     
  0.62500000000000000       0.15625000000000000        0.0000000000000000     
  0.65625000000000000       0.15625000000000000        0.0000000000000000     
  0.68750000000000000       0.15625000000000000        0.0000000000000000     
  0.71875000000000000       0.15625000000000000        0.0000000000000000     
  0.75000000000000000       0.15625000000000000        0.0000000000000000     
  0.62500000000000000       0.18750000000000000        0.0000000000000000     
  0.65625000000000000       0.18750000000000000        0.0000000000000000     
  0.68750000000000000       0.18750000000000000        0.0000000000000000     
  0.71875000000000000       0.18750000000000000        0.0000000000000000     
  0.75000000000000000       0.18750000000000000        0.0000000000000000     
  0.62500000000000000       0.21875000000000000        0.0000000000000000     
  0.65625000000000000       0.21875000000000000        0.0000000000000000     
  0.68750000000000000       0.21875000000000000        0.0000000000000000     
  0.71875000000000000       0.21875000000000000        0.0000000000000000     
  0.75000000000000000       0.21875000000000000        0.0000000000000000     
  0.62500000000000000       0.25000000000000000        0.0000000000000000     
  0.65625000000000000       0.25000000000000000        0.0000000000000000     
  0.68750000000000000       0.25000000000000000        0.0000000000000000     
  0.71875000000000000       0.25000000000000000        0.0000000000000000     
  0.75000000000000000       0.25000000000000000        0.0000000000000000     
  0.75000000000000000       0.12500000000000000        0.0000000000000000     
  0.78125000000000000       0.12500000000000000        0.0000000000000000     
  0.81250000000000000       0.12500000000000000        0.0000000000000000     
  0.84375000000000000       0.12500000000000000        0.0000000000000000     
  0.87500000000000000       0.12500000000000000        0.0000000000000000     
  0.75000000000000000       0.15625000000000000        0.0000000000000000     
  0.78125000000000000       0.15625000000000000        0.0000000000000000     
  0.81250000000000000       0.15625000000000000        0.0000000000000000     
  0.84375000000000000       0.15625000000000000        0.0000000000000000     
  0.87500000000000000       0.15625000000000000        0.0000000000000000     
  0.75000000000000000       0.18750000000000000        0.0000000000000000     
  0.78125000000000000       0.18750000000000000        0.0000000000000000     
  0.81250000000000000       0.18750000000000000        0.0000000000000000     
  0.84375000000000000       0.18750000000000000        0.0000000000000000     
  0.87500000000000000       0.18750000000000000        0.0000000000000000     
  0.75000000000000000       0.21875000000000000        0.0000000000000000     
  0.78125000000000000       0.21875000000000000        0.0000000000000000     
  0.81250000000000000       0.21875000000000000        0.0000000000000000     
  0.84375000000000000       0.21875000000000000        0.0000000000000000     
  0.87500000000000000       0.21875000000000000        0.0000000000000000     
  0.75000000000000000       0.25000000000000000        0.0000000000000000     
  0.78125000000000000       0.25000000000000000        0.0000000000000000     
  0.81250000000000000       0.25000000000000000        0.0000000000000000     
  0.84375000000000000       0.25000000000000000        0.0000000000000000     
  0.87500000000000000       0.25000000000000000        0.0000000000000000     
  0.87500000000000000       0.12500000000000000        0.0000000000000000     
  0.90625000000000000       0.12500000000000000        0.0000000000000000     
  0.93750000000000000       0.12500000000000000        0.0000000000000000     
  0.96875000000000000       0.12500000000000000        0.0000000000000000     
   1.0000000000000000       0.12500000000000000        0.0000000000000000     
  0.87500000000000000       0.15625000000000000        0.0000000000000000     
  0.90625000000000000       0.15625000000000000        0.0000000000000000     
  0.93750000000000000       0.15625000000000000        0.0000000000000000     
  0.96875000000000000       0.15625000000000000        0.0000000000000000     
   1.0000000000000000       0.15625000000000000        0.0000000000000000     
  0.87500000000000000       0.18750000000000000        0.0000000000000000     
  0.90625000000000000       0.18750000000000000        0.0000000000000000     
  0.93750000000000000       0.18750000000000000        0.0000000000000000     
  0.96875000000000000       0.18750000000000000        0.0000000000000000     
   1.0000000000000000       0.18750000000000000        0.0000000000000000     
  0.87500000000000000       0.21875000000000000        0.0000000000000000     
  0.90625000000000000       0.21875000000000000        0.0000000000000000     
  0.93750000000000000       0.21875000000000000        0.0000000000000000     
  0.96875000000000000       0.21875000000000000        0.0000000000000000     
   1.0000000000000000       0.21875000000000000        0.0000000000000000     
  0.87500000000000000       0.25000000000000000        0.0000000000000000     
  0.90625000000000000       0.25000000000000000        0.0000000000000000     
  0.93750000000000000       0.25000000000000000        0.0000000000000000     
  0.96875000000000000       0.25000000000000000        0.0000000000000000     
   1.0000000000000000       0.25000000000000000        0.0000000000000000     
   1.0000000000000000       0.12500000000000000        0.0000000000000000     
   1.0312500000000000       0.12500000000000000        0.0000000000000000     
   1.0625000000000000       0.12500000000000000        0.0000000000000000     
   1.0937500000000000       0.12500000000000000        0.0000000000000000     
   1.1250000000000000       0.12500000000000000        0.0000000000000000     
   1.0000000000000000       0.15625000000000000        0.0000000000000000     
   1.0312500000000000       0.15625000000000000        0.0000000000000000     
   1.0625000000000000       0.15625000000000000        0.0000000000000000     
   1.0937500000000000       0.15625000000000000        0.0000000000000000     
   1.1250000000000000       0.15625000000000000        0.0000000000000000     
   1.0000000000000000       0.18750000000000000        0.0000000000000000     
   1.0312500000000000       0.18750000000000000        0.0000000000000000     
   1.0625000000000000       0.18750000000000000        0.0000000000000000     
   1.0937500000000000       0.18750000000000000        0.0000000000000000     
   1.1250000000000000       0.18750000000000000        0.0000000000000000     
   1.0000000000000000       0.21875000000000000        0.0000000000000000     
   1.0312500000000000       0.21875000000000000        0.0000000000000000     
   1.0625000000000000       0.21875000000000000        0.0000000000000000     
   1.0937500000000000       0.21875000000000000        0.0000000000000000     
   1.1250000000000000       0.21875000000000000        0.0000000000000000     
   1.0000000000000000       0.25000000000000000        0.0000000000000000     
   1.0312500000000000       0.25000000000000000        0.0000000000000000     
   1.0625000000000000       0.25000000000000000        0.0000000000000000     
   1.0937500000000000       0.25000000000000000        0.0000000000000000     
   1.1250000000000000       0.25000000000000000        0.0000000000000000     
   1.1250000000000000       0.12500000000000000        0.0000000000000000     
   1.1562500000000000       0.12500000000000000        0.0000000000000000     
   1.1875000000000000       0.12500000000000000        0.0000000000000000     
   1.2187500000000000       0.12500000000000000        0.0000000000000000     
   1.2500000000000000       0.12500000000000000        0.0000000000000000     
   1.1250000000000000       0.15625000000000000        0.0000000000000000     
   1.1562500000000000       0.15625000000000000        0.0000000000000000     
   1.1875000000000000       0.15625000000000000        0.0000000000000000     
   1.2187500000000000       0.15625000000000000        0.0000000000000000     
   1.2500000000000000       0.15625000000000000        0.0000000000000000     
   1.1250000000000000       0.18750000000000000        0.0000000000000000     
   1.1562500000000000       0.18750000000000000        0.0000000000000000     
   1.1875000000000000       0.18750000000000000        0.0000000000000000     
   1.2187500000000000       0.18750000000000000        0.0000000000000000     
   1.2500000000000000       0.18750000000000000        0.0000000000000000     
   1.1250000000000000       0.21875000000000000        0.0000000000000000     
   1.1562500000000000       0.21875000000000000        0.0000000000000000     
   1.1875000000000000       0.21875000000000000        0.0000000000000000     
   1.2187500000000000       0.21875000000000000        0.0000000000000000     
   1.2500000000000000       0.21875000000000000        0.0000000000000000     
   1.1250000000000000       0.25000000000000000        0.0000000000000000     
   1.1562500000000000       0.25000000000000000        0.0000000000000000     
   1.1875000000000000       0.25000000000000000        0.0000000000000000     
   1.2187500000000000       0.25000000000000000        0.0000000000000000     
   1.2500000000000000       0.25000000000000000        0.0000000000000000     
   1.2500000000000000       0.12500000000000000        0.0000000000000000     
   1.2812500000000000       0.12500000000000000        0.0000000000000000     
   1.3125000000000000       0.12500000000000000        0.0000000000000000     
   1.3437500000000000       0.12500000000000000        0.0000000000000000     
   1.3750000000000000       0.12500000000000000        0.0000000000000000     
   1.2500000000000000       0.15625000000000000        0.0000000000000000     
   1.2812500000000000       0.15625000000000000        0.0000000000000000     
   1.3125000000000000       0.15625000000000000        0.0000000000000000     
   1.3437500000000000       0.15625000000000000        0.0000000000000000     
   1.3750000000000000       0.15625000000000000        0.0000000000000000     
   1.2500000000000000       0.18750000000000000        0.0000000000000000     
   1.2812500000000000       0.18750000000000000        0.0000000000000000     
   1.3125000000000000       0.18750000000000000        0.0000000000000000     
   1.3437500000000000       0.18750000000000000        0.0000000000000000     
   1.3750000000000000       0.18750000000000000        0.0000000000000000     
   1.2500000000000000       0.21875000000000000        0.0000000000000000     
   1.2812500000000000       0.21875000000000000        0.0000000000000000     
   1.3125000000000000       0.21875000000000000        0.0000000000000000     
   1.3437500000000000       0.21875000000000000        0.0000000000000000     
   1.3750000000000000       0.21875000000000000        0.0000000000000000     
   1.2500000000000000       0.25000000000000000        0.0000000000000000     
   1.2812500000000000       0.25000000000000000        0.0000000000000000     
   1.3125000000000000       0.25000000000000000        0.0000000000000000     
   1.3437500000000000       0.25000000000000000        0.0000000000000000     
   1.3750000000000000       0.25000000000000000        0.0000000000000000     
   1.3750000000000000       0.12500000000000000        0.0000000000000000     
   1.4062500000000000       0.12500000000000000        0.0000000000000000     
   1.4375000000000000       0.12500000000000000        0.0000000000000000     
   1.4687500000000000       0.12500000000000000        0.0000000000000000     
   1.5000000000000000       0.12500000000000000        0.0000000000000000     
   1.3750000000000000       0.15625000000000000        0.0000000000000000     
   1.4062500000000000       0.15625000000000000        0.0000000000000000     
   1.4375000000000000       0.15625000000000000        0.0000000000000000     
   1.4687500000000000       0.15625000000000000        0.0000000000000000     
   1.5000000000000000       0.15625000000000000        0.0000000000000000     
   1.3750000000000000       0.18750000000000000        0.0000000000000000     
   1.4062500000000000       0.18750000000000000        0.0000000000000000     
   1.4375000000000000       0.18750000000000000        0.0000000000000000     
   1.4687500000000000       0.18750000000000000        0.0000000000000000     
   1.5000000000000000       0.18750000000000000        0.0000000000000000     
   1.3750000000000000       0.21875000000000000        0.0000000000000000     
   1.4062500000000000       0.21875000000000000        0.0000000000000000     
   1.4375000000000000       0.21875000000000000        0.0000000000000000     
   1.4687500000000000       0.21875000000000000        0.0000000000000000     
   1.5000000000000000       0.21875000000000000        0.0000000000000000     
   1.3750000000000000       0.25000000000000000        0.0000000000000000     
   1.4062500000000000       0.25000000000000000        0.0000000000000000     
   1.4375000000000000       0.25000000000000000        0.0000000000000000     
   1.4687500000000000       0.25000000000000000        0.0000000000000000     
   1.5000000000000000       0.25000000000000000        0.0000000000000000     
  0.50000000000000000       0.25000000000000000        0.0000000000000000     
  0.53125000000000000       0.25000000000000000        0.0000000000000000     
  0.56250000000000000       0.25000000000000000        0.0000000000000000     
  0.59375000000000000       0.25000000000000000        0.0000000000000000     
  0.62500000000000000       0.25000000000000000        0.0000000000000000     
  0.50000000000000000       0.28125000000000000        0.0000000000000000     
  0.53125000000000000       0.28125000000000000        0.0000000000000000     
  0.56250000000000000       0.28125000000000000        0.0000000000000000     
  0.59375000000000000       0.28125000000000000        0.0000000000000000     
  0.62500000000000000       0.28125000000000000        0.0000000000000000     
  0.50000000000000000       0.31250000000000000        0.0000000000000000     
  0.53125000000000000       0.31250000000000000        0.0000000000000000     
  0.56250000000000000       0.31250000000000000        0.0000000000000000     
  0.59375000000000000       0.31250000000000000        0.0000000000000000     
  0.62500000000000000       0.31250000000000000        0.0000000000000000     
  0.50000000000000000       0.34375000000000000        0.0000000000000000     
  0.53125000000000000       0.34375000000000000        0.0000000000000000     
  0.56250000000000000       0.34375000000000000        0.0000000000000000     
  0.59375000000000000       0.34375000000000000        0.0000000000000000     
  0.62500000000000000       0.34375000000000000        0.0000000000000000     
  0.50000000000000000       0.37500000000000000        0.0000000000000000     
  0.53125000000000000       0.37500000000000000        0.0000000000000000     
  0.56250000000000000       0.37500000000000000        0.0000000000000000     
  0.59375000000000000       0.37500000000000000        0.0000000000000000     
  0.62500000000000000       0.37500000000000000        0.0000000000000000     
  0.62500000000000000       0.25000000000000000        0.0000000000000000     
  0.65625000000000000       0.25000000000000000        0.0000000000000000     
  0.68750000000000000       0.25000000000000000        0.0000000000000000     
  0.71875000000000000       0.25000000000000000        0.0000000000000000     
  0.75000000000000000       0.25000000000000000        0.0000000000000000     
  0.62500000000000000       0.28125000000000000        0.0000000000000000     
  0.65625000000000000       0.28125000000000000        0.0000000000000000     
  0.68750000000000000       0.28125000000000000        0.0000000000000000     
  0.71875000000000000       0.28125000000000000        0.0000000000000000     
  0.75000000000000000       0.28125000000000000        0.0000000000000000     
  0.62500000000000000       0.31250000000000000        0.0000000000000000     
  0.65625000000000000       0.31250000000000000        0.0000000000000000     
  0.68750000000000000       0.31250000000000000        0.0000000000000000     
  0.71875000000000000       0.31250000000000000        0.0000000000000000     
  0.75000000000000000       0.31250000000000000        0.0000000000000000     
  0.62500000000000000       0.34375000000000000        0.0000000000000000     
  0.65625000000000000       0.34375000000000000        0.0000000000000000     
  0.68750000000000000       0.34375000000000000        0.0000000000000000     
  0.71875000000000000       0.34375000000000000        0.0000000000000000     
  0.75000000000000000       0.34375000000000000        0.0000000000000000     
  0.62500000000000000       0.37500000000000000        0.0000000000000000     
  0.65625000000000000       0.37500000000000000        0.0000000000000000     
  0.68750000000000000       0.37500000000000000        0.0000000000000000     
  0.71875000000000000       0.37500000000000000        0.0000000000000000     
  0.75000000000000000       0.37500000000000000        0.0000000000000000     
  0.75000000000000000       0.25000000000000000        0.0000000000000000     
  0.78125000000000000       0.25000000000000000        0.0000000000000000     
  0.81250000000000000       0.25000000000000000        0.0000000000000000     
  0.84375000000000000       0.25000000000000000        0.0000000000000000     
  0.87500000000000000       0.25000000000000000        0.0000000000000000     
  0.75000000000000000       0.28125000000000000        0.0000000000000000     
  0.78125000000000000       0.28125000000000000        0.0000000000000000     
  0.81250000000000000       0.28125000000000000        0.0000000000000000     
  0.84375000000000000       0.28125000000000000        0.0000000000000000     
  0.87500000000000000       0.28125000000000000        0.0000000000000000     
  0.75000000000000000       0.31250000000000000        0.0000000000000000     
  0.78125000000000000       0.31250000000000000        0.0000000000000000     
  0.81250000000000000       0.31250000000000000        0.0000000000000000     
  0.84375000000000000       0.31250000000000000        0.0000000000000000     
  0.87500000000000000       0.31250000000000000        0.0000000000000000     
  0.75000000000000000       0.34375000000000000        0.0000000000000000     
  0.78125000000000000       0.34375000000000000        0.0000000000000000     
  0.81250000000000000       0.34375000000000000        0.0000000000000000     
  0.84375000000000000       0.34375000000000000        0.0000000000000000     
  0.87500000000000000       0.34375000000000000        0.0000000000000000     
  0.75000000000000000       0.37500000000000000        0.0000000000000000     
  0.78125000000000000       0.37500000000000000        0.0000000000000000     
  0.81250000000000000       0.37500000000000000        0.0000000000000000     
  0.84375000000000000       0.37500000000000000        0.0000000000000000     
  0.87500000000000000       0.37500000000000000        0.0000000000000000     
  0.87500000000000000       0.25000000000000000        0.0000000000000000     
  0.90625000000000000       0.25000000000000000        0.0000000000000000     
  0.93750000000000000       0.25000000000000000        0.0000000000000000     
  0.96875000000000000       0.25000000000000000        0.0000000000000000     
   1.0000000000000000       0.25000000000000000        0.0000000000000000     
  0.87500000000000000       0.28125000000000000        0.0000000000000000     
  0.90625000000000000       0.28125000000000000        0.0000000000000000     
  0.93750000000000000       0.28125000000000000        0.0000000000000000     
  0.96875000000000000       0.28125000000000000        0.0000000000000000     
   1.0000000000000000       0.28125000000000000        0.0000000000000000     
  0.87500000000000000       0.31250000000000000        0.0000000000000000     
  0.90625000000000000       0.31250000000000000        0.0000000000000000     
  0.93750000000000000       0.31250000000000000        0.0000000000000000     
  0.96875000000000000       0.31250000000000000        0.0000000000000000     
   1.0000000000000000       0.31250000000000000        0.0000000000000000     
  0.87500000000000000       0.34375000000000000        0.0000000000000000     
  0.90625000000000000       0.34375000000000000        0.0000000000000000     
  0.93750000000000000       0.34375000000000000        0.0000000000000000     
  0.96875000000000000       0.34375000000000000        0.0000000000000000     
   1.0000000000000000       0.34375000000000000        0.0000000000000000     
  0.87500000000000000       0.37500000000000000        0.0000000000000000     
  0.90625000000000000       0.37500000000000000        0.0000000000000000     
  0.93750000000000000       0.37500000000000000        0.0000000000000000     
  0.96875000000000000       0.37500000000000000        0.0000000000000000     
   1.0000000000000000       0.37500000000000000        0.0000000000000000     
   1.0000000000000000       0.25000000000000000        0.0000000000000000     
   1.0312500000000000       0.25000000000000000        0.0000000000000000     
   1.0625000000000000       0.25000000000000000        0.0000000000000000     
   1.0937500000000000       0.25000000000000000        0.0000000000000000     
   1.1250000000000000       0.25000000000000000        0.0000000000000000     
   1.0000000000000000       0.28125000000000000        0.0000000000000000     
   1.0312500000000000       0.28125000000000000        0.0000000000000000     
   1.0625000000000000       0.28125000000000000        0.0000000000000000     
   1.0937500000000000       0.28125000000000000        0.0000000000000000     
   1.1250000000000000       0.28125000000000000        0.0000000000000000     
   1.0000000000000000       0.31250000000000000        0.0000000000000000     
   1.0312500000000000       0.31250000000000000        0.0000000000000000     
   1.0625000000000000       0.31250000000000000        0.0000000000000000     
   1.0937500000000000       0.31250000000000000        0.0000000000000000     
   1.1250000000000000       0.31250000000000000        0.0000000000000000     
   1.0000000000000000       0.34375000000000000        0.0000000000000000     
   1.0312500000000000       0.34375000000000000        0.0000000000000000     
   1.0625000000000000       0.34375000000000000        0.0000000000000000     
   1.0937500000000000       0.34375000000000000        0.0000000000000000     
   1.1250000000000000       0.34375000000000000        0.0000000000000000     
   1.0000000000000000       0.37500000000000000        0.0000000000000000     
   1.0312500000000000       0.37500000000000000        0.0000000000000000     
   1.0625000000000000       0.37500000000000000        0.0000000000000000     
   1.0937500000000000       0.37500000000000000        0.0000000000000000     
   1.1250000000000000       0.37500000000000000        0.0000000000000000     
   1.1250000000000000       0.25000000000000000        0.0000000000000000     
   1.1562500000000000       0.25000000000000000        0.0000000000000000     
   1.1875000000000000       0.25000000000000000        0.0000000000000000     
   1.2187500000000000       0.25000000000000000        0.0000000000000000     
   1.2500000000000000       0.25000000000000000        0.0000000000000000     
   1.1250000000000000       0.28125000000000000        0.0000000000000000     
   1.1562500000000000       0.28125000000000000        0.0000000000000000     
   1.1875000000000000       0.28125000000000000        0.0000000000000000     
   1.2187500000000000       0.28125000000000000        0.0000000000000000     
   1.2500000000000000       0.28125000000000000        0.0000000000000000     
   1.1250000000000000       0.31250000000000000        0.0000000000000000     
   1.1562500000000000       0.31250000000000000        0.0000000000000000     
   1.1875000000000000       0.31250000000000000        0.0000000000000000     
   1.2187500000000000       0.31250000000000000        0.0000000000000000     
   1.2500000000000000       0.31250000000000000        0.0000000000000000     
   1.1250000000000000       0.34375000000000000        0.0000000000000000     
   1.1562500000000000       0.34375000000000000        0.0000000000000000     
   1.1875000000000000       0.34375000000000000        0.0000000000000000     
   1.2187500000000000       0.34375000000000000        0.0000000000000000     
   1.2500000000000000       0.34375000000000000        0.0000000000000000     
   1.1250000000000000       0.37500000000000000        0.0000000000000000     
   1.1562500000000000       0.37500000000000000        0.0000000000000000     
   1.1875000000000000       0.37500000000000000        0.0000000000000000     
   1.2187500000000000       0.37500000000000000        0.0000000000000000     
   1.2500000000000000       0.37500000000000000        0.0000000000000000     
   1.2500000000000000       0.25000000000000000        0.0000000000000000     
   1.2812500000000000       0.25000000000000000        0.0000000000000000     
   1.3125000000000000       0.25000000000000000        0.0000000000000000     
   1.3437500000000000       0.25000000000000000        0.0000000000000000     
   1.3750000000000000       0.25000000000000000        0.0000000000000000     
   1.2500000000000000       0.28125000000000000        0.0000000000000000     
   1.2812500000000000       0.28125000000000000        0.0000000000000000     
   1.3125000000000000       0.28125000000000000        0.0000000000000000     
   1.3437500000000000       0.28125000000000000        0.0000000000000000     
   1.3750000000000000       0.28125000000000000        0.0000000000000000     
   1.2500000000000000       0.31250000000000000        0.0000000000000000     
   1.2812500000000000       0.31250000000000000        0.0000000000000000     
   1.3125000000000000       0.31250000000000000        0.0000000000000000     
   1.3437500000000000       0.31250000000000000        0.0000000000000000     
   1.3750000000000000       0.31250000000000000        0.0000000000000000     
   1.2500000000000000       0.34375000000000000        0.0000000000000000     
   1.2812500000000000       0.34375000000000000        0.0000000000000000     
   1.3125000000000000       0.34375000000000000        0.0000000000000000     
   1.3437500000000000       0.34375000000000000        0.0000000000000000     
   1.3750000000000000       0.34375000000000000        0.0000000000000000     
   1.2500000000000000       0.37500000000000000        0.0000000000000000     
   1.2812500000000000       0.37500000000000000        0.0000000000000000     
   1.3125000000000000       0.37500000000000000        0.0000000000000000     
   1.3437500000000000       0.37500000000000000        0.0000000000000000     
   1.3750000000000000       0.37500000000000000        0.0000000000000000     
   1.3750000000000000       0.25000000000000000        0.0000000000000000     
   1.4062500000000000       0.25000000000000000        0.0000000000000000     
   1.4375000000000000       0.25000000000000000        0.0000000000000000     
   1.4687500000000000       0.25000000000000000        0.0000000000000000     
   1.5000000000000000       0.25000000000000000        0.0000000000000000     
   1.3750000000000000       0.28125000000000000        0.0000000000000000     
   1.4062500000000000       0.28125000000000000        0.0000000000000000     
   1.4375000000000000       0.28125000000000000        0.0000000000000000     
   1.4687500000000000       0.28125000000000000        0.0000000000000000     
   1.5000000000000000       0.28125000000000000        0.0000000000000000     
   1.3750000000000000       0.31250000000000000        0.0000000000000000     
   1.4062500000000000       0.31250000000000000        0.0000000000000000     
   1.4375000000000000       0.31250000000000000        0.0000000000000000     
   1.4687500000000000       0.31250000000000000        0.0000000000000000     
   1.5000000000000000       0.31250000000000000        0.0000000000000000     
   1.3750000000000000       0.34375000000000000        0.0000000000000000     
   1.4062500000000000       0.34375000000000000        0.0000000000000000     
   1.4375000000000000       0.34375000000000000        0.0000000000000000     
   1.4687500000000000       0.34375000000000000        0.0000000000000000     
   1.5000000000000000       0.34375000000000000        0.0000000000000000     
   1.3750000000000000       0.37500000000000000        0.0000000000000000     
   1.4062500000000000       0.37500000000000000        0.0000000000000000     
   1.4375000000000000       0.37500000000000000        0.0000000000000000     
   1.4687500000000000       0.37500000000000000        0.0000000000000000     
   1.5000000000000000       0.37500000000000000        0.0000000000000000     
  0.50000000000000000       0.37500000000000000        0.0000000000000000     
  0.53125000000000000       0.37500000000000000        0.0000000000000000     
  0.56250000000000000       0.37500000000000000        0.0000000000000000     
  0.59375000000000000       0.37500000000000000        0.0000000000000000     
  0.62500000000000000       0.37500000000000000        0.0000000000000000     
  0.50000000000000000       0.40625000000000000        0.0000000000000000     
  0.53125000000000000       0.40625000000000000        0.0000000000000000     
  0.56250000000000000       0.40625000000000000        0.0000000000000000     
  0.59375000000000000       0.40625000000000000        0.0000000000000000     
  0.62500000000000000       0.40625000000000000        0.0000000000000000     
  0.50000000000000000       0.43750000000000000        0.0000000000000000     
  0.53125000000000000       0.43750000000000000        0.0000000000000000     
  0.56250000000000000       0.43750000000000000        0.0000000000000000     
  0.59375000000000000       0.43750000000000000        0.0000000000000000     
  0.62500000000000000       0.43750000000000000        0.0000000000000000     
  0.50000000000000000       0.46875000000000000        0.0000000000000000     
  0.53125000000000000       0.46875000000000000        0.0000000000000000     
  0.56250000000000000       0.46875000000000000        0.0000000000000000     
  0.59375000000000000       0.46875000000000000        0.0000000000000000     
  0.62500000000000000       0.46875000000000000        0.0000000000000000     
  0.50000000000000000       0.50000000000000000        0.0000000000000000     
  0.53125000000000000       0.50000000000000000        0.0000000000000000     
  0.56250000000000000       0.50000000000000000        0.0000000000000000     
  0.59375000000000000       0.50000000000000000        0.0000000000000000     
  0.62500000000000000       0.50000000000000000        0.0000000000000000     
  0.62500000000000000       0.37500000000000000        0.0000000000000000     
  0.65625000000000000       0.37500000000000000        0.0000000000000000     
  0.68750000000000000       0.37500000000000000        0.0000000000000000     
  0.71875000000000000       0.37500000000000000        0.0000000000000000     
  0.75000000000000000       0.37500000000000000        0.0000000000000000     
  0.62500000000000000       0.40625000000000000        0.0000000000000000     
  0.65625000000000000       0.40625000000000000        0.0000000000000000     
  0.68750000000000000       0.40625000000000000        0.0000000000000000     
  0.71875000000000000       0.40625000000000000        0.0000000000000000     
  0.75000000000000000       0.40625000000000000        0.0000000000000000     
  0.62500000000000000       0.43750000000000000        0.0000000000000000     
  0.65625000000000000       0.43750000000000000        0.0000000000000000     
  0.68750000000000000       0.43750000000000000        0.0000000000000000     
  0.71875000000000000       0.43750000000000000        0.0000000000000000     
  0.75000000000000000       0.43750000000000000        0.0000000000000000     
  0.62500000000000000       0.46875000000000000        0.0000000000000000     
  0.65625000000000000       0.46875000000000000        0.0000000000000000     
  0.68750000000000000       0.46875000000000000        0.0000000000000000     
  0.71875000000000000       0.46875000000000000        0.0000000000000000     
  0.75000000000000000       0.46875000000000000        0.0000000000000000     
  0.62500000000000000       0.50000000000000000        0.0000000000000000     
  0.65625000000000000       0.50000000000000000        0.0000000000000000     
  0.68750000000000000       0.50000000000000000        0.0000000000000000     
  0.71875000000000000       0.50000000000000000        0.0000000000000000     
  0.75000000000000000       0.50000000000000000        0.0000000000000000     
  0.75000000000000000       0.37500000000000000        0.0000000000000000     
  0.78125000000000000       0.37500000000000000        0.0000000000000000     
  0.81250000000000000       0.37500000000000000        0.0000000000000000     
  0.84375000000000000       0.37500000000000000        0.0000000000000000     
  0.87500000000000000       0.37500000000000000        0.0000000000000000     
  0.75000000000000000       0.40625000000000000        0.0000000000000000     
  0.78125000000000000       0.40625000000000000        0.0000000000000000     
  0.81250000000000000       0.40625000000000000        0.0000000000000000     
  0.84375000000000000       0.40625000000000000        0.0000000000000000     
  0.87500000000000000       0.40625000000000000        0.0000000000000000     
  0.75000000000000000       0.43750000000000000        0.0000000000000000     
  0.78125000000000000       0.43750000000000000        0.0000000000000000     
  0.81250000000000000       0.43750000000000000        0.0000000000000000     
  0.84375000000000000       0.43750000000000000        0.0000000000000000     
  0.87500000000000000       0.43750000000000000        0.0000000000000000     
  0.75000000000000000       0.46875000000000000        0.0000000000000000     
  0.78125000000000000       0.46875000000000000        0.0000000000000000     
  0.81250000000000000       0.46875000000000000        0.0000000000000000     
  0.84375000000000000       0.46875000000000000        0.0000000000000000     
  0.87500000000000000       0.46875000000000000        0.0000000000000000     
  0.75000000000000000       0.50000000000000000        0.0000000000000000     
  0.78125000000000000       0.50000000000000000        0.0000000000000000     
  0.81250000000000000       0.50000000000000000        0.0000000000000000     
  0.84375000000000000       0.50000000000000000        0.0000000000000000     
  0.87500000000000000       0.50000000000000000        0.0000000000000000     
  0.87500000000000000       0.37500000000000000        0.0000000000000000     
  0.90625000000000000       0.37500000000000000        0.0000000000000000     
  0.93750000000000000       0.37500000000000000        0.0000000000000000     
  0.96875000000000000       0.37500000000000000        0.0000000000000000     
   1.0000000000000000       0.37500000000000000        0.0000000000000000     
  0.87500000000000000       0.40625000000000000        0.0000000000000000     
  0.90625000000000000       0.40625000000000000        0.0000000000000000     
  0.93750000000000000       0.40625000000000000        0.0000000000000000     
  0.96875000000000000       0.40625000000000000        0.0000000000000000     
   1.0000000000000000       0.40625000000000000        0.0000000000000000     
  0.87500000000000000       0.43750000000000000        0.0000000000000000     
  0.90625000000000000       0.43750000000000000        0.0000000000000000     
  0.93750000000000000       0.43750000000000000        0.0000000000000000     
  0.96875000000000000       0.43750000000000000        0.0000000000000000     
   1.0000000000000000       0.43750000000000000        0.0000000000000000     
  0.87500000000000000       0.46875000000000000        0.0000000000000000     
  0.90625000000000000       0.46875000000000000        0.0000000000000000     
  0.93750000000000000       0.46875000000000000        0.0000000000000000     
  0.96875000000000000       0.46875000000000000        0.0000000000000000     
   1.0000000000000000       0.46875000000000000        0.0000000000000000     
  0.87500000000000000       0.50000000000000000        0.0000000000000000     
  0.90625000000000000       0.50000000000000000        0.0000000000000000     
  0.93750000000000000       0.50000000000000000        0.0000000000000000     
  0.96875000000000000       0.50000000000000000        0.0000000000000000     
   1.0000000000000000       0.50000000000000000        0.0000000000000000     
   1.0000000000000000       0.37500000000000000        0.0000000000000000     
   1.0312500000000000       0.37500000000000000        0.0000000000000000     
   1.0625000000000000       0.37500000000000000        0.0000000000000000     
   1.0937500000000000       0.37500000000000000        0.0000000000000000     
   1.1250000000000000       0.37500000000000000        0.0000000000000000     
   1.0000000000000000       0.40625000000000000        0.0000000000000000     
   1.0312500000000000       0.40625000000000000        0.0000000000000000     
   1.0625000000000000       0.40625000000000000        0.0000000000000000     
   1.0937500000000000       0.40625000000000000        0.0000000000000000     
   1.1250000000000000       0.40625000000000000        0.0000000000000000     
   1.0000000000000000       0.43750000000000000        0.0000000000000000     
   1.0312500000000000       0.43750000000000000        0.0000000000000000     
   1.0625000000000000       0.43750000000000000        0.0000000000000000     
   1.0937500000000000       0.43750000000000000        0.0000000000000000     
   1.1250000000000000       0.43750000000000000        0.0000000000000000     
   1.0000000000000000       0.46875000000000000        0.0000000000000000     
   1.0312500000000000       0.46875000000000000        0.0000000000000000     
   1.0625000000000000       0.46875000000000000        0.0000000000000000     
   1.0937500000000000       0.46875000000000000        0.0000000000000000     
   1.1250000000000000       0.46875000000000000        0.0000000000000000     
   1.0000000000000000       0.50000000000000000        0.0000000000000000     
   1.0312500000000000       0.50000000000000000        0.0000000000000000     
   1.0625000000000000       0.50000000000000000        0.0000000000000000     
   1.0937500000000000       0.50000000000000000        0.0000000000000000     
   1.1250000000000000       0.50000000000000000        0.0000000000000000     
   1.1250000000000000       0.37500000000000000        0.0000000000000000     
   1.1562500000000000       0.37500000000000000        0.0000000000000000     
   1.1875000000000000       0.37500000000000000        0.0000000000000000     
   1.2187500000000000       0.37500000000000000        0.0000000000000000     
   1.2500000000000000       0.37500000000000000        0.0000000000000000     
   1.1250000000000000       0.40625000000000000        0.0000000000000000     
   1.1562500000000000       0.40625000000000000        0.0000000000000000     
   1.1875000000000000       0.40625000000000000        0.0000000000000000     
   1.2187500000000000       0.40625000000000000        0.0000000000000000     
   1.2500000000000000       0.40625000000000000        0.0000000000000000     
   1.1250000000000000       0.43750000000000000        0.0000000000000000     
   1.1562500000000000       0.43750000000000000        0.0000000000000000     
   1.1875000000000000       0.43750000000000000        0.0000000000000000     
   1.2187500000000000       0.43750000000000000        0.0000000000000000     
   1.2500000000000000       0.43750000000000000        0.0000000000000000     
   1.1250000000000000       0.46875000000000000        0.0000000000000000     
   1.1562500000000000       0.46875000000000000        0.0000000000000000     
   1.1875000000000000       0.46875000000000000        0.0000000000000000     
   1.2187500000000000       0.46875000000000000        0.0000000000000000     
   1.2500000000000000       0.46875000000000000        0.0000000000000000     
   1.1250000000000000       0.50000000000000000        0.0000000000000000     
   1.1562500000000000       0.50000000000000000        0.0000000000000000     
   1.1875000000000000       0.50000000000000000        0.0000000000000000     
   1.2187500000000000       0.50000000000000000        0.0000000000000000     
   1.2500000000000000       0.50000000000000000        0.0000000000000000     
   1.2500000000000000       0.37500000000000000        0.0000000000000000     
   1.2812500000000000       0.37500000000000000        0.0000000000000000     
   1.3125000000000000       0.37500000000000000        0.0000000000000000     
   1.3437500000000000       0.37500000000000000        0.0000000000000000     
   1.3750000000000000       0.37500000000000000        0.0000000000000000     
   1.2500000000000000       0.40625000000000000        0.0000000000000000     
   1.2812500000000000       0.40625000000000000        0.0000000000000000     
   1.3125000000000000       0.40625000000000000        0.0000000000000000     
   1.3437500000000000       0.40625000000000000        0.0000000000000000     
   1.3750000000000000       0.40625000000000000        0.0000000000000000     
   1.2500000000000000       0.43750000000000000        0.0000000000000000     
   1.2812500000000000       0.43750000000000000        0.0000000000000000     
   1.3125000000000000       0.43750000000000000        0.0000000000000000     
   1.3437500000000000       0.43750000000000000        0.0000000000000000     
   1.3750000000000000       0.43750000000000000        0.0000000000000000     
   1.2500000000000000       0.46875000000000000        0.0000000000000000     
   1.2812500000000000       0.46875000000000000        0.0000000000000000     
   1.3125000000000000       0.46875000000000000        0.0000000000000000     
   1.3437500000000000       0.46875000000000000        0.0000000000000000     
   1.3750000000000000       0.46875000000000000        0.0000000000000000     
   1.2500000000000000       0.50000000000000000        0.0000000000000000     
   1.2812500000000000       0.50000000000000000        0.0000000000000000     
   1.3125000000000000       0.50000000000000000        0.0000000000000000     
   1.3437500000000000       0.50000000000000000        0.0000000000000000     
   1.3750000000000000       0.50000000000000000        0.0000000000000000     
   1.3750000000000000       0.37500000000000000        0.0000000000000000     
   1.4062500000000000       0.37500000000000000        0.0000000000000000     
   1.4375000000000000       0.37500000000000000        0.0000000000000000     
   1.4687500000000000       0.37500000000000000        0.0000000000000000     
   1.5000000000000000       0.37500000000000000        0.0000000000000000     
   1.3750000000000000       0.40625000000000000        0.0000000000000000     
   1.4062500000000000       0.40625000000000000        0.0000000000000000     
   1.4375000000000000       0.40625000000000000        0.0000000000000000     
   1.4687500000000000       0.40625000000000000        0.0000000000000000     
   1.5000000000000000       0.40625000000000000        0.0000000000000000     
   1.3750000000000000       0.43750000000000000        0.0000000000000000     
   1.4062500000000000       0.43750000000000000        0.0000000000000000     
   1.4375000000000000       0.43750000000000000        0.0000000000000000     
   1.4687500000000000       0.43750000000000000        0.0000000000000000     
   1.5000000000000000       0.43750000000000000        0.0000000000000000     
   1.3750000000000000       0.46875000000000000        0.0000000000000000     
   1.4062500000000000       0.46875000000000000        0.0000000000000000     
   1.4375000000000000       0.46875000000000000        0.0000000000000000     
   1.4687500000000000       0.46875000000000000        0.0000000000000000     
   1.5000000000000000       0.46875000000000000        0.0000000000000000     
   1.3750000000000000       0.50000000000000000        0.0000000000000000     
   1.4062500000000000       0.50000000000000000        0.0000000000000000     
   1.4375000000000000       0.50000000000000000        0.0000000000000000     
   1.4687500000000000       0.50000000000000000        0.0000000000000000     
   1.5000000000000000       0.50000000000000000        0.0000000000000000     
  0.50000000000000000       0.50000000000000000        0.0000000000000000     
  0.53125000000000000       0.50000000000000000        0.0000000000000000     
  0.56250000000000000       0.50000000000000000        0.0000000000000000     
  0.59375000000000000       0.50000000000000000        0.0000000000000000     
  0.62500000000000000       0.50000000000000000        0.0000000000000000     
  0.50000000000000000       0.53125000000000000        0.0000000000000000     
  0.53125000000000000       0.53125000000000000        0.0000000000000000     
  0.56250000000000000       0.53125000000000000        0.0000000000000000     
  0.59375000000000000       0.53125000000000000        0.0000000000000000     
  0.62500000000000000       0.53125000000000000        0.0000000000000000     
  0.50000000000000000       0.56250000000000000        0.0000000000000000     
  0.53125000000000000       0.56250000000000000        0.0000000000000000     
  0.56250000000000000       0.56250000000000000        0.0000000000000000     
  0.59375000000000000       0.56250000000000000        0.0000000000000000     
  0.62500000000000000       0.56250000000000000        0.0000000000000000     
  0.50000000000000000       0.59375000000000000        0.0000000000000000     
  0.53125000000000000       0.59375000000000000        0.0000000000000000     
  0.56250000000000000       0.59375000000000000        0.0000000000000000     
  0.59375000000000000       0.59375000000000000        0.0000000000000000     
  0.62500000000000000       0.59375000000000000        0.0000000000000000     
  0.50000000000000000       0.62500000000000000        0.0000000000000000     
  0.53125000000000000       0.62500000000000000        0.0000000000000000     
  0.56250000000000000       0.62500000000000000        0.0000000000000000     
  0.59375000000000000       0.62500000000000000        0.0000000000000000     
  0.62500000000000000       0.62500000000000000        0.0000000000000000     
  0.62500000000000000       0.50000000000000000        0.0000000000000000     
  0.65625000000000000       0.50000000000000000        0.0000000000000000     
  0.68750000000000000       0.50000000000000000        0.0000000000000000     
  0.71875000000000000       0.50000000000000000        0.0000000000000000     
  0.75000000000000000       0.50000000000000000        0.0000000000000000     
  0.62500000000000000       0.53125000000000000        0.0000000000000000     
  0.65625000000000000       0.53125000000000000        0.0000000000000000     
  0.68750000000000000       0.53125000000000000        0.0000000000000000     
  0.71875000000000000       0.53125000000000000        0.0000000000000000     
  0.75000000000000000       0.53125000000000000        0.0000000000000000     
  0.62500000000000000       0.56250000000000000        0.0000000000000000     
  0.65625000000000000       0.56250000000000000        0.0000000000000000     
  0.68750000000000000       0.56250000000000000        0.0000000000000000     
  0.71875000000000000       0.56250000000000000        0.0000000000000000     
  0.75000000000000000       0.56250000000000000        0.0000000000000000     
  0.62500000000000000       0.59375000000000000        0.0000000000000000     
  0.65625000000000000       0.59375000000000000        0.0000000000000000     
  0.68750000000000000       0.59375000000000000        0.0000000000000000     
  0.71875000000000000       0.59375000000000000        0.0000000000000000     
  0.75000000000000000       0.59375000000000000        0.0000000000000000     
  0.62500000000000000       0.62500000000000000        0.0000000000000000     
  0.65625000000000000       0.62500000000000000        0.0000000000000000     
  0.68750000000000000       0.62500000000000000        0.0000000000000000     
  0.71875000000000000       0.62500000000000000        0.0000000000000000     
  0.75000000000000000       0.62500000000000000        0.0000000000000000     
  0.75000000000000000       0.50000000000000000        0.0000000000000000     
  0.78125000000000000       0.50000000000000000        0.0000000000000000     
  0.81250000000000000       0.50000000000000000        0.0000000000000000     
  0.84375000000000000       0.50000000000000000        0.0000000000000000     
  0.87500000000000000       0.50000000000000000        0.0000000000000000     
  0.75000000000000000       0.53125000000000000        0.0000000000000000     
  0.78125000000000000       0.53125000000000000        0.0000000000000000     
  0.81250000000000000       0.53125000000000000        0.0000000000000000     
  0.84375000000000000       0.53125000000000000        0.0000000000000000     
  0.87500000000000000       0.53125000000000000        0.0000000000000000     
  0.75000000000000000       0.56250000000000000        0.0000000000000000     
  0.78125000000000000       0.56250000000000000        0.0000000000000000     
  0.81250000000000000       0.56250000000000000        0.0000000000000000     
  0.84375000000000000       0.56250000000000000        0.0000000000000000     
  0.87500000000000000       0.56250000000000000        0.0000000000000000     
  0.75000000000000000       0.59375000000000000        0.0000000000000000     
  0.78125000000000000       0.59375000000000000        0.0000000000000000     
  0.81250000000000000       0.59375000000000000        0.0000000000000000     
  0.84375000000000000       0.59375000000000000        0.0000000000000000     
  0.87500000000000000       0.59375000000000000        0.0000000000000000     
  0.75000000000000000       0.62500000000000000        0.0000000000000000     
  0.78125000000000000       0.62500000000000000        0.0000000000000000     
  0.81250000000000000       0.62500000000000000        0.0000000000000000     
  0.84375000000000000       0.62500000000000000        0.0000000000000000     
  0.87500000000000000       0.62500000000000000        0.0000000000000000     
  0.87500000000000000       0.50000000000000000        0.0000000000000000     
  0.90625000000000000       0.50000000000000000        0.0000000000000000     
  0.93750000000000000       0.50000000000000000        0.0000000000000000     
  0.96875000000000000       0.50000000000000000        0.0000000000000000     
   1.0000000000000000       0.50000000000000000        0.0000000000000000     
  0.87500000000000000       0.53125000000000000        0.0000000000000000     
  0.90625000000000000       0.53125000000000000        0.0000000000000000     
  0.93750000000000000       0.53125000000000000        0.0000000000000000     
  0.96875000000000000       0.53125000000000000        0.0000000000000000     
   1.0000000000000000       0.53125000000000000        0.0000000000000000     
  0.87500000000000000       0.56250000000000000        0.0000000000000000     
  0.90625000000000000       0.56250000000000000        0.0000000000000000     
  0.93750000000000000       0.56250000000000000        0.0000000000000000     
  0.96875000000000000       0.56250000000000000        0.0000000000000000     
   1.0000000000000000       0.56250000000000000        0.0000000000000000     
  0.87500000000000000       0.59375000000000000        0.0000000000000000     
  0.90625000000000000       0.59375000000000000        0.0000000000000000     
  0.93750000000000000       0.59375000000000000        0.0000000000000000     
  0.96875000000000000       0.59375000000000000        0.0000000000000000     
   1.0000000000000000       0.59375000000000000        0.0000000000000000     
  0.87500000000000000       0.62500000000000000        0.0000000000000000     
  0.90625000000000000       0.62500000000000000        0.0000000000000000     
  0.93750000000000000       0.62500000000000000        0.0000000000000000     
  0.96875000000000000       0.62500000000000000        0.0000000000000000     
   1.0000000000000000       0.62500000000000000        0.0000000000000000     
   1.0000000000000000       0.50000000000000000        0.0000000000000000     
   1.0312500000000000       0.50000000000000000        0.0000000000000000     
   1.0625000000000000       0.50000000000000000        0.0000000000000000     
   1.0937500000000000       0.50000000000000000        0.0000000000000000     
   1.1250000000000000       0.50000000000000000        0.0000000000000000     
   1.0000000000000000       0.53125000000000000        0.0000000000000000     
   1.0312500000000000       0.53125000000000000        0.0000000000000000     
   1.0625000000000000       0.53125000000000000        0.0000000000000000     
   1.0937500000000000       0.53125000000000000        0.0000000000000000     
   1.1250000000000000       0.53125000000000000        0.0000000000000000     
   1.0000000000000000       0.56250000000000000        0.0000000000000000     
   1.0312500000000000       0.56250000000000000        0.0000000000000000     
   1.0625000000000000       0.56250000000000000        0.0000000000000000     
   1.0937500000000000       0.56250000000000000        0.0000000000000000     
   1.1250000000000000       0.56250000000000000        0.0000000000000000     
   1.0000000000000000       0.59375000000000000        0.0000000000000000     
   1.0312500000000000       0.59375000000000000        0.0000000000000000     
   1.0625000000000000       0.59375000000000000        0.0000000000000000     
   1.0937500000000000       0.59375000000000000        0.0000000000000000     
   1.1250000000000000       0.59375000000000000        0.0000000000000000     
   1.0000000000000000       0.62500000000000000        0.0000000000000000     
   1.0312500000000000       0.62500000000000000        0.0000000000000000     
   1.0625000000000000       0.62500000000000000        0.0000000000000000     
   1.0937500000000000       0.62500000000000000        0.0000000000000000     
   1.1250000000000000       0.62500000000000000        0.0000000000000000     
   1.1250000000000000       0.50000000000000000        0.0000000000000000     
   1.1562500000000000       0.50000000000000000        0.0000000000000000     
   1.1875000000000000       0.50000000000000000        0.0000000000000000     
   1.2187500000000000       0.50000000000000000        0.0000000000000000     
   1.2500000000000000       0.50000000000000000        0.0000000000000000     
   1.1250000000000000       0.53125000000000000        0.0000000000000000     
   1.1562500000000000       0.53125000000000000        0.0000000000000000     
   1.1875000000000000       0.53125000000000000        0.0000000000000000     
   1.2187500000000000       0.53125000000000000        0.0000000000000000     
   1.2500000000000000       0.53125000000000000        0.0000000000000000     
   1.1250000000000000       0.56250000000000000        0.0000000000000000     
   1.1562500000000000       0.56250000000000000        0.0000000000000000     
   1.1875000000000000       0.56250000000000000        0.0000000000000000     
   1.2187500000000000       0.56250000000000000        0.0000000000000000     
   1.2500000000000000       0.56250000000000000        0.0000000000000000     
   1.1250000000000000       0.59375000000000000        0.0000000000000000     
   1.1562500000000000       0.59375000000000000        0.0000000000000000     
   1.1875000000000000       0.59375000000000000        0.0000000000000000     
   1.2187500000000000       0.59375000000000000        0.0000000000000000     
   1.2500000000000000       0.59375000000000000        0.0000000000000000     
   1.1250000000000000       0.62500000000000000        0.0000000000000000     
   1.1562500000000000       0.62500000000000000        0.0000000000000000     
   1.1875000000000000       0.62500000000000000        0.0000000000000000     
   1.2187500000000000       0.62500000000000000        0.0000000000000000     
   1.2500000000000000       0.62500000000000000        0.0000000000000000     
   1.2500000000000000       0.50000000000000000        0.0000000000000000     
   1.2812500000000000       0.50000000000000000        0.0000000000000000     
   1.3125000000000000       0.50000000000000000        0.0000000000000000     
   1.3437500000000000       0.50000000000000000        0.0000000000000000     
   1.3750000000000000       0.50000000000000000        0.0000000000000000     
   1.2500000000000000       0.53125000000000000        0.0000000000000000     
   1.2812500000000000       0.53125000000000000        0.0000000000000000     
   1.3125000000000000       0.53125000000000000        0.0000000000000000     
   1.3437500000000000       0.53125000000000000        0.0000000000000000     
   1.3750000000000000       0.53125000000000000        0.0000000000000000     
   1.2500000000000000       0.56250000000000000        0.0000000000000000     
   1.2812500000000000       0.56250000000000000        0.0000000000000000     
   1.3125000000000000       0.56250000000000000        0.0000000000000000     
   1.3437500000000000       0.56250000000000000        0.0000000000000000     
   1.3750000000000000       0.56250000000000000        0.0000000000000000     
   1.2500000000000000       0.59375000000000000        0.0000000000000000     
   1.2812500000000000       0.59375000000000000        0.0000000000000000     
   1.3125000000000000       0.59375000000000000        0.0000000000000000     
   1.3437500000000000       0.59375000000000000        0.0000000000000000     
   1.3750000000000000       0.59375000000000000        0.0000000000000000     
   1.2500000000000000       0.62500000000000000        0.0000000000000000     
   1.2812500000000000       0.62500000000000000        0.0000000000000000     
   1.3125000000000000       0.62500000000000000        0.0000000000000000     
   1.3437500000000000       0.62500000000000000        0.0000000000000000     
   1.3750000000000000       0.62500000000000000        0.0000000000000000     
   1.3750000000000000       0.50000000000000000        0.0000000000000000     
   1.4062500000000000       0.50000000000000000        0.0000000000000000     
   1.4375000000000000       0.50000000000000000        0.0000000000000000     
   1.4687500000000000       0.50000000000000000        0.0000000000000000     
   1.5000000000000000       0.50000000000000000        0.0000000000000000     
   1.3750000000000000       0.53125000000000000        0.0000000000000000     
   1.4062500000000000       0.53125000000000000        0.0000000000000000     
   1.4375000000000000       0.53125000000000000        0.0000000000000000     
   1.4687500000000000       0.53125000000000000        0.0000000000000000     
   1.5000000000000000       0.53125000000000000        0.0000000000000000     
   1.3750000000000000       0.56250000000000000        0.0000000000000000     
   1.4062500000000000       0.56250000000000000        0.0000000000000000     
   1.4375000000000000       0.56250000000000000        0.0000000000000000     
   1.4687500000000000       0.56250000000000000        0.0000000000000000     
   1.5000000000000000       0.56250000000000000        0.0000000000000000     
   1.3750000000000000       0.59375000000000000        0.0000000000000000     
   1.4062500000000000       0.59375000000000000        0.0000000000000000     
   1.4375000000000000       0.59375000000000000        0.0000000000000000     
   1.4687500000000000       0.59375000000000000        0.0000000000000000     
   1.5000000000000000       0.59375000000000000        0.0000000000000000     
   1.3750000000000000       0.62500000000000000        0.0000000000000000     
   1.4062500000000000       0.62500000000000000        0.0000000000000000     
   1.4375000000000000       0.62500000000000000        0.0000000000000000     
   1.4687500000000000       0.62500000000000000        0.0000000000000000     
   1.5000000000000000       0.62500000000000000        0.0000000000000000     
  0.50000000000000000       0.62500000000000000        0.0000000000000000     
  0.53125000000000000       0.62500000000000000        0.0000000000000000     
  0.56250000000000000       0.62500000000000000        0.0000000000000000     
  0.59375000000000000       0.62500000000000000        0.0000000000000000     
  0.62500000000000000       0.62500000000000000        0.0000000000000000     
  0.50000000000000000       0.65625000000000000        0.0000000000000000     
  0.53125000000000000       0.65625000000000000        0.0000000000000000     
  0.56250000000000000       0.65625000000000000        0.0000000000000000     
  0.59375000000000000       0.65625000000000000        0.0000000000000000     
  0.62500000000000000       0.65625000000000000        0.0000000000000000     
  0.50000000000000000       0.68750000000000000        0.0000000000000000     
  0.53125000000000000       0.68750000000000000        0.0000000000000000     
  0.56250000000000000       0.68750000000000000        0.0000000000000000     
  0.59375000000000000       0.68750000000000000        0.0000000000000000     
  0.62500000000000000       0.68750000000000000        0.0000000000000000     
  0.50000000000000000       0.71875000000000000        0.0000000000000000     
  0.53125000000000000       0.71875000000000000        0.0000000000000000     
  0.56250000000000000       0.71875000000000000        0.0000000000000000     
  0.59375000000000000       0.71875000000000000        0.0000000000000000     
  0.62500000000000000       0.71875000000000000        0.0000000000000000     
  0.50000000000000000       0.75000000000000000        0.0000000000000000     
  0.53125000000000000       0.75000000000000000        0.0000000000000000     
  0.56250000000000000       0.75000000000000000        0.0000000000000000     
  0.59375000000000000       0.75000000000000000        0.0000000000000000     
  0.62500000000000000       0.75000000000000000        0.0000000000000000     
  0.62500000000000000       0.62500000000000000        0.0000000000000000     
  0.65625000000000000       0.62500000000000000        0.0000000000000000     
  0.68750000000000000       0.62500000000000000        0.0000000000000000     
  0.71875000000000000       0.62500000000000000        0.0000000000000000     
  0.75000000000000000       0.62500000000000000        0.0000000000000000     
  0.62500000000000000       0.65625000000000000        0.0000000000000000     
  0.65625000000000000       0.65625000000000000        0.0000000000000000     
  0.68750000000000000       0.65625000000000000        0.0000000000000000     
  0.71875000000000000       0.65625000000000000        0.0000000000000000     
  0.75000000000000000       0.65625000000000000        0.0000000000000000     
  0.62500000000000000       0.68750000000000000        0.0000000000000000     
  0.65625000000000000       0.68750000000000000        0.0000000000000000     
  0.68750000000000000       0.68750000000000000        0.0000000000000000     
  0.71875000000000000       0.68750000000000000        0.0000000000000000     
  0.75000000000000000       0.68750000000000000        0.0000000000000000     
  0.62500000000000000       0.71875000000000000        0.0000000000000000     
  0.65625000000000000       0.71875000000000000        0.0000000000000000     
  0.68750000000000000       0.71875000000000000        0.0000000000000000     
  0.71875000000000000       0.71875000000000000        0.0000000000000000     
  0.75000000000000000       0.71875000000000000        0.0000000000000000     
  0.62500000000000000       0.75000000000000000        0.0000000000000000     
  0.65625000000000000       0.75000000000000000        0.0000000000000000     
  0.68750000000000000       0.75000000000000000        0.0000000000000000     
  0.71875000000000000       0.75000000000000000        0.0000000000000000     
  0.75000000000000000       0.75000000000000000        0.0000000000000000     
  0.75000000000000000       0.62500000000000000        0.0000000000000000     
  0.78125000000000000       0.62500000000000000        0.0000000000000000     
  0.81250000000000000       0.62500000000000000        0.0000000000000000     
  0.84375000000000000       0.62500000000000000        0.0000000000000000     
  0.87500000000000000       0.62500000000000000        0.0000000000000000     
  0.75000000000000000       0.65625000000000000        0.0000000000000000     
  0.78125000000000000       0.65625000000000000        0.0000000000000000     
  0.81250000000000000       0.65625000000000000        0.0000000000000000     
  0.84375000000000000       0.65625000000000000        0.0000000000000000     
  0.87500000000000000       0.65625000000000000        0.0000000000000000     
  0.75000000000000000       0.68750000000000000        0.0000000000000000     
  0.78125000000000000       0.68750000000000000        0.0000000000000000     
  0.81250000000000000       0.68750000000000000        0.0000000000000000     
  0.84375000000000000       0.68750000000000000        0.0000000000000000     
  0.87500000000000000       0.68750000000000000        0.0000000000000000     
  0.75000000000000000       0.71875000000000000        0.0000000000000000     
  0.78125000000000000       0.71875000000000000        0.0000000000000000     
  0.81250000000000000       0.71875000000000000        0.0000000000000000     
  0.84375000000000000       0.71875000000000000        0.0000000000000000     
  0.87500000000000000       0.71875000000000000        0.0000000000000000     
  0.75000000000000000       0.75000000000000000        0.0000000000000000     
  0.78125000000000000       0.75000000000000000        0.0000000000000000     
  0.81250000000000000       0.75000000000000000        0.0000000000000000     
  0.84375000000000000       0.75000000000000000        0.0000000000000000     
  0.87500000000000000       0.75000000000000000        0.0000000000000000     
  0.87500000000000000       0.62500000000000000        0.0000000000000000     
  0.90625000000000000       0.62500000000000000        0.0000000000000000     
  0.93750000000000000       0.62500000000000000        0.0000000000000000     
  0.96875000000000000       0.62500000000000000        0.0000000000000000     
   1.0000000000000000       0.62500000000000000        0.0000000000000000     
  0.87500000000000000       0.65625000000000000        0.0000000000000000     
  0.90625000000000000       0.65625000000000000        0.0000000000000000     
  0.93750000000000000       0.65625000000000000        0.0000000000000000     
  0.96875000000000000       0.65625000000000000        0.0000000000000000     
   1.0000000000000000       0.65625000000000000        0.0000000000000000     
  0.87500000000000000       0.68750000000000000        0.0000000000000000     
  0.90625000000000000       0.68750000000000000        0.0000000000000000     
  0.93750000000000000       0.68750000000000000        0.0000000000000000     
  0.96875000000000000       0.68750000000000000        0.0000000000000000     
   1.0000000000000000       0.68750000000000000        0.0000000000000000     
  0.87500000000000000       0.71875000000000000        0.0000000000000000     
  0.90625000000000000       0.71875000000000000        0.0000000000000000     
  0.93750000000000000       0.71875000000000000        0.0000000000000000     
  0.96875000000000000       0.71875000000000000        0.0000000000000000     
   1.0000000000000000       0.71875000000000000        0.0000000000000000     
  0.87500000000000000       0.75000000000000000        0.0000000000000000     
  0.90625000000000000       0.75000000000000000        0.0000000000000000     
  0.93750000000000000       0.75000000000000000        0.0000000000000000     
  0.96875000000000000       0.75000000000000000        0.0000000000000000     
   1.0000000000000000       0.75000000000000000        0.0000000000000000     
   1.0000000000000000       0.62500000000000000        0.0000000000000000     
   1.0312500000000000       0.62500000000000000        0.0000000000000000     
   1.0625000000000000       0.62500000000000000        0.0000000000000000     
   1.0937500000000000       0.62500000000000000        0.0000000000000000     
   1.1250000000000000       0.62500000000000000        0.0000000000000000     
   1.0000000000000000       0.65625000000000000        0.0000000000000000     
   1.0312500000000000       0.65625000000000000        0.0000000000000000     
   1.0625000000000000       0.65625000000000000        0.0000000000000000     
   1.0937500000000000       0.65625000000000000        0.0000000000000000     
   1.1250000000000000       0.65625000000000000        0.0000000000000000     
   1.0000000000000000       0.68750000000000000        0.0000000000000000     
   1.0312500000000000       0.68750000000000000        0.0000000000000000     
   1.0625000000000000       0.68750000000000000        0.0000000000000000     
   1.0937500000000000       0.68750000000000000        0.0000000000000000     
   1.1250000000000000       0.68750000000000000        0.0000000000000000     
   1.0000000000000000       0.71875000000000000        0.0000000000000000     
   1.0312500000000000       0.71875000000000000        0.0000000000000000     
   1.0625000000000000       0.71875000000000000        0.0000000000000000     
   1.0937500000000000       0.71875000000000000        0.0000000000000000     
   1.1250000000000000       0.71875000000000000        0.0000000000000000     
   1.0000000000000000       0.75000000000000000        0.0000000000000000     
   1.0312500000000000       0.75000000000000000        0.0000000000000000     
   1.0625000000000000       0.75000000000000000        0.0000000000000000     
   1.0937500000000000       0.75000000000000000        0.0000000000000000     
   1.1250000000000000       0.75000000000000000        0.0000000000000000     
   1.1250000000000000       0.62500000000000000        0.0000000000000000     
   1.1562500000000000       0.62500000000000000        0.0000000000000000     
   1.1875000000000000       0.62500000000000000        0.0000000000000000     
   1.2187500000000000       0.62500000000000000        0.0000000000000000     
   1.2500000000000000       0.62500000000000000        0.0000000000000000     
   1.1250000000000000       0.65625000000000000        0.0000000000000000     
   1.1562500000000000       0.65625000000000000        0.0000000000000000     
   1.1875000000000000       0.65625000000000000        0.0000000000000000     
   1.2187500000000000       0.65625000000000000        0.0000000000000000     
   1.2500000000000000       0.65625000000000000        0.0000000000000000     
   1.1250000000000000       0.68750000000000000        0.0000000000000000     
   1.1562500000000000       0.68750000000000000        0.0000000000000000     
   1.1875000000000000       0.68750000000000000        0.0000000000000000     
   1.2187500000000000       0.68750000000000000        0.0000000000000000     
   1.2500000000000000       0.68750000000000000        0.0000000000000000     
   1.1250000000000000       0.71875000000000000        0.0000000000000000     
   1.1562500000000000       0.71875000000000000        0.0000000000000000     
   1.1875000000000000       0.71875000000000000        0.0000000000000000     
   1.2187500000000000       0.71875000000000000        0.0000000000000000     
   1.2500000000000000       0.71875000000000000        0.0000000000000000     
   1.1250000000000000       0.75000000000000000        0.0000000000000000     
   1.1562500000000000       0.75000000000000000        0.0000000000000000     
   1.1875000000000000       0.75000000000000000        0.0000000000000000     
   1.2187500000000000       0.75000000000000000        0.0000000000000000     
   1.2500000000000000       0.75000000000000000        0.0000000000000000     
   1.2500000000000000       0.62500000000000000        0.0000000000000000     
   1.2812500000000000       0.62500000000000000        0.0000000000000000     
   1.3125000000000000       0.62500000000000000        0.0000000000000000     
   1.3437500000000000       0.62500000000000000        0.0000000000000000     
   1.3750000000000000       0.62500000000000000        0.0000000000000000     
   1.2500000000000000       0.65625000000000000        0.0000000000000000     
   1.2812500000000000       0.65625000000000000        0.0000000000000000     
   1.3125000000000000       0.65625000000000000        0.0000000000000000     
   1.3437500000000000       0.65625000000000000        0.0000000000000000     
   1.3750000000000000       0.65625000000000000        0.0000000000000000     
   1.2500000000000000       0.68750000000000000        0.0000000000000000     
   1.2812500000000000       0.68750000000000000        0.0000000000000000     
   1.3125000000000000       0.68750000000000000        0.0000000000000000     
   1.3437500000000000       0.68750000000000000        0.0000000000000000     
   1.3750000000000000       0.68750000000000000        0.0000000000000000     
   1.2500000000000000       0.71875000000000000        0.0000000000000000     
   1.2812500000000000       0.71875000000000000        0.0000000000000000     
   1.3125000000000000       0.71875000000000000        0.0000000000000000     
   1.3437500000000000       0.71875000000000000        0.0000000000000000     
   1.3750000000000000       0.71875000000000000        0.0000000000000000     
   1.2500000000000000       0.75000000000000000        0.0000000000000000     
   1.2812500000000000       0.75000000000000000        0.0000000000000000     
   1.3125000000000000       0.75000000000000000        0.0000000000000000     
   1.3437500000000000       0.75000000000000000        0.0000000000000000     
   1.3750000000000000       0.75000000000000000        0.0000000000000000     
   1.3750000000000000       0.62500000000000000        0.0000000000000000     
   1.4062500000000000       0.62500000000000000        0.0000000000000000     
   1.4375000000000000       0.62500000000000000        0.0000000000000000     
   1.4687500000000000       0.62500000000000000        0.0000000000000000     
   1.5000000000000000       0.62500000000000000        0.0000000000000000     
   1.3750000000000000       0.65625000000000000        0.0000000000000000     
   1.4062500000000000       0.65625000000000000        0.0000000000000000     
   1.4375000000000000       0.65625000000000000        0.0000000000000000     
   1.4687500000000000       0.65625000000000000        0.0000000000000000     
   1.5000000000000000       0.65625000000000000        0.0000000000000000     
   1.3750000000000000       0.68750000000000000        0.0000000000000000     
   1.4062500000000000       0.68750000000000000        0.0000000000000000     
   1.4375000000000000       0.68750000000000000        0.0000000000000000     
   1.4687500000000000       0.68750000000000000        0.0000000000000000     
   1.5000000000000000       0.68750000000000000        0.0000000000000000     
   1.3750000000000000       0.71875000000000000        0.0000000000000000     
   1.4062500000000000       0.71875000000000000        0.0000000000000000     
   1.4375000000000000       0.71875000000000000        0.0000000000000000     
   1.4687500000000000       0.71875000000000000        0.0000000000000000     
   1.5000000000000000       0.71875000000000000        0.0000000000000000     
   1.3750000000000000       0.75000000000000000        0.0000000000000000     
   1.4062500000000000       0.75000000000000000        0.0000000000000000     
   1.4375000000000000       0.75000000000000000        0.0000000000000000     
   1.4687500000000000       0.75000000000000000        0.0000000000000000     
   1.5000000000000000       0.75000000000000000        0.0000000000000000     
  0.50000000000000000       0.75000000000000000        0.0000000000000000     
  0.53125000000000000       0.75000000000000000        0.0000000000000000     
  0.56250000000000000       0.75000000000000000        0.0000000000000000     
  0.59375000000000000       0.75000000000000000        0.0000000000000000     
  0.62500000000000000       0.75000000000000000        0.0000000000000000     
  0.50000000000000000       0.78125000000000000        0.0000000000000000     
  0.53125000000000000       0.78125000000000000        0.0000000000000000     
  0.56250000000000000       0.78125000000000000        0.0000000000000000     
  0.59375000000000000       0.78125000000000000        0.0000000000000000     
  0.62500000000000000       0.78125000000000000        0.0000000000000000     
  0.50000000000000000       0.81250000000000000        0.0000000000000000     
  0.53125000000000000       0.81250000000000000        0.0000000000000000     
  0.56250000000000000       0.81250000000000000        0.0000000000000000     
  0.59375000000000000       0.81250000000000000        0.0000000000000000     
  0.62500000000000000       0.81250000000000000        0.0000000000000000     
  0.50000000000000000       0.84375000000000000        0.0000000000000000     
  0.53125000000000000       0.84375000000000000        0.0000000000000000     
  0.56250000000000000       0.84375000000000000        0.0000000000000000     
  0.59375000000000000       0.84375000000000000        0.0000000000000000     
  0.62500000000000000       0.84375000000000000        0.0000000000000000     
  0.50000000000000000       0.87500000000000000        0.0000000000000000     
  0.53125000000000000       0.87500000000000000        0.0000000000000000     
  0.56250000000000000       0.87500000000000000        0.0000000000000000     
  0.59375000000000000       0.87500000000000000        0.0000000000000000     
  0.62500000000000000       0.87500000000000000        0.0000000000000000     
  0.62500000000000000       0.75000000000000000        0.0000000000000000     
  0.65625000000000000       0.75000000000000000        0.0000000000000000     
  0.68750000000000000       0.75000000000000000        0.0000000000000000     
  0.71875000000000000       0.75000000000000000        0.0000000000000000     
  0.75000000000000000       0.75000000000000000        0.0000000000000000     
  0.62500000000000000       0.78125000000000000        0.0000000000000000     
  0.65625000000000000       0.78125000000000000        0.0000000000000000     
  0.68750000000000000       0.78125000000000000        0.0000000000000000     
  0.71875000000000000       0.78125000000000000        0.0000000000000000     
  0.75000000000000000       0.78125000000000000        0.0000000000000000     
  0.62500000000000000       0.81250000000000000        0.0000000000000000     
  0.65625000000000000       0.81250000000000000        0.0000000000000000     
  0.68750000000000000       0.81250000000000000        0.0000000000000000     
  0.71875000000000000       0.81250000000000000        0.0000000000000000     
  0.75000000000000000       0.81250000000000000        0.0000000000000000     
  0.62500000000000000       0.84375000000000000        0.0000000000000000     
  0.65625000000000000       0.84375000000000000        0.0000000000000000     
  0.68750000000000000       0.84375000000000000        0.0000000000000000     
  0.71875000000000000       0.84375000000000000        0.0000000000000000     
  0.75000000000000000       0.84375000000000000        0.0000000000000000     
  0.62500000000000000       0.87500000000000000        0.0000000000000000     
  0.65625000000000000       0.87500000000000000        0.0000000000000000     
  0.68750000000000000       0.87500000000000000        0.0000000000000000     
  0.71875000000000000       0.87500000000000000        0.0000000000000000     
  0.75000000000000000       0.87500000000000000        0.0000000000000000     
  0.75000000000000000       0.75000000000000000        0.0000000000000000     
  0.78125000000000000       0.75000000000000000        0.0000000000000000     
  0.81250000000000000       0.75000000000000000        0.0000000000000000     
  0.84375000000000000       0.75000000000000000        0.0000000000000000     
  0.87500000000000000       0.75000000000000000        0.0000000000000000     
  0.75000000000000000       0.78125000000000000        0.0000000000000000     
  0.78125000000000000       0.78125000000000000        0.0000000000000000     
  0.81250000000000000       0.78125000000000000        0.0000000000000000     
  0.84375000000000000       0.78125000000000000        0.0000000000000000     
  0.87500000000000000       0.78125000000000000        0.0000000000000000     
  0.75000000000000000       0.81250000000000000        0.0000000000000000     
  0.78125000000000000       0.81250000000000000        0.0000000000000000     
  0.81250000000000000       0.81250000000000000        0.0000000000000000     
  0.84375000000000000       0.81250000000000000        0.0000000000000000     
  0.87500000000000000       0.81250000000000000        0.0000000000000000     
  0.75000000000000000       0.84375000000000000        0.0000000000000000     
  0.78125000000000000       0.84375000000000000        0.0000000000000000     
  0.81250000000000000       0.84375000000000000        0.0000000000000000     
  0.84375000000000000       0.84375000000000000        0.0000000000000000     
  0.87500000000000000       0.84375000000000000        0.0000000000000000     
  0.75000000000000000       0.87500000000000000        0.0000000000000000     
  0.78125000000000000       0.87500000000000000        0.0000000000000000     
  0.81250000000000000       0.87500000000000000        0.0000000000000000     
  0.84375000000000000       0.87500000000000000        0.0000000000000000     
  0.87500000000000000       0.87500000000000000        0.0000000000000000     
  0.87500000000000000       0.75000000000000000        0.0000000000000000     
  0.90625000000000000       0.75000000000000000        0.0000000000000000     
  0.93750000000000000       0.75000000000000000        0.0000000000000000     
  0.96875000000000000       0.75000000000000000        0.0000000000000000     
   1.0000000000000000       0.75000000000000000        0.0000000000000000     
  0.87500000000000000       0.78125000000000000        0.0000000000000000     
  0.90625000000000000       0.78125000000000000        0.0000000000000000     
  0.93750000000000000       0.78125000000000000        0.0000000000000000     
  0.96875000000000000       0.78125000000000000        0.0000000000000000     
   1.0000000000000000       0.78125000000000000        0.0000000000000000     
  0.87500000000000000       0.81250000000000000        0.0000000000000000     
  0.90625000000000000       0.81250000000000000        0.0000000000000000     
  0.93750000000000000       0.81250000000000000        0.0000000000000000     
  0.96875000000000000       0.81250000000000000        0.0000000000000000     
   1.0000000000000000       0.81250000000000000        0.0000000000000000     
  0.87500000000000000       0.84375000000000000        0.0000000000000000     
  0.90625000000000000       0.84375000000000000        0.0000000000000000     
  0.93750000000000000       0.84375000000000000        0.0000000000000000     
  0.96875000000000000       0.84375000000000000        0.0000000000000000     
   1.0000000000000000       0.84375000000000000        0.0000000000000000     
  0.87500000000000000       0.87500000000000000        0.0000000000000000     
  0.90625000000000000       0.87500000000000000        0.0000000000000000     
  0.93750000000000000       0.87500000000000000        0.0000000000000000     
  0.96875000000000000       0.87500000000000000        0.0000000000000000     
   1.0000000000000000       0.87500000000000000        0.0000000000000000     
   1.0000000000000000       0.75000000000000000        0.0000000000000000     
   1.0312500000000000       0.75000000000000000        0.0000000000000000     
   1.0625000000000000       0.75000000000000000        0.0000000000000000     
   1.0937500000000000       0.75000000000000000        0.0000000000000000     
   1.1250000000000000       0.75000000000000000        0.0000000000000000     
   1.0000000000000000       0.78125000000000000        0.0000000000000000     
   1.0312500000000000       0.78125000000000000        0.0000000000000000     
   1.0625000000000000       0.78125000000000000        0.0000000000000000     
   1.0937500000000000       0.78125000000000000        0.0000000000000000     
   1.1250000000000000       0.78125000000000000        0.0000000000000000     
   1.0000000000000000       0.81250000000000000        0.0000000000000000     
   1.0312500000000000       0.81250000000000000        0.0000000000000000     
   1.0625000000000000       0.81250000000000000        0.0000000000000000     
   1.0937500000000000       0.81250000000000000        0.0000000000000000     
   1.1250000000000000       0.81250000000000000        0.0000000000000000     
   1.0000000000000000       0.84375000000000000        0.0000000000000000     
   1.0312500000000000       0.84375000000000000        0.0000000000000000     
   1.0625000000000000       0.84375000000000000        0.0000000000000000     
   1.0937500000000000       0.84375000000000000        0.0000000000000000     
   1.1250000000000000       0.84375000000000000        0.0000000000000000     
   1.0000000000000000       0.87500000000000000        0.0000000000000000     
   1.0312500000000000       0.87500000000000000        0.0000000000000000     
   1.0625000000000000       0.87500000000000000        0.0000000000000000     
   1.0937500000000000       0.87500000000000000        0.0000000000000000     
   1.1250000000000000       0.87500000000000000        0.0000000000000000     
   1.1250000000000000       0.75000000000000000        0.0000000000000000     
   1.1562500000000000       0.75000000000000000        0.0000000000000000     
   1.1875000000000000       0.75000000000000000        0.0000000000000000     
   1.2187500000000000       0.75000000000000000        0.0000000000000000     
   1.2500000000000000       0.75000000000000000        0.0000000000000000     
   1.1250000000000000       0.78125000000000000        0.0000000000000000     
   1.1562500000000000       0.78125000000000000        0.0000000000000000     
   1.1875000000000000       0.78125000000000000        0.0000000000000000     
   1.2187500000000000       0.78125000000000000        0.0000000000000000     
   1.2500000000000000       0.78125000000000000        0.0000000000000000     
   1.1250000000000000       0.81250000000000000        0.0000000000000000     
   1.1562500000000000       0.81250000000000000        0.0000000000000000     
   1.1875000000000000       0.81250000000000000        0.0000000000000000     
   1.2187500000000000       0.81250000000000000        0.0000000000000000     
   1.2500000000000000       0.81250000000000000        0.0000000000000000     
   1.1250000000000000       0.84375000000000000        0.0000000000000000     
   1.1562500000000000       0.84375000000000000        0.0000000000000000     
   1.1875000000000000       0.84375000000000000        0.0000000000000000     
   1.2187500000000000       0.84375000000000000        0.0000000000000000     
   1.2500000000000000       0.84375000000000000        0.0000000000000000     
   1.1250000000000000       0.87500000000000000        0.0000000000000000     
   1.1562500000000000       0.87500000000000000        0.0000000000000000     
   1.1875000000000000       0.87500000000000000        0.0000000000000000     
   1.2187500000000000       0.87500000000000000        0.0000000000000000     
   1.2500000000000000       0.87500000000000000        0.0000000000000000     
   1.2500000000000000       0.75000000000000000        0.0000000000000000     
   1.2812500000000000       0.75000000000000000        0.0000000000000000     
   1.3125000000000000       0.75000000000000000        0.0000000000000000     
   1.3437500000000000       0.75000000000000000        0.0000000000000000     
   1.3750000000000000       0.75000000000000000        0.0000000000000000     
   1.2500000000000000       0.78125000000000000        0.0000000000000000     
   1.2812500000000000       0.78125000000000000        0.0000000000000000     
   1.3125000000000000       0.78125000000000000        0.0000000000000000     
   1.3437500000000000       0.78125000000000000        0.0000000000000000     
   1.3750000000000000       0.78125000000000000        0.0000000000000000     
   1.2500000000000000       0.81250000000000000        0.0000000000000000     
   1.2812500000000000       0.81250000000000000        0.0000000000000000     
   1.3125000000000000       0.81250000000000000        0.0000000000000000     
   1.3437500000000000       0.81250000000000000        0.0000000000000000     
   1.3750000000000000       0.81250000000000000        0.0000000000000000     
   1.2500000000000000       0.84375000000000000        0.0000000000000000     
   1.2812500000000000       0.84375000000000000        0.0000000000000000     
   1.3125000000000000       0.84375000000000000        0.0000000000000000     
   1.3437500000000000       0.84375000000000000        0.0000000000000000     
   1.3750000000000000       0.84375000000000000        0.0000000000000000     
   1.2500000000000000       0.87500000000000000        0.0000000000000000     
   1.2812500000000000       0.87500000000000000        0.0000000000000000     
   1.3125000000000000       0.87500000000000000        0.0000000000000000     
   1.3437500000000000       0.87500000000000000        0.0000000000000000     
   1.3750000000000000       0.87500000000000000        0.0000000000000000     
   1.3750000000000000       0.75000000000000000        0.0000000000000000     
   1.4062500000000000       0.75000000000000000        0.0000000000000000     
   1.4375000000000000       0.75000000000000000        0.0000000000000000     
   1.4687500000000000       0.75000000000000000        0.0000000000000000     
   1.5000000000000000       0.75000000000000000        0.0000000000000000     
   1.3750000000000000       0.78125000000000000        0.0000000000000000     
   1.4062500000000000       0.78125000000000000        0.0000000000000000     
   1.4375000000000000       0.78125000000000000        0.0000000000000000     
   1.4687500000000000       0.78125000000000000        0.0000000000000000     
   1.5000000000000000       0.78125000000000000        0.0000000000000000     
   1.3750000000000000       0.81250000000000000        0.0000000000000000     
   1.4062500000000000       0.81250000000000000        0.0000000000000000     
   1.4375000000000000       0.81250000000000000        0.0000000000000000     
   1.4687500000000000       0.81250000000000000        0.0000000000000000     
   1.5000000000000000       0.81250000000000000        0.0000000000000000     
   1.3750000000000000       0.84375000000000000        0.0000000000000000     
   1.4062500000000000       0.84375000000000000        0.0000000000000000     
   1.4375000000000000       0.84375000000000000        0.0000000000000000     
   1.4687500000000000       0.84375000000000000        0.0000000000000000     
   1.5000000000000000       0.84375000000000000        0.0000000000000000     
   1.3750000000000000       0.87500000000000000        0.0000000000000000     
   1.4062500000000000       0.87500000000000000        0.0000000000000000     
   1.4375000000000000       0.87500000000000000        0.0000000000000000     
   1.4687500000000000       0.87500000000000000        0.0000000000000000     
   1.5000000000000000       0.87500000000000000        0.0000000000000000     
  0.50000000000000000       0.87500000000000000        0.0000000000000000     
  0.53125000000000000       0.87500000000000000        0.0000000000000000     
  0.56250000000000000       0.87500000000000000        0.0000000000000000     
  0.59375000000000000       0.87500000000000000        0.0000000000000000     
  0.62500000000000000       0.87500000000000000        0.0000000000000000     
  0.50000000000000000       0.90625000000000000        0.0000000000000000     
  0.53125000000000000       0.90625000000000000        0.0000000000000000     
  0.56250000000000000       0.90625000000000000        0.0000000000000000     
  0.59375000000000000       0.90625000000000000        0.0000000000000000     
  0.62500000000000000       0.90625000000000000        0.0000000000000000     
  0.50000000000000000       0.93750000000000000        0.0000000000000000     
  0.53125000000000000       0.93750000000000000        0.0000000000000000     
  0.56250000000000000       0.93750000000000000        0.0000000000000000     
  0.59375000000000000       0.93750000000000000        0.0000000000000000     
  0.62500000000000000       0.93750000000000000        0.0000000000000000     
  0.50000000000000000       0.96875000000000000        0.0000000000000000     
  0.53125000000000000       0.96875000000000000        0.0000000000000000     
  0.56250000000000000       0.96875000000000000        0.0000000000000000     
  0.59375000000000000       0.96875000000000000        0.0000000000000000     
  0.62500000000000000       0.96875000000000000        0.0000000000000000     
  0.50000000000000000        1.0000000000000000        0.0000000000000000     
  0.53125000000000000        1.0000000000000000        0.0000000000000000     
  0.56250000000000000        1.0000000000000000        0.0000000000000000     
  0.59375000000000000        1.0000000000000000        0.0000000000000000     
  0.62500000000000000        1.0000000000000000        0.0000000000000000     
  0.62500000000000000       0.87500000000000000        0.0000000000000000     
  0.65625000000000000       0.87500000000000000        0.0000000000000000     
  0.68750000000000000       0.87500000000000000        0.0000000000000000     
  0.71875000000000000       0.87500000000000000        0.0000000000000000     
  0.75000000000000000       0.87500000000000000        0.0000000000000000     
  0.62500000000000000       0.90625000000000000        0.0000000000000000     
  0.65625000000000000       0.90625000000000000        0.0000000000000000     
  0.68750000000000000       0.90625000000000000        0.0000000000000000     
  0.71875000000000000       0.90625000000000000        0.0000000000000000     
  0.75000000000000000       0.90625000000000000        0.0000000000000000     
  0.62500000000000000       0.93750000000000000        0.0000000000000000     
  0.65625000000000000       0.93750000000000000        0.0000000000000000     
  0.68750000000000000       0.93750000000000000        0.0000000000000000     
  0.71875000000000000       0.93750000000000000        0.0000000000000000     
  0.75000000000000000       0.93750000000000000        0.0000000000000000     
  0.62500000000000000       0.96875000000000000        0.0000000000000000     
  0.65625000000000000       0.96875000000000000        0.0000000000000000     
  0.68750000000000000       0.96875000000000000        0.0000000000000000     
  0.71875000000000000       0.96875000000000000        0.0000000000000000     
  0.75000000000000000       0.96875000000000000        0.0000000000000000     
  0.62500000000000000        1.0000000000000000        0.0000000000000000     
  0.65625000000000000        1.0000000000000000        0.0000000000000000     
  0.68750000000000000        1.0000000000000000        0.0000000000000000     
  0.71875000000000000        1.0000000000000000        0.0000000000000000     
  0.75000000000000000        1.0000000000000000        0.0000000000000000     
  0.75000000000000000       0.87500000000000000        0.0000000000000000     
  0.78125000000000000       0.87500000000000000        0.0000000000000000     
  0.81250000000000000       0.87500000000000000        0.0000000000000000     
  0.84375000000000000       0.87500000000000000        0.0000000000000000     
  0.87500000000000000       0.87500000000000000        0.0000000000000000     
  0.75000000000000000       0.90625000000000000        0.0000000000000000     
  0.78125000000000000       0.90625000000000000        0.0000000000000000     
  0.81250000000000000       0.90625000000000000        0.0000000000000000     
  0.84375000000000000       0.90625000000000000        0.0000000000000000     
  0.87500000000000000       0.90625000000000000        0.0000000000000000     
  0.75000000000000000       0.93750000000000000        0.0000000000000000     
  0.78125000000000000       0.93750000000000000        0.0000000000000000     
  0.81250000000000000       0.93750000000000000        0.0000000000000000     
  0.84375000000000000       0.93750000000000000        0.0000000000000000     
  0.87500000000000000       0.93750000000000000        0.0000000000000000     
  0.75000000000000000       0.96875000000000000        0.0000000000000000     
  0.78125000000000000       0.96875000000000000        0.0000000000000000     
  0.81250000000000000       0.96875000000000000        0.0000000000000000     
  0.84375000000000000       0.96875000000000000        0.0000000000000000     
  0.87500000000000000       0.96875000000000000        0.0000000000000000     
  0.75000000000000000        1.0000000000000000        0.0000000000000000     
  0.78125000000000000        1.0000000000000000        0.0000000000000000     
  0.81250000000000000        1.0000000000000000        0.0000000000000000     
  0.84375000000000000        1.0000000000000000        0.0000000000000000     
  0.87500000000000000        1.0000000000000000        0.0000000000000000     
  0.87500000000000000       0.87500000000000000        0.0000000000000000     
  0.90625000000000000       0.87500000000000000        0.0000000000000000     
  0.93750000000000000       0.87500000000000000        0.0000000000000000     
  0.96875000000000000       0.87500000000000000        0.0000000000000000     
   1.0000000000000000       0.87500000000000000        0.0000000000000000     
  0.87500000000000000       0.90625000000000000        0.0000000000000000     
  0.90625000000000000       0.90625000000000000        0.0000000000000000     
  0.93750000000000000       0.90625000000000000        0.0000000000000000     
  0.96875000000000000       0.90625000000000000        0.0000000000000000     
   1.0000000000000000       0.90625000000000000        0.0000000000000000     
  0.87500000000000000       0.93750000000000000        0.0000000000000000     
  0.90625000000000000       0.93750000000000000        0.0000000000000000     
  0.93750000000000000       0.93750000000000000        0.0000000000000000     
  0.96875000000000000       0.93750000000000000        0.0000000000000000     
   1.0000000000000000       0.93750000000000000        0.0000000000000000     
  0.87500000000000000       0.96875000000000000        0.0000000000000000     
  0.90625000000000000       0.96875000000000000        0.0000000000000000     
  0.93750000000000000       0.96875000000000000        0.0000000000000000     
  0.96875000000000000       0.96875000000000000        0.0000000000000000     
   1.0000000000000000       0.96875000000000000        0.0000000000000000     
  0.87500000000000000        1.0000000000000000        0.0000000000000000     
  0.90625000000000000        1.0000000000000000        0.0000000000000000     
  0.93750000000000000        1.0000000000000000        0.0000000000000000     
  0.96875000000000000        1.0000000000000000        0.0000000000000000     
   1.0000000000000000        1.0000000000000000        0.0000000000000000     
   1.0000000000000000       0.87500000000000000        0.0000000000000000     
   1.0312500000000000       0.87500000000000000        0.0000000000000000     
   1.0625000000000000       0.87500000000000000        0.0000000000000000     
   1.0937500000000000       0.87500000000000000        0.0000000000000000     
   1.1250000000000000       0.87500000000000000        0.0000000000000000     
   1.0000000000000000       0.90625000000000000        0.0000000000000000     
   1.0312500000000000       0.90625000000000000        0.0000000000000000     
   1.0625000000000000       0.90625000000000000        0.0000000000000000     
   1.0937500000000000       0.90625000000000000        0.0000000000000000     
   1.1250000000000000       0.90625000000000000        0.0000000000000000     
   1.0000000000000000       0.93750000000000000        0.0000000000000000     
   1.0312500000000000       0.93750000000000000        0.0000000000000000     
   1.0625000000000000       0.93750000000000000        0.0000000000000000     
   1.0937500000000000       0.93750000000000000        0.0000000000000000     
   1.1250000000000000       0.93750000000000000        0.0000000000000000     
   1.0000000000000000       0.96875000000000000        0.0000000000000000     
   1.0312500000000000       0.96875000000000000        0.0000000000000000     
   1.0625000000000000       0.96875000000000000        0.0000000000000000     
   1.0937500000000000       0.96875000000000000        0.0000000000000000     
   1.1250000000000000       0.96875000000000000        0.0000000000000000     
   1.0000000000000000        1.0000000000000000        0.0000000000000000     
   1.0312500000000000        1.0000000000000000        0.0000000000000000     
   1.0625000000000000        1.0000000000000000        0.0000000000000000     
   1.0937500000000000        1.0000000000000000        0.0000000000000000     
   1.1250000000000000        1.0000000000000000        0.0000000000000000     
   1.1250000000000000       0.87500000000000000        0.0000000000000000     
   1.1562500000000000       0.87500000000000000        0.0000000000000000     
   1.1875000000000000       0.87500000000000000        0.0000000000000000     
   1.2187500000000000       0.87500000000000000        0.0000000000000000     
   1.2500000000000000       0.87500000000000000        0.0000000000000000     
   1.1250000000000000       0.90625000000000000        0.0000000000000000     
   1.1562500000000000       0.90625000000000000        0.0000000000000000     
   1.1875000000000000       0.90625000000000000        0.0000000000000000     
   1.2187500000000000       0.90625000000000000        0.0000000000000000     
   1.2500000000000000       0.90625000000000000        0.0000000000000000     
   1.1250000000000000       0.93750000000000000        0.0000000000000000     
   1.1562500000000000       0.93750000000000000        0.0000000000000000     
   1.1875000000000000       0.93750000000000000        0.0000000000000000     
   1.2187500000000000       0.93750000000000000        0.0000000000000000     
   1.2500000000000000       0.93750000000000000        0.0000000000000000     
   1.1250000000000000       0.96875000000000000        0.0000000000000000     
   1.1562500000000000       0.96875000000000000        0.0000000000000000     
   1.1875000000000000       0.96875000000000000        0.0000000000000000     
   1.2187500000000000       0.96875000000000000        0.0000000000000000     
   1.2500000000000000       0.96875000000000000        0.0000000000000000     
   1.1250000000000000        1.0000000000000000        0.0000000000000000     
   1.1562500000000000        1.0000000000000000        0.0000000000000000     
   1.1875000000000000        1.0000000000000000        0.0000000000000000     
   1.2187500000000000        1.0000000000000000        0.0000000000000000     
   1.2500000000000000        1.0000000000000000        0.0000000000000000     
   1.2500000000000000       0.87500000000000000        0.0000000000000000     
   1.2812500000000000       0.87500000000000000        0.0000000000000000     
   1.3125000000000000       0.87500000000000000        0.0000000000000000     
   1.3437500000000000       0.87500000000000000        0.0000000000000000     
   1.3750000000000000       0.87500000000000000        0.0000000000000000     
   1.2500000000000000       0.90625000000000000        0.0000000000000000     
   1.2812500000000000       0.90625000000000000        0.0000000000000000     
   1.3125000000000000       0.90625000000000000        0.0000000000000000     
   1.3437500000000000       0.90625000000000000        0.0000000000000000     
   1.3750000000000000       0.90625000000000000        0.0000000000000000     
   1.2500000000000000       0.93750000000000000        0.0000000000000000     
   1.2812500000000000       0.93750000000000000        0.0000000000000000     
   1.3125000000000000       0.93750000000000000        0.0000000000000000     
   1.3437500000000000       0.93750000000000000        0.0000000000000000     
   1.3750000000000000       0.93750000000000000        0.0000000000000000     
   1.2500000000000000       0.96875000000000000        0.0000000000000000     
   1.2812500000000000       0.96875000000000000        0.0000000000000000     
   1.3125000000000000       0.96875000000000000        0.0000000000000000     
   1.3437500000000000       0.96875000000000000        0.0000000000000000     
   1.3750000000000000       0.96875000000000000        0.0000000000000000     
   1.2500000000000000        1.0000000000000000        0.0000000000000000     
   1.2812500000000000        1.0000000000000000        0.0000000000000000     
   1.3125000000000000        1.0000000000000000        0.0000000000000000     
   1.3437500000000000        1.0000000000000000        0.0000000000000000     
   1.3750000000000000        1.0000000000000000        0.0000000000000000     
   1.3750000000000000       0.87500000000000000        0.0000000000000000     
   1.4062500000000000       0.87500000000000000        0.0000000000000000     
   1.4375000000000000       0.87500000000000000        0.0000000000000000     
   1.4687500000000000       0.87500000000000000        0.0000000000000000     
   1.5000000000000000       0.87500000000000000        0.0000000000000000     
   1.3750000000000000       0.90625000000000000        0.0000000000000000     
   1.4062500000000000       0.90625000000000000        0.0000000000000000     
   1.4375000000000000       0.90625000000000000        0.0000000000000000     
   1.4687500000000000       0.90625000000000000        0.0000000000000000     
   1.5000000000000000       0.90625000000000000        0.0000000000000000     
   1.3750000000000000       0.93750000000000000        0.0000000000000000     
   1.4062500000000000       0.93750000000000000        0.0000000000000000     
   1.4375000000000000       0.93750000000000000        0.0000000000000000     
   1.4687500000000000       0.93750000000000000        0.0000000000000000     
   1.5000000000000000       0.93750000000000000        0.0000000000000000     
   1.3750000000000000       0.96875000000000000        0.0000000000000000     
   1.4062500000000000       0.96875000000000000        0.0000000000000000     
   1.4375000000000000       0.96875000000000000        0.0000000000000000     
   1.4687500000000000       0.96875000000000000        0.0000000000000000     
   1.5000000000000000       0.96875000000000000        0.0000000000000000     
   1.3750000000000000        1.0000000000000000        0.0000000000000000     
   1.4062500000000000        1.0000000000000000        0.0000000000000000     
   1.4375000000000000        1.0000000000000000        0.0000000000000000     
   1.4687500000000000        1.0000000000000000        0.0000000000000000     
   1.5000000000000000        1.0000000000000000        0.0000000000000000     
 </DataArray>
 </Points>
 <Cells>
 <DataArray  type="Int32"  Name="connectivity"  format="ascii">
           0           1           6           5
           1           2           7           6
           2           3           8           7
           3           4           9           8
           5           6          11          10
           6           7          12          11
           7           8          13          12
           8           9          14          13
          10          11          16          15
          11          12          17          16
          12          13          18          17
          13          14          19          18
          15          16          21          20
          16          17          22          21
          17          18          23          22
          18          19          24          23
          25          26          31          30
          26          27          32          31
          27          28          33          32
          28          29          34          33
          30          31          36          35
          31          32          37          36
          32          33          38          37
          33          34          39          38
          35          36          41          40
          36          37          42          41
          37          38          43          42
          38          39          44          43
          40          41          46          45
          41          42          47          46
          42          43          48          47
          43          44          49          48
          50          51          56          55
          51          52          57          56
          52          53          58          57
          53          54          59          58
          55          56          61          60
          56          57          62          61
          57          58          63          62
          58          59          64          63
          60          61          66          65
          61          62          67          66
          62          63          68          67
          63          64          69          68
          65          66          71          70
          66          67          72          71
          67          68          73          72
          68          69          74          73
          75          76          81          80
          76          77          82          81
          77          78          83          82
          78          79          84          83
          80          81          86          85
          81          82          87          86
          82          83          88          87
          83          84          89          88
          85          86          91          90
          86          87          92          91
          87          88          93          92
          88          89          94          93
          90          91          96          95
          91          92          97          96
          92          93          98          97
          93          94          99          98
         100         101         106         105
         101         102         107         106
         102         103         108         107
         103         104         109         108
         105         106         111         110
         106         107         112         111
         107         108         113         112
         108         109         114         113
         110         111         116         115
         111         112         117         116
         112         113         118         117
         113         114         119         118
         115         116         121         120
         116         117         122         121
         117         118         123         122
         118         119         124         123
         125         126         131         130
         126         127         132         131
         127         128         133         132
         128         129         134         133
         130         131         136         135
         131         132         137         136
         132         133         138         137
         133         134         139         138
         135         136         141         140
         136         137         142         141
         137         138         143         142
         138         139         144         143
         140         141         146         145
         141         142         147         146
         142         143         148         147
         143         144         149         148
         150         151         156         155
         151         152         157         156
         152         153         158         157
         153         154         159         158
         155         156         161         160
         156         157         162         161
         157         158         163         162
         158         159         164         163
         160         161         166         165
         161         162         167         166
         162         163         168         167
         163         164         169         168
         165         166         171         170
         166         167         172         171
         167         168         173         172
         168         169         174         173
         175         176         181         180
         176         177         182         181
         177         178         183         182
         178         179         184         183
         180         181         186         185
         181         182         187         186
         182         183         188         187
         183         184         189         188
         185         186         191         190
         186         187         192         191
         187         188         193         192
         188         189         194         193
         190         191         196         195
         191         192         197         196
         192         193         198         197
         193         194         199         198
         200         201         206         205
         201         202         207         206
         202         203         208         207
         203         204         209         208
         205         206         211         210
         206         207         212         211
         207         208         213         212
         208         209         214         213
         210         211         216         215
         211         212         217         216
         212         213         218         217
         213         214         219         218
         215         216         221         220
         216         217         222         221
         217         218         223         222
         218         219         224         223
         225         226         231         230
         226         227         232         231
         227         228         233         232
         228         229         234         233
         230         231         236         235
         231         232         237         236
         232         233         238         237
         233         234         239         238
         235         236         241         240
         236         237         242         241
         237         238         243         242
         238         239         244         243
         240         241         246         245
         241         242         247         246
         242         243         248         247
         243         244         249         248
         250         251         256         255
         251         252         257         256
         252         253         258         257
         253         254         259         258
         255         256         261         260
         256         257         262         261
         257         258         263         262
         258         259         264         263
         260         261         266         265
         261         262         267         266
         262         263         268         267
         263         264         269         268
         265         266         271         270
         266         267         272         271
         267         268         273         272
         268         269         274         273
         275         276         281         280
         276         277         282         281
         277         278         283         282
         278         279         284         283
         280         281         286         285
         281         282         287         286
         282         283         288         287
         283         284         289         288
         285         286         291         290
         286         287         292         291
         287         288         293         292
         288         289         294         293
         290         291         296         295
         291         292         297         296
         292         293         298         297
         293         294         299         298
         300         301         306         305
         301         302         307         306
         302         303         308         307
         303         304         309         308
         305         306         311         310
         306         307         312         311
         307         308         313         312
         308         309         314         313
         310         311         316         315
         311         312         317         316
         312         313         318         317
         313         314         319         318
         315         316         321         320
         316         317         322         321
         317         318         323         322
         318         319         324         323
         325         326         331         330
         326         327         332         331
         327         328         333         332
         328         329         334         333
         330         331         336         335
         331         332         337         336
         332         333         338         337
         333         334         339         338
         335         336         341         340
         336         337         342         341
         337         338         343         342
         338         339         344         343
         340         341         346         345
         341         342         347         346
         342         343         348         347
         343         344         349         348
         350         351         356         355
         351         352         357         356
         352         353         358         357
         353         354         359         358
         355         356         361         360
         356         357         362         361
         357         358         363         362
         358         359         364         363
         360         361         366         365
         361         362         367         366
         362         363         368         367
         363         364         369         368
         365         366         371         370
         366         367         372         371
         367         368         373         372
         368         369         374         373
         375         376         381         380
         376         377         382         381
         377         378         383         382
         378         379         384         383
         380         381         386         385
         381         382         387         386
         382         383         388         387
         383         384         389         388
         385         386         391         390
         386         387         392         391
         387         388         393         392
         388         389         394         393
         390         391         396         395
         391         392         397         396
         392         393         398         397
         393         394         399         398
         400         401         406         405
         401         402         407         406
         402         403         408         407
         403         404         409         408
         405         406         411         410
         406         407         412         411
         407         408         413         412
         408         409         414         413
         410         411         416         415
         411         412         417         416
         412         413         418         417
         413         414         419         418
         415         416         421         420
         416         417         422         421
         417         418         423         422
         418         419         424         423
         425         426         431         430
         426         427         432         431
         427         428         433         432
         428         429         434         433
         430         431         436         435
         431         432         437         436
         432         433         438         437
         433         434         439         438
         435         436         441         440
         436         437         442         441
         437         438         443         442
         438         439         444         443
         440         441         446         445
         441         442         447         446
         442         443         448         447
         443         444         449         448
         450         451         456         455
         451         452         457         456
         452         453         458         457
         453         454         459         458
         455         456         461         460
         456         457         462         461
         457         458         463         462
         458         459         464         463
         460         461         466         465
         461         462         467         466
         462         463         468         467
         463         464         469         468
         465         466         471         470
         466         467         472         471
         467         468         473         472
         468         469         474         473
         475         476         481         480
         476         477         482         481
         477         478         483         482
         478         479         484         483
         480         481         486         485
         481         482         487         486
         482         483         488         487
         483         484         489         488
         485         486         491         490
         486         487         492         491
         487         488         493         492
         488         489         494         493
         490         491         496         495
         491         492         497         496
         492         493         498         497
         493         494         499         498
         500         501         506         505
         501         502         507         506
         502         503         508         507
         503         504         509         508
         505         506         511         510
         506         507         512         511
         507         508         513         512
         508         509         514         513
         510         511         516         515
         511         512         517         516
         512         513         518         517
         513         514         519         518
         515         516         521         520
         516         517         522         521
         517         518         523         522
         518         519         524         523
         525         526         531         530
         526         527         532         531
         527         528         533         532
         528         529         534         533
         530         531         536         535
         531         532         537         536
         532         533         538         537
         533         534         539         538
         535         536         541         540
         536         537         542         541
         537         538         543         542
         538         539         544         543
         540         541         546         545
         541         542         547         546
         542         543         548         547
         543         544         549         548
         550         551         556         555
         551         552         557         556
         552         553         558         557
         553         554         559         558
         555         556         561         560
         556         557         562         561
         557         558         563         562
         558         559         564         563
         560         561         566         565
         561         562         567         566
         562         563         568         567
         563         564         569         568
         565         566         571         570
         566         567         572         571
         567         568         573         572
         568         569         574         573
         575         576         581         580
         576         577         582         581
         577         578         583         582
         578         579         584         583
         580         581         586         585
         581         582         587         586
         582         583         588         587
         583         584         589         588
         585         586         591         590
         586         587         592         591
         587         588         593         592
         588         589         594         593
         590         591         596         595
         591         592         597         596
         592         593         598         597
         593         594         599         598
         600         601         606         605
         601         602         607         606
         602         603         608         607
         603         604         609         608
         605         606         611         610
         606         607         612         611
         607         608         613         612
         608         609         614         613
         610         611         616         615
         611         612         617         616
         612         613         618         617
         613         614         619         618
         615         616         621         620
         616         617         622         621
         617         618         623         622
         618         619         624         623
         625         626         631         630
         626         627         632         631
         627         628         633         632
         628         629         634         633
         630         631         636         635
         631         632         637         636
         632         633         638         637
         633         634         639         638
         635         636         641         640
         636         637         642         641
         637         638         643         642
         638         639         644         643
         640         641         646         645
         641         642         647         646
         642         643         648         647
         643         644         649         648
         650         651         656         655
         651         652         657         656
         652         653         658         657
         653         654         659         658
         655         656         661         660
         656         657         662         661
         657         658         663         662
         658         659         664         663
         660         661         666         665
         661         662         667         666
         662         663         668         667
         663         664         669         668
         665         666         671         670
         666         667         672         671
         667         668         673         672
         668         669         674         673
         675         676         681         680
         676         677         682         681
         677         678         683         682
         678         679         684         683
         680         681         686         685
         681         682         687         686
         682         683         688         687
         683         684         689         688
         685         686         691         690
         686         687         692         691
         687         688         693         692
         688         689         694         693
         690         691         696         695
         691         692         697         696
         692         693         698         697
         693         694         699         698
         700         701         706         705
         701         702         707         706
         702         703         708         707
         703         704         709         708
         705         706         711         710
         706         707         712         711
         707         708         713         712
         708         709         714         713
         710         711         716         715
         711         712         717         716
         712         713         718         717
         713         714         719         718
         715         716         721         720
         716         717         722         721
         717         718         723         722
         718         719         724         723
         725         726         731         730
         726         727         732         731
         727         728         733         732
         728         729         734         733
         730         731         736         735
         731         732         737         736
         732         733         738         737
         733         734         739         738
         735         736         741         740
         736         737         742         741
         737         738         743         742
         738         739         744         743
         740         741         746         745
         741         742         747         746
         742         743         748         747
         743         744         749         748
         750         751         756         755
         751         752         757         756
         752         753         758         757
         753         754         759         758
         755         756         761         760
         756         757         762         761
         757         758         763         762
         758         759         764         763
         760         761         766         765
         761         762         767         766
         762         763         768         767
         763         764         769         768
         765         766         771         770
         766         767         772         771
         767         768         773         772
         768         769         774         773
         775         776         781         780
         776         777         782         781
         777         778         783         782
         778         779         784         783
         780         781         786         785
         781         782         787         786
         782         783         788         787
         783         784         789         788
         785         786         791         790
         786         787         792         791
         787         788         793         792
         788         789         794         793
         790         791         796         795
         791         792         797         796
         792         793         798         797
         793         794         799         798
         800         801         806         805
         801         802         807         806
         802         803         808         807
         803         804         809         808
         805         806         811         810
         806         807         812         811
         807         808         813         812
         808         809         814         813
         810         811         816         815
         811         812         817         816
         812         813         818         817
         813         814         819         818
         815         816         821         820
         816         817         822         821
         817         818         823         822
         818         819         824         823
         825         826         831         830
         826         827         832         831
         827         828         833         832
         828         829         834         833
         830         831         836         835
         831         832         837         836
         832         833         838         837
         833         834         839         838
         835         836         841         840
         836         837         842         841
         837         838         843         842
         838         839         844         843
         840         841         846         845
         841         842         847         846
         842         843         848         847
         843         844         849         848
         850         851         856         855
         851         852         857         856
         852         853         858         857
         853         854         859         858
         855         856         861         860
         856         857         862         861
         857         858         863         862
         858         859         864         863
         860         861         866         865
         861         862         867         866
         862         863         868         867
         863         864         869         868
         865         866         871         870
         866         867         872         871
         867         868         873         872
         868         869         874         873
         875         876         881         880
         876         877         882         881
         877         878         883         882
         878         879         884         883
         880         881         886         885
         881         882         887         886
         882         883         888         887
         883         884         889         888
         885         886         891         890
         886         887         892         891
         887         888         893         892
         888         889         894         893
         890         891         896         895
         891         892         897         896
         892         893         898         897
         893         894         899         898
         900         901         906         905
         901         902         907         906
         902         903         908         907
         903         904         909         908
         905         906         911         910
         906         907         912         911
         907         908         913         912
         908         909         914         913
         910         911         916         915
         911         912         917         916
         912         913         918         917
         913         914         919         918
         915         916         921         920
         916         917         922         921
         917         918         923         922
         918         919         924         923
         925         926         931         930
         926         927         932         931
         927         928         933         932
         928         929         934         933
         930         931         936         935
         931         932         937         936
         932         933         938         937
         933         934         939         938
         935         936         941         940
         936         937         942         941
         937         938         943         942
         938         939         944         943
         940         941         946         945
         941         942         947         946
         942         943         948         947
         943         944         949         948
         950         951         956         955
         951         952         957         956
         952         953         958         957
         953         954         959         958
         955         956         961         960
         956         957         962         961
         957         958         963         962
         958         959         964         963
         960         961         966         965
         961         962         967         966
         962         963         968         967
         963         964         969         968
         965         966         971         970
         966         967         972         971
         967         968         973         972
         968         969         974         973
         975         976         981         980
         976         977         982         981
         977         978         983         982
         978         979         984         983
         980         981         986         985
         981         982         987         986
         982         983         988         987
         983         984         989         988
         985         986         991         990
         986         987         992         991
         987         988         993         992
         988         989         994         993
         990         991         996         995
         991         992         997         996
         992         993         998         997
         993         994         999         998
        1000        1001        1006        1005
        1001        1002        1007        1006
        1002        1003        1008        1007
        1003        1004        1009        1008
        1005        1006        1011        1010
        1006        1007        1012        1011
        1007        1008        1013        1012
        1008        1009        1014        1013
        1010        1011        1016        1015
        1011        1012        1017        1016
        1012        1013        1018        1017
        1013        1014        1019        1018
        1015        1016        1021        1020
        1016        1017        1022        1021
        1017        1018        1023        1022
        1018        1019        1024        1023
        1025        1026        1031        1030
        1026        1027        1032        1031
        1027        1028        1033        1032
        1028        1029        1034        1033
        1030        1031        1036        1035
        1031        1032        1037        1036
        1032        1033        1038        1037
        1033        1034        1039        1038
        1035        1036        1041        1040
        1036        1037        1042        1041
        1037        1038        1043        1042
        1038        1039        1044        1043
        1040        1041        1046        1045
        1041        1042        1047        1046
        1042        1043        1048        1047
        1043        1044        1049        1048
        1050        1051        1056        1055
        1051        1052        1057        1056
        1052        1053        1058        1057
        1053        1054        1059        1058
        1055        1056        1061        1060
        1056        1057        1062        1061
        1057        1058        1063        1062
        1058        1059        1064        1063
        1060        1061        1066        1065
        1061        1062        1067        1066
        1062        1063        1068        1067
        1063        1064        1069        1068
        1065        1066        1071        1070
        1066        1067        1072        1071
        1067        1068        1073        1072
        1068        1069        1074        1073
        1075        1076        1081        1080
        1076        1077        1082        1081
        1077        1078        1083        1082
        1078        1079        1084        1083
        1080        1081        1086        1085
        1081        1082        1087        1086
        1082        1083        1088        1087
        1083        1084        1089        1088
        1085        1086        1091        1090
        1086        1087        1092        1091
        1087        1088        1093        1092
        1088        1089        1094        1093
        1090        1091        1096        1095
        1091        1092        1097        1096
        1092        1093        1098        1097
        1093        1094        1099        1098
        1100        1101        1106        1105
        1101        1102        1107        1106
        1102        1103        1108        1107
        1103        1104        1109        1108
        1105        1106        1111        1110
        1106        1107        1112        1111
        1107        1108        1113        1112
        1108        1109        1114        1113
        1110        1111        1116        1115
        1111        1112        1117        1116
        1112        1113        1118        1117
        1113        1114        1119        1118
        1115        1116        1121        1120
        1116        1117        1122        1121
        1117        1118        1123        1122
        1118        1119        1124        1123
        1125        1126        1131        1130
        1126        1127        1132        1131
        1127        1128        1133        1132
        1128        1129        1134        1133
        1130        1131        1136        1135
        1131        1132        1137        1136
        1132        1133        1138        1137
        1133        1134        1139        1138
        1135        1136        1141        1140
        1136        1137        1142        1141
        1137        1138        1143        1142
        1138        1139        1144        1143
        1140        1141        1146        1145
        1141        1142        1147        1146
        1142        1143        1148        1147
        1143        1144        1149        1148
        1150        1151        1156        1155
        1151        1152        1157        1156
        1152        1153        1158        1157
        1153        1154        1159        1158
        1155        1156        1161        1160
        1156        1157        1162        1161
        1157        1158        1163        1162
        1158        1159        1164        1163
        1160        1161        1166        1165
        1161        1162        1167        1166
        1162        1163        1168        1167
        1163        1164        1169        1168
        1165        1166        1171        1170
        1166        1167        1172        1171
        1167        1168        1173        1172
        1168        1169        1174        1173
        1175        1176        1181        1180
        1176        1177        1182        1181
        1177        1178        1183        1182
        1178        1179        1184        1183
        1180        1181        1186        1185
        1181        1182        1187        1186
        1182        1183        1188        1187
        1183        1184        1189        1188
        1185        1186        1191        1190
        1186        1187        1192        1191
        1187        1188        1193        1192
        1188        1189        1194        1193
        1190        1191        1196        1195
        1191        1192        1197        1196
        1192        1193        1198        1197
        1193        1194        1199        1198
        1200        1201        1206        1205
        1201        1202        1207        1206
        1202        1203        1208        1207
        1203        1204        1209        1208
        1205        1206        1211        1210
        1206        1207        1212        1211
        1207        1208        1213        1212
        1208        1209        1214        1213
        1210        1211        1216        1215
        1211        1212        1217        1216
        1212        1213        1218        1217
        1213        1214        1219        1218
        1215        1216        1221        1220
        1216        1217        1222        1221
        1217        1218        1223        1222
        1218        1219        1224        1223
        1225        1226        1231        1230
        1226        1227        1232        1231
        1227        1228        1233        1232
        1228        1229        1234        1233
        1230        1231        1236        1235
        1231        1232        1237        1236
        1232        1233        1238        1237
        1233        1234        1239        1238
        1235        1236        1241        1240
        1236        1237        1242        1241
        1237        1238        1243        1242
        1238        1239        1244        1243
        1240        1241        1246        1245
        1241        1242        1247        1246
        1242        1243        1248        1247
        1243        1244        1249        1248
        1250        1251        1256        1255
        1251        1252        1257        1256
        1252        1253        1258        1257
        1253        1254        1259        1258
        1255        1256        1261        1260
        1256        1257        1262        1261
        1257        1258        1263        1262
        1258        1259        1264        1263
        1260        1261        1266        1265
        1261        1262        1267        1266
        1262        1263        1268        1267
        1263        1264        1269        1268
        1265        1266        1271        1270
        1266        1267        1272        1271
        1267        1268        1273        1272
        1268        1269        1274        1273
        1275        1276        1281        1280
        1276        1277        1282        1281
        1277        1278        1283        1282
        1278        1279        1284        1283
        1280        1281        1286        1285
        1281        1282        1287        1286
        1282        1283        1288        1287
        1283        1284        1289        1288
        1285        1286        1291        1290
        1286        1287        1292        1291
        1287        1288        1293        1292
        1288        1289        1294        1293
        1290        1291        1296        1295
        1291        1292        1297        1296
        1292        1293        1298        1297
        1293        1294        1299        1298
        1300        1301        1306        1305
        1301        1302        1307        1306
        1302        1303        1308        1307
        1303        1304        1309        1308
        1305        1306        1311        1310
        1306        1307        1312        1311
        1307        1308        1313        1312
        1308        1309        1314        1313
        1310        1311        1316        1315
        1311        1312        1317        1316
        1312        1313        1318        1317
        1313        1314        1319        1318
        1315        1316        1321        1320
        1316        1317        1322        1321
        1317        1318        1323        1322
        1318        1319        1324        1323
        1325        1326        1331        1330
        1326        1327        1332        1331
        1327        1328        1333        1332
        1328        1329        1334        1333
        1330        1331        1336        1335
        1331        1332        1337        1336
        1332        1333        1338        1337
        1333        1334        1339        1338
        1335        1336        1341        1340
        1336        1337        1342        1341
        1337        1338        1343        1342
        1338        1339        1344        1343
        1340        1341        1346        1345
        1341        1342        1347        1346
        1342        1343        1348        1347
        1343        1344        1349        1348
        1350        1351        1356        1355
        1351        1352        1357        1356
        1352        1353        1358        1357
        1353        1354        1359        1358
        1355        1356        1361        1360
        1356        1357        1362        1361
        1357        1358        1363        1362
        1358        1359        1364        1363
        1360        1361        1366        1365
        1361        1362        1367        1366
        1362        1363        1368        1367
        1363        1364        1369        1368
        1365        1366        1371        1370
        1366        1367        1372        1371
        1367        1368        1373        1372
        1368        1369        1374        1373
        1375        1376        1381        1380
        1376        1377        1382        1381
        1377        1378        1383        1382
        1378        1379        1384        1383
        1380        1381        1386        1385
        1381        1382        1387        1386
        1382        1383        1388        1387
        1383        1384        1389        1388
        1385        1386        1391        1390
        1386        1387        1392        1391
        1387        1388        1393        1392
        1388        1389        1394        1393
        1390        1391        1396        1395
        1391        1392        1397        1396
        1392        1393        1398        1397
        1393        1394        1399        1398
        1400        1401        1406        1405
        1401        1402        1407        1406
        1402        1403        1408        1407
        1403        1404        1409        1408
        1405        1406        1411        1410
        1406        1407        1412        1411
        1407        1408        1413        1412
        1408        1409        1414        1413
        1410        1411        1416        1415
        1411        1412        1417        1416
        1412        1413        1418        1417
        1413        1414        1419        1418
        1415        1416        1421        1420
        1416        1417        1422        1421
        1417        1418        1423        1422
        1418        1419        1424        1423
        1425        1426        1431        1430
        1426        1427        1432        1431
        1427        1428        1433        1432
        1428        1429        1434        1433
        1430        1431        1436        1435
        1431        1432        1437        1436
        1432        1433        1438        1437
        1433        1434        1439        1438
        1435        1436        1441        1440
        1436        1437        1442        1441
        1437        1438        1443        1442
        1438        1439        1444        1443
        1440        1441        1446        1445
        1441        1442        1447        1446
        1442        1443        1448        1447
        1443        1444        1449        1448
        1450        1451        1456        1455
        1451        1452        1457        1456
        1452        1453        1458        1457
        1453        1454        1459        1458
        1455        1456        1461        1460
        1456        1457        1462        1461
        1457        1458        1463        1462
        1458        1459        1464        1463
        1460        1461        1466        1465
        1461        1462        1467        1466
        1462        1463        1468        1467
        1463        1464        1469        1468
        1465        1466        1471        1470
        1466        1467        1472        1471
        1467        1468        1473        1472
        1468        1469        1474        1473
        1475        1476        1481        1480
        1476        1477        1482        1481
        1477        1478        1483        1482
        1478        1479        1484        1483
        1480        1481        1486        1485
        1481        1482        1487        1486
        1482        1483        1488        1487
        1483        1484        1489        1488
        1485        1486        1491        1490
        1486        1487        1492        1491
        1487        1488        1493        1492
        1488        1489        1494        1493
        1490        1491        1496        1495
        1491        1492        1497        1496
        1492        1493        1498        1497
        1493        1494        1499        1498
        1500        1501        1506        1505
        1501        1502        1507        1506
        1502        1503        1508        1507
        1503        1504        1509        1508
        1505        1506        1511        1510
        1506        1507        1512        1511
        1507        1508        1513        1512
        1508        1509        1514        1513
        1510        1511        1516        1515
        1511        1512        1517        1516
        1512        1513        1518        1517
        1513        1514        1519        1518
        1515        1516        1521        1520
        1516        1517        1522        1521
        1517        1518        1523        1522
        1518        1519        1524        1523
        1525        1526        1531        1530
        1526        1527        1532        1531
        1527        1528        1533        1532
        1528        1529        1534        1533
        1530        1531        1536        1535
        1531        1532        1537        1536
        1532        1533        1538        1537
        1533        1534        1539        1538
        1535        1536        1541        1540
        1536        1537        1542        1541
        1537        1538        1543        1542
        1538        1539        1544        1543
        1540        1541        1546        1545
        1541        1542        1547        1546
        1542        1543        1548        1547
        1543        1544        1549        1548
        1550        1551        1556        1555
        1551        1552        1557        1556
        1552        1553        1558        1557
        1553        1554        1559        1558
        1555        1556        1561        1560
        1556        1557        1562        1561
        1557        1558        1563        1562
        1558        1559        1564        1563
        1560        1561        1566        1565
        1561        1562        1567        1566
        1562        1563        1568        1567
        1563        1564        1569        1568
        1565        1566        1571        1570
        1566        1567        1572        1571
        1567        1568        1573        1572
        1568        1569        1574        1573
        1575        1576        1581        1580
        1576        1577        1582        1581
        1577        1578        1583        1582
        1578        1579        1584        1583
        1580        1581        1586        1585
        1581        1582        1587        1586
        1582        1583        1588        1587
        1583        1584        1589        1588
        1585        1586        1591        1590
        1586        1587        1592        1591
        1587        1588        1593        1592
        1588        1589        1594        1593
        1590        1591        1596        1595
        1591        1592        1597        1596
        1592        1593        1598        1597
        1593        1594        1599        1598
 </DataArray>
 <DataArray  type="Int32"  Name="offsets"  format="ascii"> 
           4
           8
          12
          16
          20
          24
          28
          32
          36
          40
          44
          48
          52
          56
          60
          64
          68
          72
          76
          80
          84
          88
          92
          96
         100
         104
         108
         112
         116
         120
         124
         128
         132
         136
         140
         144
         148
         152
         156
         160
         164
         168
         172
         176
         180
         184
         188
         192
         196
         200
         204
         208
         212
         216
         220
         224
         228
         232
         236
         240
         244
         248
         252
         256
         260
         264
         268
         272
         276
         280
         284
         288
         292
         296
         300
         304
         308
         312
         316
         320
         324
         328
         332
         336
         340
         344
         348
         352
         356
         360
         364
         368
         372
         376
         380
         384
         388
         392
         396
         400
         404
         408
         412
         416
         420
         424
         428
         432
         436
         440
         444
         448
         452
         456
         460
         464
         468
         472
         476
         480
         484
         488
         492
         496
         500
         504
         508
         512
         516
         520
         524
         528
         532
         536
         540
         544
         548
         552
         556
         560
         564
         568
         572
         576
         580
         584
         588
         592
         596
         600
         604
         608
         612
         616
         620
         624
         628
         632
         636
         640
         644
         648
         652
         656
         660
         664
         668
         672
         676
         680
         684
         688
         692
         696
         700
         704
         708
         712
         716
         720
         724
         728
         732
         736
         740
         744
         748
         752
         756
         760
         764
         768
         772
         776
         780
         784
         788
         792
         796
         800
         804
         808
         812
         816
         820
         824
         828
         832
         836
         840
         844
         848
         852
         856
         860
         864
         868
         872
         876
         880
         884
         888
         892
         896
         900
         904
         908
         912
         916
         920
         924
         928
         932
         936
         940
         944
         948
         952
         956
         960
         964
         968
         972
         976
         980
         984
         988
         992
         996
        1000
        1004
        1008
        1012
        1016
        1020
        1024
        1028
        1032
        1036
        1040
        1044
        1048
        1052
        1056
        1060
        1064
        1068
        1072
        1076
        1080
        1084
        1088
        1092
        1096
        1100
        1104
        1108
        1112
        1116
        1120
        1124
        1128
        1132
        1136
        1140
        1144
        1148
        1152
        1156
        1160
        1164
        1168
        1172
        1176
        1180
        1184
        1188
        1192
        1196
        1200
        1204
        1208
        1212
        1216
        1220
        1224
        1228
        1232
        1236
        1240
        1244
        1248
        1252
        1256
        1260
        1264
        1268
        1272
        1276
        1280
        1284
        1288
        1292
        1296
        1300
        1304
        1308
        1312
        1316
        1320
        1324
        1328
        1332
        1336
        1340
        1344
        1348
        1352
        1356
        1360
        1364
        1368
        1372
        1376
        1380
        1384
        1388
        1392
        1396
        1400
        1404
        1408
        1412
        1416
        1420
        1424
        1428
        1432
        1436
        1440
        1444
        1448
        1452
        1456
        1460
        1464
        1468
        1472
        1476
        1480
        1484
        1488
        1492
        1496
        1500
        1504
        1508
        1512
        1516
        1520
        1524
        1528
        1532
        1536
        1540
        1544
        1548
        1552
        1556
        1560
        1564
        1568
        1572
        1576
        1580
        1584
        1588
        1592
        1596
        1600
        1604
        1608
        1612
        1616
        1620
        1624
        1628
        1632
        1636
        1640
        1644
        1648
        1652
        1656
        1660
        1664
        1668
        1672
        1676
        1680
        1684
        1688
        1692
        1696
        1700
        1704
        1708
        1712
        1716
        1720
        1724
        1728
        1732
        1736
        1740
        1744
        1748
        1752
        1756
        1760
        1764
        1768
        1772
        1776
        1780
        1784
        1788
        1792
        1796
        1800
        1804
        1808
        1812
        1816
        1820
        1824
        1828
        1832
        1836
        1840
        1844
        1848
        1852
        1856
        1860
        1864
        1868
        1872
        1876
        1880
        1884
        1888
        1892
        1896
        1900
        1904
        1908
        1912
        1916
        1920
        1924
        1928
        1932
        1936
        1940
        1944
        1948
        1952
        1956
        1960
        1964
        1968
        1972
        1976
        1980
        1984
        1988
        1992
        1996
        2000
        2004
        2008
        2012
        2016
        2020
        2024
        2028
        2032
        2036
        2040
        2044
        2048
        2052
        2056
        2060
        2064
        2068
        2072
        2076
        2080
        2084
        2088
        2092
        2096
        2100
        2104
        2108
        2112
        2116
        2120
        2124
        2128
        2132
        2136
        2140
        2144
        2148
        2152
        2156
        2160
        2164
        2168
        2172
        2176
        2180
        2184
        2188
        2192
        2196
        2200
        2204
        2208
        2212
        2216
        2220
        2224
        2228
        2232
        2236
        2240
        2244
        2248
        2252
        2256
        2260
        2264
        2268
        2272
        2276
        2280
        2284
        2288
        2292
        2296
        2300
        2304
        2308
        2312
        2316
        2320
        2324
        2328
        2332
        2336
        2340
        2344
        2348
        2352
        2356
        2360
        2364
        2368
        2372
        2376
        2380
        2384
        2388
        2392
        2396
        2400
        2404
        2408
        2412
        2416
        2420
        2424
        2428
        2432
        2436
        2440
        2444
        2448
        2452
        2456
        2460
        2464
        2468
        2472
        2476
        2480
        2484
        2488
        2492
        2496
        2500
        2504
        2508
        2512
        2516
        2520
        2524
        2528
        2532
        2536
        2540
        2544
        2548
        2552
        2556
        2560
        2564
        2568
        2572
        2576
        2580
        2584
        2588
        2592
        2596
        2600
        2604
        2608
        2612
        2616
        2620
        2624
        2628
        2632
        2636
        2640
        2644
        2648
        2652
        2656
        2660
        2664
        2668
        2672
        2676
        2680
        2684
        2688
        2692
        2696
        2700
        2704
        2708
        2712
        2716
        2720
        2724
        2728
        2732
        2736
        2740
        2744
        2748
        2752
        2756
        2760
        2764
        2768
        2772
        2776
        2780
        2784
        2788
        2792
        2796
        2800
        2804
        2808
        2812
        2816
        2820
        2824
        2828
        2832
        2836
        2840
        2844
        2848
        2852
        2856
        2860
        2864
        2868
        2872
        2876
        2880
        2884
        2888
        2892
        2896
        2900
        2904
        2908
        2912
        2916
        2920
        2924
        2928
        2932
        2936
        2940
        2944
        2948
        2952
        2956
        2960
        2964
        2968
        2972
        2976
        2980
        2984
        2988
        2992
        2996
        3000
        3004
        3008
        3012
        3016
        3020
        3024
        3028
        3032
        3036
        3040
        3044
        3048
        3052
        3056
        3060
        3064
        3068
        3072
        3076
        3080
        3084
        3088
        3092
        3096
        3100
        3104
        3108
        3112
        3116
        3120
        3124
        3128
        3132
        3136
        3140
        3144
        3148
        3152
        3156
        3160
        3164
        3168
        3172
        3176
        3180
        3184
        3188
        3192
        3196
        3200
        3204
        3208
        3212
        3216
        3220
        3224
        3228
        3232
        3236
        3240
        3244
        3248
        3252
        3256
        3260
        3264
        3268
        3272
        3276
        3280
        3284
        3288
        3292
        3296
        3300
        3304
        3308
        3312
        3316
        3320
        3324
        3328
        3332
        3336
        3340
        3344
        3348
        3352
        3356
        3360
        3364
        3368
        3372
        3376
        3380
        3384
        3388
        3392
        3396
        3400
        3404
        3408
        3412
        3416
        3420
        3424
        3428
        3432
        3436
        3440
        3444
        3448
        3452
        3456
        3460
        3464
        3468
        3472
        3476
        3480
        3484
        3488
        3492
        3496
        3500
        3504
        3508
        3512
        3516
        3520
        3524
        3528
        3532
        3536
        3540
        3544
        3548
        3552
        3556
        3560
        3564
        3568
        3572
        3576
        3580
        3584
        3588
        3592
        3596
        3600
        3604
        3608
        3612
        3616
        3620
        3624
        3628
        3632
        3636
        3640
        3644
        3648
        3652
        3656
        3660
        3664
        3668
        3672
        3676
        3680
        3684
        3688
        3692
        3696
        3700
        3704
        3708
        3712
        3716
        3720
        3724
        3728
        3732
        3736
        3740
        3744
        3748
        3752
        3756
        3760
        3764
        3768
        3772
        3776
        3780
        3784
        3788
        3792
        3796
        3800
        3804
        3808
        3812
        3816
        3820
        3824
        3828
        3832
        3836
        3840
        3844
        3848
        3852
        3856
        3860
        3864
        3868
        3872
        3876
        3880
        3884
        3888
        3892
        3896
        3900
        3904
        3908
        3912
        3916
        3920
        3924
        3928
        3932
        3936
        3940
        3944
        3948
        3952
        3956
        3960
        3964
        3968
        3972
        3976
        3980
        3984
        3988
        3992
        3996
        4000
        4004
        4008
        4012
        4016
        4020
        4024
        4028
        4032
        4036
        4040
        4044
        4048
        4052
        4056
        4060
        4064
        4068
        4072
        4076
        4080
        4084
        4088
        4092
        4096
 </DataArray>
 <DataArray  type="UInt8"  Name="types"  format="ascii">
 9
 9
 9
 9
 9
 9
 9
 9
 9
 9
 9
 9
 9
 9
 9
 9
 9
 9
 9
 9
 9
 9
 9
 9
 9
 9
 9
 9
 9
 9
 9
 9
 9
 9
 9
 9
 9
 9
 9
 9
 9
 9
 9
 9
 9
 9
 9
 9
 9
 9
 9
 9
 9
 9
 9
 9
 9
 9
 9
 9
 9
 9
 9
 9
 9
 9
 9
 9
 9
 9
 9
 9
 9
 9
 9
 9
 9
 9
 9
 9
 9
 9
 9
 9
 9
 9
 9
 9
 9
 9
 9
 9
 9
 9
 9
 9
 9
 9
 9
 9
 9
 9
 9
 9
 9
 9
 9
 9
 9
 9
 9
 9
 9
 9
 9
 9
 9
 9
 9
 9
 9
 9
 9
 9
 9
 9
 9
 9
 9
 9
 9
 9
 9
 9
 9
 9
 9
 9
 9
 9
 9
 9
 9
 9
 9
 9
 9
 9
 9
 9
 9
 9
 9
 9
 9
 9
 9
 9
 9
 9
 9
 9
 9
 9
 9
 9
 9
 9
 9
 9
 9
 9
 9
 9
 9
 9
 9
 9
 9
 9
 9
 9
 9
 9
 9
 9
 9
 9
 9
 9
 9
 9
 9
 9
 9
 9
 9
 9
 9
 9
 9
 9
 9
 9
 9
 9
 9
 9
 9
 9
 9
 9
 9
 9
 9
 9
 9
 9
 9
 9
 9
 9
 9
 9
 9
 9
 9
 9
 9
 9
 9
 9
 9
 9
 9
 9
 9
 9
 9
 9
 9
 9
 9
 9
 9
 9
 9
 9
 9
 9
 9
 9
 9
 9
 9
 9
 9
 9
 9
 9
 9
 9
 9
 9
 9
 9
 9
 9
 9
 9
 9
 9
 9
 9
 9
 9
 9
 9
 9
 9
 9
 9
 9
 9
 9
 9
 9
 9
 9
 9
 9
 9
 9
 9
 9
 9
 9
 9
 9
 9
 9
 9
 9
 9
 9
 9
 9
 9
 9
 9
 9
 9
 9
 9
 9
 9
 9
 9
 9
 9
 9
 9
 9
 9
 9
 9
 9
 9
 9
 9
 9
 9
 9
 9
 9
 9
 9
 9
 9
 9
 9
 9
 9
 9
 9
 9
 9
 9
 9
 9
 9
 9
 9
 9
 9
 9
 9
 9
 9
 9
 9
 9
 9
 9
 9
 9
 9
 9
 9
 9
 9
 9
 9
 9
 9
 9
 9
 9
 9
 9
 9
 9
 9
 9
 9
 9
 9
 9
 9
 9
 9
 9
 9
 9
 9
 9
 9
 9
 9
 9
 9
 9
 9
 9
 9
 9
 9
 9
 9
 9
 9
 9
 9
 9
 9
 9
 9
 9
 9
 9
 9
 9
 9
 9
 9
 9
 9
 9
 9
 9
 9
 9
 9
 9
 9
 9
 9
 9
 9
 9
 9
 9
 9
 9
 9
 9
 9
 9
 9
 9
 9
 9
 9
 9
 9
 9
 9
 9
 9
 9
 9
 9
 9
 9
 9
 9
 9
 9
 9
 9
 9
 9
 9
 9
 9
 9
 9
 9
 9
 9
 9
 9
 9
 9
 9
 9
 9
 9
 9
 9
 9
 9
 9
 9
 9
 9
 9
 9
 9
 9
 9
 9
 9
 9
 9
 9
 9
 9
 9
 9
 9
 9
 9
 9
 9
 9
 9
 9
 9
 9
 9
 9
 9
 9
 9
 9
 9
 9
 9
 9
 9
 9
 9
 9
 9
 9
 9
 9
 9
 9
 9
 9
 9
 9
 9
 9
 9
 9
 9
 9
 9
 9
 9
 9
 9
 9
 9
 9
 9
 9
 9
 9
 9
 9
 9
 9
 9
 9
 9
 9
 9
 9
 9
 9
 9
 9
 9
 9
 9
 9
 9
 9
 9
 9
 9
 9
 9
 9
 9
 9
 9
 9
 9
 9
 9
 9
 9
 9
 9
 9
 9
 9
 9
 9
 9
 9
 9
 9
 9
 9
 9
 9
 9
 9
 9
 9
 9
 9
 9
 9
 9
 9
 9
 9
 9
 9
 9
 9
 9
 9
 9
 9
 9
 9
 9
 9
 9
 9
 9
 9
 9
 9
 9
 9
 9
 9
 9
 9
 9
 9
 9
 9
 9
 9
 9
 9
 9
 9
 9
 9
 9
 9
 9
 9
 9
 9
 9
 9
 9
 9
 9
 9
 9
 9
 9
 9
 9
 9
 9
 9
 9
 9
 9
 9
 9
 9
 9
 9
 9
 9
 9
 9
 9
 9
 9
 9
 9
 9
 9
 9
 9
 9
 9
 9
 9
 9
 9
 9
 9
 9
 9
 9
 9
 9
 9
 9
 9
 9
 9
 9
 9
 9
 9
 9
 9
 9
 9
 9
 9
 9
 9
 9
 9
 9
 9
 9
 9
 9
 9
 9
 9
 9
 9
 9
 9
 9
 9
 9
 9
 9
 9
 9
 9
 9
 9
 9
 9
 9
 9
 9
 9
 9
 9
 9
 9
 9
 9
 9
 9
 9
 9
 9
 9
 9
 9
 9
 9
 9
 9
 9
 9
 9
 9
 9
 9
 9
 9
 9
 9
 9
 9
 9
 9
 9
 9
 9
 9
 9
 9
 9
 9
 9
 9
 9
 9
 9
 9
 9
 9
 9
 9
 9
 9
 9
 9
 9
 9
 9
 9
 9
 9
 9
 9
 9
 9
 9
 9
 9
 9
 9
 9
 9
 9
 9
 9
 9
 9
 9
 9
 9
 9
 9
 9
 9
 9
 9
 9
 9
 9
 9
 9
 9
 9
 9
 9
 9
 9
 9
 9
 9
 9
 9
 9
 9
 9
 9
 9
 9
 9
 9
 9
 9
 9
 9
 9
 9
 9
 9
 9
 9
 9
 9
 9
 9
 9
 9
 9
 9
 9
 9
 9
 9
 9
 9
 9
 9
 9
 9
 9
 9
 9
 9
 9
 9
 9
 9
 9
 9
 9
 9
 9
 9
 9
 9
 9
 9
 9
 9
 9
 9
 9
 9
 9
 9
 9
 9
 9
 9
 9
 9
 9
 9
 9
 9
 9
 9
 9
 9
 9
 9
 9
 9
 9
 9
 9
 9
 9
 9
 9
 9
 9
 9
 9
 9
 9
 9
 9
 9
 9
 9
 9
 9
 9
 9
 9
 9
 9
 9
 9
 9
 9
 9
 9
 9
 9
 9
 9
 9
 9
 9
 9
 9
 9
 9
 9
 9
 9
 9
 9
 9
 9
 9
 9
 9
 9
 9
 9
 9
 9
 9
 9
 9
 9
 9
 9
 9
 9
 9
 9
 9
 9
 9
 9
 9
 9
 9
 9
 9
 9
 9
 9
 9
 9
 9
 </DataArray>
 </Cells> 
 <PointData>
 <DataArray  type="Float64" Name="disp" NumberOfComponents="3" format="ascii">
   6.5314648841677148E-002   6.2785513788459799E-002   0.0000000000000000     
   6.8371657400777636E-002   6.8175637118896890E-002   0.0000000000000000     
   7.1334880623687716E-002   7.3744037496496523E-002   0.0000000000000000     
   7.4204318510407374E-002   7.9490714921258684E-002   0.0000000000000000     
   7.6979971060936625E-002   8.5415669393183374E-002   0.0000000000000000     
   6.0138345811163632E-002   6.1887329268492317E-002   0.0000000000000000     
   6.3008065199950919E-002   6.7300027651964078E-002   0.0000000000000000     
   6.5789175901725727E-002   7.2893179076932574E-002   0.0000000000000000     
   6.8481677916488098E-002   7.8666783543397845E-002   0.0000000000000000     
   7.1085571244237991E-002   8.4620841051359835E-002   0.0000000000000000     
   5.5156551498108039E-002   6.1043325624561329E-002   0.0000000000000000     
   5.7839174441029366E-002   6.6479485747309053E-002   0.0000000000000000     
   6.0438248210875553E-002   7.2097240849396463E-002   0.0000000000000000     
   6.2953772807646594E-002   7.7896590930823545E-002   0.0000000000000000     
   6.5385748231342466E-002   8.3877535991590355E-002   0.0000000000000000     
   5.0369265902510355E-002   6.0253502856666828E-002   0.0000000000000000     
   5.2864985124012998E-002   6.5714011404931799E-002   0.0000000000000000     
   5.5282097551137166E-002   7.1356222813888120E-002   0.0000000000000000     
   5.7620603183882860E-002   7.7180137083535827E-002   0.0000000000000000     
   5.9880502022250065E-002   8.3185754213874891E-002   0.0000000000000000     
   4.5776489024370579E-002   5.9517860964808836E-002   0.0000000000000000     
   4.8085497248901821E-002   6.5003604624832331E-002   0.0000000000000000     
   5.0320723922510593E-002   7.0670124970407602E-002   0.0000000000000000     
   5.2482169045196904E-002   7.6517422001534663E-002   0.0000000000000000     
   5.4569832616960766E-002   8.2545495718213485E-002   0.0000000000000000     
   7.6979971060936625E-002   8.5415669393183374E-002   0.0000000000000000     
   7.9660426832119310E-002   9.1508972760548868E-002   0.0000000000000000     
   8.2244274380799287E-002   9.7760696871633398E-002   0.0000000000000000     
   8.4731513706976555E-002  0.10417084172643697        0.0000000000000000     
   8.7122144810651142E-002  0.11073940732495957        0.0000000000000000     
   7.1085571244237991E-002   8.4620841051359835E-002   0.0000000000000000     
   7.3599803296644284E-002   9.0743930705268205E-002   0.0000000000000000     
   7.6023321485375842E-002   9.7024631609572559E-002   0.0000000000000000     
   7.8356125810432650E-002  0.10346294376427288        0.0000000000000000     
   8.0598216271814710E-002  0.11005886716936918        0.0000000000000000     
   6.5385748231342466E-002   8.3877535991590355E-002   0.0000000000000000     
   6.7733533662492199E-002   9.0027881497383375E-002   0.0000000000000000     
   6.9996488281624789E-002   9.6335432913889060E-002   0.0000000000000000     
   7.2174612088740264E-002  0.10280019024110754        0.0000000000000000     
   7.4267905083838598E-002  0.10942215347903872        0.0000000000000000     
   5.9880502022250065E-002   8.3185754213874891E-002   0.0000000000000000     
   6.2061617929663061E-002   8.9360825136894279E-002   0.0000000000000000     
   6.4163774769546211E-002   9.5693100784582999E-002   0.0000000000000000     
   6.6186972541899453E-002  0.10218258115694093        0.0000000000000000     
   6.8131211246722806E-002  0.10882926625396817        0.0000000000000000     
   5.4569832616960766E-002   8.2545495718213485E-002   0.0000000000000000     
   5.6584056098156879E-002   8.8742761623801028E-002   0.0000000000000000     
   5.8525180949140027E-002   9.5097635221654195E-002   0.0000000000000000     
   6.0393207169910194E-002  0.10161011651177307        0.0000000000000000     
   6.2188134760467376E-002  0.10828020549415757        0.0000000000000000     
   8.7122144810651142E-002  0.11073940732495957        0.0000000000000000     
   8.9416720956741552E-002  0.11745380000734852        0.0000000000000000     
   9.1615795410166345E-002  0.12430142611375115        0.0000000000000000     
   9.3719368170925535E-002  0.13128228564416747        0.0000000000000000     
   9.5727439239019108E-002  0.13839637859859741        0.0000000000000000     
   8.0598216271814710E-002  0.11005886716936918        0.0000000000000000     
   8.2750098412934833E-002  0.11680036727567376        0.0000000000000000     
   8.4812277777205888E-002  0.12367540953399891        0.0000000000000000     
   8.6784754364627820E-002  0.13068399394434466        0.0000000000000000     
   8.8667528175200683E-002  0.13782612050671098        0.0000000000000000     
   7.4267905083838598E-002  0.10942215347903872        0.0000000000000000     
   7.6276764186253121E-002  0.11618956550615614        0.0000000000000000     
   7.8201586315317220E-002  0.12309066920093331        0.0000000000000000     
   8.0042371471030854E-002  0.13012546456337026        0.0000000000000000     
   8.1799119653394037E-002  0.13729395159346697        0.0000000000000000     
   6.8131211246722806E-002  0.10882926625396817        0.0000000000000000     
   6.9996718276696401E-002  0.11562139469879569        0.0000000000000000     
   7.1783721024500355E-002  0.12254720511455437        0.0000000000000000     
   7.3492219490134597E-002  0.12960669750124434        0.0000000000000000     
   7.5122213673599197E-002  0.13679987185886544        0.0000000000000000     
   6.2188134760467376E-002  0.10828020549415757        0.0000000000000000     
   6.3909960684264688E-002  0.11509585485359235        0.0000000000000000     
   6.5558681904755264E-002  0.12204501727486208        0.0000000000000000     
   6.7134298421939076E-002  0.12912769275796676        0.0000000000000000     
   6.8636810235816137E-002  0.13634388130290637        0.0000000000000000     
   9.5727439239019108E-002  0.13839637859859741        0.0000000000000000     
   9.7641167932991602E-002  0.14563197247686843        0.0000000000000000     
   9.9461713571387556E-002  0.15297733477880793        0.0000000000000000     
  0.10118907615420697       0.16043246550441589        0.0000000000000000     
  0.10282325568144987       0.16799736465369230        0.0000000000000000     
   8.8667528175200683E-002  0.13782612050671098        0.0000000000000000     
   9.0461681311200359E-002  0.14508951891131899        0.0000000000000000     
   9.2168295874902828E-002  0.15246191884838997        0.0000000000000000     
   9.3787371866308089E-002  0.15994332031792383        0.0000000000000000     
   9.5318909285416115E-002  0.16753372331992061        0.0000000000000000     
   8.1799119653394037E-002  0.13729395159346697        0.0000000000000000     
   8.3472703195175385E-002  0.14458361226518313        0.0000000000000000     
   8.5063994429143502E-002  0.15198192855247841        0.0000000000000000     
   8.6572993355298375E-002  0.15948890045535291        0.0000000000000000     
   8.7999699973640017E-002  0.16710452797380648        0.0000000000000000     
   7.5122213673599197E-002  0.13679987185886544        0.0000000000000000     
   7.6674233584916665E-002  0.14411425253846077        0.0000000000000000     
   7.8148809234109523E-002  0.15153736389107331        0.0000000000000000     
   7.9545940621177841E-002  0.15906920591670307        0.0000000000000000     
   8.0865627746121563E-002  0.16670977861535000        0.0000000000000000     
   6.8636810235816137E-002  0.13634388130290637        0.0000000000000000     
   7.0066272480424185E-002  0.14368143973115194        0.0000000000000000     
   7.1422740289800973E-002  0.15112822486417460        0.0000000000000000     
   7.2706213663946515E-002  0.15868423670197429        0.0000000000000000     
   7.3916692602860767E-002  0.16634947524455104        0.0000000000000000     
  0.10282325568144987       0.16799736465369230        0.0000000000000000     
  0.10436821925957676       0.17566207639811540        0.0000000000000000     
  0.10582793399504817       0.18341664490916348        0.0000000000000000     
  0.10720239988786412       0.19126107018683655        0.0000000000000000     
  0.10849161693802459       0.19919535223113455        0.0000000000000000     
   9.5318909285416115E-002  0.16753372331992061        0.0000000000000000     
   9.6765004921254588E-002  0.17522384917562620        0.0000000000000000     
   9.8127755562851124E-002  0.18300441920628643        0.0000000000000000     
   9.9407161210205722E-002  0.19087543341190141        0.0000000000000000     
  0.10060322186331841       0.19883689179247110        0.0000000000000000     
   8.7999699973640017E-002  0.16710452797380648        0.0000000000000000     
   8.9344821516290224E-002  0.17481978716323124        0.0000000000000000     
   9.0609065215370821E-002  0.18262565407901912        0.0000000000000000     
   9.1792431070881725E-002  0.19052212872117008        0.0000000000000000     
   9.2894919082823046E-002  0.19850921108968417        0.0000000000000000     
   8.0865627746121563E-002  0.16670977861535000        0.0000000000000000     
   8.2107669044683695E-002  0.17444989036093062        0.0000000000000000     
   8.3271862952607231E-002  0.18228034952736147        0.0000000000000000     
   8.4358209469892156E-002  0.19020115611464247        0.0000000000000000     
   8.5366708596538471E-002  0.19821231012277374        0.0000000000000000     
   7.3916692602860767E-002  0.16634947524455104        0.0000000000000000     
   7.5053547506434989E-002  0.17411415876872433        0.0000000000000000     
   7.6116148774560383E-002  0.18196850555131353        0.0000000000000000     
   7.7104496407236961E-002  0.18991251559231867        0.0000000000000000     
   7.8018590404464710E-002  0.19794618889173976        0.0000000000000000     
  0.10849161693802459       0.19919535223113455        0.0000000000000000     
  0.10970038809514814       0.20721530326346260        0.0000000000000000     
  0.11083351630885327       0.21531673550522579        0.0000000000000000     
  0.11189100157914003       0.22349964895642402        0.0000000000000000     
  0.11287284390600839       0.23176404361705738        0.0000000000000000     
  0.10060322186331841       0.19883689179247110        0.0000000000000000     
  0.10172091574605359       0.20688225661564205        0.0000000000000000     
  0.10276522108227568       0.21500499014906066        0.0000000000000000     
  0.10373613787198471       0.22320509239272701        0.0000000000000000     
  0.10463366611518064       0.23148256334664105        0.0000000000000000     
   9.2894919082823046E-002  0.19850921108968417        0.0000000000000000     
   9.3920841239873570E-002  0.20657908304641301        0.0000000000000000     
   9.4874509530712178E-002  0.21472392645320820        0.0000000000000000     
   9.5755923955338884E-002  0.22294374131006975        0.0000000000000000     
   9.6565084513753688E-002  0.23123852761699770        0.0000000000000000     
   8.5366708596538471E-002  0.19821231012277374        0.0000000000000000     
   8.6300164576608052E-002  0.20630578255577556        0.0000000000000000     
   8.7161381654162734E-002  0.21447354441766842        0.0000000000000000     
   8.7950359829202560E-002  0.22271559570845231        0.0000000000000000     
   8.8667099101727515E-002  0.23103193642812722        0.0000000000000000     
   7.8018590404464710E-002  0.19794618889173976        0.0000000000000000     
   7.8858885756257047E-002  0.20606235514372970        0.0000000000000000     
   7.9625837452627385E-002  0.21425384404244135        0.0000000000000000     
   8.0319445493575739E-002  0.22252065558787468        0.0000000000000000     
   8.0939709879102095E-002  0.23086278978002966        0.0000000000000000     
  0.11287284390600839       0.23176404361705738        0.0000000000000000     
  0.11380738947513694       0.24012667338567223        0.0000000000000000     
  0.11472298447220425       0.24860429216081487        0.0000000000000000     
  0.11561962889721031       0.25719689994248535        0.0000000000000000     
  0.11649732275015515       0.26590449673068373        0.0000000000000000     
  0.10463366611518064       0.23148256334664105        0.0000000000000000     
  0.10546295508949052       0.23986100257350915        0.0000000000000000     
  0.10622915407254134       0.24836400963603741        0.0000000000000000     
  0.10693226306433311       0.25699158453422599        0.0000000000000000     
  0.10757228206486583       0.26574372726807483        0.0000000000000000     
   9.6565084513753688E-002  0.23123852761699770        0.0000000000000000     
   9.7292924563848387E-002  0.23963480765789716        0.0000000000000000     
   9.7930377463514809E-002  0.24815910371667346        0.0000000000000000     
   9.8477443212752883E-002  0.25681141579332656        0.0000000000000000     
   9.8934121811562678E-002  0.26559174388785639        0.0000000000000000     
   8.8667099101727515E-002  0.23103193642812722        0.0000000000000000     
   8.9297297898210518E-002  0.23944808863883635        0.0000000000000000     
   8.9826654645124543E-002  0.24798957440272293        0.0000000000000000     
   9.0255169342469604E-002  0.25665639371978693        0.0000000000000000     
   9.0582841990245716E-002  0.26544854659002842        0.0000000000000000     
   8.0939709879102095E-002  0.23086278978002966        0.0000000000000000     
   8.1476075092576913E-002  0.23930084551632663        0.0000000000000000     
   8.1917985617370653E-002  0.24785542169418584        0.0000000000000000     
   8.2265441453483315E-002  0.25652651831360729        0.0000000000000000     
   8.2518442600914899E-002  0.26531413537459092        0.0000000000000000     
  0.11649732275015515       0.26590449673068373        0.0000000000000000     
  0.11729635789447261       0.27489157538418202        0.0000000000000000     
  0.11795702619359660       0.28432262876175235        0.0000000000000000     
  0.11847932764752712       0.29419765686339477        0.0000000000000000     
  0.11886326225626415       0.30451665968910924        0.0000000000000000     
  0.10757228206486583       0.26574372726807483        0.0000000000000000     
  0.10813020433202336       0.27475252557328161        0.0000000000000000     
  0.10858702312368959       0.28415006718554409        0.0000000000000000     
  0.10894273843986452       0.29393635210486213        0.0000000000000000     
  0.10919735028054814       0.30411138033123580        0.0000000000000000     
   9.8934121811562678E-002  0.26559174388785639        0.0000000000000000     
   9.9311420830546004E-002  0.27459836065122700        0.0000000000000000     
   9.9620347840304699E-002  0.28392953873440202        0.0000000000000000     
   9.9860902840838733E-002  0.29358527813738172        0.0000000000000000     
  0.10003308583214812       0.30356557886016589        0.0000000000000000     
   9.0582841990245716E-002  0.26544854659002842        0.0000000000000000     
   9.0840007390040556E-002  0.27442908061801807        0.0000000000000000     
   9.1057000343441913E-002  0.28366104340832643        0.0000000000000000     
   9.1233820850449759E-002  0.29314443496095355        0.0000000000000000     
   9.1370468911064123E-002  0.30287925527589948        0.0000000000000000     
   8.2518442600914899E-002  0.26531413537459092        0.0000000000000000     
   8.2715964010507015E-002  0.27424468547365483        0.0000000000000000     
   8.2896980633101247E-002  0.28334458120731715        0.0000000000000000     
   8.3061492468697623E-002  0.29261382257557778        0.0000000000000000     
   8.3209499517296115E-002  0.30205240957843665        0.0000000000000000     
   4.5776489024370579E-002   5.9517860964808836E-002   0.0000000000000000     
   4.8085497248901821E-002   6.5003604624832331E-002   0.0000000000000000     
   5.0320723922510593E-002   7.0670124970407602E-002   0.0000000000000000     
   5.2482169045196904E-002   7.6517422001534663E-002   0.0000000000000000     
   5.4569832616960766E-002   8.2545495718213485E-002   0.0000000000000000     
   4.1354244414615021E-002   5.8839837190676175E-002   0.0000000000000000     
   4.3475576361023366E-002   6.4349364693723071E-002   0.0000000000000000     
   4.5528198015515352E-002   7.0038614983274197E-002   0.0000000000000000     
   4.7512109378090972E-002   7.5907588059329567E-002   0.0000000000000000     
   4.9427310448750220E-002   8.1956283921889181E-002   0.0000000000000000     
   3.7078555624169965E-002   5.8222868775957691E-002   0.0000000000000000     
   3.9010088005705205E-002   6.3752390898316413E-002   0.0000000000000000     
   4.0878590520670978E-002   6.9461360516807222E-002   0.0000000000000000     
   4.2684063169067268E-002   7.5349777631430109E-002   0.0000000000000000     
   4.4426505950894098E-002   8.1417642242185048E-002   0.0000000000000000     
   3.2949422653035416E-002   5.7666955720653397E-002   0.0000000000000000     
   3.4689032182947346E-002   6.3212683238612358E-002   0.0000000000000000     
   3.6371901437977472E-002   6.8938361571006634E-002   0.0000000000000000     
   3.7998030418125828E-002   7.4843990717836234E-002   0.0000000000000000     
   3.9567419123392386E-002   8.0929570679101129E-002   0.0000000000000000     
   2.8966845501211376E-002   5.7172098024763286E-002   0.0000000000000000     
   3.0512408892749764E-002   6.2730241714610932E-002   0.0000000000000000     
   3.2008130767434848E-002   6.8469618145872491E-002   0.0000000000000000     
   3.3454011125266622E-002   7.4390227318547969E-002   0.0000000000000000     
   3.4850049966245078E-002   8.0492069232637367E-002   0.0000000000000000     
   5.4569832616960766E-002   8.2545495718213485E-002   0.0000000000000000     
   5.6584056098156879E-002   8.8742761623801028E-002   0.0000000000000000     
   5.8525180949140027E-002   9.5097635221654195E-002   0.0000000000000000     
   6.0393207169910194E-002  0.10161011651177307        0.0000000000000000     
   6.2188134760467376E-002  0.10828020549415757        0.0000000000000000     
   4.9427310448750220E-002   8.1956283921889181E-002   0.0000000000000000     
   5.1274521904444127E-002   8.8173897101489249E-002   0.0000000000000000     
   5.3054464422123720E-002   9.4549622128665980E-002   0.0000000000000000     
   5.4767138001788992E-002  0.10108345900341942        0.0000000000000000     
   5.6412542643439943E-002  0.10777540772574948        0.0000000000000000     
   4.4426505950894098E-002   8.1417642242185048E-002   0.0000000000000000     
   4.6106689084995295E-002   8.7654437713344663E-002   0.0000000000000000     
   4.7725382790214710E-002   9.4049647409181467E-002   0.0000000000000000     
   4.9282587066552350E-002  0.10060327132969540        0.0000000000000000     
   5.0778301914008221E-002  0.10731530947488657        0.0000000000000000     
   3.9567419123392386E-002   8.0929570679101129E-002   0.0000000000000000     
   4.1080557639810361E-002   8.7184383459367285E-002   0.0000000000000000     
   4.2537936053412995E-002   9.3597711063200598E-002   0.0000000000000000     
   4.3939554364200266E-002  0.10016955349060114        0.0000000000000000     
   4.5285412572172175E-002  0.10689991074156882        0.0000000000000000     
   3.4850049966245078E-002   8.0492069232637367E-002   0.0000000000000000     
   3.6196127568889361E-002   8.6763734339557086E-002   0.0000000000000000     
   3.7492124211718575E-002   9.3193813090723457E-002   0.0000000000000000     
   3.8738039894732734E-002   9.9782305486136522E-002   0.0000000000000000     
   3.9933874617931839E-002  0.10652921152579625        0.0000000000000000     
   6.2188134760467376E-002  0.10828020549415757        0.0000000000000000     
   6.3909960684264688E-002  0.11509585485359235        0.0000000000000000     
   6.5558681904755264E-002  0.12204501727486208        0.0000000000000000     
   6.7134298421939076E-002  0.12912769275796676        0.0000000000000000     
   6.8636810235816137E-002  0.13634388130290637        0.0000000000000000     
   5.6412542643439943E-002  0.10777540772574948        0.0000000000000000     
   5.7990458415224377E-002  0.11461309528568377        0.0000000000000000     
   5.9500665385290058E-002  0.12158414867324975        0.0000000000000000     
   6.0943163553637027E-002  0.12868856788844749        0.0000000000000000     
   6.2317952920265256E-002  0.13592635293127689        0.0000000000000000     
   5.0778301914008221E-002  0.10731530947488657        0.0000000000000000     
   5.2212178475841864E-002  0.11417326531020749        0.0000000000000000     
   5.3583867895312880E-002  0.12116464230111071        0.0000000000000000     
   5.4893370172421227E-002  0.12828944044759627        0.0000000000000000     
   5.6140685307166954E-002  0.13554765974966423        0.0000000000000000     
   4.5285412572172175E-002  0.10689991074156882        0.0000000000000000     
   4.6575120866117169E-002  0.11377636492716352        0.0000000000000000     
   4.7808289434823667E-002  0.12078649815844500        0.0000000000000000     
   4.8984918278291677E-002  0.12793031043541322        0.0000000000000000     
   5.0105007396521198E-002  0.13520780175806829        0.0000000000000000     
   3.9933874617931839E-002  0.10652921152579625        0.0000000000000000     
   4.1079285586050278E-002  0.11342239413655186        0.0000000000000000     
   4.2173930003822462E-002  0.12044971624525255        0.0000000000000000     
   4.3217807871248369E-002  0.12761117785189832        0.0000000000000000     
   4.4210919188328021E-002  0.13490677895648920        0.0000000000000000     
   6.8636810235816137E-002  0.13634388130290637        0.0000000000000000     
   7.0066272480424185E-002  0.14368143973115194        0.0000000000000000     
   7.1422740289800973E-002  0.15112822486417460        0.0000000000000000     
   7.2706213663946515E-002  0.15868423670197429        0.0000000000000000     
   7.3916692602860767E-002  0.16634947524455104        0.0000000000000000     
   6.2317952920265256E-002  0.13592635293127689        0.0000000000000000     
   6.3624611525126523E-002  0.14328575258065834        0.0000000000000000     
   6.4862717408172552E-002  0.15075501561551208        0.0000000000000000     
   6.6032270569403390E-002  0.15833414203583815        0.0000000000000000     
   6.7133271008818995E-002  0.16602313184163650        0.0000000000000000     
   5.6140685307166954E-002  0.13554765974966423        0.0000000000000000     
   5.7325042362452151E-002  0.14292776982438155        0.0000000000000000     
   5.8445670401178998E-002  0.15041824028881548        0.0000000000000000     
   5.9502569423347473E-002  0.15801907114296596        0.0000000000000000     
   6.0495739428957578E-002  0.16573026238683303        0.0000000000000000     
   5.0105007396521198E-002  0.13520780175806829        0.0000000000000000     
   5.1167564992401118E-002  0.14260749146232168        0.0000000000000000     
   5.2171599268820319E-002  0.15011789888408486        0.0000000000000000     
   5.3117110225778787E-002  0.15773902402335779        0.0000000000000000     
   5.4004097863276548E-002  0.16547086688014068        0.0000000000000000     
   4.4210919188328021E-002  0.13490677895648920        0.0000000000000000     
   4.5152179414973397E-002  0.14232491749447862        0.0000000000000000     
   4.6040504011096502E-002  0.14985399140132014        0.0000000000000000     
   4.6875892976697330E-002  0.15749400067701375        0.0000000000000000     
   4.7658346311775894E-002  0.16524494532155942        0.0000000000000000     
   7.3916692602860767E-002  0.16634947524455104        0.0000000000000000     
   7.5053547506434989E-002  0.17411415876872433        0.0000000000000000     
   7.6116148774560383E-002  0.18196850555131353        0.0000000000000000     
   7.7104496407236961E-002  0.18991251559231867        0.0000000000000000     
   7.8018590404464710E-002  0.19794618889173976        0.0000000000000000     
   6.7133271008818995E-002  0.16602313184163650        0.0000000000000000     
   6.8164901137072784E-002  0.17381151092660757        0.0000000000000000     
   6.9126343364818196E-002  0.18168880518445199        0.0000000000000000     
   7.0017597692055192E-002  0.18965501461516962        0.0000000000000000     
   7.0838664118783784E-002  0.19771013921876054        0.0000000000000000     
   6.0495739428957578E-002  0.16573026238683303        0.0000000000000000     
   6.1424174172125791E-002  0.17354086537457586        0.0000000000000000     
   6.2286867406968552E-002  0.18143993146035364        0.0000000000000000     
   6.3083819133485861E-002  0.18942746064416649        0.0000000000000000     
   6.3815029351677738E-002  0.19750345292601429        0.0000000000000000     
   5.4004097863276548E-002  0.16547086688014068        0.0000000000000000     
   5.4831366611593969E-002  0.17330222211262897        0.0000000000000000     
   5.5597720901011456E-002  0.18122188437901843        0.0000000000000000     
   5.6303160731528981E-002  0.18922985367930908        0.0000000000000000     
   5.6947686103146572E-002  0.19732613001350099        0.0000000000000000     
   4.7658346311775894E-002  0.16524494532155942        0.0000000000000000     
   4.8386478455477347E-002  0.17309558114076701        0.0000000000000000     
   4.9058903846946909E-002  0.18103466394044646        0.0000000000000000     
   4.9675622486184540E-002  0.18906219372059763        0.0000000000000000     
   5.0236634373190280E-002  0.19717817048122060        0.0000000000000000     
   7.8018590404464710E-002  0.19794618889173976        0.0000000000000000     
   7.8858885756257047E-002  0.20606235514372970        0.0000000000000000     
   7.9625837452627385E-002  0.21425384404244135        0.0000000000000000     
   8.0319445493575739E-002  0.22252065558787468        0.0000000000000000     
   8.0939709879102095E-002  0.23086278978002966        0.0000000000000000     
   7.0838664118783784E-002  0.19771013921876054        0.0000000000000000     
   7.1587734752996096E-002  0.20584797922983072        0.0000000000000000     
   7.2263001702684224E-002  0.21406233488298609        0.0000000000000000     
   7.2864464967848180E-002  0.22235320617822676        0.0000000000000000     
   7.3392124548487939E-002  0.23072059311555265        0.0000000000000000     
   6.3815029351677738E-002  0.19750345292601429        0.0000000000000000     
   6.4477441541000727E-002  0.20566183323363388        0.0000000000000000     
   6.5067999180911357E-002  0.21389652649476201        0.0000000000000000     
   6.5586702271409614E-002  0.22220753270939861        0.0000000000000000     
   6.6033550812495539E-002  0.23059485187754378        0.0000000000000000     
   5.6947686103146572E-002  0.19732613001350099        0.0000000000000000     
   5.7528006120270925E-002  0.20550391715513916        0.0000000000000000     
   5.8040829887308763E-002  0.21375641887776889        0.0000000000000000     
   5.8486157404260081E-002  0.22208363518139015        0.0000000000000000     
   5.8863988671124877E-002  0.23048556606600296        0.0000000000000000     
   5.0236634373190280E-002  0.19717817048122060        0.0000000000000000     
   5.0739428490806718E-002  0.20537423099434660        0.0000000000000000     
   5.1181493821876478E-002  0.21364201203200692        0.0000000000000000     
   5.1562830366399554E-002  0.22198151359420146        0.0000000000000000     
   5.1883438124375951E-002  0.23039273568093027        0.0000000000000000     
   8.0939709879102095E-002  0.23086278978002966        0.0000000000000000     
   8.1476075092576913E-002  0.23930084551632663        0.0000000000000000     
   8.1917985617370653E-002  0.24785542169418584        0.0000000000000000     
   8.2265441453483315E-002  0.25652651831360729        0.0000000000000000     
   8.2518442600914899E-002  0.26531413537459092        0.0000000000000000     
   7.3392124548487939E-002  0.23072059311555265        0.0000000000000000     
   7.3842772345239074E-002  0.23917811715981629        0.0000000000000000     
   7.4213200258737136E-002  0.24773939977587026        0.0000000000000000     
   7.4503408288982095E-002  0.25640444096371445        0.0000000000000000     
   7.4713396435973953E-002  0.26517324072334891        0.0000000000000000     
   6.6033550812495539E-002  0.23059485187754378        0.0000000000000000     
   6.6410905854488528E-002  0.23906494243875356        0.0000000000000000     
   6.6721128447708028E-002  0.24762426283258412        0.0000000000000000     
   6.6964218592154040E-002  0.25627281305903543        0.0000000000000000     
   6.7140176287826550E-002  0.26501059311810748        0.0000000000000000     
   5.8863988671124877E-002  0.23048556606600296        0.0000000000000000     
   5.9180475620325260E-002  0.23896132135313833        0.0000000000000000     
   5.9441770184283371E-002  0.24751001086432745        0.0000000000000000     
   5.9647872362999177E-002  0.25613163459957017        0.0000000000000000     
   5.9798782156472705E-002  0.26482619255886664        0.0000000000000000     
   5.1883438124375951E-002  0.23039273568093027        0.0000000000000000     
   5.2151481642749263E-002  0.23886725390297073        0.0000000000000000     
   5.2375125468463117E-002  0.24739664387110027        0.0000000000000000     
   5.2554369601517499E-002  0.25598090558531883        0.0000000000000000     
   5.2689214041912409E-002  0.26462003904562637        0.0000000000000000     
   8.2518442600914899E-002  0.26531413537459092        0.0000000000000000     
   8.2715964010507015E-002  0.27424468547365483        0.0000000000000000     
   8.2896980633101247E-002  0.28334458120731715        0.0000000000000000     
   8.3061492468697623E-002  0.29261382257557778        0.0000000000000000     
   8.3209499517296115E-002  0.30205240957843665        0.0000000000000000     
   7.4713396435973953E-002  0.26517324072334891        0.0000000000000000     
   7.4884101694636565E-002  0.27403948053123456        0.0000000000000000     
   7.5056461059893803E-002  0.28299684186383262        0.0000000000000000     
   7.5230474531745639E-002  0.29204532472114281        0.0000000000000000     
   7.5406142110192115E-002  0.30118492910316524        0.0000000000000000     
   6.7140176287826550E-002  0.26501059311810748        0.0000000000000000     
   6.7289231445120473E-002  0.27380777110385474        0.0000000000000000     
   6.7451613974430710E-002  0.28263451511033139        0.0000000000000000     
   6.7627323875757220E-002  0.29149082513753755        0.0000000000000000     
   6.7816361149100030E-002  0.30037670118547327        0.0000000000000000     
   5.9798782156472705E-002  0.26482619255886664        0.0000000000000000     
   5.9931353261958697E-002  0.27354955719151502        0.0000000000000000     
   6.0082439376711892E-002  0.28225760094681340        0.0000000000000000     
   6.0252040500732296E-002  0.29095032382476188        0.0000000000000000     
   6.0440156634019922E-002  0.29962772582536062        0.0000000000000000     
   5.2689214041912409E-002  0.26462003904562637        0.0000000000000000     
   5.2810467145151252E-002  0.27326483879421548        0.0000000000000000     
   5.2948937266737425E-002  0.28186609937327867        0.0000000000000000     
   5.3104624406670922E-002  0.29042382078281603        0.0000000000000000     
   5.3277528564951757E-002  0.29893800302282741        0.0000000000000000     
   2.8966845501211376E-002   5.7172098024763286E-002   0.0000000000000000     
   3.0512408892749764E-002   6.2730241714610932E-002   0.0000000000000000     
   3.2008130767434848E-002   6.8469618145872491E-002   0.0000000000000000     
   3.3454011125266622E-002   7.4390227318547969E-002   0.0000000000000000     
   3.4850049966245078E-002   8.0492069232637367E-002   0.0000000000000000     
   2.5100706591959607E-002   5.6736999895446283E-002   0.0000000000000000     
   2.6451587571260912E-002   6.2305144682668678E-002   0.0000000000000000     
   2.7759617113749746E-002   6.8056001534984409E-002   0.0000000000000000     
   2.9024795219426108E-002   7.3989570452393474E-002   0.0000000000000000     
   3.0247121888289995E-002   8.0105851434895875E-002   0.0000000000000000     
   2.1320888348541865E-002   5.6360365539861304E-002   0.0000000000000000     
   2.2477937654629201E-002   6.1937470499142222E-002   0.0000000000000000     
   2.3598699081628829E-002   6.7698383031922077E-002   0.0000000000000000     
   2.4683172629540742E-002   7.3643103138200883E-002   0.0000000000000000     
   2.5731358298364940E-002   7.9771630817978625E-002   0.0000000000000000     
   1.7627390770958158E-002   5.6042194958008343E-002   0.0000000000000000     
   1.8591459142854649E-002   6.1627219164031542E-002   0.0000000000000000     
   1.9525376671072108E-002   6.7396762636685523E-002   0.0000000000000000     
   2.0429143355610531E-002   7.3350825375970236E-002   0.0000000000000000     
   2.1302759196469914E-002   7.9489407381885729E-002   0.0000000000000000     
   1.4020213859208479E-002   5.5782488149887413E-002   0.0000000000000000     
   1.4792152035937244E-002   6.1374390677336646E-002   0.0000000000000000     
   1.5539649882079573E-002   6.7151140349274677E-002   0.0000000000000000     
   1.6262707397635467E-002   7.3112737165701491E-002   0.0000000000000000     
   1.6961324582604926E-002   7.9259181126617090E-002   0.0000000000000000     
   3.4850049966245078E-002   8.0492069232637367E-002   0.0000000000000000     
   3.6196127568889361E-002   8.6763734339557086E-002   0.0000000000000000     
   3.7492124211718575E-002   9.3193813090723457E-002   0.0000000000000000     
   3.8738039894732734E-002   9.9782305486136522E-002   0.0000000000000000     
   3.9933874617931839E-002  0.10652921152579625        0.0000000000000000     
   3.0247121888289995E-002   8.0105851434895875E-002   0.0000000000000000     
   3.1425869950902234E-002   8.6392638159464838E-002   0.0000000000000000     
   3.2560312237823644E-002   9.2837724303073701E-002   0.0000000000000000     
   3.3650448749054235E-002   9.9441109865722382E-002   0.0000000000000000     
   3.4696279484594007E-002  0.10620279484741094        0.0000000000000000     
   2.5731358298364940E-002   7.9771630817978625E-002   0.0000000000000000     
   2.6742255864518984E-002   8.6071242724641325E-002   0.0000000000000000     
   2.7714865104420415E-002   9.2529215511574933E-002   0.0000000000000000     
   2.8649186018069255E-002   9.9145549178779477E-002   0.0000000000000000     
   2.9545218605465495E-002  0.10592024372625494        0.0000000000000000     
   2.1302759196469914E-002   7.9489407381885729E-002   0.0000000000000000     
   2.2145285309739589E-002   8.5799548035086548E-002   0.0000000000000000     
   2.2955782811508885E-002   9.2268286716227235E-002   0.0000000000000000     
   2.3734251701777790E-002   9.8895623425307805E-002   0.0000000000000000     
   2.4480691980546299E-002  0.10568155816232830        0.0000000000000000     
   1.6961324582604926E-002   7.9259181126617090E-002   0.0000000000000000     
   1.7634958286564077E-002   8.5577554090800478E-002   0.0000000000000000     
   1.8283065359089044E-002   9.2054937917030566E-002   0.0000000000000000     
   1.8905645800179824E-002   9.8691332605307408E-002   0.0000000000000000     
   1.9502699609836433E-002  0.10548673815563098        0.0000000000000000     
   3.9933874617931839E-002  0.10652921152579625        0.0000000000000000     
   4.1079285586050278E-002  0.11342239413655186        0.0000000000000000     
   4.2173930003822462E-002  0.12044971624525255        0.0000000000000000     
   4.3217807871248369E-002  0.12761117785189832        0.0000000000000000     
   4.4210919188328021E-002  0.13490677895648920        0.0000000000000000     
   3.4696279484594007E-002  0.10620279484741094        0.0000000000000000     
   3.5697524816846626E-002  0.11311095277600279        0.0000000000000000     
   3.6653905118215771E-002  0.12015375717936141        0.0000000000000000     
   3.7565420388701434E-002  0.12733120805748679        0.0000000000000000     
   3.8432070628303637E-002  0.13464330541037897        0.0000000000000000     
   2.9545218605465495E-002  0.10592024372625494        0.0000000000000000     
   3.0402690739711621E-002  0.11284164068314657        0.0000000000000000     
   3.1221330293910131E-002  0.11989808157859959        0.0000000000000000     
   3.2001137268061031E-002  0.12708956641261399        0.0000000000000000     
   3.2742111662164300E-002  0.13441609518518982        0.0000000000000000     
   2.4480691980546299E-002  0.10568155816232830        0.0000000000000000     
   2.5194783354645280E-002  0.11261445785798319        0.0000000000000000     
   2.5876205530905552E-002  0.11968268944296705        0.0000000000000000     
   2.6524958509327134E-002  0.12688625291727987        0.0000000000000000     
   2.7141042289910010E-002  0.13422514828092172        0.0000000000000000     
   1.9502699609836433E-002  0.10548673815563098        0.0000000000000000     
   2.0073802661647586E-002  0.11242940430051264        0.0000000000000000     
   2.0618530829202029E-002  0.11950758077246380        0.0000000000000000     
   2.1136884112499754E-002  0.12672126757148447        0.0000000000000000     
   2.1628862511540767E-002  0.13407046469757461        0.0000000000000000     
   4.4210919188328021E-002  0.13490677895648920        0.0000000000000000     
   4.5152179414973397E-002  0.14232491749447862        0.0000000000000000     
   4.6040504011096502E-002  0.14985399140132014        0.0000000000000000     
   4.6875892976697330E-002  0.15749400067701375        0.0000000000000000     
   4.7658346311775894E-002  0.16524494532155942        0.0000000000000000     
   3.8432070628303637E-002  0.13464330541037897        0.0000000000000000     
   3.9252771065833268E-002  0.14207827728619679        0.0000000000000000     
   4.0026436930101231E-002  0.14962435173309921        0.0000000000000000     
   4.0753068221107532E-002  0.15728152875108614        0.0000000000000000     
   4.1432664938852171E-002  0.16504980834015770        0.0000000000000000     
   3.2742111662164300E-002  0.13441609518518982        0.0000000000000000     
   3.3443225380645002E-002  0.14186580020282058        0.0000000000000000     
   3.4103450327928185E-002  0.14942681377199984        0.0000000000000000     
   3.4722786504013829E-002  0.15709913589272761        0.0000000000000000     
   3.5301233908901941E-002  0.16488276656500389        0.0000000000000000     
   2.7141042289910010E-002  0.13422514828092172        0.0000000000000000     
   2.7723542359408611E-002  0.14168748624434990        0.0000000000000000     
   2.8271544204577340E-002  0.14926137751802207        0.0000000000000000     
   2.8785047825416209E-002  0.15694682210193808        0.0000000000000000     
   2.9264053221925206E-002  0.16474381999609802        0.0000000000000000     
   2.1628862511540767E-002  0.13407046469757461        0.0000000000000000     
   2.2093722002124082E-002  0.14154333541078490        0.0000000000000000     
   2.2530718560048717E-002  0.14912804297116589        0.0000000000000000     
   2.2939852185314680E-002  0.15682458737871760        0.0000000000000000     
   2.3321122877921971E-002  0.16463296863344007        0.0000000000000000     
   4.7658346311775894E-002  0.16524494532155942        0.0000000000000000     
   4.8386478455477347E-002  0.17309558114076701        0.0000000000000000     
   4.9058903846946909E-002  0.18103466394044646        0.0000000000000000     
   4.9675622486184540E-002  0.18906219372059763        0.0000000000000000     
   5.0236634373190280E-002  0.19717817048122060        0.0000000000000000     
   4.1432664938852171E-002  0.16504980834015770        0.0000000000000000     
   4.2063712978533382E-002  0.17291795356382725        0.0000000000000000     
   4.2644698235349450E-002  0.18087472748560826        0.0000000000000000     
   4.3175620709300352E-002  0.18892013010550077        0.0000000000000000     
   4.3656480400386097E-002  0.19705416142350474        0.0000000000000000     
   3.5301233908901941E-002  0.16488276656500389        0.0000000000000000     
   3.5837273455519542E-002  0.17276635048664685        0.0000000000000000     
   3.6329386056793624E-002  0.18073853235547474        0.0000000000000000     
   3.6777571712724208E-002  0.18879931217148740        0.0000000000000000     
   3.7181830423311281E-002  0.19694868993468498        0.0000000000000000     
   2.9264053221925206E-002  0.16474381999609802        0.0000000000000000     
   2.9707159886435793E-002  0.17264077190922586        0.0000000000000000     
   3.0112967311279427E-002  0.18062607855004570        0.0000000000000000     
   3.0481475496456096E-002  0.18869973991855751        0.0000000000000000     
   3.0812684441965811E-002  0.19686175601476130        0.0000000000000000     
   2.3321122877921971E-002  0.16463296863344007        0.0000000000000000     
   2.3673372271282168E-002  0.17254121783156426        0.0000000000000000     
   2.3995441998806852E-002  0.18053736606932128        0.0000000000000000     
   2.4287332060496027E-002  0.18862141334671112        0.0000000000000000     
   2.4549042456349694E-002  0.19679335966373371        0.0000000000000000     
   5.0236634373190280E-002  0.19717817048122060        0.0000000000000000     
   5.0739428490806718E-002  0.20537423099434660        0.0000000000000000     
   5.1181493821876478E-002  0.21364201203200692        0.0000000000000000     
   5.1562830366399554E-002  0.22198151359420146        0.0000000000000000     
   5.1883438124375951E-002  0.23039273568093027        0.0000000000000000     
   4.3656480400386097E-002  0.19705416142350474        0.0000000000000000     
   4.4085919756402879E-002  0.20526653719147731        0.0000000000000000     
   4.4462581225146867E-002  0.21354697316127541        0.0000000000000000     
   4.4786464806618062E-002  0.22189546933289919        0.0000000000000000     
   4.5057570500816477E-002  0.23031202570634848        0.0000000000000000     
   3.7181830423311281E-002  0.19694868993468498        0.0000000000000000     
   3.7541691020854202E-002  0.20517459818675227        0.0000000000000000     
   3.7856682337652325E-002  0.21346496946937388        0.0000000000000000     
   3.8126804373705643E-002  0.22181980378255001        0.0000000000000000     
   3.8352057129014162E-002  0.23023910112628057        0.0000000000000000     
   3.0812684441965811E-002  0.19686175601476130        0.0000000000000000     
   3.1106742284160684E-002  0.20509841398017148        0.0000000000000000     
   3.1363797159392845E-002  0.21339600095630235        0.0000000000000000     
   3.1583849067662283E-002  0.22175451694315398        0.0000000000000000     
   3.1766898008969008E-002  0.23017396194072631        0.0000000000000000     
   2.4549042456349694E-002  0.19679335966373371        0.0000000000000000     
   2.4781073546322335E-002  0.20503798457173497        0.0000000000000000     
   2.4983925690368433E-002  0.21334006762206079        0.0000000000000000     
   2.5157598888487998E-002  0.22169960881471107        0.0000000000000000     
   2.5302093140681020E-002  0.23011660814968588        0.0000000000000000     
   5.1883438124375951E-002  0.23039273568093027        0.0000000000000000     
   5.2151481642749263E-002  0.23886725390297073        0.0000000000000000     
   5.2375125468463117E-002  0.24739664387110027        0.0000000000000000     
   5.2554369601517499E-002  0.25598090558531883        0.0000000000000000     
   5.2689214041912409E-002  0.26462003904562637        0.0000000000000000     
   4.5057570500816477E-002  0.23031202570634848        0.0000000000000000     
   4.5284789401062252E-002  0.23878130408765191        0.0000000000000000     
   4.5477012600675534E-002  0.24728796628283770        0.0000000000000000     
   4.5634240099656345E-002  0.25583201229190600        0.0000000000000000     
   4.5756471898004664E-002  0.26441344211485662        0.0000000000000000     
   3.8352057129014162E-002  0.23023910112628057        0.0000000000000000     
   3.8541264374565898E-002  0.23870203590658301        0.0000000000000000     
   3.8703249881348864E-002  0.24718778252947510        0.0000000000000000     
   3.8838013649363061E-002  0.25569634099495664        0.0000000000000000     
   3.8945555678608482E-002  0.26422771130302763        0.0000000000000000     
   3.1766898008969008E-002  0.23017396194072631        0.0000000000000000     
   3.1920906563260215E-002  0.23862944935976418        0.0000000000000000     
   3.2053837310483085E-002  0.24709609261101226        0.0000000000000000     
   3.2165690250637632E-002  0.25557389169447065        0.0000000000000000     
   3.2256465383723842E-002  0.26406284661013935        0.0000000000000000     
   2.5302093140681020E-002  0.23011660814968588        0.0000000000000000     
   2.5423715967145190E-002  0.23856354444719530        0.0000000000000000     
   2.5528774888078209E-002  0.24701289652744934        0.0000000000000000     
   2.5617269903480063E-002  0.25546466439044813        0.0000000000000000     
   2.5689201013350760E-002  0.26391884803619164        0.0000000000000000     
   5.2689214041912409E-002  0.26462003904562637        0.0000000000000000     
   5.2810467145151252E-002  0.27326483879421548        0.0000000000000000     
   5.2948937266737425E-002  0.28186609937327867        0.0000000000000000     
   5.3104624406670922E-002  0.29042382078281603        0.0000000000000000     
   5.3277528564951757E-002  0.29893800302282741        0.0000000000000000     
   4.5756471898004664E-002  0.26441344211485662        0.0000000000000000     
   4.5867817501070253E-002  0.27298232840770481        0.0000000000000000     
   4.5992386414202842E-002  0.28148874382646538        0.0000000000000000     
   4.6130178637402451E-002  0.28993268837113845        0.0000000000000000     
   4.6281194170669074E-002  0.29831416204172390        0.0000000000000000     
   3.8945555678608482E-002  0.26422771130302763        0.0000000000000000     
   3.9044648736087803E-002  0.27273073852773155        0.0000000000000000     
   3.9154065588803737E-002  0.28115426774311170        0.0000000000000000     
   3.9273806236756262E-002  0.28949829894916795        0.0000000000000000     
   3.9403870679945378E-002  0.29776283214590044        0.0000000000000000     
   3.2256465383723842E-002  0.26406284661013935        0.0000000000000000     
   3.2340960850203930E-002  0.27251006915429571        0.0000000000000000     
   3.2433974790540096E-002  0.28086267112321750        0.0000000000000000     
   3.2535507204732347E-002  0.28912065251690450        0.0000000000000000     
   3.2645558092780684E-002  0.29728401333535692        0.0000000000000000     
   2.5689201013350760E-002  0.26391884803619164        0.0000000000000000     
   2.5756753843418616E-002  0.27232032028739733        0.0000000000000000     
   2.5832114019411937E-002  0.28061395396678285        0.0000000000000000     
   2.5915281541330725E-002  0.28879974907434824        0.0000000000000000     
   2.6006256409174987E-002  0.29687770561009341        0.0000000000000000     
   1.4020213859208479E-002   5.5782488149887413E-002   0.0000000000000000     
   1.4792152035937244E-002   6.1374390677336646E-002   0.0000000000000000     
   1.5539649882079573E-002   6.7151140349274677E-002   0.0000000000000000     
   1.6262707397635467E-002   7.3112737165701491E-002   0.0000000000000000     
   1.6961324582604926E-002   7.9259181126617090E-002   0.0000000000000000     
   1.0470938050551659E-002   5.5580822594522419E-002   0.0000000000000000     
   1.1050851474094436E-002   6.1178288243818213E-002   0.0000000000000000     
   1.1611975026393731E-002   6.6960720013660852E-002   0.0000000000000000     
   1.2154308707449542E-002   7.2928117904050321E-002   0.0000000000000000     
   1.2677852517261870E-002   7.9080481914986636E-002   0.0000000000000000     
   6.9511437822465227E-003   5.5436775770937280E-002   0.0000000000000000     
   7.3383925975436743E-003   6.1038215068236937E-002   0.0000000000000000     
   7.7128084157570814E-003   6.6824705473815318E-002   0.0000000000000000     
   8.0743912368867413E-003   7.2796246987672383E-002   0.0000000000000000     
   8.4231410609326568E-003   7.8952839609808173E-002   0.0000000000000000     
   3.4608310542930745E-003   5.5350347679131995E-002   0.0000000000000000     
   3.6547754062849595E-003   6.0954171150592824E-002   0.0000000000000000     
   3.8421500501696236E-003   6.6743096729738077E-002   0.0000000000000000     
   4.0229549859470666E-003   7.2717124416567719E-002   0.0000000000000000     
   4.1971902136172887E-003   7.8876254211081742E-002   0.0000000000000000     
  -1.3330868960798048E-010   5.5321538319106564E-002   0.0000000000000000     
  -9.9681709067600544E-011   6.0926156490885883E-002   0.0000000000000000     
  -7.0368640385162773E-011   6.6715893781429114E-002   0.0000000000000000     
  -4.5369482964355973E-011   7.2690750190736259E-002   0.0000000000000000     
  -2.4684239027794597E-011   7.8850725718807316E-002   0.0000000000000000     
   1.6961324582604926E-002   7.9259181126617090E-002   0.0000000000000000     
   1.7634958286564077E-002   8.5577554090800478E-002   0.0000000000000000     
   1.8283065359089044E-002   9.2054937917030566E-002   0.0000000000000000     
   1.8905645800179824E-002   9.8691332605307408E-002   0.0000000000000000     
   1.9502699609836433E-002  0.10548673815563098        0.0000000000000000     
   1.2677852517261870E-002   7.9080481914986636E-002   0.0000000000000000     
   1.3182519450115107E-002   8.5405053463228284E-002   0.0000000000000000     
   1.3668222500293637E-002   9.1889073965533780E-002   0.0000000000000000     
   1.4134961667797468E-002   9.8532543421903110E-002   0.0000000000000000     
   1.4582736952626591E-002  0.10533546183233632        0.0000000000000000     
   8.4231410609326568E-003   7.8952839609808173E-002   0.0000000000000000     
   8.7592134555153668E-003   8.5281838723815132E-002   0.0000000000000000     
   9.0827639882554104E-003   9.1770599713285661E-002   0.0000000000000000     
   9.3937926591527859E-003   9.8419122578219831E-002   0.0000000000000000     
   9.6922994682074916E-003  0.10522740731861761        0.0000000000000000     
   4.1971902136172887E-003   7.8876254211081742E-002   0.0000000000000000     
   4.3650403027648624E-003   8.5207909872560980E-002   0.0000000000000000     
   4.5266898229743609E-003   9.1699515160286266E-002   0.0000000000000000     
   4.6821387742457827E-003   9.8351070074257557E-002   0.0000000000000000     
   4.8313871565791311E-003  0.10516257461447490        0.0000000000000000     
  -2.4684239027794597E-011   7.8850725718807316E-002   0.0000000000000000     
  -8.1364121169713588E-012   8.5183266909465871E-002   0.0000000000000000     
   4.4504877214079919E-012   9.1675820306535538E-002   0.0000000000000000     
   1.3076462222066931E-011   9.8328385910016289E-002   0.0000000000000000     
   1.7741510517643722E-011  0.10514096371990816        0.0000000000000000     
   1.9502699609836433E-002  0.10548673815563098        0.0000000000000000     
   2.0073802661647586E-002  0.11242940430051264        0.0000000000000000     
   2.0618530829202029E-002  0.11950758077246380        0.0000000000000000     
   2.1136884112499754E-002  0.12672126757148447        0.0000000000000000     
   2.1628862511540767E-002  0.13407046469757461        0.0000000000000000     
   1.4582736952626591E-002  0.10533546183233632        0.0000000000000000     
   1.5011051986273349E-002  0.11228591399378139        0.0000000000000000     
   1.5419410400230069E-002  0.11937198470318644        0.0000000000000000     
   1.5807812194496756E-002  0.12659367396055146        0.0000000000000000     
   1.6176257369073410E-002  0.13395098176587644        0.0000000000000000     
   9.6922994682074916E-003  0.10522740731861761        0.0000000000000000     
   9.9778346540773527E-003  0.11218342092083589        0.0000000000000000     
   1.0249948455420189E-002  0.11927513037123154        0.0000000000000000     
   1.0508640872236004E-002  0.12650253566980454        0.0000000000000000     
   1.0753911904524793E-002  0.13386563681655494        0.0000000000000000     
   4.8313871565791311E-003  0.10516257461447490        0.0000000000000000     
   4.9741506650596004E-003  0.11212192508167611        0.0000000000000000     
   5.1101449947723882E-003  0.11921701777659907        0.0000000000000000     
   5.2393701457174938E-003  0.12644785269924375        0.0000000000000000     
   5.3618261178949179E-003  0.13381442984961017        0.0000000000000000     
   1.7741510517643722E-011  0.10514096371990816        0.0000000000000000     
   1.9220092531413435E-011  0.11210142647630209        0.0000000000000000     
   1.8286665150885062E-011  0.11919764691928905        0.0000000000000000     
   1.4941228376058602E-011  0.12642962504886907        0.0000000000000000     
   9.1837830742957927E-012  0.13379736086504213        0.0000000000000000     
   2.1628862511540767E-002  0.13407046469757461        0.0000000000000000     
   2.2093722002124082E-002  0.14154333541078490        0.0000000000000000     
   2.2530718560048717E-002  0.14912804297116589        0.0000000000000000     
   2.2939852185314680E-002  0.15682458737871760        0.0000000000000000     
   2.3321122877921971E-002  0.16463296863344007        0.0000000000000000     
   1.6176257369073410E-002  0.13395098176587644        0.0000000000000000     
   1.6524197608213467E-002  0.14143214979897631        0.0000000000000000     
   1.6851084596170369E-002  0.14902541973966607        0.0000000000000000     
   1.7156918332944120E-002  0.15673079158794570        0.0000000000000000     
   1.7441698818534725E-002  0.16454826534381520        0.0000000000000000     
   1.0753911904524793E-002  0.13386563681655494        0.0000000000000000     
   1.0985402477098826E-002  0.14135273150577513        0.0000000000000000     
   1.1202753514770361E-002  0.14895211743175749        0.0000000000000000     
   1.1405965017539405E-002  0.15666379459450200        0.0000000000000000     
   1.1595036985405954E-002  0.16448776299400869        0.0000000000000000     
   5.3618261178949179E-003  0.13381442984961017        0.0000000000000000     
   5.4773366087801515E-003  0.14130508053118129        0.0000000000000000     
   5.5857253158486872E-003  0.14890813604744005        0.0000000000000000     
   5.6869922391005251E-003  0.15662359639838647        0.0000000000000000     
   5.7811373785356642E-003  0.16445146158402049        0.0000000000000000     
   9.1837830742957927E-012  0.13379736086504213        0.0000000000000000     
   3.2574496485610061E-012  0.14128919687519484        0.0000000000000000     
  -5.9464998029834515E-013  0.14889347558671384        0.0000000000000000     
  -2.3725159749125868E-012  0.15661019699959908        0.0000000000000000     
  -2.0761491484333483E-012  0.16443936111385060        0.0000000000000000     
   2.3321122877921971E-002  0.16463296863344007        0.0000000000000000     
   2.3673372271282168E-002  0.17254121783156426        0.0000000000000000     
   2.3995441998806852E-002  0.18053736606932128        0.0000000000000000     
   2.4287332060496027E-002  0.18862141334671112        0.0000000000000000     
   2.4549042456349694E-002  0.19679335966373371        0.0000000000000000     
   1.7441698818534725E-002  0.16454826534381520        0.0000000000000000     
   1.7704568025627990E-002  0.17246549373226189        0.0000000000000000     
   1.7944667926909730E-002  0.18047012947827307        0.0000000000000000     
   1.8161998522379954E-002  0.18856217258184868        0.0000000000000000     
   1.8356559812038660E-002  0.19674162304298878        0.0000000000000000     
   1.1595036985405954E-002  0.16448776299400869        0.0000000000000000     
   1.1769404565042586E-002  0.17241140508991859        0.0000000000000000     
   1.1928502903121876E-002  0.18042210334187264        0.0000000000000000     
   1.2072331999643823E-002  0.18851985774987084        0.0000000000000000     
   1.2200891854608429E-002  0.19670466831391326        0.0000000000000000     
   5.7811373785356642E-003  0.16445146158402049        0.0000000000000000     
   5.8678818895259652E-003  0.17237895190453431        0.0000000000000000     
   5.9469469274432887E-003  0.18039328766012000        0.0000000000000000     
   6.0183324922876381E-003  0.18849446885077759        0.0000000000000000     
   6.0820385840590074E-003  0.19668249547650707        0.0000000000000000     
  -2.0761491484333483E-012  0.16443936111385060        0.0000000000000000     
  -9.2187672426358169E-013  0.17236813417610911        0.0000000000000000     
  -1.2602982893406001E-013  0.18038368243301517        0.0000000000000000     
   3.1139468174151697E-013  0.18848600588456890        0.0000000000000000     
   3.9039301305554552E-013  0.19667510453077017        0.0000000000000000     
   2.4549042456349694E-002  0.19679335966373371        0.0000000000000000     
   2.4781073546322335E-002  0.20503798457173497        0.0000000000000000     
   2.4983925690368433E-002  0.21334006762206079        0.0000000000000000     
   2.5157598888487998E-002  0.22169960881471107        0.0000000000000000     
   2.5302093140681020E-002  0.23011660814968588        0.0000000000000000     
   1.8356559812038660E-002  0.19674162304298878        0.0000000000000000     
   1.8528984895890884E-002  0.20499200156353045        0.0000000000000000     
   1.8679906873941683E-002  0.21329682884531062        0.0000000000000000     
   1.8809325746191045E-002  0.22165610488832929        0.0000000000000000     
   1.8917241512638981E-002  0.23006982969258644        0.0000000000000000     
   1.2200891854608429E-002  0.19670466831391326        0.0000000000000000     
   1.2314776421418084E-002  0.20495915655764552        0.0000000000000000     
   1.2414579653475180E-002  0.21326594400471335        0.0000000000000000     
   1.2500301550779714E-002  0.22162503065511654        0.0000000000000000     
   1.2571942113331689E-002  0.23003641650885537        0.0000000000000000     
   6.0820385840590074E-003  0.19668249547650707        0.0000000000000000     
   6.1384481229039287E-003  0.20493944955408019        0.0000000000000000     
   6.1879440289689261E-003  0.21324741310026887        0.0000000000000000     
   6.2305263022539997E-003  0.22160638611507300        0.0000000000000000     
   6.2661949427591504E-003  0.23001636859849270        0.0000000000000000     
   3.9039301305554552E-013  0.19667510453077017        0.0000000000000000     
   3.4841725858603123E-013  0.20493288055283448        0.0000000000000000     
   4.2292102979402113E-013  0.21324123613197726        0.0000000000000000     
   6.1390145354375814E-013  0.22160017126819856        0.0000000000000000     
   9.2135977666774060E-013  0.23000968596149826        0.0000000000000000     
   2.5302093140681020E-002  0.23011660814968588        0.0000000000000000     
   2.5423715967145190E-002  0.23856354444719530        0.0000000000000000     
   2.5528774888078209E-002  0.24701289652744934        0.0000000000000000     
   2.5617269903480063E-002  0.25546466439044813        0.0000000000000000     
   2.5689201013350760E-002  0.26391884803619164        0.0000000000000000     
   1.8917241512638981E-002  0.23006982969258644        0.0000000000000000     
   1.9008028477886438E-002  0.23850880086364454        0.0000000000000000     
   1.9086060946534394E-002  0.24694381600706589        0.0000000000000000     
   1.9151338918582839E-002  0.25537487512285051        0.0000000000000000     
   1.9203862394031778E-002  0.26380197821099838        0.0000000000000000     
   1.2571942113331689E-002  0.23003641650885537        0.0000000000000000     
   1.2632179987149569E-002  0.23846969830388021        0.0000000000000000     
   1.2683693818251818E-002  0.24689447277814144        0.0000000000000000     
   1.2726483606638445E-002  0.25531073993163916        0.0000000000000000     
   1.2760549352309438E-002  0.26371849976437334        0.0000000000000000     
   6.2661949427591504E-003  0.23001636859849270        0.0000000000000000     
   6.2961704949345771E-003  0.23844623676790216        0.0000000000000000     
   6.3216735032304858E-003  0.24686486684067602        0.0000000000000000     
   6.3427039676468731E-003  0.25527225881681409        0.0000000000000000     
   6.3592618881837416E-003  0.26366841269631647        0.0000000000000000     
   9.2135977666774060E-013  0.23000968596149826        0.0000000000000000     
   1.2414665649662648E-012  0.23843841625571055        0.0000000000000000     
   1.4703885895320234E-012  0.24685499819466961        0.0000000000000000     
   1.6081295637574572E-012  0.25525943177837535        0.0000000000000000     
   1.6546855031995822E-012  0.26365171700682782        0.0000000000000000     
   2.5689201013350760E-002  0.26391884803619164        0.0000000000000000     
   2.5756753843418616E-002  0.27232032028739733        0.0000000000000000     
   2.5832114019411937E-002  0.28061395396678285        0.0000000000000000     
   2.5915281541330725E-002  0.28879974907434824        0.0000000000000000     
   2.6006256409174987E-002  0.29687770561009341        0.0000000000000000     
   1.9203862394031778E-002  0.26380197821099838        0.0000000000000000     
   1.9253606802882479E-002  0.27216781775044885        0.0000000000000000     
   1.9310547575136214E-002  0.28041508622014127        0.0000000000000000     
   1.9374684710792987E-002  0.28854378362007577        0.0000000000000000     
   1.9446018209852790E-002  0.29655390995025216        0.0000000000000000     
   1.2760549352309438E-002  0.26371849976437334        0.0000000000000000     
   1.2793098815746145E-002  0.27205888736686273        0.0000000000000000     
   1.2831339757429908E-002  0.28027303782962620        0.0000000000000000     
   1.2875272177360727E-002  0.28836095115266380        0.0000000000000000     
   1.2924896075538601E-002  0.29632262733597536        0.0000000000000000     
   6.3592618881837416E-003  0.26366841269631647        0.0000000000000000     
   6.3752298820096134E-003  0.27199352913663905        0.0000000000000000     
   6.3944905662930160E-003  0.28018780879523769        0.0000000000000000     
   6.4170439410339486E-003  0.28825125167211219        0.0000000000000000     
   6.4428900062324154E-003  0.29618385776726291        0.0000000000000000     
   1.6546855031995822E-012  0.26365171700682782        0.0000000000000000     
   1.6728821019412754E-012  0.27197174305977767        0.0000000000000000     
   1.7255383320119444E-012  0.28015939911697540        0.0000000000000000     
   1.8126553318238703E-012  0.28821468517842119        0.0000000000000000     
   1.9342340229488997E-012  0.29613760124411487        0.0000000000000000     
  -1.3330868960798048E-010   5.5321538319106564E-002   0.0000000000000000     
  -9.9681709067600544E-011   6.0926156490885883E-002   0.0000000000000000     
  -7.0368640385162773E-011   6.6715893781429114E-002   0.0000000000000000     
  -4.5369482964355973E-011   7.2690750190736259E-002   0.0000000000000000     
  -2.4684239027794597E-011   7.8850725718807316E-002   0.0000000000000000     
  -3.4608313107373271E-003   5.5350347686533630E-002   0.0000000000000000     
  -3.6547755946330306E-003   6.0954171101071465E-002   0.0000000000000000     
  -3.8421501805250163E-003   6.6743096649618028E-002   0.0000000000000000     
  -4.0229550684132863E-003   7.2717124332173283E-002   0.0000000000000000     
  -4.1971902582978397E-003   7.8876254148737279E-002   0.0000000000000000     
  -6.9511440081713987E-003   5.5436775777085820E-002   0.0000000000000000     
  -7.3383927528457016E-003   6.1038214993104925E-002   0.0000000000000000     
  -7.7128085149668077E-003   6.6824705355034333E-002   0.0000000000000000     
  -8.0743912945347180E-003   7.2796246862874003E-002   0.0000000000000000     
  -8.4231410915494315E-003   7.8952839516623977E-002   0.0000000000000000     
  -1.0470938225610902E-002   5.5580822590763149E-002   0.0000000000000000     
  -1.1050851574319726E-002   6.1178288166986297E-002   0.0000000000000000     
  -1.1611975073694016E-002   6.6960719897678073E-002   0.0000000000000000     
  -1.2154308723733779E-002   7.2928117782838434E-002   0.0000000000000000     
  -1.2677852524439013E-002   7.9080481822467408E-002   0.0000000000000000     
  -1.4020213963055840E-002   5.5782488127565602E-002   0.0000000000000000     
  -1.4792152059055100E-002   6.1374390622715561E-002   0.0000000000000000     
  -1.5539649856706644E-002   6.7151140277549218E-002   0.0000000000000000     
  -1.6262707356010472E-002   7.3112737092066546E-002   0.0000000000000000     
  -1.6961324556966584E-002   7.9259181066267559E-002   0.0000000000000000     
  -2.4684239027794597E-011   7.8850725718807316E-002   0.0000000000000000     
  -8.1364121169713588E-012   8.5183266909465871E-002   0.0000000000000000     
   4.4504877214079919E-012   9.1675820306535538E-002   0.0000000000000000     
   1.3076462222066931E-011   9.8328385910016289E-002   0.0000000000000000     
   1.7741510517643722E-011  0.10514096371990816        0.0000000000000000     
  -4.1971902582978397E-003   7.8876254148737279E-002   0.0000000000000000     
  -4.3650403180406716E-003   8.5207909841564677E-002   0.0000000000000000     
  -4.5266898155037778E-003   9.1699515152910194E-002   0.0000000000000000     
  -4.6821387506871554E-003   9.8351070082773828E-002   0.0000000000000000     
  -4.8313871235908055E-003  0.10516257463115555        0.0000000000000000     
  -8.4231410915494315E-003   7.8952839516623977E-002   0.0000000000000000     
  -8.7592134678001303E-003   8.5281838675892258E-002   0.0000000000000000     
  -9.0827639850760023E-003   9.1770599700286920E-002   0.0000000000000000     
  -9.3937926433770441E-003   9.8419122589807936E-002   0.0000000000000000     
  -9.6922994427032540E-003  0.10522740734445531        0.0000000000000000     
  -1.2677852524439013E-002   7.9080481822467408E-002   0.0000000000000000     
  -1.3182519457414789E-002   8.5405053412448612E-002   0.0000000000000000     
  -1.3668222504266187E-002   9.1889073948665675E-002   0.0000000000000000     
  -1.4134961664993203E-002   9.8532543431118599E-002   0.0000000000000000     
  -1.4582736939595836E-002  0.10533546185980738        0.0000000000000000     
  -1.6961324556966584E-002   7.9259181066267559E-002   0.0000000000000000     
  -1.7634958286884654E-002   8.5577554051233726E-002   0.0000000000000000     
  -1.8283065373074333E-002   9.2054937898046502E-002   0.0000000000000000     
  -1.8905645815535634E-002   9.8691332606705845E-002   0.0000000000000000     
  -1.9502699614268551E-002  0.10548673817721177        0.0000000000000000     
   1.7741510517643722E-011  0.10514096371990816        0.0000000000000000     
   1.9220092531413435E-011  0.11210142647630209        0.0000000000000000     
   1.8286665150885062E-011  0.11919764691928905        0.0000000000000000     
   1.4941228376058602E-011  0.12642962504886907        0.0000000000000000     
   9.1837830742957927E-012  0.13379736086504213        0.0000000000000000     
  -4.8313871235908055E-003  0.10516257463115555        0.0000000000000000     
  -4.9741506283959135E-003  0.11212192510125110        0.0000000000000000     
  -5.1101449592836634E-003  0.11921701779625611        0.0000000000000000     
  -5.2393701162540517E-003  0.12644785271617065        0.0000000000000000     
  -5.3618260993070835E-003  0.13381442986099462        0.0000000000000000     
  -9.6922994427032540E-003  0.10522740734445531        0.0000000000000000     
  -9.9778346227431588E-003  0.11218342095306048        0.0000000000000000     
  -1.0249948423185273E-002  0.11927513040445493        0.0000000000000000     
  -1.0508640844029603E-002  0.12650253569863865        0.0000000000000000     
  -1.0753911885276145E-002  0.13386563683561159        0.0000000000000000     
  -1.4582736939595836E-002  0.10533546185980738        0.0000000000000000     
  -1.5011051963821642E-002  0.11228591403173024        0.0000000000000000     
  -1.5419410373418171E-002  0.11937198474388548        0.0000000000000000     
  -1.5807812168385428E-002  0.12659367399627308        0.0000000000000000     
  -1.6176257348723407E-002  0.13395098178889300        0.0000000000000000     
  -1.9502699614268551E-002  0.10548673817721177        0.0000000000000000     
  -2.0073802651631365E-002  0.11242940433726038        0.0000000000000000     
  -2.0618530809982355E-002  0.11950758081454776        0.0000000000000000     
  -2.1136884089321527E-002  0.12672126760907390        0.0000000000000000     
  -2.1628862489648872E-002  0.13407046472083881        0.0000000000000000     
   9.1837830742957927E-012  0.13379736086504213        0.0000000000000000     
   3.2574496485610061E-012  0.14128919687519484        0.0000000000000000     
  -5.9464998029834515E-013  0.14889347558671384        0.0000000000000000     
  -2.3725159749125868E-012  0.15661019699959908        0.0000000000000000     
  -2.0761491484333483E-012  0.16443936111385060        0.0000000000000000     
  -5.3618260993070835E-003  0.13381442986099462        0.0000000000000000     
  -5.4773366015474093E-003  0.14130508053659518        0.0000000000000000     
  -5.5857253160796995E-003  0.14890813604883935        0.0000000000000000     
  -5.6869922429039462E-003  0.15662359639772708        0.0000000000000000     
  -5.7811373820201521E-003  0.16445146158325846        0.0000000000000000     
  -1.0753911885276145E-002  0.13386563683561159        0.0000000000000000     
  -1.0985402467712561E-002  0.14135273151416178        0.0000000000000000     
  -1.1202753512126511E-002  0.14895211743307715        0.0000000000000000     
  -1.1405965018517995E-002  0.15666379459235771        0.0000000000000000     
  -1.1595036986887018E-002  0.16448776299200341        0.0000000000000000     
  -1.6176257348723407E-002  0.13395098178889300        0.0000000000000000     
  -1.6524197595237999E-002  0.14143214980789456        0.0000000000000000     
  -1.6851084588735084E-002  0.14902541973942723        0.0000000000000000     
  -1.7156918329214670E-002  0.15673079158349087        0.0000000000000000     
  -1.7441698816676742E-002  0.16454826534008554        0.0000000000000000     
  -2.1628862489648872E-002  0.13407046472083881        0.0000000000000000     
  -2.2093721984123720E-002  0.14154333541779365        0.0000000000000000     
  -2.2530718545905420E-002  0.14912804296788959        0.0000000000000000     
  -2.2939852174993957E-002  0.15682458737112659        0.0000000000000000     
  -2.3321122871389332E-002  0.16463296862750471        0.0000000000000000     
  -2.0761491484333483E-012  0.16443936111385060        0.0000000000000000     
  -9.2187672426358169E-013  0.17236813417610911        0.0000000000000000     
  -1.2602982893406001E-013  0.18038368243301517        0.0000000000000000     
   3.1139468174151697E-013  0.18848600588456890        0.0000000000000000     
   3.9039301305554552E-013  0.19667510453077017        0.0000000000000000     
  -5.7811373820201521E-003  0.16445146158325846        0.0000000000000000     
  -5.8678818910427267E-003  0.17237895190448710        0.0000000000000000     
  -5.9469469275860755E-003  0.18039328766046669        0.0000000000000000     
  -6.0183324916502018E-003  0.18849446885119722        0.0000000000000000     
  -6.0820385832351049E-003  0.19668249547667874        0.0000000000000000     
  -1.1595036986887018E-002  0.16448776299200341        0.0000000000000000     
  -1.1769404565578368E-002  0.17241140508951250        0.0000000000000000     
  -1.1928502902936847E-002  0.18042210334238321        0.0000000000000000     
  -1.2072331998962450E-002  0.18851985775061525        0.0000000000000000     
  -1.2200891853655185E-002  0.19670466831420891        0.0000000000000000     
  -1.7441698816676742E-002  0.16454826534008554        0.0000000000000000     
  -1.7704568024528806E-002  0.17246549373118533        0.0000000000000000     
  -1.7944667926178343E-002  0.18047012947876445        0.0000000000000000     
  -1.8161998521625353E-002  0.18856217258282290        0.0000000000000000     
  -1.8356559810869835E-002  0.19674162304336065        0.0000000000000000     
  -2.3321122871389332E-002  0.16463296862750471        0.0000000000000000     
  -2.3673372267894042E-002  0.17254121782950554        0.0000000000000000     
  -2.3995441997310563E-002  0.18053736606961071        0.0000000000000000     
  -2.4287332059638907E-002  0.18862141334782018        0.0000000000000000     
  -2.4549042454879069E-002  0.19679335966413400        0.0000000000000000     
   3.9039301305554552E-013  0.19667510453077017        0.0000000000000000     
   3.4841725858603123E-013  0.20493288055283448        0.0000000000000000     
   4.2292102979402113E-013  0.21324123613197726        0.0000000000000000     
   6.1390145354375814E-013  0.22160017126819856        0.0000000000000000     
   9.2135977666774060E-013  0.23000968596149826        0.0000000000000000     
  -6.0820385832351049E-003  0.19668249547667874        0.0000000000000000     
  -6.1384481220924554E-003  0.20493944955389842        0.0000000000000000     
  -6.1879440279739148E-003  0.21324741309984352        0.0000000000000000     
  -6.2305263008794829E-003  0.22160638611451403        0.0000000000000000     
  -6.2661949408091642E-003  0.23001636859790991        0.0000000000000000     
  -1.2200891853655185E-002  0.19670466831420891        0.0000000000000000     
  -1.2314776420262701E-002  0.20495915655726199        0.0000000000000000     
  -1.2414579652032659E-002  0.21326594400387247        0.0000000000000000     
  -1.2500301548965064E-002  0.22162503065404029        0.0000000000000000     
  -1.2571942111059907E-002  0.23003641650776549        0.0000000000000000     
  -1.8356559810869835E-002  0.19674162304336065        0.0000000000000000     
  -1.8528984894162319E-002  0.20499200156292519        0.0000000000000000     
  -1.8679906871753311E-002  0.21329682884406412        0.0000000000000000     
  -1.8809325743642837E-002  0.22165610488677731        0.0000000000000000     
  -1.8917241509830870E-002  0.23006982969106490        0.0000000000000000     
  -2.4549042454879069E-002  0.19679335966413400        0.0000000000000000     
  -2.4781073543791304E-002  0.20503798457088809        0.0000000000000000     
  -2.4983925687135883E-002  0.21334006762041849        0.0000000000000000     
  -2.5157598884912796E-002  0.22169960881272521        0.0000000000000000     
  -2.5302093137122051E-002  0.23011660814780815        0.0000000000000000     
   9.2135977666774060E-013  0.23000968596149826        0.0000000000000000     
   1.2414665649662648E-012  0.23843841625571055        0.0000000000000000     
   1.4703885895320234E-012  0.24685499819466961        0.0000000000000000     
   1.6081295637574572E-012  0.25525943177837535        0.0000000000000000     
   1.6546855031995822E-012  0.26365171700682782        0.0000000000000000     
  -6.2661949408091642E-003  0.23001636859790991        0.0000000000000000     
  -6.2961704923927345E-003  0.23844623676735432        0.0000000000000000     
  -6.3216735002599731E-003  0.24686486684017028        0.0000000000000000     
  -6.3427039644108783E-003  0.25527225881635779        0.0000000000000000     
  -6.3592618848454510E-003  0.26366841269591679        0.0000000000000000     
  -1.2571942111059907E-002  0.23003641650776549        0.0000000000000000     
  -1.2632179984430987E-002  0.23846969830288262        0.0000000000000000     
  -1.2683693815192099E-002  0.24689447277722620        0.0000000000000000     
  -1.2726483603343233E-002  0.25531073993079623        0.0000000000000000     
  -1.2760549348884400E-002  0.26371849976359274        0.0000000000000000     
  -1.8917241509830870E-002  0.23006982969106490        0.0000000000000000     
  -1.9008028474873293E-002  0.23850880086229537        0.0000000000000000     
  -1.9086060943325982E-002  0.24694381600583731        0.0000000000000000     
  -1.9151338915188939E-002  0.25537487512169077        0.0000000000000000     
  -1.9203862390462158E-002  0.26380197820985563        0.0000000000000000     
  -2.5302093137122051E-002  0.23011660814780815        0.0000000000000000     
  -2.5423715963719659E-002  0.23856354444559258        0.0000000000000000     
  -2.5528774884661640E-002  0.24701289652600364        0.0000000000000000     
  -2.5617269899947996E-002  0.25546466438904131        0.0000000000000000     
  -2.5689201009578725E-002  0.26391884803470561        0.0000000000000000     
   1.6546855031995822E-012  0.26365171700682782        0.0000000000000000     
   1.6728821019412754E-012  0.27197174305977767        0.0000000000000000     
   1.7255383320119444E-012  0.28015939911697540        0.0000000000000000     
   1.8126553318238703E-012  0.28821468517842119        0.0000000000000000     
   1.9342340229488997E-012  0.29613760124411487        0.0000000000000000     
  -6.3592618848454510E-003  0.26366841269591679        0.0000000000000000     
  -6.3752298786204581E-003  0.27199352913626645        0.0000000000000000     
  -6.3944905627926606E-003  0.28018780879482574        0.0000000000000000     
  -6.4170439373620602E-003  0.28825125167159482        0.0000000000000000     
  -6.4428900023286578E-003  0.29618385776657352        0.0000000000000000     
  -1.2760549348884400E-002  0.26371849976359274        0.0000000000000000     
  -1.2793098812226820E-002  0.27205888736609307        0.0000000000000000     
  -1.2831339753781722E-002  0.28027303782877455        0.0000000000000000     
  -1.2875272173549106E-002  0.28836095115163723        0.0000000000000000     
  -1.2924896071528975E-002  0.29632262733468118        0.0000000000000000     
  -1.9203862390462158E-002  0.26380197820985563        0.0000000000000000     
  -1.9253606799146204E-002  0.27216781774925758        0.0000000000000000     
  -1.9310547571241645E-002  0.28041508621882189        0.0000000000000000     
  -1.9374684706748489E-002  0.28854378361854865        0.0000000000000000     
  -1.9446018205666719E-002  0.29655390994843772        0.0000000000000000     
  -2.5689201009578725E-002  0.26391884803470561        0.0000000000000000     
  -2.5756753839378609E-002  0.27232032028575992        0.0000000000000000     
  -2.5832114015172429E-002  0.28061395396496763        0.0000000000000000     
  -2.5915281536960186E-002  0.28879974907232875        0.0000000000000000     
  -2.6006256404741888E-002  0.29687770560784321        0.0000000000000000     
  -1.4020213963055840E-002   5.5782488127565602E-002   0.0000000000000000     
  -1.4792152059055100E-002   6.1374390622715561E-002   0.0000000000000000     
  -1.5539649856706644E-002   6.7151140277549218E-002   0.0000000000000000     
  -1.6262707356010472E-002   7.3112737092066546E-002   0.0000000000000000     
  -1.6961324556966584E-002   7.9259181066267559E-002   0.0000000000000000     
  -1.7627390806794634E-002   5.6042194917283933E-002   0.0000000000000000     
  -1.8591459098003318E-002   6.1627219141499920E-002   0.0000000000000000     
  -1.9525376584714087E-002   6.7396762624573323E-002   0.0000000000000000     
  -2.0429143266926950E-002   7.3350825366504155E-002   0.0000000000000000     
  -2.1302759144641904E-002   7.9489407367292417E-002   0.0000000000000000     
  -2.1320888343115720E-002   5.6360365489708852E-002   0.0000000000000000     
  -2.2477937582115866E-002   6.1937470504546531E-002   0.0000000000000000     
  -2.3598698978425748E-002   6.7698383068675941E-002   0.0000000000000000     
  -2.4683172532045359E-002   7.3643103182097061E-002   0.0000000000000000     
  -2.5731358242974713E-002   7.9771630844809913E-002   0.0000000000000000     
  -2.5100706572019092E-002   5.6736999844840395E-002   0.0000000000000000     
  -2.6451587511392753E-002   6.2305144711855436E-002   0.0000000000000000     
  -2.7759617037841623E-002   6.8056001609857059E-002   0.0000000000000000     
  -2.9024795151365711E-002   7.3989570538845251E-002   0.0000000000000000     
  -3.0247121851965014E-002   8.0105851498820019E-002   0.0000000000000000     
  -2.8966845493504742E-002   5.7172097982678534E-002   0.0000000000000000     
  -3.0512408885833970E-002   6.2730241763426620E-002   0.0000000000000000     
  -3.2008130762961724E-002   6.8469618248116676E-002   0.0000000000000000     
  -3.3454011124888001E-002   7.4390227436748724E-002   0.0000000000000000     
  -3.4850049971612812E-002   8.0492069329322749E-002   0.0000000000000000     
  -1.6961324556966584E-002   7.9259181066267559E-002   0.0000000000000000     
  -1.7634958286884654E-002   8.5577554051233726E-002   0.0000000000000000     
  -1.8283065373074333E-002   9.2054937898046502E-002   0.0000000000000000     
  -1.8905645815535634E-002   9.8691332606705845E-002   0.0000000000000000     
  -1.9502699614268551E-002  0.10548673817721177        0.0000000000000000     
  -2.1302759144641904E-002   7.9489407367292417E-002   0.0000000000000000     
  -2.2145285304724923E-002   8.5799548015451366E-002   0.0000000000000000     
  -2.2955782834042003E-002   9.2268286699494259E-002   0.0000000000000000     
  -2.3734251732593144E-002   9.8895623419421083E-002   0.0000000000000000     
  -2.4480692000378335E-002  0.10568155817523182        0.0000000000000000     
  -2.5731358242974713E-002   7.9771630844809913E-002   0.0000000000000000     
  -2.6742255859450836E-002   8.6071242728305256E-002   0.0000000000000000     
  -2.7714865129710782E-002   9.2529215504073864E-002   0.0000000000000000     
  -2.8649186053754546E-002   9.9145549172115724E-002   0.0000000000000000     
  -2.9545218631582132E-002  0.10592024373243089        0.0000000000000000     
  -3.0247121851965014E-002   8.0105851498820019E-002   0.0000000000000000     
  -3.1425869951062377E-002   8.6392638189795368E-002   0.0000000000000000     
  -3.2560312260080645E-002   9.2837724311785302E-002   0.0000000000000000     
  -3.3650448779019841E-002   9.9441109864789795E-002   0.0000000000000000     
  -3.4696279507879943E-002  0.10620279484880890        0.0000000000000000     
  -3.4850049971612812E-002   8.0492069329322749E-002   0.0000000000000000     
  -3.6196127579559548E-002   8.6763734399921688E-002   0.0000000000000000     
  -3.7492124225151614E-002   9.3193813122628533E-002   0.0000000000000000     
  -3.8738039908389026E-002   9.9782305497443269E-002   0.0000000000000000     
  -3.9933874629271768E-002  0.10652921152436590        0.0000000000000000     
  -1.9502699614268551E-002  0.10548673817721177        0.0000000000000000     
  -2.0073802651631365E-002  0.11242940433726038        0.0000000000000000     
  -2.0618530809982355E-002  0.11950758081454776        0.0000000000000000     
  -2.1136884089321527E-002  0.12672126760907390        0.0000000000000000     
  -2.1628862489648872E-002  0.13407046472083881        0.0000000000000000     
  -2.4480692000378335E-002  0.10568155817523182        0.0000000000000000     
  -2.5194783356389833E-002  0.11261445788841792        0.0000000000000000     
  -2.5876205519619905E-002  0.11968268948047071        0.0000000000000000     
  -2.6524958490068536E-002  0.12688625295139022        0.0000000000000000     
  -2.7141042267735737E-002  0.13422514830117646        0.0000000000000000     
  -2.9545218631582132E-002  0.10592024373243089        0.0000000000000000     
  -3.0402690748314573E-002  0.11284164070396986        0.0000000000000000     
  -3.1221330289072900E-002  0.11989808160568327        0.0000000000000000     
  -3.2001137253857115E-002  0.12708956643757108        0.0000000000000000     
  -3.2742111642667215E-002  0.13441609519963332        0.0000000000000000     
  -3.4696279507879943E-002  0.10620279484880890        0.0000000000000000     
  -3.5697524827405576E-002  0.11311095278391622        0.0000000000000000     
  -3.6653905118341344E-002  0.12015375719018544        0.0000000000000000     
  -3.7565420380687248E-002  0.12733120806761647        0.0000000000000000     
  -3.8432070614443301E-002  0.13464330541620936        0.0000000000000000     
  -3.9933874629271768E-002  0.10652921152436590        0.0000000000000000     
  -4.1079285593662827E-002  0.11342239412825701        0.0000000000000000     
  -4.2173930007425225E-002  0.12044971623397718        0.0000000000000000     
  -4.3217807870558948E-002  0.12761117784152640        0.0000000000000000     
  -4.4210919183064010E-002  0.13490677895090464        0.0000000000000000     
  -2.1628862489648872E-002  0.13407046472083881        0.0000000000000000     
  -2.2093721984123720E-002  0.14154333541779365        0.0000000000000000     
  -2.2530718545905420E-002  0.14912804296788959        0.0000000000000000     
  -2.2939852174993957E-002  0.15682458737112659        0.0000000000000000     
  -2.3321122871389332E-002  0.16463296862750471        0.0000000000000000     
  -2.7141042267735737E-002  0.13422514830117646        0.0000000000000000     
  -2.7723542337669712E-002  0.14168748624856833        0.0000000000000000     
  -2.8271544184918677E-002  0.14926137751230484        0.0000000000000000     
  -2.8785047809482638E-002  0.15694682209238592        0.0000000000000000     
  -2.9264053211361597E-002  0.16474381998881163        0.0000000000000000     
  -3.2742111642667215E-002  0.13441609519963332        0.0000000000000000     
  -3.3443225359175953E-002  0.14186580020492812        0.0000000000000000     
  -3.4103450307056041E-002  0.14942681376651365        0.0000000000000000     
  -3.4722786486307514E-002  0.15709913588438987        0.0000000000000000     
  -3.5301233896930344E-002  0.16488276655855688        0.0000000000000000     
  -3.8432070614443301E-002  0.13464330541620936        0.0000000000000000     
  -3.9252771048642415E-002  0.14207827728687292        0.0000000000000000     
  -4.0026436912317505E-002  0.14962435173051594        0.0000000000000000     
  -4.0753068205468555E-002  0.15728152874713844        0.0000000000000000     
  -4.1432664928095594E-002  0.16504980833674043        0.0000000000000000     
  -4.4210919183064010E-002  0.13490677895090464        0.0000000000000000     
  -4.5152179406069130E-002  0.14232491749440285        0.0000000000000000     
  -4.6040504000703059E-002  0.14985399140431185        0.0000000000000000     
  -4.6875892966965781E-002  0.15749400068063166        0.0000000000000000     
  -4.7658346304857324E-002  0.16524494532336229        0.0000000000000000     
  -2.3321122871389332E-002  0.16463296862750471        0.0000000000000000     
  -2.3673372267894042E-002  0.17254121782950554        0.0000000000000000     
  -2.3995441997310563E-002  0.18053736606961071        0.0000000000000000     
  -2.4287332059638907E-002  0.18862141334782018        0.0000000000000000     
  -2.4549042454879069E-002  0.19679335966413400        0.0000000000000000     
  -2.9264053211361597E-002  0.16474381998881163        0.0000000000000000     
  -2.9707159881064957E-002  0.17264077190639368        0.0000000000000000     
  -3.0112967309102141E-002  0.18062607854994397        0.0000000000000000     
  -3.0481475495473153E-002  0.18869973991946237        0.0000000000000000     
  -3.0812684440177984E-002  0.19686175601494893        0.0000000000000000     
  -3.5301233896930344E-002  0.16488276655855688        0.0000000000000000     
  -3.5837273449432452E-002  0.17276635048377043        0.0000000000000000     
  -3.6329386054321712E-002  0.18073853235478635        0.0000000000000000     
  -3.6777571711598137E-002  0.18879931217160473        0.0000000000000000     
  -3.7181830421261705E-002  0.19694868993422551        0.0000000000000000     
  -4.1432664928095594E-002  0.16504980833674043        0.0000000000000000     
  -4.2063712972996520E-002  0.17291795356163564        0.0000000000000000     
  -4.2644698232969271E-002  0.18087472748413791        0.0000000000000000     
  -4.3175620708013847E-002  0.18892013010424730        0.0000000000000000     
  -4.3656480398130248E-002  0.19705416142196372        0.0000000000000000     
  -4.7658346304857324E-002  0.16524494532336229        0.0000000000000000     
  -4.8386478451757170E-002  0.17309558113998935        0.0000000000000000     
  -4.9058903845044827E-002  0.18103466393799864        0.0000000000000000     
  -4.9675622484720301E-002  0.18906219371739003        0.0000000000000000     
  -5.0236634370783573E-002  0.19717817047816355        0.0000000000000000     
  -2.4549042454879069E-002  0.19679335966413400        0.0000000000000000     
  -2.4781073543791304E-002  0.20503798457088809        0.0000000000000000     
  -2.4983925687135883E-002  0.21334006762041849        0.0000000000000000     
  -2.5157598884912796E-002  0.22169960881272521        0.0000000000000000     
  -2.5302093137122051E-002  0.23011660814780815        0.0000000000000000     
  -3.0812684440177984E-002  0.19686175601494893        0.0000000000000000     
  -3.1106742280861042E-002  0.20509841397902856        0.0000000000000000     
  -3.1363797155166732E-002  0.21339600095432615        0.0000000000000000     
  -3.1583849063095033E-002  0.22175451694084172        0.0000000000000000     
  -3.1766898004645966E-002  0.23017396193857520        0.0000000000000000     
  -3.7181830421261705E-002  0.19694868993422551        0.0000000000000000     
  -3.7541691017082920E-002  0.20517459818522452        0.0000000000000000     
  -3.7856682332832223E-002  0.21346496946717763        0.0000000000000000     
  -3.8126804368509612E-002  0.22181980378008478        0.0000000000000000     
  -3.8352057124115116E-002  0.23023910112394608        0.0000000000000000     
  -4.3656480398130248E-002  0.19705416142196372        0.0000000000000000     
  -4.4085919752456924E-002  0.20526653718947599        0.0000000000000000     
  -4.4462581220132365E-002  0.21354697315897292        0.0000000000000000     
  -4.4786464801156563E-002  0.22189546933045448        0.0000000000000000     
  -4.5057570495529511E-002  0.23031202570392068        0.0000000000000000     
  -5.0236634370783573E-002  0.19717817047816355        0.0000000000000000     
  -5.0739428486983061E-002  0.20537423099178304        0.0000000000000000     
  -5.1181493817067159E-002  0.21364201202971209        0.0000000000000000     
  -5.1562830361035851E-002  0.22198151359195079        0.0000000000000000     
  -5.1883438118889152E-002  0.23039273567849908        0.0000000000000000     
  -2.5302093137122051E-002  0.23011660814780815        0.0000000000000000     
  -2.5423715963719659E-002  0.23856354444559258        0.0000000000000000     
  -2.5528774884661640E-002  0.24701289652600364        0.0000000000000000     
  -2.5617269899947996E-002  0.25546466438904131        0.0000000000000000     
  -2.5689201009578725E-002  0.26391884803470561        0.0000000000000000     
  -3.1766898004645966E-002  0.23017396193857520        0.0000000000000000     
  -3.1920906559356192E-002  0.23862944935794053        0.0000000000000000     
  -3.2053837306762409E-002  0.24709609260935150        0.0000000000000000     
  -3.2165690246864609E-002  0.25557389169280814        0.0000000000000000     
  -3.2256465379662799E-002  0.26406284660831048        0.0000000000000000     
  -3.8352057124115116E-002  0.23023910112394608        0.0000000000000000     
  -3.8541264370169019E-002  0.23870203590450553        0.0000000000000000     
  -3.8703249877191655E-002  0.24718778252750739        0.0000000000000000     
  -3.8838013645182995E-002  0.25569634099295158        0.0000000000000000     
  -3.8945555674143074E-002  0.26422771130083822        0.0000000000000000     
  -4.5057570495529511E-002  0.23031202570392068        0.0000000000000000     
  -4.5284789396158140E-002  0.23878130408528755        0.0000000000000000     
  -4.5477012595949357E-002  0.24728796628047123        0.0000000000000000     
  -4.5634240094903161E-002  0.25583201228947161        0.0000000000000000     
  -4.5756471893019554E-002  0.26441344211228884        0.0000000000000000     
  -5.1883438118889152E-002  0.23039273567849908        0.0000000000000000     
  -5.2151481637323555E-002  0.23886725390028662        0.0000000000000000     
  -5.2375125463035528E-002  0.24739664386824300        0.0000000000000000     
  -5.2554369596025094E-002  0.25598090558236819        0.0000000000000000     
  -5.2689214036292231E-002  0.26462003904266229        0.0000000000000000     
  -2.5689201009578725E-002  0.26391884803470561        0.0000000000000000     
  -2.5756753839378609E-002  0.27232032028575992        0.0000000000000000     
  -2.5832114015172429E-002  0.28061395396496763        0.0000000000000000     
  -2.5915281536960186E-002  0.28879974907232875        0.0000000000000000     
  -2.6006256404741888E-002  0.29687770560784321        0.0000000000000000     
  -3.2256465379662799E-002  0.26406284660831048        0.0000000000000000     
  -3.2340960845795311E-002  0.27251006915222897        0.0000000000000000     
  -3.2433974785900509E-002  0.28086267112093427        0.0000000000000000     
  -3.2535507199978386E-002  0.28912065251442631        0.0000000000000000     
  -3.2645558088028950E-002  0.29728401333270521        0.0000000000000000     
  -3.8945555674143074E-002  0.26422771130083822        0.0000000000000000     
  -3.9044648731267610E-002  0.27273073852529361        0.0000000000000000     
  -3.9154065583752326E-002  0.28115426774044422        0.0000000000000000     
  -3.9273806231597257E-002  0.28949829894629009        0.0000000000000000     
  -3.9403870674802374E-002  0.29776283214283111        0.0000000000000000     
  -4.5756471893019554E-002  0.26441344211228884        0.0000000000000000     
  -4.5867817495795486E-002  0.27298232840495373        0.0000000000000000     
  -4.5992386408727881E-002  0.28148874382349737        0.0000000000000000     
  -4.6130178631816773E-002  0.28993268836791986        0.0000000000000000     
  -4.6281194165062156E-002  0.29831416203822098        0.0000000000000000     
  -5.2689214036292231E-002  0.26462003904266229        0.0000000000000000     
  -5.2810467139378939E-002  0.27326483879120944        0.0000000000000000     
  -5.2948937260827188E-002  0.28186609937009388        0.0000000000000000     
  -5.3104624400636971E-002  0.29042382077931561        0.0000000000000000     
  -5.3277528558808296E-002  0.29893800301887474        0.0000000000000000     
  -2.8966845493504742E-002   5.7172097982678534E-002   0.0000000000000000     
  -3.0512408885833970E-002   6.2730241763426620E-002   0.0000000000000000     
  -3.2008130762961724E-002   6.8469618248116676E-002   0.0000000000000000     
  -3.3454011124888001E-002   7.4390227436748724E-002   0.0000000000000000     
  -3.4850049971612812E-002   8.0492069329322749E-002   0.0000000000000000     
  -3.2949422679961878E-002   5.7666955677747392E-002   0.0000000000000000     
  -3.4689032237283653E-002   6.3212683292499183E-002   0.0000000000000000     
  -3.6371901504130513E-002   6.8938361683483648E-002   0.0000000000000000     
  -3.7998030480502480E-002   7.4843990850700801E-002   0.0000000000000000     
  -3.9567419166399533E-002   8.0929570794150626E-002   0.0000000000000000     
  -3.7078555703779700E-002   5.8222868704571072E-002   0.0000000000000000     
  -3.9010088097585917E-002   6.3752390932312261E-002   0.0000000000000000     
  -4.0878590611692474E-002   6.9461360615986859E-002   0.0000000000000000     
  -4.2684063246099385E-002   7.5349777755594829E-002   0.0000000000000000     
  -4.4426506000806616E-002   8.1417642351136230E-002   0.0000000000000000     
  -4.1354244564958190E-002   5.8839837063149575E-002   0.0000000000000000     
  -4.3475576466740787E-002   6.4349364682865839E-002   0.0000000000000000     
  -4.5528198085647627E-002   7.0038615045626237E-002   0.0000000000000000     
  -4.7512109421678723E-002   7.5907588151430783E-002   0.0000000000000000     
  -4.9427310474834070E-002   8.1956284000279503E-002   0.0000000000000000     
  -4.5776489263497366E-002   5.9517860753482907E-002   0.0000000000000000     
  -4.8085497344748235E-002   6.5003604544159904E-002   0.0000000000000000     
  -5.0320723925995944E-002   7.0670124972401840E-002   0.0000000000000000     
  -5.2482169007240488E-002   7.6517422038208716E-002   0.0000000000000000     
  -5.4569832588481887E-002   8.2545495741580502E-002   0.0000000000000000     
  -3.4850049971612812E-002   8.0492069329322749E-002   0.0000000000000000     
  -3.6196127579559548E-002   8.6763734399921688E-002   0.0000000000000000     
  -3.7492124225151614E-002   9.3193813122628533E-002   0.0000000000000000     
  -3.8738039908389026E-002   9.9782305497443269E-002   0.0000000000000000     
  -3.9933874629271768E-002  0.10652921152436590        0.0000000000000000     
  -3.9567419166399533E-002   8.0929570794150626E-002   0.0000000000000000     
  -4.1080557659761992E-002   8.7184383539266094E-002   0.0000000000000000     
  -4.2537936058530151E-002   9.3597711111480089E-002   0.0000000000000000     
  -4.3939554362703991E-002  0.10016955351079268        0.0000000000000000     
  -4.5285412572283544E-002  0.10689991073720384        0.0000000000000000     
  -4.4426506000806616E-002   8.1417642351136230E-002   0.0000000000000000     
  -4.6106689106489351E-002   8.7654437788410311E-002   0.0000000000000000     
  -4.7725382793822678E-002   9.4049647453216409E-002   0.0000000000000000     
  -4.9282587062806645E-002  0.10060327134555448        0.0000000000000000     
  -5.0778301913441223E-002  0.10731530946542459        0.0000000000000000     
  -4.9427310474834070E-002   8.1956284000279503E-002   0.0000000000000000     
  -5.1274521919741599E-002   8.8173897147354394E-002   0.0000000000000000     
  -5.3054464431029243E-002   9.4549622147837464E-002   0.0000000000000000     
  -5.4767138008696967E-002  0.10108345900172876        0.0000000000000000     
  -5.6412542652744785E-002  0.10777540770902817        0.0000000000000000     
  -5.4569832588481887E-002   8.2545495741580502E-002   0.0000000000000000     
  -5.6584056099518783E-002   8.8742761616098342E-002   0.0000000000000000     
  -5.8525180970149804E-002   9.5097635195343297E-002   0.0000000000000000     
  -6.0393207200374971E-002  0.10161011647931538        0.0000000000000000     
  -6.2188134790194277E-002  0.10828020546801459        0.0000000000000000     
  -3.9933874629271768E-002  0.10652921152436590        0.0000000000000000     
  -4.1079285593662827E-002  0.11342239412825701        0.0000000000000000     
  -4.2173930007425225E-002  0.12044971623397718        0.0000000000000000     
  -4.3217807870558948E-002  0.12761117784152640        0.0000000000000000     
  -4.4210919183064010E-002  0.13490677895090464        0.0000000000000000     
  -4.5285412572283544E-002  0.10689991073720384        0.0000000000000000     
  -4.6575120870724782E-002  0.11377636490506987        0.0000000000000000     
  -4.7808289441483708E-002  0.12078649812874713        0.0000000000000000     
  -4.8984918284560336E-002  0.12793031040823563        0.0000000000000000     
  -5.0105007399954653E-002  0.13520780174353533        0.0000000000000000     
  -5.0778301913441223E-002  0.10731530946542459        0.0000000000000000     
  -5.2212178482229844E-002  0.11417326528243246        0.0000000000000000     
  -5.3583867905675937E-002  0.12116464226618393        0.0000000000000000     
  -5.4893370183779502E-002  0.12828944041667900        0.0000000000000000     
  -5.6140685316540553E-002  0.13554765973391766        0.0000000000000000     
  -5.6412542652744785E-002  0.10777540770902817        0.0000000000000000     
  -5.7990458428178022E-002  0.11461309526034479        0.0000000000000000     
  -5.9500665400001908E-002  0.12158414864628754        0.0000000000000000     
  -6.0943163568216475E-002  0.12868856786685651        0.0000000000000000     
  -6.2317952932821719E-002  0.13592635292205160        0.0000000000000000     
  -6.2188134790194277E-002  0.10828020546801459        0.0000000000000000     
  -6.3909960708569316E-002  0.11509585483880684        0.0000000000000000     
  -6.5558681924461640E-002  0.12204501726905802        0.0000000000000000     
  -6.7134298437871248E-002  0.12912769275876812        0.0000000000000000     
  -6.8636810248798155E-002  0.13634388130793718        0.0000000000000000     
  -4.4210919183064010E-002  0.13490677895090464        0.0000000000000000     
  -4.5152179406069130E-002  0.14232491749440285        0.0000000000000000     
  -4.6040504000703059E-002  0.14985399140431185        0.0000000000000000     
  -4.6875892966965781E-002  0.15749400068063166        0.0000000000000000     
  -4.7658346304857324E-002  0.16524494532336229        0.0000000000000000     
  -5.0105007399954653E-002  0.13520780174353533        0.0000000000000000     
  -5.1167564992412706E-002  0.14260749146239310        0.0000000000000000     
  -5.2171599266680538E-002  0.15011789889255572        0.0000000000000000     
  -5.3117110222758175E-002  0.15773902403402323        0.0000000000000000     
  -5.4004097860645583E-002  0.16547086688679558        0.0000000000000000     
  -5.6140685316540553E-002  0.13554765973391766        0.0000000000000000     
  -5.7325042368629758E-002  0.14292776982571898        0.0000000000000000     
  -5.8445670404717792E-002  0.15041824029990211        0.0000000000000000     
  -5.9502569424804683E-002  0.15801907115646691        0.0000000000000000     
  -6.0495739428890409E-002  0.16573026239541358        0.0000000000000000     
  -6.2317952932821719E-002  0.13592635292205160        0.0000000000000000     
  -6.3624611534720280E-002  0.14328575258438053        0.0000000000000000     
  -6.4862717414814808E-002  0.15075501562635094        0.0000000000000000     
  -6.6032270573105303E-002  0.15833414204796284        0.0000000000000000     
  -6.7133271009591780E-002  0.16602313184921619        0.0000000000000000     
  -6.8636810248798155E-002  0.13634388130793718        0.0000000000000000     
  -7.0066272490684298E-002  0.14368143973837774        0.0000000000000000     
  -7.1422740296971599E-002  0.15112822487190228        0.0000000000000000     
  -7.2706213667660072E-002  0.15868423670851084        0.0000000000000000     
  -7.3916692602749731E-002  0.16634947524820343        0.0000000000000000     
  -4.7658346304857324E-002  0.16524494532336229        0.0000000000000000     
  -4.8386478451757170E-002  0.17309558113998935        0.0000000000000000     
  -4.9058903845044827E-002  0.18103466393799864        0.0000000000000000     
  -4.9675622484720301E-002  0.18906219371739003        0.0000000000000000     
  -5.0236634370783573E-002  0.19717817047816355        0.0000000000000000     
  -5.4004097860645583E-002  0.16547086688679558        0.0000000000000000     
  -5.4831366609717019E-002  0.17330222211325547        0.0000000000000000     
  -5.5597720899346711E-002  0.18122188437578546        0.0000000000000000     
  -5.6303160729534660E-002  0.18922985367438561        0.0000000000000000     
  -5.6947686100280871E-002  0.19732613000905586        0.0000000000000000     
  -6.0495739428890409E-002  0.16573026239541358        0.0000000000000000     
  -6.1424174170878705E-002  0.17354086537585781        0.0000000000000000     
  -6.2286867404673284E-002  0.18143993145691553        0.0000000000000000     
  -6.3083819130274124E-002  0.18942746063858670        0.0000000000000000     
  -6.3815029347681282E-002  0.19750345292087132        0.0000000000000000     
  -6.7133271009591780E-002  0.16602313184921619        0.0000000000000000     
  -6.8164901135242192E-002  0.17381151092779637        0.0000000000000000     
  -6.9126343361024495E-002  0.18168880518138875        0.0000000000000000     
  -7.0017597686938715E-002  0.18965501460999326        0.0000000000000000     
  -7.0838664112984812E-002  0.19771013921361000        0.0000000000000000     
  -7.3916692602749731E-002  0.16634947524820343        0.0000000000000000     
  -7.5053547502807516E-002  0.17411415876907116        0.0000000000000000     
  -7.6116148768400393E-002  0.18196850554920513        0.0000000000000000     
  -7.7104496399528391E-002  0.18991251558860534        0.0000000000000000     
  -7.8018590396191453E-002  0.19794618888727183        0.0000000000000000     
  -5.0236634370783573E-002  0.19717817047816355        0.0000000000000000     
  -5.0739428486983061E-002  0.20537423099178304        0.0000000000000000     
  -5.1181493817067159E-002  0.21364201202971209        0.0000000000000000     
  -5.1562830361035851E-002  0.22198151359195079        0.0000000000000000     
  -5.1883438118889152E-002  0.23039273567849908        0.0000000000000000     
  -5.6947686100280871E-002  0.19732613000905586        0.0000000000000000     
  -5.7528006116369816E-002  0.20550391715198760        0.0000000000000000     
  -5.8040829882585979E-002  0.21375641887537211        0.0000000000000000     
  -5.8486157398929352E-002  0.22208363517920954        0.0000000000000000     
  -5.8863988665399936E-002  0.23048556606349979        0.0000000000000000     
  -6.3815029347681282E-002  0.19750345292087132        0.0000000000000000     
  -6.4477441536325647E-002  0.20566183322993170        0.0000000000000000     
  -6.5067999175638200E-002  0.21389652649193017        0.0000000000000000     
  -6.5586702265618899E-002  0.22220753270686674        0.0000000000000000     
  -6.6033550806267785E-002  0.23059485187474141        0.0000000000000000     
  -7.0838664112984812E-002  0.19771013921361000        0.0000000000000000     
  -7.1587734746850581E-002  0.20584797922561543        0.0000000000000000     
  -7.2263001696223836E-002  0.21406233487938625        0.0000000000000000     
  -7.2864464961104519E-002  0.22235320617492238        0.0000000000000000     
  -7.3392124541492673E-002  0.23072059311222382        0.0000000000000000     
  -7.8018590396191453E-002  0.19794618888727183        0.0000000000000000     
  -7.8858885747944640E-002  0.20606235513903878        0.0000000000000000     
  -7.9625837444342873E-002  0.21425384403774031        0.0000000000000000     
  -8.0319445485386221E-002  0.22252065558337641        0.0000000000000000     
  -8.0939709871074628E-002  0.23086278977594715        0.0000000000000000     
  -5.1883438118889152E-002  0.23039273567849908        0.0000000000000000     
  -5.2151481637323555E-002  0.23886725390028662        0.0000000000000000     
  -5.2375125463035528E-002  0.24739664386824300        0.0000000000000000     
  -5.2554369596025094E-002  0.25598090558236819        0.0000000000000000     
  -5.2689214036292231E-002  0.26462003904266229        0.0000000000000000     
  -5.8863988665399936E-002  0.23048556606349979        0.0000000000000000     
  -5.9180475614350303E-002  0.23896132135014087        0.0000000000000000     
  -5.9441770178132985E-002  0.24751001086103078        0.0000000000000000     
  -5.9647872356747983E-002  0.25613163459616950        0.0000000000000000     
  -5.9798782150195295E-002  0.26482619255555701        0.0000000000000000     
  -6.6033550806267785E-002  0.23059485187474141        0.0000000000000000     
  -6.6410905847923446E-002  0.23906494243548854        0.0000000000000000     
  -6.6721128440924524E-002  0.24762426282904254        0.0000000000000000     
  -6.6964218585271018E-002  0.25627281305540350        0.0000000000000000     
  -6.7140176280962915E-002  0.26501059311457137        0.0000000000000000     
  -7.3392124541492673E-002  0.23072059311222382        0.0000000000000000     
  -7.3842772338042983E-002  0.23917811715632953        0.0000000000000000     
  -7.4213200251410150E-002  0.24773939977227832        0.0000000000000000     
  -7.4503408281594172E-002  0.25640444096007031        0.0000000000000000     
  -7.4713396428595077E-002  0.26517324071970533        0.0000000000000000     
  -8.0939709871074628E-002  0.23086278977594715        0.0000000000000000     
  -8.1476075084708915E-002  0.23930084551266390        0.0000000000000000     
  -8.1917985609589891E-002  0.24785542169073815        0.0000000000000000     
  -8.2265441445717513E-002  0.25652651831016982        0.0000000000000000     
  -8.2518442593091809E-002  0.26531413537095899        0.0000000000000000     
  -5.2689214036292231E-002  0.26462003904266229        0.0000000000000000     
  -5.2810467139378939E-002  0.27326483879120944        0.0000000000000000     
  -5.2948937260827188E-002  0.28186609937009388        0.0000000000000000     
  -5.3104624400636971E-002  0.29042382077931561        0.0000000000000000     
  -5.3277528558808296E-002  0.29893800301887474        0.0000000000000000     
  -5.9798782150195295E-002  0.26482619255555701        0.0000000000000000     
  -5.9931353255664649E-002  0.27354955718828333        0.0000000000000000     
  -6.0082439370345755E-002  0.28225760094343855        0.0000000000000000     
  -6.0252040494238601E-002  0.29095032382102259        0.0000000000000000     
  -6.0440156627343207E-002  0.29962772582103547        0.0000000000000000     
  -6.7140176280962915E-002  0.26501059311457137        0.0000000000000000     
  -6.7289231438299263E-002  0.27380777110039828        0.0000000000000000     
  -6.7451613967579122E-002  0.28263451510673643        0.0000000000000000     
  -6.7627323868802464E-002  0.29149082513358576        0.0000000000000000     
  -6.7816361141969317E-002  0.30037670118094628        0.0000000000000000     
  -7.4713396428595077E-002  0.26517324071970533        0.0000000000000000     
  -7.4884101687282795E-002  0.27403948052755422        0.0000000000000000     
  -7.5056461052527307E-002  0.28299684185998741        0.0000000000000000     
  -7.5230474524328531E-002  0.29204532471700512        0.0000000000000000     
  -7.5406142102686591E-002  0.30118492909860722        0.0000000000000000     
  -8.2518442593091809E-002  0.26531413537095899        0.0000000000000000     
  -8.2715964002615244E-002  0.27424468546975111        0.0000000000000000     
  -8.2896980625190256E-002  0.28334458120319167        0.0000000000000000     
  -8.3061492460816871E-002  0.29261382257128060        0.0000000000000000     
  -8.3209499509495077E-002  0.30205240957401813        0.0000000000000000     
  -4.5776489263497366E-002   5.9517860753482907E-002   0.0000000000000000     
  -4.8085497344748235E-002   6.5003604544159904E-002   0.0000000000000000     
  -5.0320723925995944E-002   7.0670124972401840E-002   0.0000000000000000     
  -5.2482169007240488E-002   7.6517422038208716E-002   0.0000000000000000     
  -5.4569832588481887E-002   8.2545495741580502E-002   0.0000000000000000     
  -5.0369266177590660E-002   6.0253502534532745E-002   0.0000000000000000     
  -5.2864985204697020E-002   6.5714011238673695E-002   0.0000000000000000     
  -5.5282097507717544E-002   7.1356222749451526E-002   0.0000000000000000     
  -5.7620603086652261E-002   7.7180137066866217E-002   0.0000000000000000     
  -5.9880501941501164E-002   8.3185754190917838E-002   0.0000000000000000     
  -5.5156551685431515E-002   6.1043325165260780E-002   0.0000000000000000     
  -5.7839174519675851E-002   6.6479485488886422E-002   0.0000000000000000     
  -6.0438248205792557E-002   7.2097240729913178E-002   0.0000000000000000     
  -6.2953772743781611E-002   7.7896590888341055E-002   0.0000000000000000     
  -6.5385748133643021E-002   8.3877535964170052E-002   0.0000000000000000     
  -6.0138345787019924E-002   6.1887328645667011E-002   0.0000000000000000     
  -6.3008065289684764E-002   6.7300027294798059E-002   0.0000000000000000     
  -6.5789176020220969E-002   7.2893178913786771E-002   0.0000000000000000     
  -6.8481677978628530E-002   7.8666783502633175E-002   0.0000000000000000     
  -7.1085571164907463E-002   8.4620841061337229E-002   0.0000000000000000     
  -6.5314648482355908E-002   6.2785512975751440E-002   0.0000000000000000     
  -6.8371657514723738E-002   6.8175636656408634E-002   0.0000000000000000     
  -7.1334880951002766E-002   7.3744037301072346E-002   0.0000000000000000     
  -7.4204318791193005E-002   7.9490714909742591E-002   0.0000000000000000     
  -7.6979971035294470E-002   8.5415669482419354E-002   0.0000000000000000     
  -5.4569832588481887E-002   8.2545495741580502E-002   0.0000000000000000     
  -5.6584056099518783E-002   8.8742761616098342E-002   0.0000000000000000     
  -5.8525180970149804E-002   9.5097635195343297E-002   0.0000000000000000     
  -6.0393207200374971E-002  0.10161011647931538        0.0000000000000000     
  -6.2188134790194277E-002  0.10828020546801459        0.0000000000000000     
  -5.9880501941501164E-002   8.3185754190917838E-002   0.0000000000000000     
  -6.2061617894214667E-002   8.9360825088369317E-002   0.0000000000000000     
  -6.4163774766743203E-002   9.5693100725983721E-002   0.0000000000000000     
  -6.6186972559086746E-002  0.10218258110376101        0.0000000000000000     
  -6.8131211271245315E-002  0.10882926622170126        0.0000000000000000     
  -6.5385748133643021E-002   8.3877535964170052E-002   0.0000000000000000     
  -6.7733533552223141E-002   9.0027881457894476E-002   0.0000000000000000     
  -6.9996488176368249E-002   9.6335432870008508E-002   0.0000000000000000     
  -7.2174612006078401E-002  0.10280019020051219        0.0000000000000000     
  -7.4267905041353555E-002  0.10942215344940551        0.0000000000000000     
  -7.1085571164907463E-002   8.4620841061337229E-002   0.0000000000000000     
  -7.3599803073544134E-002   9.0743930724673821E-002   0.0000000000000000     
  -7.6023321199024954E-002   9.7024631627417701E-002   0.0000000000000000     
  -7.8356125541349908E-002  0.10346294376956891        0.0000000000000000     
  -8.0598216100518996E-002  0.11005886715112739        0.0000000000000000     
  -7.6979971035294470E-002   8.5415669482419354E-002   0.0000000000000000     
  -7.9660426458177697E-002   9.1508972888707352E-002   0.0000000000000000     
  -8.2244273834713319E-002   9.7760696998211272E-002   0.0000000000000000     
  -8.4731513164901295E-002  0.10417084181093111        0.0000000000000000     
  -8.7122144448741626E-002  0.11073940732686691        0.0000000000000000     
  -6.2188134790194277E-002  0.10828020546801459        0.0000000000000000     
  -6.3909960708569316E-002  0.11509585483880684        0.0000000000000000     
  -6.5558681924461640E-002  0.12204501726905802        0.0000000000000000     
  -6.7134298437871248E-002  0.12912769275876812        0.0000000000000000     
  -6.8636810248798155E-002  0.13634388130793718        0.0000000000000000     
  -6.8131211271245315E-002  0.10882926622170126        0.0000000000000000     
  -6.9996718301360464E-002  0.11562139469101645        0.0000000000000000     
  -7.1783721047573718E-002  0.12254720512291871        0.0000000000000000     
  -7.3492219509885104E-002  0.12960669751740800        0.0000000000000000     
  -7.5122213688294623E-002  0.13679987187448436        0.0000000000000000     
  -7.4267905041353555E-002  0.10942215344940551        0.0000000000000000     
  -7.6276764184508197E-002  0.11618956549017148        0.0000000000000000     
  -7.8201586337856815E-002  0.12309066919629306        0.0000000000000000     
  -8.0042371501399354E-002  0.13012546456777027        0.0000000000000000     
  -8.1799119675135867E-002  0.13729395160460311        0.0000000000000000     
  -8.0598216100518996E-002  0.11005886715112739        0.0000000000000000     
  -8.2750098358012517E-002  0.11680036723627189        0.0000000000000000     
  -8.4812277795310864E-002  0.12367540948918107        0.0000000000000000     
  -8.6784754412413997E-002  0.13068399390985494        0.0000000000000000     
  -8.8667528209321930E-002  0.13782612049829346        0.0000000000000000     
  -8.7122144448741626E-002  0.11073940732686691        0.0000000000000000     
  -8.9416720821873463E-002  0.11745379992931775        0.0000000000000000     
  -9.1615795419935947E-002  0.12430142600158274        0.0000000000000000     
  -9.3719368242929035E-002  0.13128228554366198        0.0000000000000000     
  -9.5727439290852784E-002  0.13839637855555531        0.0000000000000000     
  -6.8636810248798155E-002  0.13634388130793718        0.0000000000000000     
  -7.0066272490684298E-002  0.14368143973837774        0.0000000000000000     
  -7.1422740296971599E-002  0.15112822487190228        0.0000000000000000     
  -7.2706213667660072E-002  0.15868423670851084        0.0000000000000000     
  -7.3916692602749731E-002  0.16634947524820343        0.0000000000000000     
  -7.5122213688294623E-002  0.13679987187448436        0.0000000000000000     
  -7.6674233594002078E-002  0.14411425254967666        0.0000000000000000     
  -7.8148809238207259E-002  0.15153736389851391        0.0000000000000000     
  -7.9545940620910208E-002  0.15906920592099599        0.0000000000000000     
  -8.0865627742110910E-002  0.16670977861712299        0.0000000000000000     
  -8.1799119675135867E-002  0.13729395160460311        0.0000000000000000     
  -8.3472703202153886E-002  0.14458361228024358        0.0000000000000000     
  -8.5063994425540898E-002  0.15198192856814363        0.0000000000000000     
  -8.6572993345296917E-002  0.15948890046830327        0.0000000000000000     
  -8.7999699961421943E-002  0.16710452798072248        0.0000000000000000     
  -8.8667528209321930E-002  0.13782612049829346        0.0000000000000000     
  -9.0461681315139736E-002  0.14508951893007835        0.0000000000000000     
  -9.2168295858972502E-002  0.15246191888079144        0.0000000000000000     
  -9.3787371840820213E-002  0.15994332035043263        0.0000000000000000     
  -9.5318909260682885E-002  0.16753372333900196        0.0000000000000000     
  -9.5727439290852784E-002  0.13839637855555531        0.0000000000000000     
  -9.7641167932959627E-002  0.14563197249918106        0.0000000000000000     
  -9.9461713538502070E-002  0.15297733483645731        0.0000000000000000     
 -0.10118907610748008       0.16043246556738408        0.0000000000000000     
 -0.10282325563989370       0.16799736469196141        0.0000000000000000     
  -7.3916692602749731E-002  0.16634947524820343        0.0000000000000000     
  -7.5053547502807516E-002  0.17411415876907116        0.0000000000000000     
  -7.6116148768400393E-002  0.18196850554920513        0.0000000000000000     
  -7.7104496399528391E-002  0.18991251558860534        0.0000000000000000     
  -7.8018590396191453E-002  0.19794618888727183        0.0000000000000000     
  -8.0865627742110910E-002  0.16670977861712299        0.0000000000000000     
  -8.2107669037683711E-002  0.17444989036066355        0.0000000000000000     
  -8.3271862943503083E-002  0.18228034952538641        0.0000000000000000     
  -8.4358209459568970E-002  0.19020115611129154        0.0000000000000000     
  -8.5366708585881398E-002  0.19821231011837898        0.0000000000000000     
  -8.7999699961421943E-002  0.16710452798072248        0.0000000000000000     
  -8.9344821503979904E-002  0.17481978716355495        0.0000000000000000     
  -9.0609065203034689E-002  0.18262565407495429        0.0000000000000000     
  -9.1792431058586310E-002  0.19052212871492047        0.0000000000000000     
  -9.2894919070634768E-002  0.19850921108345346        0.0000000000000000     
  -9.5318909260682885E-002  0.16753372333900196        0.0000000000000000     
  -9.6765004901696025E-002  0.17522384917774536        0.0000000000000000     
  -9.8127755546995224E-002  0.18300441919790872        0.0000000000000000     
  -9.9407161196580385E-002  0.19087543339949201        0.0000000000000000     
 -0.10060322185045159       0.19883689178249533        0.0000000000000000     
 -0.10282325563989370       0.16799736469196141        0.0000000000000000     
 -0.10436821923083213       0.17566207640323478        0.0000000000000000     
 -0.10582793397538463       0.18341664489424975        0.0000000000000000     
 -0.10720239987355121       0.19126107016500632        0.0000000000000000     
 -0.10849161692533185       0.19919535221550450        0.0000000000000000     
  -7.8018590396191453E-002  0.19794618888727183        0.0000000000000000     
  -7.8858885747944640E-002  0.20606235513903878        0.0000000000000000     
  -7.9625837444342873E-002  0.21425384403774031        0.0000000000000000     
  -8.0319445485386221E-002  0.22252065558337641        0.0000000000000000     
  -8.0939709871074628E-002  0.23086278977594715        0.0000000000000000     
  -8.5366708585881398E-002  0.19821231011837898        0.0000000000000000     
  -8.6300164566130960E-002  0.20630578255071855        0.0000000000000000     
  -8.7161381644008315E-002  0.21447354441237995        0.0000000000000000     
  -8.7950359819513449E-002  0.22271559570336324        0.0000000000000000     
  -8.8667099092646376E-002  0.23103193642366845        0.0000000000000000     
  -9.2894919070634768E-002  0.19850921108345346        0.0000000000000000     
  -9.3920841227932803E-002  0.20657908304117151        0.0000000000000000     
  -9.4874509519233111E-002  0.21472392644869281        0.0000000000000000     
  -9.5755923944535720E-002  0.22294374130601721        0.0000000000000000     
  -9.6565084503840631E-002  0.23123852761314481        0.0000000000000000     
 -0.10060322185045159       0.19883689178249533        0.0000000000000000     
 -0.10172091573335011       0.20688225661039780        0.0000000000000000     
 -0.10276522107001726       0.21500499014667881        0.0000000000000000     
 -0.10373613786045303       0.22320509239133829        0.0000000000000000     
 -0.10463366610465742       0.23148256334437631        0.0000000000000000     
 -0.10849161692533185       0.19919535221550450        0.0000000000000000     
 -0.10970038808238293       0.20721530325839738        0.0000000000000000     
 -0.11083351629636076       0.21531673550633806        0.0000000000000000     
 -0.11189100156726535       0.22349964895932656        0.0000000000000000     
 -0.11287284389509672       0.23176404361736286        0.0000000000000000     
  -8.0939709871074628E-002  0.23086278977594715        0.0000000000000000     
  -8.1476075084708915E-002  0.23930084551266390        0.0000000000000000     
  -8.1917985609589891E-002  0.24785542169073815        0.0000000000000000     
  -8.2265441445717513E-002  0.25652651831016982        0.0000000000000000     
  -8.2518442593091809E-002  0.26531413537095899        0.0000000000000000     
  -8.8667099092646376E-002  0.23103193642366845        0.0000000000000000     
  -8.9297297889693955E-002  0.23944808863506101        0.0000000000000000     
  -8.9826654636943087E-002  0.24798957439930641        0.0000000000000000     
  -9.0255169334393787E-002  0.25665639371640453        0.0000000000000000     
  -9.0582841982046025E-002  0.26544854658635553        0.0000000000000000     
  -9.6565084503840631E-002  0.23123852761314481        0.0000000000000000     
  -9.7292924554770815E-002  0.23963480765409015        0.0000000000000000     
  -9.7930377454949175E-002  0.24815910371286740        0.0000000000000000     
  -9.8477443204375792E-002  0.25681141578947686        0.0000000000000000     
  -9.8934121803050598E-002  0.26559174388391832        0.0000000000000000     
 -0.10463366610465742       0.23148256334437631        0.0000000000000000     
 -0.10546295507993945       0.23986100256975118        0.0000000000000000     
 -0.10622915406360817       0.24836400963142130        0.0000000000000000     
 -0.10693226305566350       0.25699158452938670        0.0000000000000000     
 -0.10757228205610556       0.26574372726364731        0.0000000000000000     
 -0.11287284389509672       0.23176404361736286        0.0000000000000000     
 -0.11380738946519992       0.24012667338204424        0.0000000000000000     
 -0.11472298446292001       0.24860429215496799        0.0000000000000000     
 -0.11561962888825703       0.25719689993613409        0.0000000000000000     
 -0.11649732274121091       0.26590449672554256        0.0000000000000000     
  -8.2518442593091809E-002  0.26531413537095899        0.0000000000000000     
  -8.2715964002615244E-002  0.27424468546975111        0.0000000000000000     
  -8.2896980625190256E-002  0.28334458120319167        0.0000000000000000     
  -8.3061492460816871E-002  0.29261382257128060        0.0000000000000000     
  -8.3209499509495077E-002  0.30205240957401813        0.0000000000000000     
  -9.0582841982046025E-002  0.26544854658635553        0.0000000000000000     
  -9.0840007381668086E-002  0.27442908061396487        0.0000000000000000     
  -9.1057000335028310E-002  0.28366104340403825        0.0000000000000000     
  -9.1233820842126695E-002  0.29314443495657555        0.0000000000000000     
  -9.1370468902963214E-002  0.30287925527157683        0.0000000000000000     
  -9.8934121803050598E-002  0.26559174388391832        0.0000000000000000     
  -9.9311420821812824E-002  0.27459836064717164        0.0000000000000000     
  -9.9620347831501754E-002  0.28392953873021642        0.0000000000000000     
  -9.9860902832117321E-002  0.29358527813305291        0.0000000000000000     
 -0.10003308582365952       0.30356557885568092        0.0000000000000000     
 -0.10757228205610556       0.26574372726364731        0.0000000000000000     
 -0.10813020432304950       0.27475252556937113        0.0000000000000000     
 -0.10858702311461055       0.28415006718172642        0.0000000000000000     
 -0.10894273843078872       0.29393635210071278        0.0000000000000000     
 -0.10919735027158402       0.30411138032633039        0.0000000000000000     
 -0.11649732274121091       0.26590449672554256        0.0000000000000000     
 -0.11729635788537804       0.27489157538056369        0.0000000000000000     
 -0.11795702618435470       0.28432262875856790        0.0000000000000000     
 -0.11847932763814092       0.29419765685955501        0.0000000000000000     
 -0.11886326224673666       0.30451665968352526        0.0000000000000000     
 </DataArray>
 <DataArray  type="Float64" Name="stress" NumberOfComponents="3" format="ascii">
   5963221956.5010595        12438667.617724419        20254093.006791905     
   5779353845.9789495       -228882.50398707390        13527826.884223843     
   5597190329.9689169       -7214450.9187750816        10667567.012690747     
   5416731408.4709616       -8518037.6266384125        11673313.392183650     
   5237977081.4850893       -4139642.6275577545        16545066.022721766     
   5596896016.2645998        6568167.5368556976        179758664.07790798     
   5424511309.8047438       -951923.78291368484        174781605.67089155     
   5253176674.1877728       -4971778.9597325325        173584053.64489976     
   5082892109.4136715       -5491397.9936323166        176166007.99992874     
   4913657615.4824657       -2510780.8845725060        182527468.73597595     
   5231100274.6762304        856727.05040717125        340299824.30859560     
   5069951829.7928791       -1590048.2131242752        336308362.66973752     
   4909198932.0832100       -2718332.8977172375        336009907.54189050     
   4748841581.5472269       -2528127.0033600330        339404458.92504334     
   4588879778.1849203       -1019430.5300741196        346492016.81920856     
   4865834731.7359629       -4695653.8416106701        501877573.69886154     
   4715675405.9433641       -2143255.7946324348        498108097.88076490     
   4565257103.6552448       -454112.73271536827        497945128.70365959     
   4414579824.8716059        371775.34414267540        501388666.16754436     
   4263643569.5924554        334408.43594717979        508438710.27241820     
   4501099387.4437895       -10088975.139197350        664491912.24870980     
   4361682038.2561855       -2611546.5274381638        660180811.30397058     
   4221351188.9038639        1820881.5352580547        659389717.13020492     
   4080106839.3868275        3208309.0489075184        662118629.72741604     
   3937948989.7050753        1550736.0134968758        668367549.09561300     
   5237977081.4850893       -4139642.6275577545        16545066.022721766     
   5053798926.5675955        225798.33144497871        10865171.511511050     
   4868980481.0980749        2456937.4503557682        9542209.2438457441     
   4683521745.0765123        2553774.7291269302        12576179.219727132     
   4497422718.5029268        516310.16782546043        19967081.439156495     
   4913657615.4824657       -2510780.8845725060        182527468.73597595     
   4740314228.2424908        246655.83385872841        176085189.63160866     
   4566586366.3807249        1722510.4796693325        173991492.86037242     
   4392474029.8971910        1916783.0529086590        176246378.42227587     
   4217977218.7918744        829473.55355143547        182849846.31730843     
   4588879778.1849203       -1019430.5300741196        346492016.81920856     
   4426347301.7355528        122844.88170123100        339585805.04031682     
   4263686166.5946589        836257.98838257790        337019825.68414462     
   4100896372.7622480        1120808.7900042534        338794078.75069046     
   3937977920.2383075        976497.28653335571        344908564.23994982     
   4263643569.5924554        334408.43594717979        508438710.27241820     
   4111898147.0468040       -145634.52498912811        501367017.73763901     
   3960279881.7398763       -201820.02350664139        498627207.71515256     
   3808788773.6716771        165851.94040465355        500219280.20497370     
   3657424822.8422074        957381.36674356461        506143235.20709985     
   3937948989.7050753        1550736.0134968758        668367549.09561300     
   3796966764.1762314       -558782.38623452187        661428827.72356272     
   3656367511.8163652       -1391723.5560393333        658813638.95340109     
   3516151232.6254902       -948087.49588441849        660521982.78513038     
   3376317926.6035929        772125.79420590401        666553859.21874189     
   4497422718.5029268        516310.16782546043        19967081.439156495     
   4313461104.3831663       -1478237.1714501381        13102295.650407454     
   4129745293.0039368       -2653442.0422892570        10568935.320451546     
   3946275284.3652401       -3009304.4446849823        12367000.449277887     
   3763051078.4670825       -2545824.3786149025        18496491.036901210     
   4217977218.7918744        829473.55355143547        182849846.31730843     
   4045493965.7495952       -16931.419808387756        175970065.52910316     
   3873155739.2678351       -379914.52476143837        173323411.87264881     
   3700962539.3465996       -259475.76131582260        174909885.34795019     
   3528914365.9858785        344384.87053370476        180729485.95499673     
   3937977920.2383075        976497.28653335571        344908564.23994982     
   3776692175.9105382        1193978.9701957703        337896216.24228209     
   3615450681.9632797        1558961.9222297668        335018697.04932183     
   3454253438.3965316        2071446.1426317692        336276006.66107094     
   3293100445.2102885        2731431.6313834190        341668145.07754219     
   3657424822.8422074        957381.36674356461        506143235.20709985     
   3507055734.8659849        2154493.9985539913        498880747.78994334     
   3356630121.0902586        3163187.2986817360        495654790.85046166     
   3206147981.5150275        3983461.2671253681        496465364.38865179     
   3055609316.1402922        4615315.9038959742        501312468.40452039     
   3376317926.6035929        772125.79420590401        666553859.21874189     
   3236584642.6159449        2864613.6652607918        658923660.17208850     
   3096694056.6487851        4432761.6046055555        655231693.27606893     
   2956646168.7021041        5476569.6122130156        655477958.53068578     
   2816440978.7759094        5996037.6881093979        659662455.93593919     
   3763051078.4670825       -2545824.3786149025        18496491.036901210     
   3584532519.2595024       -1236132.7140474319        11621328.318195827     
   3405395311.7672195       -1988601.9984898567        9061434.0378761049     
   3225639455.9902415       -4803232.2319149971        10816808.195951646     
   3045264951.9285603       -9680023.4143514633        16887450.792409003     
   3528914365.9858785        344384.87053370476        180729485.95499673     
   3361328846.9765782        1972850.8750529289        172553946.04163912     
   3193391142.5500174        2427365.4886891842        168399605.30243152     
   3025101252.7061677        1707928.7113643885        168266463.73736307     
   2856459177.4450531       -185459.45683360100        172154521.34642801     
   3293100445.2102885        2731431.6313834190        341668145.07754219     
   3135607768.5014253        4426612.6065107584        332503101.31486505     
   2978029369.2427154        5836051.7488108873        327065187.46208024     
   2820365247.4341545        6959749.0582817793        325354403.51919657     
   2662615403.0757475        7797704.5349252224        327370749.48621315     
   3055609316.1402922        4615315.9038959742        501312468.40452039     
   2907369283.8340187        6125152.4802858829        491468794.13786066     
   2759309991.8453164        8237456.7819172144        485058180.51683486     
   2611431440.1741972        10952228.808819413        482080627.54147387     
   2463733628.8206501        14269468.560969472        482536135.21175587     
   2816440978.7759094        5996037.6881093979        659662455.93593919     
   2676613392.9743667        7068470.4963910580        649451024.51061368     
   2537233010.3578291        9631580.5880111456        642378584.46669471     
   2398299830.9262819        13685367.962943077        638445135.80418086     
   2259813854.6797533        19229832.621260643        637650678.52305639     
   3045264951.9285603       -9680023.4143514633        16887450.792409003     
   2881574418.0147381       -9722543.4654227495        11010699.865491388     
   2718389837.9374709       -8078550.7279752493        6331879.2407259708     
   2555711211.6967716       -4748045.2019716501        2850988.9181076270     
   2393538539.2926331        268973.11257088184        568028.89765172894     
   2856459177.4450531       -185459.45683360100        172154521.34642801     
   2696607831.5285292        384683.96976828575        165156237.44468150     
   2536994151.9906745        1747048.6585820913        159771860.89768818     
   2377618138.8314867        3901634.6096293926        156001391.70545894     
   2218479792.0509787        6848441.8229284286        153844829.86801234     
   2662615403.0757475        7797704.5349252224        327370749.48621315     
   2507791751.0211458        9337063.1986235380        318937930.57540488     
   2352937477.8873119        10774351.598208308        312534996.07197958     
   2198052583.6742473        12109569.733696580        308161945.97594082     
   2043137068.3819494        13342717.605080009        305818780.28727281     
   2463733628.8206501        14269468.560969472        482536135.21175587     
   2315126176.4925632        17134594.221104026        472355779.25768554     
   2166219815.6273618        19003358.090825677        464621284.76361442     
   2017014546.2250378        19875760.170159936        459332651.72953123     
   1867510368.2855818        19751800.459053636        456489880.15544474     
   2259813854.6797533        19229832.621260643        637650678.52305639     
   2118611107.9428101        23777277.037253499        625409783.49151683     
   1976841165.2108364        26434068.136490345        616030726.97258711     
   1834504026.4838479        27200205.919010639        609513508.96626425     
   1691599691.7618384        26075690.384794354        605858129.47253716     
   2393538539.2926331        268973.11257088184        568028.89765172894     
   2250313274.9631929        6966263.2255063057       -6261883.2045818325     
   2103942089.3528225        3177149.0686521530       -11013576.076747730     
   1954424982.4614892       -11098369.358077884       -13687049.718845967     
   1801761954.2892225       -35860292.054565072       -14282304.130866295     
   2218479792.0509787        6848441.8229284286        153844829.86801234     
   2079437173.2842832        13059743.617668629        143465169.71628621     
   1938334322.9811225        12403606.957479119        134336861.14850023     
   1795171241.1414793        4880031.8423703909        126459904.16466144     
   1649947927.7653518       -9510981.7276855707        119834298.76473077     
   2043137068.3819494        13342717.605080009        305818780.28727281     
   1905914616.1890416        18359287.384911537        293156010.12128752     
   1767717622.2041280        20127384.524717689        280917723.89310080     
   1628546086.4271970        18647009.024470270        269103921.60270005     
   1488400008.8582485        13918160.884171009        257714603.25010362     
   1867510368.2855818        19751800.459053636        456489880.15544474     
   1729745603.6774824        22864894.527275562        442810638.01040900     
   1592091987.0218444        26348481.770362794        428729012.15703726     
   1454549518.3186607        30202562.188300729        414245002.59531057     
   1317118197.5679462        34427135.781114459        399358609.32525456     
   1691599691.7618384        26075690.384794354        605858129.47253716     
   1550930135.7495933        26576565.044730842        592429053.38366187     
   1411457417.4342699        31066898.694417357        577770725.94030070     
   1273181536.8158829        39546691.333881140        561883147.14247143     
   1136102493.8944073        52015942.963060260        544766316.99016142     
   1801761954.2892225       -35860292.054565072       -14282304.130866295     
   1771142304.9838886       -16642128.547082186       -8501201.5530717429     
   1748525987.4280972        29253807.458863735       -41534043.008835293     
   1733913001.6217794        101827515.96305490       -113380828.49814796     
   1727303347.5649617        201078996.96559155       -224041558.02101618     
   1649947927.7653518       -9510981.7276855707        119834298.76473077     
   1527484735.6780906       -13945677.960607171        135500816.53211749     
   1409144377.9518161       -4637592.9902390242        124790751.51782174     
   1294926854.5865285        18413273.183439732        87704103.721844777     
   1184832165.5822453        55206920.560445130        24240873.144172508     
   1488400008.8582485        13918160.884171009        257714603.25010362     
   1309628591.8515260       -3508799.7304286361        278739289.25382096     
   1131099511.8172913       -20127970.436746657        285824753.72771925     
   952812768.75552583       -35939351.234834015        278970996.67180330     
   774768362.66622972       -50942942.124684393        258178018.08606505     
   1317118197.5679462        34427135.781114459        399358609.32525456     
   1117573873.5042429        14668506.143567681        421214216.61202359     
   914391389.02451563       -17217324.880737066        441567963.62085515     
   707570744.12874258       -61230357.291862100        460419850.35172731     
   497111938.81692433       -117370591.08979097        477769876.80466688     
   1136102493.8944073        52015942.963060260        544766316.99016142     
   951320580.63621962        40586239.661335170        562925598.60673475     
   759020009.57347727        4094343.6777721047        592020381.19722164     
   559200780.70618129       -57459744.987639040        632050664.76163554     
   351862894.03433079       -144076026.33490393        683016449.29996681     
   1727303347.5649617        201078996.96559155       -224041558.02101618     
   1456676666.6347134        184537869.76971579       -96570518.696033224     
   1153923027.4914589        60906881.863785982        60091404.139038198     
   819042430.13513589       -169813966.75233889        245944210.48424548     
   452034874.56577086       -507624676.07863677        460987900.33954382     
   1184832165.5822453        55206920.560445130        24240873.144172508     
   977698432.28543401        11823386.048754811        155594899.76957244     
   732772324.89079368       -157534728.78905442        312793173.52192599     
   450053843.39829224       -452867423.95305645        495835694.40124208     
   129542987.80793893       -874174699.44320893        704722462.40750921     
   774768362.66622972       -50942942.124684393        258178018.08606505     
   621565758.76528072       -124037429.42347509        386805380.14628273     
   424905364.88169372       -341991216.66440040        537930352.95030308     
   184787181.01544330       -704804303.84752929        711552936.49812329     
  -98788792.833475351       -1212476690.9728825        907673130.78975713     
   497111938.81692433       -117370591.08979097        477769876.80466688     
   388278646.07427466       -223044576.64693081        597060922.43408442     
   230322147.46414903       -492462581.76229233        735502942.42415464     
   23242442.986563444       -925624606.43586111        893095936.77488363     
  -232960467.35848173       -1522530650.6676204        1069839905.4862682     
   351862894.03433079       -144076026.33490393        683016449.29996681     
   277837094.21239388       -285198055.62166893        786361526.63298118     
   149022672.63817880       -608948824.08270013        905510941.94350731     
  -34580370.688304186       -1115328331.7179465        1040464695.2315305     
  -272972035.76705253       -1804336578.5274277        1191222786.4970593     
   4501099387.4437895       -10088975.139197350        664491912.24870980     
   4361682038.2561855       -2611546.5274381638        660180811.30397058     
   4221351188.9038639        1820881.5352580547        659389717.13020492     
   4080106839.3868275        3208309.0489075184        662118629.72741604     
   3937948989.7050753        1550736.0134968758        668367549.09561300     
   4138419194.4556260       -1666742.9604113102        790670333.31283474     
   4007303190.7997112        1025779.7846305370        784013002.85590661     
   3875766520.6021814        2316080.7242758274        781325525.08316028     
   3743809183.8630338        2204159.8585364819        782607899.99459291     
   3611431180.5822706        690017.18740320206        787860127.59020495     
   3770616462.7338600        5218727.5982959270        913763072.12520373     
   3649087078.6473584        3511926.6879341602        905334484.71636379     
   3527629861.6423383        2045682.7158458233        901325595.90491784     
   3406244811.7188053        819995.68203306198        901736405.69084895     
   3284931928.8767500       -165134.41350674629        906566914.07415926     
   3397691192.2784963        10567436.536922693        1033770128.6857955     
   3287033701.7991247        4846894.1824729443        1024145256.8853421     
   3176941212.0243363        1009687.5099645853        1019389929.5954676     
   3067413722.9541273       -944183.48060429096        1019504146.8161861     
   2958451234.5885019       -1014718.7892341614        1024487908.5474817     
   3019643383.0895290        14379383.855468631        1150691502.9946282     
   2921143060.2550087        5030682.2682534456        1140445319.3628325     
   2823700571.7481685       -791904.89336133003        1135518526.1548254     
   2727315917.5690103       -3088377.6293694973        1135911123.3706017     
   2631989097.7175341       -1858735.9397774935        1141623111.0101652     
   3937948989.7050753        1550736.0134968758        668367549.09561300     
   3796966764.1762314       -558782.38623452187        661428827.72356272     
   3656367511.8163652       -1391723.5560393333        658813638.95340109     
   3516151232.6254902       -948087.49588441849        660521982.78513038     
   3376317926.6035929        772125.79420590401        666553859.21874189     
   3611431180.5822706        690017.18740320206        787860127.59020495     
   3482011569.4803605       -187483.19399166107        781281671.48869526     
   3352847212.5922103       -214136.19618630409        778989689.72485912     
   3223938109.9178190        610058.18081605434        780984182.29869890     
   3095284261.4571857        2285099.9370079041        787265149.21021509     
   3284931928.8767500       -165134.41350674629        906566914.07415926     
   3166969051.4468799        157618.99697089195        900199717.79543042     
   3049133709.2755451        905489.93590021133        898081937.59016335     
   2931425902.3627501        2078478.4032868147        900213573.45836055     
   2813845630.7084837        3676584.3991177082        906594625.40001762     
   2958451234.5885019       -1014718.7892341614        1024487908.5474817     
   2851839210.0757818        476524.18665361404        1018182966.6437699     
   2745227001.8663731        1967154.8402446508        1016090382.5493116     
   2638614609.9602747        3457173.1715350151        1018210156.2640967     
   2532002034.3574896        4946579.1805416346        1024542287.7881392     
   2631989097.7175341       -1858735.9397774935        1141623111.0101652     
   2536622045.3670664        769232.37503790855        1135231418.0337148     
   2441127090.3646913        2970858.5168262720        1133015024.6022971     
   2345504232.7104030        4746142.4855703115        1134973930.7159235     
   2249753472.4042029        6095084.2812778950        1141108136.3745792     
   3376317926.6035929        772125.79420590401        666553859.21874189     
   3236584642.6159449        2864613.6652607918        658923660.17208850     
   3096694056.6487851        4432761.6046055555        655231693.27606893     
   2956646168.7021041        5476569.6122130156        655477958.53068578     
   2816440978.7759094        5996037.6881093979        659662455.93593919     
   3095284261.4571857        2285099.9370079041        787265149.21021509     
   2965815432.6167846        4058668.1355570555        779430919.04397953     
   2836317516.9623742        5735280.2874135971        775627788.30325603     
   2706790514.4939508        7314936.3925591707        775855756.98804808     
   2577234425.2115192        8797636.4510054588        780114825.09836149     
   2813845630.7084837        3676584.3991177082        906594625.40001762     
   2694906592.0864158        5210833.4464898109        898705948.47394931     
   2576066681.8158464        7075510.3321831226        894941238.24827874     
   2457325899.8967686        9270615.0561898947        895300494.72300363     
   2338684246.3291903        11796147.618517876        899783717.89812946     
   2532002034.3574896        4946579.1805416346        1024542287.7881392     
   2423858121.0248499        6321109.5980674028        1016748748.4619962     
   2315941551.2092090        8453451.7389197350        1013172043.1111352     
   2208252324.9105663        11343605.603112936        1013812171.7355514     
   2100790442.1289325        14991571.190656066        1018669134.3352489     
   2249753472.4042029        6095084.2812778950        1141108136.3745792     
   2152670019.4320745        7389496.5902736187        1133559319.0081270     
   2055942125.1424580        9869104.5076340437        1130320202.8918288     
   1959569789.5353413        13533908.033341408        1131390788.0256944     
   1863553012.6107376        18383907.167412877        1136771074.4097190     
   2816440978.7759094        5996037.6881093979        659662455.93593919     
   2676613392.9743667        7068470.4963910580        649451024.51061368     
   2537233010.3578291        9631580.5880111456        642378584.46669471     
   2398299830.9262819        13685367.962943077        638445135.80418086     
   2259813854.6797533        19229832.621260643        637650678.52305639     
   2577234425.2115192        8797636.4510054588        780114825.09836149     
   2446062610.1550946        10295672.546969175        770744332.15869939     
   2315249587.6949077        12989683.963719606        764794916.88288164     
   2184795357.8309660        16879670.701291800        762266579.27090251     
   2054699920.5632606        21965632.759649873        763159319.32276273     
   2338684246.3291903        11796147.618517876        899783717.89812946     
   2216974162.8248448        13961575.244262099        891151017.75724864     
   2095534461.3279791        17028276.228252053        886221481.56264210     
   1974365141.8385906        20996250.570502400        884995109.31431198     
   1853466204.3566813        25865498.271019936        887471901.01225913     
   2100790442.1289325        14991571.190656066        1018669134.3352489     
   1989348050.9836297        18066178.588254690        1010671081.3062559     
   1878087631.2570381        21747357.381567717        1006658278.5059742     
   1767009182.9491649        26035107.570604682        1006630725.9344002     
   1656112706.0600033        30929429.155356884        1010588423.5915414     
   1863553012.6107376        18383907.167412877        1136771074.4097190     
   1763184274.6314354        22609482.578963637        1129304522.8057203     
   1662909097.4820864        27146927.423691869        1126105307.7128723     
   1562727481.1626866        31996241.701585889        1127173429.1311710     
   1462639425.6732435        37157425.412669420        1132508887.0606151     
   2259813854.6797533        19229832.621260643        637650678.52305639     
   2118611107.9428101        23777277.037253499        625409783.49151683     
   1976841165.2108364        26434068.136490345        616030726.97258711     
   1834504026.4838479        27200205.919010639        609513508.96626425     
   1691599691.7618384        26075690.384794354        605858129.47253716     
   2054699920.5632606        21965632.759649873        763159319.32276273     
   1921143916.7521672        25981516.643109202        751864618.52540994     
   1787208081.9633610        28731297.267532825        743712856.97360575     
   1652892416.1968524        30214974.632945478        738704034.66737461     
   1518196919.4526312        30432548.739310145        736838151.60668945     
   1853466204.3566813        25865498.271019936        887471901.01225913     
   1728360088.4227233        29590765.107321143        877341986.96928632     
   1603061506.5283709        32674478.742307663        870636112.90482378     
   1477570458.6736286        35116639.175991774        867354278.81886375     
   1351886944.8584828        36917246.408340156        867496484.71141851     
   1656112706.0600033        30929429.155356884        1010588423.5915414     
   1540259622.9544735        34605022.429899633        1001841888.8231522     
   1424401438.9058638        38263612.560837448        996800494.76622295     
   1308538153.9141684        41905199.548170447        995464241.42074990     
   1192669767.9793980        45529783.391897619        997833128.78672767     
   1462639425.6732435        37157425.412669420        1132508887.0606151     
   1356842520.3474243        41024288.610831678        1125364324.0870068     
   1251227879.0958419        45498698.723109424        1122206002.5578043     
   1145795501.9184902        50580655.749498010        1123033922.4730115     
   1040545388.8153590        56270159.689955473        1127848083.8326294     
   1691599691.7618384        26075690.384794354        605858129.47253716     
   1550930135.7495933        26576565.044730842        592429053.38366187     
   1411457417.4342699        31066898.694417357        577770725.94030070     
   1273181536.8158829        39546691.333881140        561883147.14247143     
   1136102493.8944073        52015942.963060260        544766316.99016142     
   1518196919.4526312        30432548.739310145        736838151.60668945     
   1375839308.1723297        28250758.759702563        727662073.46557188     
   1233795112.6663029        27113688.027695715        719035819.08185315     
   1092064332.9345756        27021336.543346703        710959388.45554745     
   950646968.97714365        27973704.306644499        703432781.58663857     
   1351886944.8584828        36917246.408340156        867496484.71141851     
   1212924350.0583479        33577713.313624084        861542745.60831869     
   1073391749.1098692        28338159.724429011        857917905.37450409     
   933289142.01305413        21198585.640781879        856621964.00998068     
   792616528.76789641        12158991.062653661        857654921.51473820     
   1192669767.9793980        45529783.391897619        997833128.78672767     
   1062185261.4076679        42557428.706550062        994071069.81190872     
   930247326.76496911        34740313.784618199        994416984.81826067     
   796855964.05130577        22078438.626145363        998870873.80578327     
   662011173.26665282        4571803.2310472727        1007432736.7744811     
   1040545388.8153590        56270159.689955473        1127848083.8326294     
   923622042.22028935        55189904.938473284        1125247046.0763464     
   804361845.63160408        46320150.208277941        1128533057.4131262     
   682764799.04931879        29660895.499416560        1137706117.8429501     
   558830902.47342312        5212140.8118583560        1152766227.3658423     
   1136102493.8944073        52015942.963060260        544766316.99016142     
   951320580.63621962        40586239.661335170        562925598.60673475     
   759020009.57347727        4094343.6777721047        592020381.19722164     
   559200780.70618129       -57459744.987639040        632050664.76163554     
   351862894.03433079       -144076026.33490393        683016449.29996681     
   950646968.97714365        27973704.306644499        703432781.58663857     
   791530324.72325814        10992142.946801603        721343048.20770741     
   623776652.58459365       -34779511.362302333        749341526.48695958     
   447385952.56115758       -109341258.62064001        787428216.42439806     
   262358224.65295330       -212693098.82820550        835603118.02001870     
   792616528.76789641        12158991.062653661        857654921.51473820     
   656744326.90191495       -11100676.340263128        874011408.04672098     
   511116727.07094514       -66878336.959805369        899608816.92114472     
   355733729.27498406       -155173990.79598576        934447148.13801968     
   190595333.51403767       -275987637.84878522        978526401.69735348     
   662011173.26665282        4571803.2310472727        1007432736.7744811     
   546962587.17220140       -25692218.199833989        1020930678.1237741     
   421040233.03254479       -92202133.114721060        1042822252.4997942     
   284244110.84767348       -194957941.51365936        1073107459.9025234     
   136574220.61759132       -333959643.39662910        1111786300.3319664     
   558830902.47342312        5212140.8118583560        1152766227.3658423     
   462185105.53410697       -32782482.631919086        1162100858.4388704     
   353547170.46937019       -110750899.82709903        1178981833.2228832     
   232917097.27920467       -228693110.77370793        1203409151.7178845     
   100294885.96361899       -386609115.47171748        1235382813.9238627     
   351862894.03433079       -144076026.33490393        683016449.29996681     
   277837094.21239388       -285198055.62166893        786361526.63298118     
   149022672.63817880       -608948824.08270013        905510941.94350731     
  -34580370.688304186       -1115328331.7179465        1040464695.2315305     
  -272972035.76705253       -1804336578.5274277        1191222786.4970593     
   262358224.65295330       -212693098.82820550        835603118.02001870     
   223638132.37430710       -352346355.29586411        884997627.72818112     
   140680096.36574009       -639459424.19658113        945407088.45695400     
   13484116.627254784       -1074032305.5303702        1016831500.2063576     
  -157949806.84115171       -1656064999.2972190        1099270862.9763665     
   190595333.51403767       -275987637.84878522        978526401.69735348     
   173496986.04472822       -418277310.31747693        986279468.14006424     
   122711372.86784256       -672857868.47809887        1000258098.6465086     
   38238493.983394206       -1039729312.3305964        1020462293.2166809     
  -79921650.608629286       -1518891641.8750236        1046892051.8505760     
   136574220.61759132       -333959643.39662910        1111786300.3319664     
   127413655.22365093       -482990920.68656754        1090207047.8686359     
   95116502.144490063       -709144156.92724025        1070063972.5121450     
   39682761.380102932       -1012419352.1186568        1051357074.2625127     
  -38887567.069510341       -1392816506.2608495        1034086353.1196861     
   100294885.96361899       -386609115.47171748        1235382813.9238627     
   85388139.911091655       -546487186.40306282        1196780366.9138863     
   57895484.195675701       -748318289.54403687        1154824710.0538733     
   17816918.817401290       -992102424.89454460        1109515843.3438125     
  -34847556.223767042       -1277839592.4546878        1060853766.7837075     
   3019643383.0895290        14379383.855468631        1150691502.9946282     
   2921143060.2550087        5030682.2682534456        1140445319.3628325     
   2823700571.7481685       -791904.89336133003        1135518526.1548254     
   2727315917.5690103       -3088377.6293694973        1135911123.3706017     
   2631989097.7175341       -1858735.9397774935        1141623111.0101652     
   2638516377.9634213        12291727.883123398        1221275208.6210375     
   2554105484.4654388        5171278.4896768332        1212749686.6772573     
   2470509482.8800788        767135.47164165974        1209228584.8315468     
   2387728373.2073412       -920701.17099177837        1210711903.0839050     
   2305762155.4472270        107768.56178617477        1217199641.4343243     
   2259634296.2964563        10877548.948516130        1291231947.3457670     
   2188412916.9186740        5715377.1839464903        1284143654.2724397     
   2117763487.0384507        2459703.7445803881        1281744810.9714587     
   2047686006.6557913        1110528.6304231882        1284035417.4428244     
   1978180475.7706928        1667851.8414713144        1291015473.6865320     
   1882997138.0886412        10136847.051655293        1360561719.1688337     
   1824065357.6147120        6662978.3510531187        1354627222.1483827     
   1765462584.2232833        4285799.9254570007        1353067204.5745590     
   1707188817.9143577        3005311.7748724222        1355881666.4473634     
   1649244058.6879368        2821513.8992967606        1363070607.7667918     
   1508604903.3399706        10069622.192539752        1429264524.0902193     
   1461062806.5535548        8014081.9910077453        1424200390.3050833     
   1413606774.4345772        6245424.0142753720        1423195765.6408484     
   1366236806.9830453        4763648.2623588443        1426250650.0975206     
   1318952904.1989548        3568754.7352479100        1433365043.6750998     
   2631989097.7175341       -1858735.9397774935        1141623111.0101652     
   2536622045.3670664        769232.37503790855        1135231418.0337148     
   2441127090.3646913        2970858.5168262720        1133015024.6022971     
   2345504232.7104030        4746142.4855703115        1134973930.7159235     
   2249753472.4042029        6095084.2812778950        1141108136.3745792     
   2305762155.4472270        107768.56178617477        1217199641.4343243     
   2221126538.9632645        1546011.3698583841        1210338891.2519765     
   2136474223.5507123        2928591.0826269388        1207832344.2311542     
   2051805209.2095754        4255507.7001136541        1209680000.3718529     
   1967119495.9398479        5526761.2222967148        1215881859.6740756     
   1978180475.7706928        1667851.8414713144        1291015473.6865320     
   1904787448.3431935        2069715.0997831821        1283815403.9755027     
   1831488925.7104287        2786594.3405426741        1281148441.0424798     
   1758284907.8723953        3818489.5637410879        1283014584.8874669     
   1685175394.8290977        5165400.7693904638        1289413835.5104587     
   1649244058.6879368        2821513.8992967606        1363070607.7667918     
   1587604773.5068557        2340343.5648353696        1355660956.2042871     
   1526171196.8438334        2544868.2905633450        1352963315.0362737     
   1464943328.6988647        3435088.0764752626        1354977684.2627535     
   1403921169.0719533        5011002.9225724936        1361704063.8837266     
   1318952904.1989548        3568754.7352479100        1433365043.6750998     
   1269578514.4542539        2357896.7650067210        1425875547.9383280     
   1220521036.9509301        2203412.9326890707        1423276966.2125354     
   1171780471.6889832        3105303.2382943034        1425569298.4977193     
   1123356818.6684153        5063567.6818298697        1432752544.7938836     
   2249753472.4042029        6095084.2812778950        1141108136.3745792     
   2152670019.4320745        7389496.5902736187        1133559319.0081270     
   2055942125.1424580        9869104.5076340437        1130320202.8918288     
   1959569789.5353413        13533908.033341408        1131390788.0256944     
   1863553012.6107376        18383907.167412877        1136771074.4097190     
   1967119495.9398479        5526761.2222967148        1215881859.6740756     
   1881388586.4793036        6893260.6747071743        1208997225.4566772     
   1795943917.5654573        9213895.2827781439        1206518980.2726290     
   1710785489.1983202        12488665.046541572        1208447124.1219239     
   1625913301.3778758        16717569.965957344        1214781657.0045655     
   1685175394.8290977        5165400.7693904638        1289413835.5104587     
   1611073279.6892362        6686862.6079427004        1283112513.2836800     
   1537188086.9602726        8931399.1494796276        1281314267.8734362     
   1463519816.6422057        11899010.394006789        1284019099.2797201     
   1390068468.7350335        15589696.341517389        1291227007.5025401     
   1403921169.0719533        5011002.9225724936        1361704063.8837266     
   1341724099.0618787        6770302.3899958134        1355905182.4891324     
   1279674633.3268962        9021616.1077206731        1354706065.6942501     
   1217772771.8670053        11764944.075749874        1358106713.4990914     
   1156018514.6822038        15000286.294082940        1366107125.9036460     
   1123356818.6684153        5063567.6818298697        1432752544.7938836     
   1073341044.5972306        7143580.0208599567        1427375233.0730295     
   1023403556.6653270        9484546.1574921012        1426694373.7350755     
   973544354.87271667        12086466.091768444        1430709966.7800262     
   923763439.21938586        14949339.823645353        1439422012.2078831     
   1863553012.6107376        18383907.167412877        1136771074.4097190     
   1763184274.6314354        22609482.578963637        1129304522.8057203     
   1662909097.4820864        27146927.423691869        1126105307.7128723     
   1562727481.1626866        31996241.701585889        1127173429.1311710     
   1462639425.6732435        37157425.412669420        1132508887.0606151     
   1625913301.3778758        16717569.965957344        1214781657.0045655     
   1536665790.9100792        20247137.281292140        1208157152.6369829     
   1447536386.6143341        24170391.836804092        1205980719.4046886     
   1358525088.4906507        28487333.632515430        1208252357.3076868     
   1269631896.5390162        33197962.668398261        1214972066.3459787     
   1390068468.7350335        15589696.341517389        1291227007.5025401     
   1312458570.4191456        18578170.952749074        1285473186.6038249     
   1234991323.6174200        22042150.611185431        1284348171.4645469     
   1157666728.3298519        25981635.316813111        1287851962.0847006     
   1080484784.5564418        30396625.069636285        1295984558.4642906     
   1156018514.6822038        15000286.294082940        1366107125.9036460     
   1090562613.1586380        17602583.593339562        1361252624.7062590     
   1025273908.4913328        20762203.746799350        1361207663.8924422     
   960152400.68029320        24479146.754470944        1365972243.4622028     
   895198089.72551715        28753412.616365939        1375546363.4155478     
   923763439.21938586        14949339.823645353        1439422012.2078831     
   870977919.12855303        17320375.203056902        1435495466.9442682     
   818384141.23608232        20330551.243675947        1436559196.6883771     
   765982105.54197896        23979867.945520103        1442613201.4402025     
   713771812.04624271        28268325.308590591        1453657481.1997490     
   1462639425.6732435        37157425.412669420        1132508887.0606151     
   1356842520.3474243        41024288.610831678        1125364324.0870068     
   1251227879.0958419        45498698.723109424        1122206002.5578043     
   1145795501.9184902        50580655.749498010        1123033922.4730115     
   1040545388.8153590        56270159.689955473        1127848083.8326294     
   1269631896.5390162        33197962.668398261        1214972066.3459787     
   1174432457.4184408        36268309.270161390        1209494453.7204061     
   1079280796.7741046        39497917.459380865        1208366308.2536314     
   984176914.60598660        42886787.235995054        1211587629.9456513     
   889120810.91409624        46434918.600040793        1219158418.7964656     
   1080484784.5564418        30396625.069636285        1295984558.4642906     
   996920599.39650404        32981791.401621819        1292016996.3224225     
   913269707.11479425        35277933.994367033        1292762127.0537326     
   829532107.71130705        37285052.847855955        1298219950.6582286     
   745707801.18604851        39003147.962104023        1308390467.1359041     
   895198089.72551715        28753412.616365939        1375546363.4155478     
   824306946.28160429        31164735.005184859        1372931951.8930428     
   753194610.11791480        32838748.328082502        1375393458.9581137     
   681861081.23445034        33775452.585068643        1382930884.6107452     
   610306359.63120675        33974847.776119024        1395544228.8509469     
   713771812.04624271        28268325.308590591        1453657481.1997490     
   656591498.07374430        30817140.080859929        1452239320.4322798     
   599055505.78346765        32180360.460537642        1456260303.9667661     
   541163835.17541325        32357986.447619766        1465720431.8032036     
   482916486.24957871        31350018.042104825        1480619703.9415965     
   1040545388.8153590        56270159.689955473        1127848083.8326294     
   923622042.22028935        55189904.938473284        1125247046.0763464     
   804361845.63160408        46320150.208277941        1128533057.4131262     
   682764799.04931879        29660895.499416560        1137706117.8429501     
   558830902.47342312        5212140.8118583560        1152766227.3658423     
   889120810.91409624        46434918.600040793        1219158418.7964656     
   787211585.91554677        44515980.484050691        1216642806.5790009     
   683005483.70140374        34940784.982746392        1219983011.8883903     
   576502504.27166498        17709332.096127957        1229179034.7246277     
   467702647.62632120       -7178378.1758431494        1244230875.0877066     
   745707801.18604851        39003147.962104023        1308390467.1359041     
   658723464.73772156        36218756.567736685        1306006915.3649375     
   569482223.85180593        25911350.381403863        1309447949.5546134     
   477984078.52830189        8080929.4031070471        1318713569.7049372     
   384229028.76720780       -17272506.367148086        1333803775.8158963     
   610306359.63120675        33974847.776119024        1395544228.8509469     
   538157678.68679416        30298233.189468622        1393339372.4341540     
   463792066.08280945        19231846.404240951        1396927870.4117935     
   387209521.81923616        775687.42038516700        1406309722.7838686     
   308410045.89608556       -25070243.762059003        1421484929.5503788     
   482916486.24957871        31350018.042104825        1480619703.9415965     
   425514227.76277816        26754410.349290639        1478640177.7866514     
   365935010.39441240        14902273.051256210        1482422774.4599354     
   304178834.14446390       -4206393.8520541340        1491967493.9614463     
   240245699.01295412       -30571590.360566035        1507274336.2911849     
   558830902.47342312        5212140.8118583560        1152766227.3658423     
   462185105.53410697       -32782482.631919086        1162100858.4388704     
   353547170.46937019       -110750899.82709903        1178981833.2228832     
   232917097.27920467       -228693110.77370793        1203409151.7178845     
   100294885.96361899       -386609115.47171748        1235382813.9238627     
   467702647.62632120       -7178378.1758431494        1244230875.0877066     
   390199596.59895211       -41549397.552496627        1242728606.1436975     
   302550114.57393152       -109741853.58799401        1247568966.3285439     
   204754201.55126762       -211755746.28230363        1258751955.6422760     
   96811857.530943871       -347591075.63547134        1276277574.0848727     
   384229028.76720780       -17272506.367148086        1333803775.8158963     
   322429539.13147700       -49051677.032780185        1323617931.8372245     
   252329325.62586874       -108499927.26466790        1318571002.4053288     
   173928388.25039396       -195617257.06277996        1318662987.5201941     
   87226727.005037561       -310403666.42716134        1323893887.1818266     
   308410045.89608556       -25070243.762059003        1421484929.5503788     
   258874933.13168472       -55289321.072753921        1404768835.5194783     
   202884803.62518391       -107025120.85711254        1391987941.4532306     
   140439657.37658548       -180277643.11513689        1383142247.3516421     
   71539494.385885239       -275046887.84682840        1378231753.2147136     
   240245699.01295412       -30571590.360566035        1507274336.2911849     
   199535778.59957236       -60262329.672423676        1486181317.1904483     
   154216548.57185966       -105317434.36538735        1467819783.4722521     
   104288008.92983836       -165736904.43937835        1452189735.1366098     
   49750159.673480466       -241520739.89449120        1439291172.1835091     
   100294885.96361899       -386609115.47171748        1235382813.9238627     
   85388139.911091655       -546487186.40306282        1196780366.9138863     
   57895484.195675701       -748318289.54403687        1154824710.0538733     
   17816918.817401290       -992102424.89454460        1109515843.3438125     
  -34847556.223767042       -1277839592.4546878        1060853766.7837075     
   96811857.530943871       -347591075.63547134        1276277574.0848727     
   79842921.761413038       -488783379.29612678        1221963065.5551813     
   51493605.923960239       -667910283.18318331        1165103366.9538243     
   11763910.018607736       -884971787.29657757        1105698478.2808139     
  -39346165.954655707       -1139967891.6363361        1043748399.5361459     
   87226727.005037561       -310403666.42716134        1323893887.1818266     
   70504229.456747711       -432217614.43566686        1255273768.3265216     
   43606881.435512543       -587947730.68733442        1184916479.1779563     
   6534682.9413394034       -777594015.18211901        1112822019.7361188     
  -40712366.025771976       -1001156467.9200395        1038990390.0010207     
   71539494.385885239       -275046887.84682840        1378231753.2147136     
   57372062.997093052       -376789891.82172036        1296712475.2279329     
   34235310.730330557       -508430632.05651343        1214264046.7262828     
   2129237.5856023729       -669969108.55119801        1130886467.7097476     
  -38946156.437103391       -861405321.30580711        1046579738.1783350     
   49750159.673480466       -241520739.89449120        1439291172.1835091     
   40446422.382458150       -322500211.45423472        1346279186.2593999     
   23378893.808412850       -429358987.29072148        1253146069.5987868     
  -1452426.0486246645       -562097067.40384614        1159891822.2016971     
  -34047537.188668460       -720714451.79365826        1066516444.0681099     
   1508604903.3399706        10069622.192539752        1429264524.0902193     
   1461062806.5535548        8014081.9910077453        1424200390.3050833     
   1413606774.4345772        6245424.0142753720        1423195765.6408484     
   1366236806.9830453        4763648.2623588443        1426250650.0975206     
   1318952904.1989548        3568754.7352479100        1433365043.6750998     
   1133963609.2947671        8305198.9962989688        1455099729.6305728     
   1097337276.2501938        6472598.1393473148        1449650946.7365630     
   1060775494.3830867        4855167.8739478588        1448487948.5204718     
   1024278263.6934447        3452908.2001004219        1451610734.9822965     
   987845584.18127239        2265819.1178183556        1459019306.1220419     
   757649040.59173918        6038793.4027142227        1479773719.4075246     
   732584972.88046682        4623082.3677753210        1473915188.3330085     
   707563942.85668766        3350830.2911429703        1472568717.4934194     
   682585950.52039969        2222037.1728152931        1475734306.8887575     
   657650995.87160122        1236703.0127871335        1483411956.5190260     
   379661197.23088485        3270405.4117798954        1503286493.4210739     
   366805896.44437701        2465534.6762987077        1496993115.0944126     
   353972119.85538316        1732411.2658688575        1495438072.5596883     
   341159867.46390444        1071035.1804867536        1498621365.8169022     
   328369139.26994222        481406.42016047239        1506542994.8660555     
   79.212207855277001        35.023498753187425        1525638051.6712208     
   46.941918941688897       -44.935095067943053        1518884727.0207756     
   25.379173488046252       -89.201875968143241        1517096013.7192783     
   14.523965844106876       -97.776866251000683        1520271911.7667310     
   14.376296032746247       -70.660062370816860        1528412421.1631312     
   1318952904.1989548        3568754.7352479100        1433365043.6750998     
   1269578514.4542539        2357896.7650067210        1425875547.9383280     
   1220521036.9509301        2203412.9326890707        1423276966.2125354     
   1171780471.6889832        3105303.2382943034        1425569298.4977193     
   1123356818.6684153        5063567.6818298697        1432752544.7938836     
   987845584.18127239        2265819.1178183556        1459019306.1220419     
   951196876.94364309        1472310.7771541476        1452128204.1225026     
   914785853.07311606        1471080.3268335462        1450038863.2029071     
   878612512.56968951        2262127.7668455243        1452751283.3632545     
   842676855.43336380        3845453.0971935391        1460265464.6035480     
   657650995.87160122        1236703.0127871335        1483411956.5190260     
   633473248.48094678        784127.50368174911        1477026814.5700636     
   609453955.58311570        859733.63731843233        1475354280.7700095     
   585593117.17810750        1463521.4137001336        1478394355.1188641     
   561890733.26592326        2595490.8328271806        1486147037.6166265     
   328369139.26994222        481406.42016047239        1506542994.8660555     
   316407629.06616414        293346.94458222389        1500571379.2810118     
   304525344.48092991        369372.86415123940        1499223218.9138420     
   292722285.51424193        709484.17887473106        1502498513.7645454     
   280998452.16609991        1313680.8887492865        1510397263.8331239     
   14.376296032746247       -70.660062370816860        1528412421.1631312     
   18.699292892498331       -30.900147207452338        1522761898.2553482     
   19.766556340446058       -1.9926781378811249        1521645677.6344056     
   17.578090700054084        16.062361331113827        1525063759.3003025     
   12.133892700129577        23.264959601666998        1533016143.2530367     
   1123356818.6684153        5063567.6818298697        1432752544.7938836     
   1073341044.5972306        7143580.0208599567        1427375233.0730295     
   1023403556.6653270        9484546.1574921012        1426694373.7350755     
   973544354.87271667        12086466.091768444        1430709966.7800262     
   923763439.21938586        14949339.823645353        1439422012.2078831     
   842676855.43336380        3845453.0971935391        1460265464.6035480     
   804794831.15651870        5294404.8572672606        1454974103.3648906     
   766971521.25228083        6939071.1926967800        1454465572.7956512     
   729206925.72064829        8779452.1034765244        1458739872.8958404     
   691501044.56162024        10815547.589604676        1467797003.6654522     
   561890733.26592326        2595490.8328271806        1486147037.6166265     
   536389253.88776785        3487420.5452601910        1480918793.1323714     
   510926917.11553776        4509825.6107781827        1480559757.6040568     
   485503722.94923180        5662706.0293766558        1485069931.0316908     
   460119671.38885164        6946061.8010597527        1494449313.4152699     
   280998452.16609991        1313680.8887492865        1510397263.8331239     
   268124312.79097965        1722627.0848449320        1505209302.3754737     
   255269744.25510210        2196809.4117488861        1504976928.1602886     
   242434746.55847239        2736227.8694790006        1509700141.1875751     
   229619319.70108384        3340882.4580134302        1519378941.4573236     
   12.133892700129577        23.264959601666998        1533016143.2530367     
   7.8661525095811164        24.476016314455659        1527845631.0941999     
   2.6709778162108835        22.595624684505079        1527717084.4643528     
  -3.4516340335361546        17.623775172742423        1532630503.3634930     
  -10.501682765154305        9.5604707758548386        1542585887.7916191     
   923763439.21938586        14949339.823645353        1439422012.2078831     
   870977919.12855303        17320375.203056902        1435495466.9442682     
   818384141.23608232        20330551.243675947        1436559196.6883771     
   765982105.54197896        23979867.945520103        1442613201.4402025     
   713771812.04624271        28268325.308590591        1453657481.1997490     
   691501044.56162024        10815547.589604676        1467797003.6654522     
   651582652.05524647        12495046.807205200        1464412965.6976252     
   611808066.36463130        14653902.077331781        1466096028.4397635     
   572177287.48975992        17292113.399941683        1472846191.8918834     
   532690315.43065143        20409680.775088876        1484663456.0539739     
   460119671.38885164        6946061.8010597527        1494449313.4152699     
   433287908.47338343        7999875.4587931782        1491551858.1301703     
   406552016.99105781        9373260.5603350997        1493798329.2572992     
   379911996.94187111        11066217.105672538        1501188726.7966585     
   353367848.32582706        13078745.094820559        1513723050.7482479     
   229619319.70108384        3340882.4580134302        1519378941.4573236     
   216093688.38296571        3834861.1578214243        1516912144.2419071     
   202615993.11536953        4488626.6927052215        1519666099.1409762     
   189186233.89831197        5302179.0627171844        1527640806.1545267     
   175804410.73177367        6275518.2677918598        1540836265.2825665     
  -10.501682765154305        9.5604707758548386        1542585887.7916191     
  -8.2160153222945542        3.9042673398300005        1540493824.0328395     
  -5.2624313331881094       0.47445239129414718        1543699338.0907967     
  -1.6409320559860598      -0.72897756970030336        1552202429.9654949     
   2.6484813426623983       0.29397148634782733        1566003099.6569319     
   713771812.04624271        28268325.308590591        1453657481.1997490     
   656591498.07374430        30817140.080859929        1452239320.4322798     
   599055505.78346765        32180360.460537642        1456260303.9667661     
   541163835.17541325        32357986.447619766        1465720431.8032036     
   482916486.24957871        31350018.042104825        1480619703.9415965     
   532690315.43065143        20409680.775088876        1484663456.0539739     
   489521180.70994055        22236122.233113796        1483530988.8805854     
   446085287.22711563        23173367.817423582        1487903909.1329844     
   402382634.98218048        23221417.528034657        1497782216.8111632     
   358413223.97512543        22380271.364910141        1513165911.9151354     
   353367848.32582706        13078745.094820559        1513723050.7482479     
   324399158.92498970        14239593.059016854        1512980016.6505475     
   295252630.31770152        14807643.668377563        1517808613.1024656     
   265928262.50396875        14782896.922922507        1528208840.1040001     
   236426055.48378652        14165352.822636463        1544180697.6551473     
   175804410.73177367        6275518.2677918598        1540836265.2825665     
   161225432.71889129        6827552.5585689843        1540586403.7421641     
   146557535.05523485        7083188.0134324357        1545974415.8752117     
   131800717.74078640        7042424.6323225051        1557000301.6817079     
   116954980.77556229        6705262.4152938463        1573664061.1616464     
   2.6484813426623983       0.29397148634782733        1566003099.6569319     
   2.0916555117970157       0.73180321692566275        1566350150.1554377     
   1.4397083342348833       0.85256101629010428        1572401317.4512262     
  0.69264104525161929       0.65625316536288802        1584156601.5442874     
 -0.14953944675950495       0.14290130434280424        1601616002.4346325     
   482916486.24957871        31350018.042104825        1480619703.9415965     
   425514227.76277816        26754410.349290639        1478640177.7866514     
   365935010.39441240        14902273.051256210        1482422774.4599354     
   304178834.14446390       -4206393.8520541340        1491967493.9614463     
   240245699.01295412       -30571590.360566035        1507274336.2911849     
   358413223.97512543        22380271.364910141        1513165911.9151354     
   316165616.88916123        19174791.540858403        1509750896.2772419     
   272285290.65063322        10526914.541598186        1511910383.2266707     
   226772245.25955504       -3563359.6328305900        1519644372.7634141     
   179626480.71591109       -23096030.982480086        1532952864.8874764     
   236426055.48378652        14165352.822636463        1544180697.6551473     
   208797041.96748152        12189183.518005691        1539965138.8848279     
   180079549.02762896        6584749.4682134688        1541136462.4609139     
   150273576.66422299       -2647949.3267537802        1547694668.3833990     
   119379124.87727232       -15508912.866872862        1559639756.6522918     
   116954980.77556229        6705262.4152938463        1573664061.1616464     
   103408502.99774548        5797586.2807468846        1569282905.6094096     
   89317785.525379747        3075777.8310381994        1570101012.1626635     
   74682828.358484387       -1460162.9337690696        1576118380.8214083     
   59503631.497039281       -7810236.0137439296        1587335011.5856450     
 -0.14953944675950495       0.14290130434280424        1601616002.4346325     
  -2.0060327025879530E-002 -0.17095949198422486        1597704196.4509859     
  0.14389108036951057      -0.36991058110386721        1598804032.3319178     
  0.34231468392476772      -0.45395573746940032        1604915510.0774322     
  0.57521020913419896      -0.42309379443162931        1616038629.6875234     
   240245699.01295412       -30571590.360566035        1507274336.2911849     
   199535778.59957236       -60262329.672423676        1486181317.1904483     
   154216548.57185966       -105317434.36538735        1467819783.4722521     
   104288008.92983836       -165736904.43937835        1452189735.1366098     
   49750159.673480466       -241520739.89449120        1439291172.1835091     
   179626480.71591109       -23096030.982480086        1532952864.8874764     
   148394469.52181554       -45573956.725945592        1507366277.3478658     
   113705476.11852537       -79575156.500061259        1484674408.3862994     
   75559500.506037951       -125099630.30483159        1464877258.0027745     
   33956542.684350699       -182147378.14026946        1447974826.1972950     
   119379124.87727232       -15508912.866872862        1559639756.6522918     
   98091403.461018667       -30634110.874359563        1530903982.6464641     
   74499027.240691319       -53441491.562092587        1505226160.4141736     
   48601996.216292553       -83931054.930061877        1482606289.9554179     
   20400310.387821943       -122102800.97827071        1463044371.2701905     
   59503631.497039281       -7810236.0137439296        1587335011.5856450     
   48626580.417176738       -15442792.117687047        1556794433.0862453     
   36597201.938362226       -26916439.551472016        1529475039.5558701     
   23415496.060606845       -42231178.315057516        1505376830.9945211     
   9081462.7838976867       -61387008.408488937        1484499807.4022012     
  0.57521020913419896      -0.42309379443162931        1616038629.6875234     
  0.39028029892112154      -0.45595752448393811        1585037628.6671946     
  0.21153619149379146      -0.46820052413830826        1557421045.8113835     
   3.8963406676908174E-002 -0.45987210147982732        1533188881.1200969     
 -0.12742792169436540      -0.43094090567081850        1512341134.5933228     
   49750159.673480466       -241520739.89449120        1439291172.1835091     
   40446422.382458150       -322500211.45423472        1346279186.2593999     
   23378893.808412850       -429358987.29072148        1253146069.5987868     
  -1452426.0486246645       -562097067.40384614        1159891822.2016971     
  -34047537.188668460       -720714451.79365826        1066516444.0681099     
   33956542.684350699       -182147378.14026946        1447974826.1972950     
   29807794.226698518       -242033265.44520202        1347490331.6198690     
   19836202.299959689       -321328630.98042345        1246224593.5919526     
   4041766.9041514397       -420033474.74587691        1144177612.1135397     
  -17575511.960739344       -538147796.74160135        1041349387.1846501     
   20400310.387821943       -122102800.97827071        1463044371.2701905     
   19520514.437822938       -161460914.92609417        1357351807.1557064     
   14758822.832665741       -213758681.05777684        1250217886.8767312     
   6115235.5723606944       -278996099.37328094        1141642610.4332592     
  -6410247.3430997729       -357173169.87264460        1031625977.8252909     
   9081462.7838976867       -61387008.408488937        1484499807.4022012     
   9584583.0158218332       -80783159.896942288        1375863612.8669021     
   8146755.4065331519       -106649137.52276894        1265125949.4531076     
   4767979.9559989348       -138984941.28608125        1152286817.1608205     
  -551743.33574372530       -177790571.18675953        1037346215.9900374     
 -0.12742792169436540      -0.43094090567081850        1512341134.5933228     
  -3.9290182828833398E-002 -0.35769702218506083        1403025748.7534614     
   2.1550481179797076E-002 -0.37544269433291771        1290948781.3210969     
   5.5087939704384553E-002 -0.48419974531697496        1176110232.2962437     
   6.1319081680409560E-002 -0.68397576979473618        1058510101.6788795     
   79.212207855277001        35.023498753187425        1525638051.6712208     
   46.941918941688897       -44.935095067943053        1518884727.0207756     
   25.379173488046252       -89.201875968143241        1517096013.7192783     
   14.523965844106876       -97.776866251000683        1520271911.7667310     
   14.376296032746247       -70.660062370816860        1528412421.1631312     
  -379661040.95086664       -3270352.6251710057        1503286456.6908004     
  -366805787.20559758       -2465574.0313886404        1496993099.0475323     
  -353972045.74807084       -1732503.0634166300        1495438075.0167358     
  -341159816.57828492       -1071139.7212448120        1498621384.5984070     
  -328369099.69624233       -481484.00488828123        1506543027.7925525     
  -757648879.78860235       -6038755.8762408495        1479773675.5400786     
  -732584847.84628487       -4623071.0756401122        1473915174.7428262     
  -707563851.18699038       -3350837.2184503078        1472568729.8215654     
  -682585889.81072211       -2222054.3046794236        1475734340.7762992     
  -657650963.71747756       -1236722.3343215585        1483412007.6070235     
  -1133963437.3009999       -8305174.7297082543        1455099708.2190516     
  -1097337134.9801407       -6472536.0678354502        1449650954.1066551     
  -1060775390.9375907       -4855091.6669912934        1448487978.1337698     
  -1024278205.1733460       -3452841.5271649957        1451610780.3004003     
  -987845577.68740749       -2265785.6483607888        1459019360.6065443     
  -1508604713.4880559       -10069609.185573399        1429264554.7277298     
  -1461062648.6071672       -8013969.0079886317        1424200437.1390202     
  -1413606664.9998686       -6245266.4090356231        1423195819.9533477     
  -1366236762.6661596       -4763501.3887149692        1426250703.1707118     
  -1318952941.6060369       -3568673.9470164776        1433365086.7911134     
   14.376296032746247       -70.660062370816860        1528412421.1631312     
   18.699292892498331       -30.900147207452338        1522761898.2553482     
   19.766556340446058       -1.9926781378811249        1521645677.6344056     
   17.578090700054084        16.062361331113827        1525063759.3003025     
   12.133892700129577        23.264959601666998        1533016143.2530367     
  -328369099.69624233       -481484.00488828123        1506543027.7925525     
  -316407589.21637881       -293380.99559691548        1500571401.0495496     
  -304525307.62662739       -369374.28667825460        1499223231.3905175     
  -292722254.92698920       -709463.87813840806        1502498518.8154578     
  -280998431.11746448       -1313649.7699766308        1510397263.3243682     
  -657650963.71747756       -1236722.3343215585        1483412007.6070235     
  -633473219.08894181       -784137.67811238766        1477026847.1220224     
  -609453928.98489904       -859734.77021184564        1475354298.5181246     
  -585593093.40534949       -1463513.6106223762        1478394361.7953303     
  -561890712.35029364       -2595474.1993461549        1486147036.9536395     
  -987845577.68740749       -2265785.6483607888        1459019360.6065443     
  -951196870.91839397       -1472300.9476887584        1452128236.4727678     
  -914785844.30825770       -1471083.4432746172        1450038879.0172257     
  -878612497.85699069       -2262133.1350922585        1452751288.2399192     
  -842676831.56459761       -3845450.0231555700        1460265464.1408451     
  -1318952941.6060369       -3568673.9470164776        1433365086.7911134     
  -1269578544.7047422       -2357870.8043489456        1425875569.1017842     
  -1220521053.5966980       -2203420.3058502078        1423276972.8878207     
  -1171780468.2819104       -3105322.4515410066        1425569298.1492260     
  -1123356788.7603796       -5063577.2414184213        1432752544.8859956     
   12.133892700129577        23.264959601666998        1533016143.2530367     
   7.8661525095811164        24.476016314455659        1527845631.0941999     
   2.6709778162108835        22.595624684505079        1527717084.4643528     
  -3.4516340335361546        17.623775172742423        1532630503.3634930     
  -10.501682765154305        9.5604707758548386        1542585887.7916191     
  -280998431.11746448       -1313649.7699766308        1510397263.3243682     
  -268124299.95463812       -1722592.2983205020        1505209300.8507023     
  -255269741.33630341       -2196776.6416368037        1504976925.5806515     
  -242434755.26246732       -2736202.7999492437        1509700137.5142243     
  -229619341.73312908       -3340870.7732526511        1519378936.6514063     
  -561890712.35029364       -2595474.1993461549        1486147036.9536395     
  -536389240.97224307       -3487399.0316824615        1480918790.6119049     
  -510926913.75574780       -4509804.4025363922        1480559753.1484210     
  -485503730.70081234       -5662690.3119203448        1485069924.5631804     
  -460119691.80742997       -6946056.7598174512        1494449304.8561871     
  -842676831.56459761       -3845450.0231555700        1460265464.1408451     
  -804794815.18667316       -5294395.7241015434        1454974100.3778110     
  -766971514.58736122       -6939060.6870904565        1454465567.1676519     
  -729206929.76666749       -8779444.9121412337        1458739864.5103679     
  -691501060.72458935       -10815548.399240673        1467796992.4059551     
  -1123356788.7603796       -5063577.2414184213        1432752544.8859956     
  -1073341022.5979223       -7143582.3755647540        1427375230.1484215     
  -1023403543.8311419       -9484545.4952963591        1426694367.6383491     
  -973544352.46004236       -12086466.600632548        1430709957.3557827     
  -923763448.48461163       -14949345.691532731        1439421999.3007193     
  -10.501682765154305        9.5604707758548386        1542585887.7916191     
  -8.2160153222945542        3.9042673398300005        1540493824.0328395     
  -5.2624313331881094       0.47445239129414718        1543699338.0907967     
  -1.6409320559860598      -0.72897756970030336        1552202429.9654949     
   2.6484813426623983       0.29397148634782733        1566003099.6569319     
  -229619341.73312908       -3340870.7732526511        1519378936.6514063     
  -216093705.58157891       -3834858.2662190050        1516912141.6152697     
  -202616004.34026450       -4488628.7933025211        1519666098.3138666     
  -189186238.00918418       -5302182.3544997945        1527640806.7471905     
  -175804406.58833432       -6275518.9498018473        1540836266.9152515     
  -460119691.80742997       -6946056.7598174512        1494449304.8561871     
  -433287924.88145399       -7999877.0170087814        1491551853.7015224     
  -406552028.44386095       -9373265.5688068271        1493798328.1995821     
  -379912002.49464357       -11066222.415190980        1501188728.3503692     
  -353367847.03380769       -13078747.556179166        1513723054.1538761     
  -691501060.72458935       -10815548.399240673        1467796992.4059551     
  -651582666.11563575       -12495052.348088890        1464412960.2915893     
  -611808077.57320917       -14653909.852026403        1466096027.7479467     
  -572177295.09730589       -17292120.911039650        1472846194.7750227     
  -532690318.68792808       -20409685.525143892        1484663461.3728089     
  -923763448.48461163       -14949345.691532731        1439421999.3007193     
  -870977929.28412306       -17320384.259453982        1435495461.3854840     
  -818384151.72831154       -20330561.642966509        1436559196.9589615     
  -765982115.81717360       -23979877.842055142        1442613206.0211506     
  -713771821.55070794       -28268332.856719822        1453657488.5720491     
   2.6484813426623983       0.29397148634782733        1566003099.6569319     
   2.0916555117970157       0.73180321692566275        1566350150.1554377     
   1.4397083342348833       0.85256101629010428        1572401317.4512262     
  0.69264104525161929       0.65625316536288802        1584156601.5442874     
 -0.14953944675950495       0.14290130434280424        1601616002.4346325     
  -175804406.58833432       -6275518.9498018473        1540836266.9152515     
  -161225429.32208708       -6827551.9293358997        1540586404.6344886     
  -146557532.62110323       -7083186.7930841595        1545974416.2089820     
  -131800716.48539057       -7042423.5410676971        1557000301.6387196     
  -116954980.91494815       -6705262.1732866392        1573664060.9237039     
  -353367847.03380769       -13078747.556179166        1513723054.1538761     
  -324399157.49312812       -14239593.617639586        1512980018.5453398     
  -295252628.98787075       -14807643.130501971        1517808613.8500185     
  -265928261.51803595       -14782896.094775811        1528208840.0679207     
  -236426055.08362150       -14165352.510450639        1544180697.1990409     
  -532690318.68792808       -20409685.525143892        1484663461.3728089     
  -489521182.42147875       -22236124.333145291        1483530991.8879805     
  -446085287.66060108       -23173368.159722373        1487903910.3743458     
  -402382634.40529394       -23221417.004866138        1497782216.8318994     
  -358413222.65556282       -22380270.868596703        1513165911.2606416     
  -713771821.55070794       -28268332.856719822        1453657488.5720491     
  -656591504.10713601       -30817144.075846314        1452239324.6624205     
  -599055508.63928771       -32180361.880717993        1456260305.7819564     
  -541163835.14716744       -32357986.271348208        1465720431.9306550     
  -482916483.63076770       -31350017.247715160        1480619703.1085143     
 -0.14953944675950495       0.14290130434280424        1601616002.4346325     
  -2.0060327025879530E-002 -0.17095949198422486        1597704196.4509859     
  0.14389108036951057      -0.36991058110386721        1598804032.3319178     
  0.34231468392476772      -0.45395573746940032        1604915510.0774322     
  0.57521020913419896      -0.42309379443162931        1616038629.6875234     
  -116954980.91494815       -6705262.1732866392        1573664060.9237039     
  -103408502.93861488       -5797586.6312023439        1569282905.5582719     
  -89317785.197518498       -3075778.5399028622        1570101012.2437003     
  -74682827.691668436        1460162.1005740054        1576118380.9799876     
  -59503630.421065189        7810235.2902264483        1587335011.7671351     
  -236426055.08362150       -14165352.510450639        1544180697.1990409     
  -208797041.58534065       -12189183.809879914        1539965138.8038189     
  -180079548.59201801       -6584750.1258346066        1541136462.6457417     
  -150273576.10365030        2647948.5416910201        1547694668.7248061     
  -119379124.12024646        15508912.192674935        1559639757.0410123     
  -358413222.65556282       -22380270.868596703        1513165911.2606416     
  -316165615.96024299       -19174791.707012087        1509750896.1876369     
  -272285290.03959721       -10526915.127670720        1511910383.5380540     
  -226772244.89363131        3563358.8694048524        1519644373.3118949     
  -179626480.52233157        23096030.284255587        1532952865.5091538     
  -482916483.63076770       -31350017.247715160        1480619703.1085143     
  -425514226.06332856       -26754410.322619274        1478640177.7097182     
  -365935009.54027337       -14902273.545469195        1482422774.9206283     
  -304178834.06160152        4206393.0837368965        1491967494.7412436     
  -240245699.62732279        30571589.564964399        1507274337.1715603     
  0.57521020913419896      -0.42309379443162931        1616038629.6875234     
  0.39028029892112154      -0.45595752448393811        1585037628.6671946     
  0.21153619149379146      -0.46820052413830826        1557421045.8113835     
   3.8963406676908174E-002 -0.45987210147982732        1533188881.1200969     
 -0.12742792169436540      -0.43094090567081850        1512341134.5933228     
  -59503630.421065189        7810235.2902264483        1587335011.7671351     
  -48626579.656289503        15442791.388285935        1556794433.2016823     
  -36597201.495734736        26916438.805611864        1529475039.6335812     
  -23415495.939390056        42231177.542235360        1505376831.0628238     
  -9081462.9872655496        61387007.598126329        1484499807.4894178     
  -119379124.12024646        15508912.192674935        1559639757.0410123     
  -98091402.883399546        30634110.278344013        1530903982.8849714     
  -74499026.861156940        53441490.981998846        1505226160.5591202     
  -48601996.053527758        83931054.303607538        1482606290.0634425     
  -20400310.460509934        122102800.24317822        1463044371.3979466     
  -179626480.52233157        23096030.284255587        1532952865.5091538     
  -148394469.29103762        45573956.214252003        1507366277.7170756     
  -113705475.88473994        79575156.060927600        1484674408.5880077     
  -75559500.303454250        125099629.82422978        1464877258.1219509     
  -33956542.547167294        182147377.50420287        1447974826.3189063     
  -240245699.62732279        30571589.564964399        1507274337.1715603     
  -199535778.87920812        60262329.195996940        1486181317.6979809     
  -154216548.56648028        105317434.04241082        1467819783.7202473     
  -104288008.68915576        165736904.10414654        1452189735.2383463     
  -49750159.247233450        241520739.38120490        1439291172.2522976     
 -0.12742792169436540      -0.43094090567081850        1512341134.5933228     
  -3.9290182828833398E-002 -0.35769702218506083        1403025748.7534614     
   2.1550481179797076E-002 -0.37544269433291771        1290948781.3210969     
   5.5087939704384553E-002 -0.48419974531697496        1176110232.2962437     
   6.1319081680409560E-002 -0.68397576979473618        1058510101.6788795     
  -9081462.9872655496        61387007.598126329        1484499807.4894178     
  -9584583.0884388834        80783159.136273220        1375863612.9265046     
  -8146755.3777856603        106649136.71384507        1265125949.4724095     
  -4767979.8553016707        138984940.33084983        1152286817.1271331     
   551743.47902307659        177790569.98732382        1037346215.8906785     
  -20400310.460509934        122102800.24317822        1463044371.3979466     
  -19520514.461519733        161460914.13303715        1357351807.2576358     
  -14758822.811555400        213758680.19280276        1250217886.9274647     
  -6115235.5106326640        278996098.42243367        1141642610.4074347     
   6410247.4412718266        357173168.82200015        1031625977.6975546     
  -33956542.547167294        182147377.50420287        1447974826.3189063     
  -29807794.158518642        242033264.63263237        1347490331.7468517     
  -19836202.279766992        321328630.06140792        1246224593.6862695     
  -4041766.9109099507        420033473.79053193        1144177612.1371498     
   17575511.948058814        538147795.82003140        1041349387.0994766     
  -49750159.247233450        241520739.38120490        1439291172.2522976     
  -40446422.179432839        322500210.63507956        1346279186.3941641     
  -23378893.782400340        429358986.31972647        1253146069.7488220     
   1452425.9438604116        562097066.43513787        1159891822.3162563     
   34047536.999385625        720714450.98142445        1066516444.0964769     
  -1508604713.4880559       -10069609.185573399        1429264554.7277298     
  -1461062648.6071672       -8013969.0079886317        1424200437.1390202     
  -1413606664.9998686       -6245266.4090356231        1423195819.9533477     
  -1366236762.6661596       -4763501.3887149692        1426250703.1707118     
  -1318952941.6060369       -3568673.9470164776        1433365086.7911134     
  -1882996935.3202200       -10136812.938542366        1360561775.8207982     
  -1824065209.7091799       -6662876.3550240993        1354627268.0228779     
  -1765462503.6507595       -4285671.6135746241        1353067238.1360548     
  -1707188817.1449611       -3005198.7141952515        1355881686.1603260     
  -1649244150.1917849       -2821457.6568942070        1363070612.0956929     
  -2259634119.4798646       -10877505.389752269        1291232017.9049287     
  -2188412797.4013562       -5715291.6791018248        1284143691.9055903     
  -2117763433.1545062       -2459604.0739703178        1281744821.3254106     
  -2047686026.7393086       -1110442.5743525028        1284035406.1643829     
  -1978180578.1557679       -1667807.1802525520        1291015446.4225128     
  -2638516265.9669862       -12291686.539204955        1221275280.9801192     
  -2554105411.6837049       -5171214.9802330732        1212749708.7871597     
  -2470509453.5111084       -767063.79021930695        1209228569.5214152     
  -2387728391.4492016        920767.03083133698        1210711863.1828852     
  -2305762225.4979835       -107722.51708030701        1217199589.7715702     
  -3019643374.7815981       -14379356.386908293        1150691565.0463715     
  -2921143052.5562248       -5030646.2584221363        1140445318.6675823     
  -2823700564.7205710        791949.23766684532        1135518482.7240703     
  -2727315911.2746367        3088430.1013559103        1135911057.2158308     
  -2631989092.2184286        1858796.3326293230        1141623042.1428649     
  -1318952941.6060369       -3568673.9470164776        1433365086.7911134     
  -1269578544.7047422       -2357870.8043489456        1425875569.1017842     
  -1220521053.5966980       -2203420.3058502078        1423276972.8878207     
  -1171780468.2819104       -3105322.4515410066        1425569298.1492260     
  -1123356788.7603796       -5063577.2414184213        1432752544.8859956     
  -1649244150.1917849       -2821457.6568942070        1363070612.0956929     
  -1587604838.2719865       -2340321.4929456711        1355660957.4039316     
  -1526171231.0083604       -2544867.5162365437        1352963315.9384334     
  -1464943328.4009097       -3435095.7267781496        1354977687.6991982     
  -1403921130.4496274       -5011006.1245549917        1361704072.6862254     
  -1978180578.1557679       -1667807.1802525520        1291015446.4225128     
  -1904787517.6434765       -2069687.9228284359        1283815389.3882470     
  -1831488960.6502738       -2786580.3957014084        1281148437.3311434     
  -1758284907.1761622       -3818484.5988779068        1283014590.2511969     
  -1685175357.2211428       -5165400.5323601961        1289413848.1484120     
  -2305762225.4979835       -107722.51708030701        1217199589.7715702     
  -2221126582.8192096       -1545970.0939813852        1210338865.0547299     
  -2136474242.5224385       -2928558.9442383051        1207832337.0659473     
  -2051805204.6076803       -4255489.0678657293        1209680005.8052211     
  -1967119469.0749280       -5526760.4648488760        1215881871.2725546     
  -2631989092.2184286        1858796.3326293230        1141623042.1428649     
  -2536622033.7991772       -769168.00640130043        1135231384.4033802     
  -2441127076.6248541       -2970803.1618565321        1133015015.1428499     
  -2345504220.6954536       -4746109.1337190866        1134973934.3612721     
  -2249753466.0109839       -6095085.9220221043        1141108142.0586491     
  -1123356788.7603796       -5063577.2414184213        1432752544.8859956     
  -1073341022.5979223       -7143582.3755647540        1427375230.1484215     
  -1023403543.8311419       -9484545.4952963591        1426694367.6383491     
  -973544352.46004236       -12086466.600632548        1430709957.3557827     
  -923763448.48461163       -14949345.691532731        1439421999.3007193     
  -1403921130.4496274       -5011006.1245549917        1361704072.6862254     
  -1341724071.2742612       -6770309.3411855698        1355905184.6974785     
  -1279674615.9170625       -9021625.2850360870        1354706061.7409599     
  -1217772764.3780355       -11764953.956126869        1358106703.8166709     
  -1156018516.6571720       -15000295.354431450        1366107110.9246166     
  -1685175357.2211428       -5165400.5323601961        1289413848.1484120     
  -1611073254.1622236       -6686876.5702876449        1283112517.7489190     
  -1537188071.3439612       -8931420.0770733356        1281314265.1863794     
  -1463519808.7663565       -11899031.052716374        1284019090.4607995     
  -1390068466.4294105       -15589709.497222066        1291226993.5721745     
  -1967119469.0749280       -5526760.4648488760        1215881871.2725546     
  -1881388571.2618060       -6893284.0628753901        1208997229.3027420     
  -1795943910.1118317       -9213929.8713934422        1206518977.9746134     
  -1710785485.6250093       -12488697.890413642        1208447117.2881670     
  -1625913297.8013296       -16717588.119919300        1214781647.2434061     
  -2249753466.0109839       -6095085.9220221043        1141108142.0586491     
  -2152670022.5730157       -7389531.8189595938        1133559319.3589489     
  -2055942132.2206841       -9869154.6680228710        1130320200.1056561     
  -1959569794.9539881       -13533954.469200969        1131390784.2987750     
  -1863553010.7729340       -18383931.222525477        1136771071.9382999     
  -923763448.48461163       -14949345.691532731        1439421999.3007193     
  -870977929.28412306       -17320384.259453982        1435495461.3854840     
  -818384151.72831154       -20330561.642966509        1436559196.9589615     
  -765982115.81717360       -23979877.842055142        1442613206.0211506     
  -713771821.55070794       -28268332.856719822        1453657488.5720491     
  -1156018516.6571720       -15000295.354431450        1366107110.9246166     
  -1090562617.3636231       -17602589.559990585        1361252616.3973525     
  -1025273915.3150305       -20762207.915394545        1361207661.2924185     
  -960152410.51139188       -24479150.420654118        1365972245.6098111     
  -895198102.95270681       -28753417.075749874        1375546369.3495324     
  -1390068466.4294105       -15589709.497222066        1291226993.5721745     
  -1312458570.0896132       -18578174.254464149        1285473177.5658932     
  -1234991326.5950494       -22042148.495818853        1284348166.9155536     
  -1157666735.9457202       -25981632.221285999        1287851961.6211581     
  -1080484798.1416237       -30396625.430865407        1295984561.6827135     
  -1625913297.8013296       -16717588.119919300        1214781647.2434061     
  -1536665787.4620950       -20247138.342893541        1208157144.8911097     
  -1447536385.5683663       -24170383.384229362        1205980713.8283722     
  -1358525092.1201560       -28487323.243956804        1208252354.0551965     
  -1269631907.1174550       -33197957.922046840        1214972065.5715859     
  -1863553010.7729340       -18383931.222525477        1136771071.9382999     
  -1763184269.4810634       -22609481.825265527        1129304518.3729968     
  -1662909092.2349794       -27146912.580622911        1126105302.0308692     
  -1562727479.0346956       -31996223.488647401        1127173422.9119248     
  -1462639429.8802040       -37157414.549316883        1132508881.0161529     
  -713771821.55070794       -28268332.856719822        1453657488.5720491     
  -656591504.10713601       -30817144.075846314        1452239324.6624205     
  -599055508.63928771       -32180361.880717993        1456260305.7819564     
  -541163835.14716744       -32357986.271348208        1465720431.9306550     
  -482916483.63076770       -31350017.247715160        1480619703.1085143     
  -895198102.95270681       -28753417.075749874        1375546369.3495324     
  -824306955.38751876       -31164738.521982968        1372931955.5423682     
  -753194615.05635023       -32838750.748276472        1375393460.6981537     
  -681861081.95919180       -33775453.754601359        1382930884.8168867     
  -610306356.09604049       -33974847.540958911        1395544227.8985763     
  -1080484798.1416237       -30396625.430865407        1295984561.6827135     
  -996920609.21542609       -32981793.732391894        1292016998.5100045     
  -913269712.78153324       -35277937.008263558        1292762128.2340388     
  -829532108.83993530       -37285055.258456796        1298219950.8548088     
  -745707797.39064133       -39003148.482991070        1308390466.3723226     
  -1269631907.1174550       -33197957.922046840        1214972065.5715859     
  -1174432465.5908501       -36268309.707048476        1209494453.5653353     
  -1079280801.8148384       -39497920.660687745        1208366308.3896117     
  -984176915.78940642       -42886790.782930553        1211587630.0444188     
  -889120807.51456678       -46434920.073812306        1219158418.5297546     
  -1462639429.8802040       -37157414.549316883        1132508881.0161529     
  -1356842524.5137928       -41024286.445967078        1125364320.7083569     
  -1251227882.1562684       -45498701.705561042        1122206001.1648800     
  -1145795502.8076060       -50580660.328034103        1123033922.3857172     
  -1040545386.4678277       -56270162.313454092        1127848084.3708758     
  -482916483.63076770       -31350017.247715160        1480619703.1085143     
  -425514226.06332856       -26754410.322619274        1478640177.7097182     
  -365935009.54027337       -14902273.545469195        1482422774.9206283     
  -304178834.06160152        4206393.0837368965        1491967494.7412436     
  -240245699.62732279        30571589.564964399        1507274337.1715603     
  -610306356.09604049       -33974847.540958911        1395544227.8985763     
  -538157676.32999384       -30298233.136009037        1393339372.0931468     
  -463792064.92088056       -19231846.587506026        1396927870.5662067     
  -387209521.86866856       -775687.89534576237        1406309723.3177543     
  -308410047.17338794        25070242.940382376        1421484930.3477900     
  -745707797.39064133       -39003148.482991070        1308390466.3723226     
  -658723462.08661234       -36218756.596414745        1306006914.9623084     
  -569482222.45204115       -25911350.274688900        1309447949.4995606     
  -477984078.48691583       -8080929.5177825093        1318713569.9840915     
  -384229030.19124472        17272505.674272850        1333803776.4158926     
  -889120807.51456678       -46434920.073812306        1219158418.5297546     
  -787211583.33317602       -44515980.703795671        1216642806.3171973     
  -683005482.13377249       -34940784.607073009        1219983011.7206948     
  -576502503.91633093       -17709331.783559561        1229179034.7402549     
  -467702648.68089318        7178377.7666174769        1244230875.3758678     
  -1040545386.4678277       -56270162.313454092        1127848084.3708758     
  -923622040.06967652       -55189905.458144307        1125247046.1578195     
  -804361843.96605301       -46320149.584585160        1128533057.2296090     
  -682764798.15693283       -29660894.692706883        1137706117.5862401     
  -558830902.64233196       -5212140.7825616598        1152766227.2277143     
  -240245699.62732279        30571589.564964399        1507274337.1715603     
  -199535778.87920812        60262329.195996940        1486181317.6979809     
  -154216548.56648028        105317434.04241082        1467819783.7202473     
  -104288008.68915576        165736904.10414654        1452189735.2383463     
  -49750159.247233450        241520739.38120490        1439291172.2522976     
  -308410047.17338794        25070242.940382376        1421484930.3477900     
  -258874933.91742417        55289320.381225020        1404768836.0591829     
  -202884803.92856213        107025120.26506405        1391987941.7861984     
  -140439657.20681840        180277642.59183988        1383142247.5288379     
  -71539493.752172276        275046887.36162579        1378231753.2871034     
  -384229030.19124472        17272505.674272850        1333803776.4158926     
  -322429540.08519661        49051676.227584541        1323617932.3419278     
  -252329326.07796896        108499926.45150563        1318571002.8033690     
  -173928388.16955140        195617256.34605187        1318662987.8002179     
  -87226726.359948039        310403665.91122234        1323893887.3324740     
  -467702648.68089318        7178377.7666174769        1244230875.3758678     
  -390199597.38252676        41549396.735077575        1242728606.5462179     
  -302550115.01468557        109741852.60177799        1247568966.7717612     
  -204754201.57737106        211755745.36673132        1258751956.0524869     
  -96811857.070580885        347591075.02992845        1276277574.3884168     
  -558830902.64233196       -5212140.7825616598        1152766227.2277143     
  -462185105.80941463        32782481.903686613        1162100858.6720531     
  -353547170.73873347        110750898.71582265        1178981833.6913688     
  -232917097.43027639        228693109.65387303        1203409152.2856555     
  -100294885.88405004        386609114.71782362        1235382814.4549148     
  -49750159.247233450        241520739.38120490        1439291172.2522976     
  -40446422.179432839        322500210.63507956        1346279186.3941641     
  -23378893.782400340        429358986.31972647        1253146069.7488220     
   1452425.9438604116        562097066.43513787        1159891822.3162563     
   34047536.999385625        720714450.98142445        1066516444.0964769     
  -71539493.752172276        275046887.36162579        1378231753.2871034     
  -57372062.640118197        376789891.16029423        1296712475.3482444     
  -34235310.635717124        508430631.26678103        1214264046.8741429     
  -2129237.7389466763        669969107.68117285        1130886467.8648088     
   38946156.050179124        861405320.40341222        1046579738.3202387     
  -87226726.359948039        310403665.91122234        1323893887.3324740     
  -70504229.055119514        432217613.89922750        1255273768.4698403     
  -43606881.294817209        587947730.07215405        1184916479.3239684     
  -6534683.0790331066        777594014.43000078        1112822019.8948412     
   40712365.592222273        1001156466.9727749        1038990390.1824678     
  -96811857.070580885        347591075.02992845        1276277574.3884168     
  -79842921.424444258        488783378.85186374        1221963065.7589900     
  -51493605.759717733        667910282.73575997        1165103367.0982955     
  -11763910.076394737        884971786.68165112        1105698478.4063346     
   39346165.625520229        1139967890.6895072        1043748399.6831084     
  -100294885.88405004        386609114.71782362        1235382814.4549148     
  -85388139.748089671        546487186.01820374        1196780367.2156630     
  -57895484.030411422        748318289.25765157        1154824710.1971281     
  -17816918.731022060        992102424.43613088        1109515843.3993065     
   34847556.150072157        1277839591.5536292        1060853766.8222101     
  -3019643374.7815981       -14379356.386908293        1150691565.0463715     
  -2921143052.5562248       -5030646.2584221363        1140445318.6675823     
  -2823700564.7205710        791949.23766684532        1135518482.7240703     
  -2727315911.2746367        3088430.1013559103        1135911057.2158308     
  -2631989092.2184286        1858796.3326293230        1141623042.1428649     
  -3397691275.8336825       -10567489.733268023        1033770182.0292780     
  -3287033747.8712363       -4846922.2311568260        1024145277.7788233     
  -3176941221.4763393       -1009693.2875466347        1019389923.4969319     
  -3067413696.6489887        944197.09757065773        1019504119.1836035     
  -2958451173.3891931        1014748.9241834879        1024487864.8388340     
  -3770616529.2569127       -5218828.7909748554        913763119.21944273     
  -3649087111.1765661       -3511998.6009914875        905334528.72319019     
  -3527629861.8416066       -2045730.8956062794        901325627.72878528     
  -3406244781.2520189       -820025.67480945587        901736416.23623276     
  -3284931869.4078093        165117.06139039993        906566894.24552631     
  -4138419135.0512972        1666626.4399752617        790670376.61686754     
  -4007303142.4722357       -1025875.3679294586        784013071.50068045     
  -3875766485.8163805       -2316163.5865180492        781325595.41963494     
  -3743809165.0837312       -2204238.2157969475        782607948.37372303     
  -3611431180.2742929       -690099.25576901436        787860130.36295009     
  -4501099093.2168226        10088875.959579945        664491954.22154915     
  -4361681841.7582226        2611447.4680411816        660180906.11129665     
  -4221351093.4006557       -1820991.3602852821        659389826.56947219     
  -4080106848.1441245       -3208440.5253894329        662118715.59607279     
  -3937949105.9886279       -1550900.0272769928        668367573.19109893     
  -2631989092.2184286        1858796.3326293230        1141623042.1428649     
  -2536622033.7991772       -769168.00640130043        1135231384.4033802     
  -2441127076.6248541       -2970803.1618565321        1133015015.1428499     
  -2345504220.6954536       -4746109.1337190866        1134973934.3612721     
  -2249753466.0109839       -6095085.9220221043        1141108142.0586491     
  -2958451173.3891931        1014748.9241834879        1024487864.8388340     
  -2851839165.4512768       -476496.68630349636        1018182937.9937215     
  -2745226975.4011164       -1967135.2559871674        1016090364.1312757     
  -2638614603.2387142       -3457166.7848471403        1018210143.2514902     
  -2532002048.9640636       -4946591.2729012966        1024542275.3543720     
  -3284931869.4078093        165117.06139039993        906566894.24552631     
  -3166969013.3692040       -157640.24596226215        900199695.54482341     
  -3049133691.8611870       -905512.65526711941        898081914.33049369     
  -2931425904.8837471       -2078500.1665073633        900213550.60253775     
  -2813845652.4368968       -3676602.7797013521        906594604.36095715     
  -3611431180.2742929       -690099.25576901436        787860130.36295009     
  -3482011577.5529671        187401.31462597847        781281657.05668676     
  -3352847226.0050526        214064.64031434059        778989665.74050581     
  -3223938125.6305523       -610109.27870225906        780984156.41441071     
  -3095284276.4294577       -2285120.4424222708        787265129.07839918     
  -3937949105.9886279       -1550900.0272769928        668367573.19109893     
  -3796966858.0025516        558627.99548053741        661428822.52931070     
  -3656367577.8327193        1391596.6307647228        658813618.36131406     
  -3516151265.4791274        948005.87858057022        660521960.68711603     
  -3376317920.9417744       -772144.26106977463        666553849.50670695     
  -2249753466.0109839       -6095085.9220221043        1141108142.0586491     
  -2152670022.5730157       -7389531.8189595938        1133559319.3589489     
  -2055942132.2206841       -9869154.6680228710        1130320200.1056561     
  -1959569794.9539881       -13533954.469200969        1131390784.2987750     
  -1863553010.7729340       -18383931.222525477        1136771071.9382999     
  -2532002048.9640636       -4946591.2729012966        1024542275.3543720     
  -2423858134.0984969       -6321132.2211099863        1016748739.5604808     
  -2315941560.4467936       -8453477.2155426741        1013172038.7378637     
  -2208252328.0089498       -11343626.256171584        1013812172.8865144     
  -2100790436.7849674       -14991579.343008757        1018669142.0064350     
  -2813845652.4368968       -3676602.7797013521        906594604.36095715     
  -2694906604.6441298       -5210840.3293251991        898705935.98995245     
  -2576066686.1934505       -7075509.0192321539        894941234.11508024     
  -2457325897.0848541       -9270608.8494182825        895300498.73633671     
  -2338684237.3183398       -11796139.819882035        899783729.85372305     
  -3095284276.4294577       -2285120.4424222708        787265129.07839918     
  -2965815434.2099018       -4058656.1435775757        779430908.64735556     
  -2836317509.4606466       -5735250.0790839195        775627786.23730218     
  -2706790502.1816974       -7314902.2489466667        775855761.84823895     
  -2577234412.3730559       -8797612.6531609297        780114835.48016310     
  -3376317920.9417744       -772144.26106977463        666553849.50670695     
  -3236584622.7958159       -2864579.6638641357        658923657.53269601     
  -3096694030.2483850       -4432700.3950901031        655231695.10453522     
  -2956646143.2994885       -5476506.4547574520        655477962.22222269     
  -2816440961.9491181       -5995997.8428503275        659662458.88576031     
  -1863553010.7729340       -18383931.222525477        1136771071.9382999     
  -1763184269.4810634       -22609481.825265527        1129304518.3729968     
  -1662909092.2349794       -27146912.580622911        1126105302.0308692     
  -1562727479.0346956       -31996223.488647401        1127173422.9119248     
  -1462639429.8802040       -37157414.549316883        1132508881.0161529     
  -2100790436.7849674       -14991579.343008757        1018669142.0064350     
  -1989348044.6569307       -18066175.333577752        1010671084.2312975     
  -1878087625.4963305       -21747347.882263899        1006658277.2733778     
  -1767009179.3031657       -26035096.989067435        1006630721.1326742     
  -1656112706.0774302       -30929422.653973103        1010588415.8091904     
  -2338684237.3183398       -11796139.819882035        899783729.85372305     
  -2216974155.5140333       -13961569.546268821        891151024.12683678     
  -2095534455.5987983       -17028272.236226201        886221482.81120718     
  -1974365137.5726418       -20996247.889779210        884995105.90683353     
  -1853466201.4355578       -25865496.506909609        887471893.41371489     
  -2577234412.3730559       -8797612.6531609297        780114835.48016310     
  -2446062602.0523672       -10295664.463321924        770744338.05961573     
  -2315249582.5423908       -12989685.642529607        764794918.64436173     
  -2184795353.8431344       -16879676.190791130        762266577.23440289     
  -2054699915.9545922       -21965636.108109951        763159313.82973695     
  -2816440961.9491181       -5995997.8428503275        659662458.88576031     
  -2676613384.2719345       -7068460.0847582817        649451026.02963066     
  -2537233006.3271070       -9631588.1011716127        642378584.77284026     
  -2398299828.1146421       -13685381.892122865        638445135.11537969     
  -2259813849.6345263       -19229841.457593441        637650677.05725455     
  -1462639429.8802040       -37157414.549316883        1132508881.0161529     
  -1356842524.5137928       -41024286.445967078        1125364320.7083569     
  -1251227882.1562684       -45498701.705561042        1122206001.1648800     
  -1145795502.8076060       -50580660.328034103        1123033922.3857172     
  -1040545386.4678277       -56270162.313454092        1127848084.3708758     
  -1656112706.0774302       -30929422.653973103        1010588415.8091904     
  -1540259623.3219490       -34605020.562872350        1001841884.2590846     
  -1424401439.0954573       -38263613.568403423        996800492.86215794     
  -1308538153.3979659       -41905201.670596063        995464241.61840832     
  -1192669766.2294595       -45529784.869405925        997833130.52784157     
  -1853466201.4355578       -25865496.506909609        887471893.41371489     
  -1728360085.8942609       -29590763.809020877        877341982.51450038     
  -1603061504.4020712       -32674477.941500664        870636111.15732133     
  -1477570456.9589915       -35116638.904334605        867354279.34218311     
  -1351886943.5650172       -36917246.697532058        867496487.06908703     
  -2054699915.9545922       -21965636.108109951        763159313.82973695     
  -1921143912.2307322       -25981516.184418917        751864615.47460914     
  -1787208078.0760913       -28731294.824795961        743712856.05037725     
  -1652892413.4906821       -30214972.029277623        738704035.55704844     
  -1518196918.4745011       -30432547.797841132        736838153.99461687     
  -2259813849.6345263       -19229841.457593441        637650677.05725455     
  -2118611102.3313589       -23777277.689066887        625409783.13940358     
  -1976841160.1175296       -26434064.218331814        616030727.54131937     
  -1834504022.9930456       -27200201.045421124        609513510.26299489     
  -1691599690.9579060       -26075688.170319736        605858131.30442810     
  -1040545386.4678277       -56270162.313454092        1127848084.3708758     
  -923622040.06967652       -55189905.458144307        1125247046.1578195     
  -804361843.96605301       -46320149.584585160        1128533057.2296090     
  -682764798.15693283       -29660894.692706883        1137706117.5862401     
  -558830902.64233196       -5212140.7825616598        1152766227.2277143     
  -1192669766.2294595       -45529784.869405925        997833130.52784157     
  -1062185259.8088638       -42557429.319897115        994071070.88259614     
  -930247325.42674685       -34740313.898643374        994416985.34803450     
  -796855963.08308697       -22078438.605584055        998870873.92415905     
  -662011172.77790189       -4571803.4407736063        1007432736.6109662     
  -1351886943.5650172       -36917246.697532058        867496487.06908703     
  -1212924349.0481436       -33577714.031677604        861542747.29036999     
  -1073391748.3136895       -28338160.640561163        857917906.44818497     
  -933289141.36165667       -21198586.524185479        856621964.54252875     
  -792616528.19204128       -12158991.682533115        857654921.57338870     
  -1518196918.4745011       -30432547.797841132        736838153.99461687     
  -1375839307.7875042       -28250759.593479037        727662075.38115025     
  -1233795112.6268873       -27113689.810366392        719035820.53005648     
  -1092064332.9926448       -27021338.448505998        710959389.44133413     
  -950646968.88476753       -27973705.507873654        703432782.11497414     
  -1691599690.9579060       -26075688.170319736        605858131.30442810     
  -1550930136.0269568       -26576566.005308032        592429055.15493476     
  -1411457418.3663347       -31066901.408039808        577770727.59365761     
  -1273181537.9760482       -39546694.378557742        561883148.62058914     
  -1136102494.8560762       -52015944.916802168        544766318.23573685     
  -558830902.64233196       -5212140.7825616598        1152766227.2277143     
  -462185105.80941463        32782481.903686613        1162100858.6720531     
  -353547170.73873347        110750898.71582265        1178981833.6913688     
  -232917097.43027639        228693109.65387303        1203409152.2856555     
  -100294885.88405004        386609114.71782362        1235382814.4549148     
  -662011172.77790189       -4571803.4407736063        1007432736.6109662     
  -546962586.90723205        25692217.721635878        1020930678.2514719     
  -421040232.95769823        92202132.480248451        1042822252.8515494     
  -284244110.92929858        194957940.83508533        1073107460.4111940     
  -136574220.82204115        333959642.78611505        1111786300.9304149     
  -792616528.19204128       -12158991.682533115        857654921.57338870     
  -656744326.47048151        11100675.999963909        874011408.22467029     
  -511116726.82896674        66878336.748983920        899608817.22011518     
  -355733729.26749372        155173990.56452602        934447148.55973268     
  -190595333.78606340        275987637.44659722        978526402.24351335     
  -950646968.88476753       -27973705.507873654        703432782.11497414     
  -791530324.49918556       -10992143.261345267        721343048.59164298     
  -623776652.35254860        34779511.522021651        749341526.79707074     
  -447385952.44486046        109341258.84223178        787428216.73126328     
  -262358224.77612442        212693098.69926777        835603118.39423823     
  -1136102494.8560762       -52015944.916802168        544766318.23573685     
  -951320580.99332881       -40586240.062286258        562925599.35239470     
  -759020009.52843690       -4094343.2006325126        592020381.58241212     
  -559200780.46139979        57459745.668177456        632050664.92579710     
  -351862893.79221600        144076026.54414243        683016449.38254952     
  -100294885.88405004        386609114.71782362        1235382814.4549148     
  -85388139.748089671        546487186.01820374        1196780367.2156630     
  -57895484.030411422        748318289.25765157        1154824710.1971281     
  -17816918.731022060        992102424.43613088        1109515843.3993065     
   34847556.150072157        1277839591.5536292        1060853766.8222101     
  -136574220.82204115        333959642.78611505        1111786300.9304149     
  -127413655.27256814        482990920.23955321        1090207048.2318380     
  -95116502.063668489        709144156.55775785        1070063972.6722339     
  -39682761.195345879        1012419351.7407115        1051357074.2516057     
   38887567.332417309        1392816505.7884560        1034086352.9699335     
  -190595333.78606340        275987637.44659722        978526402.24351335     
  -173496986.19951129        418277309.84014332        986279468.50962317     
  -122711372.87581173        672857868.02418017        1000258098.8329636     
  -38238493.814966023        1039729311.9987170        1020462293.2135143     
   79921650.983037055        1518891641.7637649        1046892051.6512893     
  -262358224.77612442        212693098.69926777        835603118.39423823     
  -223638132.52891368        352346354.81999904        884997628.04902768     
  -140680096.46683520        639459423.65696740        945407088.67930257     
  -13484116.589893103        1074032305.2101567        1016831500.2850530     
   157949807.10191953        1656064999.4795525        1099270862.8662629     
  -351862893.79221600        144076026.54414243        683016449.38254952     
  -277837094.26076907        285198055.17913210        786361526.85004342     
  -149022672.83674759        608948823.45604813        905510942.21126366     
   34580370.479871690        1115328331.3749540        1040464695.4662063     
   272972035.68907833        1804336578.9358234        1191222786.6148829     
  -4501099093.2168226        10088875.959579945        664491954.22154915     
  -4361681841.7582226        2611447.4680411816        660180906.11129665     
  -4221351093.4006557       -1820991.3602852821        659389826.56947219     
  -4080106848.1441245       -3208440.5253894329        662118715.59607279     
  -3937949105.9886279       -1550900.0272769928        668367573.19109893     
  -4865834325.9060936        4695537.5349297523        501877727.89324152     
  -4715675126.1984396        2143169.0779123306        498108199.38135040     
  -4565256954.4107447        454040.88765597343        497945187.10003722     
  -4414579810.5430355       -371847.03585600853        501388691.04930073     
  -4263643694.5952897       -334494.69260501862        508438711.22914344     
  -5231100114.2252817       -856967.57868862152        340300106.00154662     
  -5069951687.2338247        1589907.7092409134        336308484.79924977     
  -4909198812.9812908        2718273.8674612045        336009927.48968869     
  -4748841491.4676685        2528130.8959641457        339404434.07285190     
  -4588879722.6929569        1019478.7947571278        346492004.54875439     
  -5596896458.1743402       -6568639.3812704086        179759088.54646766     
  -5424511524.8643837        951663.36201667786        174781762.36500567     
  -5253176669.1122742        4971707.5791347027        173584047.73842901     
  -5082891890.9180193        5491493.2700662613        176165944.66673473     
  -4913657190.2816181        2511020.4348282814        182527453.14992818     
  -5963223357.7533054       -12439477.872827053        20254675.528002657     
  -5779354639.0901031        228436.03624463081        13528032.078610966     
  -5597190522.8037109        7214342.0226624012        10667547.846258204     
  -5416731008.8940983        8518240.0864479542        11673222.830937328     
  -5237976097.3612776        4140130.2275936604        16545057.032670755     
  -3937949105.9886279       -1550900.0272769928        668367573.19109893     
  -3796966858.0025516        558627.99548053741        661428822.52931070     
  -3656367577.8327193        1391596.6307647228        658813618.36131406     
  -3516151265.4791274        948005.87858057022        660521960.68711603     
  -3376317920.9417744       -772144.26106977463        666553849.50670695     
  -4263643694.5952897       -334494.69260501862        508438711.22914344     
  -4111898239.3352370        145576.32371163368        501367045.79503006     
  -3960279942.8281431        201784.83015632629        498627252.61782044     
  -3808788805.0740137       -165869.17327284813        500219331.69751501     
  -3657424826.0728412       -957385.68656516075        506143283.03412235     
  -4588879722.6929569        1019478.7947571278        346492004.54875439     
  -4426347272.2643089       -122770.82697129250        339585868.24946946     
  -4263686171.5253458       -836186.08098125458        337019929.97020066     
  -4100896420.4760652       -1120766.9672689438        338794189.71095699     
  -3937978019.1164684       -976513.48582839966        344908647.47173119     
  -4913657190.2816181        2511020.4348282814        182527453.14992818     
  -4740313956.7897739       -246413.45657706261        176085289.89263394     
  -4566586263.9243364       -1722316.1026725769        173991650.41846678     
  -4392474111.6852970       -1916687.5034260750        176246534.72743833     
  -4217977500.0726662       -829527.65887284279        182849942.81953594     
  -5237976097.3612776        4140130.2275936604        16545057.032670755     
  -5053798292.9116230       -225351.56508445740        10865310.724516276     
  -4868980220.0250940       -2456605.2348518372        9542413.9626123626     
  -4683521878.7017021       -2553630.7817375660        12576366.746948529     
  -4497423268.9414215       -516428.20567154884        19967169.077545349     
  -3376317920.9417744       -772144.26106977463        666553849.50670695     
  -3236584622.7958159       -2864579.6638641357        658923657.53269601     
  -3096694030.2483850       -4432700.3950901031        655231695.10453522     
  -2956646143.2994885       -5476506.4547574520        655477962.22222269     
  -2816440961.9491181       -5995997.8428503275        659662458.88576031     
  -3657424826.0728412       -957385.68656516075        506143283.03412235     
  -3507055733.7167568       -2154494.8049654961        498880772.41054988     
  -3356630115.5384316       -3163184.5158905983        495654798.64482009     
  -3206147971.5378432       -3983454.8192793131        496465361.73694181     
  -3055609301.7150230       -4615305.7152186632        501312461.68690914     
  -3937978019.1164684       -976513.48582839966        344908647.47173119     
  -3776692254.5159817       -1194032.9095544815        337896254.85617113     
  -3615450732.6724758       -1559028.1898684502        335018706.41045666     
  -3454253453.5859346       -2071499.3267321587        336276002.13458645     
  -3293100417.2563763       -2731446.3202147484        341668142.02855676     
  -4217977500.0726662       -829527.65887284279        182849942.81953594     
  -4045494185.1935019        16806.022358894348        175970104.86956409     
  -3873155881.6505327        379768.58293247223        173323418.40143082     
  -3700962589.4437532        259360.02287840843        174909883.41514608     
  -3528914308.5731716       -344419.65783381462        180729499.91069984     
  -4497423268.9414215       -516428.20567154884        19967169.077545349     
  -4313461525.7492933        1478021.9908046722        13102322.450732233     
  -4129745562.4725962        2653205.8025329113        10568934.617754672     
  -3946275379.1112857        3009123.2296185493        12367005.578630600     
  -3763050975.6654258        2545774.2718830109        18496535.333331835     
  -2816440961.9491181       -5995997.8428503275        659662458.88576031     
  -2676613384.2719345       -7068460.0847582817        649451026.02963066     
  -2537233006.3271070       -9631588.1011716127        642378584.77284026     
  -2398299828.1146421       -13685381.892122865        638445135.11537969     
  -2259813849.6345263       -19229841.457593441        637650677.05725455     
  -3055609301.7150230       -4615305.7152186632        501312461.68690914     
  -2907369270.1744728       -6125140.8611253500        491468792.32983083     
  -2759309979.4662714       -8237445.4481952190        485058181.93846554     
  -2611431429.5904126       -10952219.476408362        482080630.51282477     
  -2463733620.5469027       -14269462.945781350        482536138.05290723     
  -3293100417.2563763       -2731446.3202147484        341668142.02855676     
  -3135607739.3770695       -4426596.6275266409        332503104.88719785     
  -2978029343.4300990       -5836020.0426239967        327065194.07795316     
  -2820365229.4154577       -6959716.5654861927        325354409.60080695     
  -2662615397.3331423       -7797686.1961116791        327370751.45577741     
  -3528914308.5731716       -344419.65783381462        180729499.91069984     
  -3361328791.8797221       -1972827.3839499950        172553963.70174670     
  -3193391098.2185788       -2427311.8844252825        168399621.19129139     
  -3025101227.5897684       -1707873.1593419313        168266472.37933043     
  -2856459179.9932733        185488.79136240482        172154517.26586998     
  -3763050975.6654258        2545774.2718830109        18496535.333331835     
  -3584532427.6824226        1236166.8696391582        11621368.773465730     
  -3405395243.8317280        1988679.0263559818        9061463.2784898803     
  -3225639424.1133490        4803310.7420238256        10816818.848399160     
  -3045264968.5272627        9680062.0167189837        16887435.483188443     
  -2259813849.6345263       -19229841.457593441        637650677.05725455     
  -2118611102.3313589       -23777277.689066887        625409783.13940358     
  -1976841160.1175296       -26434064.218331814        616030727.54131937     
  -1834504022.9930456       -27200201.045421124        609513510.26299489     
  -1691599690.9579060       -26075688.170319736        605858131.30442810     
  -2463733620.5469027       -14269462.945781350        482536138.05290723     
  -2315126171.1265597       -17134592.633530259        472355781.07976878     
  -2166219812.7407513       -19003359.103052497        464621285.90537018     
  -2017014545.3894849       -19875762.354376078        459332652.52971989     
  -1867510369.0727429       -19751802.387458324        456489880.95281333     
  -2662615397.3331423       -7797686.1961116791        327370751.45577741     
  -2507791750.1413913       -9337060.6438680887        318937931.15795362     
  -2352937479.9293718       -10774358.357391953        312534996.13786185     
  -2198052586.6970739       -12109579.336655736        308161946.39549190     
  -2043137070.4445012       -13342723.581673145        305818781.93085808     
  -2856459179.9932733        185488.79136240482        172154517.26586998     
  -2696607839.3758788       -384681.72014665604        165156233.37397796     
  -2536994161.6833882       -1747061.9813506603        159771858.23879775     
  -2377618146.9158244       -3901651.9923073053        156001391.86032635     
  -2218479795.0731797       -6848451.7529841661        153844834.23856193     
  -3045264968.5272627        9680062.0167189837        16887435.483188443     
  -2881574438.8299742        9722544.1377522945        11010687.727828719     
  -2718389858.0028033        8078530.0250612497        6331872.2081693821     
  -2555711226.0457273        4748019.6787263155        2850988.9241950652     
  -2393538542.9587674       -268986.90134108067        568037.87592882512     
  -1691599690.9579060       -26075688.170319736        605858131.30442810     
  -1550930136.0269568       -26576566.005308032        592429055.15493476     
  -1411457418.3663347       -31066901.408039808        577770727.59365761     
  -1273181537.9760482       -39546694.378557742        561883148.62058914     
  -1136102494.8560762       -52015944.916802168        544766318.23573685     
  -1867510369.0727429       -19751802.387458324        456489880.95281333     
  -1729745604.3819921       -22864895.267149091        442810639.02011448     
  -1592091987.7943633       -26348481.823911011        428729013.32474291     
  -1454549519.3098719       -30202562.057790458        414245003.86671406     
  -1317118198.9285073       -34427135.968765914        399358610.64601886     
  -2043137070.4445012       -13342723.581673145        305818781.93085808     
  -1905914616.9964495       -18359287.806806684        293156011.57667589     
  -1767717622.4843268       -20127381.818369389        280917725.10895318     
  -1628546086.9081395       -18647005.616376340        269103922.52768672     
  -1488400010.2678843       -13918159.200826585        257714603.83288297     
  -2218479795.0731797       -6848451.7529841661        153844834.23856193     
  -2079437173.8703353       -13059743.624324560        143465172.82462814     
  -1938334322.4362090       -12403601.391376615        134336862.94628298     
  -1795171240.7708449       -4880025.0543068647        126459904.60350783     
  -1649947928.8742023        9510985.3870171309        119834297.79632688     
  -2393538542.9587674       -268986.90134108067        568037.87592882512     
  -2250313275.0036268       -6966262.7195974588       -6261877.2360190088     
  -2103942087.6500385       -3177140.5430181026       -11013573.163274422     
  -1954424980.8979731        11098379.628474951       -13687049.905815318     
  -1801761954.7474597        35860297.794805527       -14282307.463651624     
  -1136102494.8560762       -52015944.916802168        544766318.23573685     
  -951320580.99332881       -40586240.062286258        562925599.35239470     
  -759020009.52843690       -4094343.2006325126        592020381.58241212     
  -559200780.46139979        57459745.668177456        632050664.92579710     
  -351862893.79221600        144076026.54414243        683016449.38254952     
  -1317118198.9285073       -34427135.968765914        399358610.64601886     
  -1117573874.4990246       -14668506.580578029        421214217.44345820     
  -914391389.60285306        17217324.363245130        441567964.05571771     
  -707570744.23998237        61230356.862731963        460419850.48278582     
  -497111938.41042358        117370590.91783959        477769876.72467285     
  -1488400010.2678843       -13918159.200826585        257714603.83288297     
  -1309628593.2675195        3508799.3222872615        278739289.65308040     
  -1131099512.9359198        20127968.949541032        285824753.98953992     
  -952812769.27308071        35939349.680918455        278970996.84226084     
  -774768362.27899814        50942941.516420066        258178018.21125466     
  -1649947928.8742023        9510985.3870171309        119834297.79632688     
  -1527484737.2988057        13945677.646356702        135500815.98124486     
  -1409144379.5276456        4637590.5582123995        124790751.38388145     
  -1294926855.5606856       -18413275.877240419        87704104.004227310     
  -1184832165.3979480       -55206921.660122037        24240873.842294518     
  -1801761954.7474597        35860297.794805527       -14282307.463651624     
  -1771142306.5928998        16642128.391523838       -8501203.5720387883     
  -1748525989.3780136       -29253810.810658813       -41534043.761257134     
  -1733913003.1028016       -101827519.81174999       -113380828.03131899     
  -1727303347.7672539       -201078998.61174446       -224041556.38220146     
  -351862893.79221600        144076026.54414243        683016449.38254952     
  -277837094.26076907        285198055.17913210        786361526.85004342     
  -149022672.83674759        608948823.45604813        905510942.21126366     
   34580370.479871690        1115328331.3749540        1040464695.4662063     
   272972035.68907833        1804336578.9358234        1191222786.6148829     
  -497111938.41042358        117370590.91783959        477769876.72467285     
  -388278645.89659333        223044576.55473828        597060922.51758206     
  -230322147.53528240        492462581.68325591        735502942.63353992     
  -23242443.326485574        925624606.30340993        893095937.07254684     
   232960466.72981888        1522530650.4152060        1069839905.8346139     
  -774768362.27899814        50942941.516420066        258178018.21125466     
  -621565758.41328764        124037429.66606346        386805380.27696025     
  -424905364.74518049        341991217.15704811        537930353.09504437     
  -184787181.27468500        704804303.98929322        711552936.66550541     
   98788791.998201430        1212476690.1628680        907673130.98834443     
  -1184832165.3979480       -55206921.660122037        24240873.842294518     
  -977698431.81084263       -11823385.486853004        155594900.12818527     
  -732772324.46642482        157534729.87745300        312793173.59577942     
  -450053843.36473584        452867424.43265104        495835694.24508798     
  -129542988.50575584        874174698.17884791        704722462.07608652     
  -1727303347.7672539       -201078998.61174446       -224041556.38220146     
  -1456676666.0892477       -184537868.90402442       -96570517.928739309     
  -1153923026.6990352       -60906880.155605197        60091404.135744035     
  -819042429.59665823        169813967.63336748        245944209.81127372     
  -452034874.78204620        507624674.46310127        460987899.09782940     
 </DataArray>
 <DataArray  type="Float64" Name="VM" NumberOfComponents="1" format="ascii">
   5957115658.7690477     
   5779515786.6986742     
   5600831517.2013626     
   5421033151.4544554     
   5240126488.3246775     
   5602273318.8336477     
   5433427408.8026276     
   5264257002.9507875     
   5094785365.6505556     
   4925070904.5000820     
   5263776315.9032173     
   5104094973.3450174     
   4944926122.2952681     
   4786344596.1307163     
   4628462688.1045656     
   4945185664.6873512     
   4795001674.4446592     
   4646234370.2907467     
   4499004970.0050898     
   4353476836.7695484     
   4650812559.8885441     
   4510341879.4415798     
   4372242787.4498310     
   4236672646.0585952     
   4103837651.8858528     
   5240126488.3246775     
   5053721070.4243975     
   4867780535.5868683     
   4682296047.8535862     
   4497297562.2508535     
   4925070904.5000820     
   4749992399.9077492     
   4575660294.9243956     
   4402113210.1887827     
   4229436842.4904909     
   4628462688.1045656     
   4465194537.0293179     
   4303045662.5085707     
   4142113021.0358829     
   3982550863.7223992     
   4353476836.7695484     
   4202667234.8230481     
   4053455726.0497103     
   3906007967.1977000     
   3760558286.2898841     
   4103837651.8858528     
   3966300906.5219588     
   3830955520.9855223     
   3698042979.4430656     
   3567884322.2897029     
   4497297562.2508535     
   4314260100.3193607     
   4131113212.2962537     
   3947838908.5370145     
   3764460961.1589289     
   4229436842.4904909     
   4056967625.5852323     
   3884962034.3563147     
   3713470681.0508547     
   3542599449.2217250     
   3982550863.7223992     
   3821180116.7947149     
   3660951009.8120699     
   3501993784.3420701     
   3344508108.5749774     
   3760558286.2898841     
   3610891114.4361272     
   3463145844.5866714     
   3317538659.1791487     
   3174367584.9978151     
   3567884322.2897029     
   3430562338.7480612     
   3296026780.6806583     
   3164577119.2234569     
   3036602035.2452164     
   3764460961.1589289     
   3585207251.1056070     
   3406426204.7822442     
   3228098120.6436539     
   3050256730.8864560     
   3542599449.2217250     
   3373607668.6514678     
   3205476038.7759652     
   3038258490.8655581     
   2872072485.4767942     
   3344508108.5749774     
   3185882999.9013691     
   3028568632.3100915     
   2872707085.0217967     
   2718516897.7857041     
   3174367584.9978151     
   3026491420.2304335     
   2880446858.6392641     
   2736475528.4393048     
   2594909286.9137096     
   3036602035.2452164     
   2900129230.8516326     
   2766072538.6960759     
   2634775953.8415561     
   2506684616.2904601     
   3050256730.8864560     
   2886510972.3455052     
   2722460192.9636955     
   2558093305.2364559     
   2393404266.2879086     
   2872072485.4767942     
   2711546855.8625102     
   2551174488.3068976     
   2390986395.2511945     
   2231033629.0908089     
   2718516897.7857041     
   2563367989.1599202     
   2409172857.4622545     
   2256070851.2985291     
   2104257942.0087192     
   2594909286.9137096     
   2447405566.3885679     
   2302025799.4083681     
   2159076766.3471098     
   2018971879.2442179     
   2506684616.2904601     
   2368990454.6483355     
   2234910595.1015806     
   2104938512.1530218     
   1979715143.1769876     
   2393404266.2879086     
   2246864420.3043175     
   2102441858.5423081     
   1960141097.5233471     
   1820125205.3080943     
   2231033629.0908089     
   2087778571.3415384     
   1946121948.0822594     
   1806067393.2599940     
   1667690626.3406639     
   2104257942.0087192     
   1963587963.9774947     
   1823840857.6236691     
   1685049944.3216455     
   1547275980.8687706     
   2018971879.2442179     
   1881817204.0508540     
   1744972099.6421201     
   1608568351.1266689     
   1472787446.8306289     
   1979715143.1769876     
   1848726251.7832193     
   1717784801.4482315     
   1587243857.2456474     
   1457617958.4561591     
   1820125205.3080943     
   1779582651.6755199     
   1735575726.2577686     
   1696711149.0061722     
   1681448498.2025447     
   1667690626.3406639     
   1552348969.6970422     
   1427922483.2828028     
   1294761288.7561827     
   1158976699.1728940     
   1547275980.8687706     
   1397433847.7515798     
   1244043949.3412716     
   1084832582.9270935     
   917767860.66451311     
   1472787446.8306289     
   1328554717.5071924     
   1198790315.9852526     
   1087975018.0344143     
   1002015280.8264265     
   1457617958.4561591     
   1348593064.4978385     
   1274552801.9914610     
   1243624862.3156378     
   1262851857.9757638     
   1681448498.2025447     
   1383881036.3383143     
   1129512761.6243663     
   1010058312.0185254     
   1152827796.8299139     
   1158976699.1728940     
   1008515557.3662660     
   985255433.16038048     
   1161469413.2272682     
   1544055452.4802282     
   917767860.66451311     
   963162448.20521879     
   1144955744.9786766     
   1476501592.8817952     
   1957470658.8286698     
   1002015280.8264265     
   1164713643.6468320     
   1425442548.9543512     
   1808783004.4505043     
   2334813264.4260244     
   1262851857.9757638     
   1446673194.8181574     
   1715699217.9618382     
   2110517701.5342536     
   2663577664.1732712     
   4650812559.8885441     
   4510341879.4415798     
   4372242787.4498310     
   4236672646.0585952     
   4103837651.8858528     
   4359918877.2353926     
   4230649887.4942503     
   4104144688.8188448     
   3980613707.0781717     
   3860325690.9954123     
   4086904302.7577443     
   3970129104.0131187     
   3856698549.7485700     
   3746878289.9583745     
   3641004115.4896564     
   3835955455.8994174     
   3733001830.4605556     
   3634173393.2144475     
   3539786738.8786759     
   3450241028.8887353     
   3612105358.5957980     
   3524237977.6362443     
   3441471867.9697108     
   3364159163.0541062     
   3292745392.6639800     
   4103837651.8858528     
   3966300906.5219588     
   3830955520.9855223     
   3698042979.4430656     
   3567884322.2897029     
   3860325690.9954123     
   3735807887.7811828     
   3614246429.4625869     
   3495943277.2765875     
   3381283202.0578146     
   3641004115.4896564     
   3529911106.3789821     
   3422588163.5017982     
   3319385887.3597169     
   3220735452.3765650     
   3450241028.8887353     
   3352867101.0840015     
   3260091083.3008528     
   3172291384.9866695     
   3089918238.4791799     
   3292745392.6639800     
   3209166848.0203128     
   3130978631.6788039     
   3058558157.7691503     
   2992340010.1461663     
   3567884322.2897029     
   3430562338.7480612     
   3296026780.6806583     
   3164577119.2234569     
   3036602035.2452164     
   3381283202.0578146     
   3256774180.8771210     
   3135802652.0315824     
   3018745577.9117661     
   2906076139.8138194     
   3220735452.3765650     
   3109907254.0701594     
   3003448365.6851292     
   2901800221.8752413     
   2805499582.1614218     
   3089918238.4791799     
   2993516448.4179153     
   2902349358.0470791     
   2816895955.3189964     
   2737720127.2626810     
   2992340010.1461663     
   2910842808.9787798     
   2835414678.0780873     
   2766534228.0727262     
   2704746538.9776893     
   3036602035.2452164     
   2900129230.8516326     
   2766072538.6960759     
   2634775953.8415561     
   2506684616.2904601     
   2906076139.8138194     
   2782136752.6907601     
   2661805556.2792916     
   2545562426.3240757     
   2434004500.5517912     
   2805499582.1614218     
   2695675670.7691483     
   2590759897.0766063     
   2491335650.0360165     
   2398100142.4143925     
   2737720127.2626810     
   2643153465.3447862     
   2554784790.2272983     
   2473239022.1089048     
   2399231166.4026051     
   2704746538.9776893     
   2625919154.6118960     
   2554447149.9236383     
   2490923393.3786640     
   2435995892.0831108     
   2506684616.2904601     
   2368990454.6483355     
   2234910595.1015806     
   2104938512.1530218     
   1979715143.1769876     
   2434004500.5517912     
   2310293481.1848278     
   2191555577.6387544     
   2078479043.5047297     
   1971911967.9895971     
   2398100142.4143925     
   2290447030.0647645     
   2189181659.7620406     
   2095106361.2604113     
   2009154972.6841936     
   2399231166.4026051     
   2308973366.1268692     
   2226368005.8589749     
   2152217638.0153265     
   2087401494.4774060     
   2435995892.0831108     
   2363551502.2753386     
   2299728469.4584136     
   2245231885.6158681     
   2200789240.8129301     
   1979715143.1769876     
   1848726251.7832193     
   1717784801.4482315     
   1587243857.2456474     
   1457617958.4561591     
   1971911967.9895971     
   1855623798.7199798     
   1743723121.2870128     
   1637136334.6186156     
   1537001010.1428165     
   2009154972.6841936     
   1912682258.8264432     
   1824999821.5361779     
   1747311409.1371942     
   1680912632.6628895     
   2087401494.4774060     
   2012306305.2789111     
   1949575675.2204390     
   1900290140.2187791     
   1865479902.7243650     
   2200789240.8129301     
   2145621526.2444842     
   2105384990.5740256     
   2080846403.7307589     
   2072683372.7039025     
   1457617958.4561591     
   1348593064.4978385     
   1274552801.9914610     
   1243624862.3156378     
   1262851857.9757638     
   1537001010.1428165     
   1476125959.1510961     
   1447943280.6052060     
   1456419250.2819910     
   1504848726.1751692     
   1680912632.6628895     
   1652396582.6434457     
   1651600353.5334609     
   1680892766.9502337     
   1742882517.4808919     
   1865479902.7243650     
   1854933743.4479208     
   1867359544.8445268     
   1904966619.5879674     
   1970786181.1944628     
   2072683372.7039025     
   2069124586.3149633     
   2084804911.7433000     
   2122356757.9378743     
   2185592066.3015628     
   1262851857.9757638     
   1446673194.8181574     
   1715699217.9618382     
   2110517701.5342536     
   2663577664.1732712     
   1504848726.1751692     
   1613264532.6923089     
   1788866162.3607333     
   2066409565.1707206     
   2476108553.1917787     
   1742882517.4808919     
   1787699228.8939292     
   1884651664.5559902     
   2060652028.8555820     
   2340934827.7052135     
   1970786181.1944628     
   1968935836.7694361     
   2003620376.1722901     
   2093513399.6388288     
   2257275033.0448532     
   2185592066.3015628     
   2156258946.3151278     
   2146512690.8814294     
   2166872652.5417843     
   2228405468.6421084     
   3612105358.5957980     
   3524237977.6362443     
   3441471867.9697108     
   3364159163.0541062     
   3292745392.6639800     
   3376984933.8721585     
   3304929497.6977692     
   3238552730.6438904     
   3178193819.2983756     
   3124262399.6327415     
   3175425328.5104380     
   3118292951.2223458     
   3067299862.7055273     
   3022744789.2493300     
   2984973086.0419888     
   3013316760.4375100     
   2969873709.2843246     
   2932862537.7346153     
   2902519136.4534559     
   2879104896.7164111     
   2896409900.1568441     
   2864978172.3974848     
   2840062165.9334807     
   2821823910.9163489     
   2810435646.9010196     
   3292745392.6639800     
   3209166848.0203128     
   3130978631.6788039     
   3058558157.7691503     
   2992340010.1461663     
   3124262399.6327415     
   3053642464.3998756     
   2989122068.5170708     
   2931069491.3149619     
   2879899989.0100231     
   2984973086.0419888     
   2927255218.4934278     
   2876330964.5083504     
   2832533438.5749922     
   2796230016.2967429     
   2879104896.7164111     
   2833765822.7144923     
   2795863066.9700847     
   2765670284.2743998     
   2743482928.4742665     
   2810435646.9010196     
   2776365405.2725396     
   2750298004.3050542     
   2732431857.7970777     
   2722977699.5642776     
   2992340010.1461663     
   2910842808.9787798     
   2835414678.0780873     
   2766534228.0727262     
   2704746538.9776893     
   2879899989.0100231     
   2812778786.5216365     
   2752456350.4242473     
   2699372313.1981525     
   2654011236.5913181     
   2796230016.2967429     
   2742984135.2481508     
   2697145992.2256718     
   2659084907.3672023     
   2629194590.7052560     
   2743482928.4742665     
   2703076415.6467962     
   2670541030.7162929     
   2646156353.0913434     
   2630210874.5364165     
   2722977699.5642776     
   2693816010.6216779     
   2672846569.9104538     
   2660255816.6206927     
   2656230394.4717999     
   2704746538.9776893     
   2625919154.6118960     
   2554447149.9236383     
   2490923393.3786640     
   2435995892.0831108     
   2654011236.5913181     
   2590283716.6420732     
   2534586112.8553276     
   2487432906.3536148     
   2449365107.7644048     
   2629194590.7052560     
   2579890212.4402785     
   2539117610.0543604     
   2507284836.8779411     
   2484805054.9122849     
   2630210874.5364165     
   2594121444.6158261     
   2566902729.6474838     
   2548848496.7456455     
   2540246006.2472801     
   2656230394.4717999     
   2631683600.5694952     
   2616225278.9066248     
   2610044830.5050874     
   2613322096.8821468     
   2435995892.0831108     
   2363551502.2753386     
   2299728469.4584136     
   2245231885.6158681     
   2200789240.8129301     
   2449365107.7644048     
   2393040494.5286522     
   2346108519.3805561     
   2309127334.0670199     
   2282640470.1468930     
   2484805054.9122849     
   2443354662.9930568     
   2411802142.2884746     
   2390545892.7357955     
   2379952365.5045829     
   2540246006.2472801     
   2511889788.2747102     
   2493745784.2957845     
   2486068913.6690230     
   2489080987.2842607     
   2613322096.8821468     
   2595924681.2498775     
   2588958761.9784541     
   2592566974.3249197     
   2606867054.3137460     
   2200789240.8129301     
   2145621526.2444842     
   2105384990.5740256     
   2080846403.7307589     
   2072683372.7039025     
   2282640470.1468930     
   2242164002.5484257     
   2215610130.2716045     
   2203429731.5303931     
   2206011344.8831062     
   2379952365.5045829     
   2351240618.3654847     
   2335420121.8842669     
   2332742583.7249994     
   2343430054.7512922     
   2489080987.2842607     
   2469495953.3370395     
   2461864291.9744282     
   2466323695.5259237     
   2483009344.1986346     
   2606867054.3137460     
   2594132629.6736422     
   2592568049.7998543     
   2602253439.2294283     
   2623285170.4787273     
   2072683372.7039025     
   2069124586.3149633     
   2084804911.7433000     
   2122356757.9378743     
   2185592066.3015628     
   2206011344.8831062     
   2191647280.3283024     
   2192274443.1006913     
   2209862465.2656918     
   2247330943.0632081     
   2343430054.7512922     
   2319067888.7834926     
   2306232534.1164050     
   2306329727.8797951     
   2321447718.0114269     
   2483009344.1986346     
   2450410700.8957663     
   2426359758.5927305     
   2411801999.6736474     
   2408114138.0275350     
   2623285170.4787273     
   2584893670.7122221     
   2552371631.8993568     
   2526300489.3674636     
   2507488838.7662001     
   2185592066.3015628     
   2156258946.3151278     
   2146512690.8814294     
   2166872652.5417843     
   2228405468.6421084     
   2247330943.0632081     
   2182633999.9839664     
   2134372604.2584741     
   2112210111.9401240     
   2127076329.9638827     
   2321447718.0114269     
   2224723080.0279765     
   2141332260.2981844     
   2079638196.3464739     
   2049808628.3792288     
   2408114138.0275350     
   2282820430.9224777     
   2168038645.9433160     
   2070507732.9050939     
   1998993484.0744607     
   2507488838.7662001     
   2357135808.8384070     
   2214962497.6656466     
   2085949648.4656570     
   1976972933.5820582     
   2896409900.1568441     
   2864978172.3974848     
   2840062165.9334807     
   2821823910.9163489     
   2810435646.9010196     
   2761968558.7671571     
   2738896122.7627845     
   2722952439.9195995     
   2714248021.6408987     
   2712898405.6951261     
   2671831587.4424014     
   2655295324.8002410     
   2646443446.9344964     
   2645333064.0066218     
   2652023028.0048680     
   2631068702.6580973     
   2618513592.0576525     
   2614132958.3972149     
   2617942665.9712920     
   2629958902.8167624     
   2642482619.4549475     
   2630785518.0403695     
   2627687375.7220025     
   2633188192.4998498     
   2647287968.3739057     
   2810435646.9010196     
   2776365405.2725396     
   2750298004.3050542     
   2732431857.7970777     
   2722977699.5642776     
   2712898405.6951261     
   2688755506.2923403     
   2672700453.0969520     
   2664852041.7925315     
   2665333802.2113428     
   2652023028.0048680     
   2635453828.1815777     
   2626960535.7543912     
   2626597422.6090608     
   2634419974.6254511     
   2629958902.8167624     
   2618236897.1360149     
   2614504564.7043705     
   2618775383.5654001     
   2631062978.6009693     
   2647287968.3739057     
   2637500975.6082931     
   2635567624.7803640     
   2641487915.8901167     
   2655261848.9375477     
   2722977699.5642776     
   2693816010.6216779     
   2672846569.9104538     
   2660255816.6206927     
   2656230394.4717999     
   2665333802.2113428     
   2644675928.2950463     
   2632371877.6942706     
   2628532638.6310720     
   2633267141.8129220     
   2634419974.6254511     
   2620155795.8339024     
   2614370679.4129124     
   2617115734.2657437     
   2628440334.3432193     
   2631062978.6009693     
   2620762650.1122475     
   2619059631.2820520     
   2625966923.9114785     
   2641496955.4308228     
   2655261848.9375477     
   2646306259.1772900     
   2646083609.8832526     
   2654593901.0554333     
   2671837132.6938276     
   2656230394.4717999     
   2631683600.5694952     
   2616225278.9066248     
   2610044830.5050874     
   2613322096.8821468     
   2633267141.8129220     
   2617267759.5591574     
   2610339281.6338716     
   2612588644.5967913     
   2624115131.0793166     
   2628440334.3432193     
   2618877048.8141856     
   2618370109.0606227     
   2626966725.7744813     
   2644709947.2135820     
   2641496955.4308228     
   2636086087.1892567     
   2639757390.2757998     
   2652522524.4654317     
   2674391986.6767759     
   2671837132.6938276     
   2668213571.9709477     
   2673765685.1837058     
   2688493472.3321090     
   2712396933.4161539     
   2613322096.8821468     
   2595924681.2498775     
   2588958761.9784541     
   2592566974.3249197     
   2606867054.3137460     
   2624115131.0793166     
   2613777527.5628715     
   2613573400.2429113     
   2623578058.8695178     
   2643851879.6254764     
   2644709947.2135820     
   2639724201.6281967     
   2644664505.0559297     
   2659562362.8075290     
   2684442392.6529012     
   2674391986.6767759     
   2673043000.5331583     
   2681529763.3404007     
   2699859745.7333412     
   2728038662.9244633     
   2712396933.4161539     
   2712998042.5123582     
   2723478971.7137632     
   2743839721.0203514     
   2774080290.4321423     
   2606867054.3137460     
   2594132629.6736422     
   2592568049.7998543     
   2602253439.2294283     
   2623285170.4787273     
   2643851879.6254764     
   2632927888.5998964     
   2632299905.4391026     
   2642007471.3806295     
   2662100902.6491804     
   2684442392.6529012     
   2675009832.2077899     
   2675180556.8911562     
   2684969913.4110332     
   2704398612.2374563     
   2728038662.9244633     
   2719940058.9524684     
   2720912341.6123586     
   2730958834.7528176     
   2750084314.4111767     
   2774080290.4321423     
   2767304843.7191143     
   2769209815.3448753     
   2779795205.3094330     
   2799061013.6127763     
   2623285170.4787273     
   2584893670.7122221     
   2552371631.8993568     
   2526300489.3674636     
   2507488838.7662001     
   2662100902.6491804     
   2616738448.8147388     
   2577029989.8604245     
   2543306462.9021077     
   2516030425.3483047     
   2704398612.2374563     
   2654160192.4827142     
   2609502791.5680494     
   2570573870.9241810     
   2537580087.1353793     
   2750084314.4111767     
   2697068904.3829055     
   2649703871.4080601     
   2608025849.5176835     
   2572086187.5394912     
   2799061013.6127763     
   2745365704.7600727     
   2697532380.1223722     
   2655561039.6996870     
   2619451683.4919968     
   2507488838.7662001     
   2357135808.8384070     
   2214962497.6656466     
   2085949648.4656570     
   1976972933.5820582     
   2516030425.3483047     
   2348163892.3589234     
   2183860507.6237397     
   2026220461.1959655     
   1879808332.0620172     
   2537580087.1353793     
   2357289600.9655313     
   2176740617.7772303     
   1997404790.3000653     
   1821559955.2462261     
   2572086187.5394912     
   2384616132.5652246     
   2194069337.2212744     
   2000824068.2177022     
   1805484204.4026196     
   2619451683.4919968     
   2430111881.1683612     
   2235988879.2172637     
   2037082677.6387286     
   1833393276.4327178     
   2642482619.4549475     
   2630785518.0403695     
   2627687375.7220025     
   2633188192.4998498     
   2647287968.3739057     
   2631068620.9884729     
   2618513546.5655184     
   2614132946.4496632     
   2617942684.8355832     
   2629958949.6347694     
   2671831474.3742142     
   2655295269.3196163     
   2646443442.1454277     
   2645333102.8848968     
   2652023103.3804631     
   2761968459.4789295     
   2738896090.3203039     
   2722952461.6795959     
   2714248084.7996488     
   2712898497.3055367     
   2896409850.2992215     
   2864978190.4074788     
   2840062232.1107869     
   2821824005.2800183     
   2810435749.2566867     
   2647287968.3739057     
   2637500975.6082931     
   2635567624.7803640     
   2641487915.8901167     
   2655261848.9375477     
   2629958949.6347694     
   2618236927.6969600     
   2614504581.7950387     
   2618775389.9733882     
   2631062977.1282587     
   2652023103.3804631     
   2635453874.6320925     
   2626960559.3600254     
   2626597429.4547529     
   2634419970.8101459     
   2712898497.3055367     
   2688755558.3103986     
   2672700475.3073554     
   2664852044.0431113     
   2665333794.4031720     
   2810435749.2566867     
   2776365457.6134181     
   2750298020.4186568     
   2732431851.6945848     
   2722977685.4448957     
   2655261848.9375477     
   2646306259.1772900     
   2646083609.8832526     
   2654593901.0554333     
   2671837132.6938276     
   2631062977.1282587     
   2620762647.9325972     
   2619059628.1213231     
   2625966919.5060673     
   2641496949.5321369     
   2634419970.8101459     
   2620155791.0982113     
   2614370673.2250943     
   2617115726.1076565     
   2628440323.7192378     
   2665333794.4031720     
   2644675919.8926044     
   2632371867.9350028     
   2628532626.7593551     
   2633267127.0928664     
   2722977685.4448957     
   2693815996.7734408     
   2672846555.3807693     
   2660255800.4471011     
   2656230375.6972637     
   2671837132.6938276     
   2668213571.9709477     
   2673765685.1837058     
   2688493472.3321090     
   2712396933.4161539     
   2641496949.5321369     
   2636086084.1664948     
   2639757389.6223240     
   2652522525.6676941     
   2674391989.2104349     
   2628440323.7192378     
   2618877043.8128057     
   2618370108.6371841     
   2626966728.8678823     
   2644709952.7396073     
   2633267127.0928664     
   2617267753.2883883     
   2610339282.1963205     
   2612588650.3410540     
   2624115140.3105092     
   2656230375.6972637     
   2631683593.3617134     
   2616225281.0479789     
   2610044839.7080169     
   2613322110.7800245     
   2712396933.4161539     
   2712998042.5123582     
   2723478971.7137632     
   2743839721.0203514     
   2774080290.4321423     
   2674391989.2104349     
   2673043001.8928375     
   2681529763.8179870     
   2699859745.6231089     
   2728038662.5230899     
   2644709952.7396073     
   2639724204.6828322     
   2644664506.2252941     
   2659562362.6862907     
   2684442391.8437109     
   2624115140.3105092     
   2613777532.8181729     
   2613573402.4089165     
   2623578058.8545966     
   2643851878.3578482     
   2613322110.7800245     
   2595924689.3817058     
   2588958765.5379276     
   2592566974.5515628     
   2606867052.4888959     
   2774080290.4321423     
   2767304843.7191143     
   2769209815.3448753     
   2779795205.3094330     
   2799061013.6127763     
   2728038662.5230899     
   2719940058.8558559     
   2720912341.7312346     
   2730958834.9971290     
   2750084314.6907516     
   2684442391.8437109     
   2675009832.0288649     
   2675180557.1612844     
   2684969913.9470296     
   2704398612.8556533     
   2643851878.3578482     
   2632927888.3288255     
   2632299905.8856969     
   2642007472.2616153     
   2662100903.6796308     
   2606867052.4888959     
   2594132629.2740040     
   2592568050.4399800     
   2602253440.5147886     
   2623285172.0103941     
   2799061013.6127763     
   2745365704.7600727     
   2697532380.1223722     
   2655561039.6996870     
   2619451683.4919968     
   2750084314.6907516     
   2697068904.5561538     
   2649703871.5215416     
   2608025849.6179051     
   2572086187.6728778     
   2704398612.8556533     
   2654160192.8528495     
   2609502791.7839937     
   2570573871.0789833     
   2537580087.3203602     
   2662100903.6796308     
   2616738449.4142685     
   2577029990.1718755     
   2543306463.0662556     
   2516030425.5011096     
   2623285172.0103941     
   2584893671.5829878     
   2552371632.3036885     
   2526300489.4961643     
   2507488838.8011365     
   2619451683.4919968     
   2430111881.1683612     
   2235988879.2172637     
   2037082677.6387286     
   1833393276.4327178     
   2572086187.6728778     
   2384616132.6426163     
   2194069337.2130361     
   2000824068.0882704     
   1805484204.1064200     
   2537580087.3203602     
   2357289601.0850115     
   2176740617.7755942     
   1997404790.1170151     
   1821559954.8157568     
   2516030425.5011096     
   2348163892.4842386     
   2183860507.6441412     
   2026220461.0376816     
   1879808331.6626472     
   2507488838.8011365     
   2357135808.9328427     
   2214962497.7241573     
   2085949648.4101024     
   1976972933.3701003     
   2896409850.2992215     
   2864978190.4074788     
   2840062232.1107869     
   2821824005.2800183     
   2810435749.2566867     
   3013316721.3518453     
   2969873712.4750443     
   2932862574.1743598     
   2902519196.7600932     
   2879104971.2899084     
   3175425304.4145188     
   3118292943.7947836     
   3067299872.8318357     
   3022744817.5944862     
   2984973133.2636738     
   3376984941.0768318     
   3304929490.2887702     
   3238552718.4175735     
   3178193812.1645861     
   3124262407.9368033     
   3612105422.3418994     
   3524237985.4578538     
   3441471837.4149771     
   3364159112.2543745     
   3292745340.8071690     
   2810435749.2566867     
   2776365457.6134181     
   2750298020.4186568     
   2732431851.6945848     
   2722977685.4448957     
   2879104971.2899084     
   2833765866.8584518     
   2795863087.1241899     
   2765670287.1509509     
   2743482921.0390620     
   2984973133.2636738     
   2927255253.1933327     
   2876330986.2061286     
   2832533446.9661546     
   2796230011.2207227     
   3124262407.9368033     
   3053642480.1282153     
   2989122084.8359151     
   2931069501.3185091     
   2879899985.6334062     
   3292745340.8071690     
   3209166828.6122818     
   3130978632.2302103     
   3058558165.3592253     
   2992340011.2353134     
   2722977685.4448957     
   2693815996.7734408     
   2672846555.3807693     
   2660255800.4471011     
   2656230375.6972637     
   2743482921.0390620     
   2703076403.5041304     
   2670541014.2191772     
   2646156332.5238228     
   2630210850.1194968     
   2796230011.2207227     
   2742984122.4860849     
   2697145973.6273923     
   2659084884.6819587     
   2629194565.5692821     
   2879899985.6334062     
   2812778773.5565834     
   2752456331.3828325     
   2699372291.5080023     
   2654011215.5615711     
   2992340011.2353134     
   2910842798.7704968     
   2835414661.8551712     
   2766534211.1067510     
   2704746526.4781718     
   2656230375.6972637     
   2631683593.3617134     
   2616225281.0479789     
   2610044839.7080169     
   2613322110.7800245     
   2630210850.1194968     
   2594121432.0754542     
   2566902727.4103045     
   2548848503.1993213     
   2540246019.7382612     
   2629194565.5692821     
   2579890197.9478650     
   2539117605.0828137     
   2507284840.3231606     
   2484805065.6982489     
   2654011215.5615711     
   2590283703.4649992     
   2534586106.6362357     
   2487432906.2933946     
   2449365113.1894946     
   2704746526.4781718     
   2625919145.7033577     
   2554447143.6947179     
   2490923389.0936069     
   2435995889.2423072     
   2613322110.7800245     
   2595924689.3817058     
   2588958765.5379276     
   2592566974.5515628     
   2606867052.4888959     
   2540246019.7382612     
   2511889796.6569023     
   2493745788.3003116     
   2486068914.0623927     
   2489080984.8653216     
   2484805065.6982489     
   2443354669.9593067     
   2411802145.7642760     
   2390545893.0582533     
   2379952363.0140557     
   2449365113.1894946     
   2393040498.1417837     
   2346108521.1846714     
   2309127334.0258894     
   2282640468.1729078     
   2435995889.2423072     
   2363551500.3887234     
   2299728468.3017812     
   2245231884.8634768     
   2200789240.0074039     
   2606867052.4888959     
   2594132629.2740040     
   2592568050.4399800     
   2602253440.5147886     
   2623285172.0103941     
   2489080984.8653216     
   2469495952.2658582     
   2461864292.0070939     
   2466323696.4098148     
   2483009345.6739259     
   2379952363.0140557     
   2351240616.9686670     
   2335420121.4699297     
   2332742584.1786623     
   2343430055.9526114     
   2282640468.1729078     
   2242164001.2070122     
   2215610129.5756769     
   2203429731.5033822     
   2206011345.5512776     
   2200789240.0074039     
   2145621525.3760717     
   2105384989.7663350     
   2080846403.1440899     
   2072683372.5226381     
   2623285172.0103941     
   2584893671.5829878     
   2552371632.3036885     
   2526300489.4961643     
   2507488838.8011365     
   2483009345.6739259     
   2450410701.8637123     
   2426359759.1469860     
   2411801999.9079251     
   2408114138.0341849     
   2343430055.9526114     
   2319067889.7173567     
   2306232534.7764931     
   2306329728.2627707     
   2321447718.1231174     
   2206011345.5512776     
   2191647281.0716972     
   2192274443.8118010     
   2209862465.8401885     
   2247330943.4182286     
   2072683372.5226381     
   2069124586.6786623     
   2084804912.4376757     
   2122356758.7462828     
   2185592067.0407348     
   2507488838.8011365     
   2357135808.9328427     
   2214962497.7241573     
   2085949648.4101024     
   1976972933.3701003     
   2408114138.0341849     
   2282820430.9715853     
   2168038645.9877291     
   2070507732.9021714     
   1998993483.9931026     
   2321447718.1231174     
   2224723080.1061125     
   2141332260.3432186     
   2079638196.3450432     
   2049808628.2991543     
   2247330943.4182286     
   2182634000.1686053     
   2134372604.3199940     
   2112210111.8903203     
   2127076329.7636549     
   2185592067.0407348     
   2156258946.6853390     
   2146512690.9756758     
   2166872652.3947754     
   2228405468.2074232     
   3612105422.3418994     
   3524237985.4578538     
   3441471837.4149771     
   3364159112.2543745     
   3292745340.8071690     
   3835955549.5078321     
   3733001875.8825197     
   3634173393.8202643     
   3539786698.1082916     
   3450240950.3967714     
   4086904349.1270652     
   3970129131.0176659     
   3856698550.2339902     
   3746878256.2518768     
   3641004039.1954818     
   4359918789.0522652     
   4230649834.6417460     
   4104144657.0705156     
   3980613681.1514263     
   3860325654.0311675     
   4650812244.5960121     
   4510341683.0396719     
   4372242691.8052692     
   4236672631.5389843     
   4103837696.5898290     
   3292745340.8071690     
   3209166828.6122818     
   3130978632.2302103     
   3058558165.3592253     
   2992340011.2353134     
   3450240950.3967714     
   3352867048.7216306     
   3260091052.0357194     
   3172291369.5187435     
   3089918233.1333632     
   3641004039.1954818     
   3529911045.6630368     
   3422588119.5658336     
   3319385861.3936882     
   3220735445.5726147     
   3860325654.0311675     
   3735807848.0884233     
   3614246393.2029347     
   3495943250.8658018     
   3381283192.3250937     
   4103837696.5898290     
   3966300919.8291206     
   3830955512.7650099     
   3698042960.0215735     
   3567884302.7555943     
   2992340011.2353134     
   2910842798.7704968     
   2835414661.8551712     
   2766534211.1067510     
   2704746526.4781718     
   3089918233.1333632     
   2993516440.8084736     
   2902349350.7344551     
   2816895950.9722681     
   2737720128.6564436     
   3220735445.5726147     
   3109907251.1480103     
   3003448366.2999015     
   2901800225.8214645     
   2805499589.3898091     
   3381283192.3250937     
   3256774180.3077340     
   3135802657.3265429     
   3018745585.8590426     
   2906076147.2887383     
   3567884302.7555943     
   3430562334.5470557     
   3296026785.6566505     
   3164577127.2003260     
   3036602039.9769650     
   2704746526.4781718     
   2625919145.7033577     
   2554447143.6947179     
   2490923389.0936069     
   2435995889.2423072     
   2737720128.6564436     
   2643153465.1625991     
   2554784787.9706674     
   2473239017.3287759     
   2399231158.7404661     
   2805499589.3898091     
   2695675673.4061680     
   2590759895.3309159     
   2491335644.0815868     
   2398100132.3990979     
   2906076147.2887383     
   2782136754.0097299     
   2661805552.6065931     
   2545562418.7658005     
   2434004490.1321454     
   3036602039.9769650     
   2900129228.6302338     
   2766072531.7994957     
   2634775944.5216932     
   2506684606.7275958     
   2435995889.2423072     
   2363551500.3887234     
   2299728468.3017812     
   2245231884.8634768     
   2200789240.0074039     
   2399231158.7404661     
   2308973361.0230737     
   2226368003.1161556     
   2152217637.3768845     
   2087401495.6036594     
   2398100132.3990979     
   2290447023.5270677     
   2189181656.4172006     
   2095106360.8067234     
   2009154974.7876964     
   2434004490.1321454     
   2310293474.6574016     
   2191555574.5182719     
   2078479043.3183498     
   1971911970.2688334     
   2506684606.7275958     
   2368990449.0943298     
   2234910592.7833428     
   2104938512.3204641     
   1979715145.0941350     
   2200789240.0074039     
   2145621525.3760717     
   2105384989.7663350     
   2080846403.1440899     
   2072683372.5226381     
   2087401495.6036594     
   2012306305.8897378     
   1949575675.3793151     
   1900290140.0091383     
   1865479902.2499058     
   2009154974.7876964     
   1912682260.2525947     
   1824999822.3330743     
   1747311409.3512547     
   1680912632.3415449     
   1971911970.2688334     
   1855623800.3946953     
   1743723122.4480019     
   1637136335.3371847     
   1537001010.4623029     
   1979715145.0941350     
   1848726253.3276241     
   1717784802.8081794     
   1587243858.5863001     
   1457617959.8934262     
   2072683372.5226381     
   2069124586.6786623     
   2084804912.4376757     
   2122356758.7462828     
   2185592067.0407348     
   1865479902.2499058     
   1854933743.5016778     
   1867359545.3122575     
   1904966620.3438857     
   1970786182.1141591     
   1680912632.3415449     
   1652396582.6829827     
   1651600353.9010570     
   1680892767.6057630     
   1742882518.3664098     
   1537001010.4623029     
   1476125959.5126445     
   1447943281.0221612     
   1456419250.7903013     
   1504848726.7992671     
   1457617959.8934262     
   1348593065.5487769     
   1274552802.6420054     
   1243624862.6346595     
   1262851858.0815096     
   2185592067.0407348     
   2156258946.6853390     
   2146512690.9756758     
   2166872652.3947754     
   2228405468.2074232     
   1970786182.1141591     
   1968935837.2578020     
   2003620376.2711029     
   2093513399.3878644     
   2257275032.4750462     
   1742882518.3664098     
   1787699229.4038723     
   1884651664.6779730     
   2060652028.6347275     
   2340934827.2588711     
   1504848726.7992671     
   1613264533.1217351     
   1788866162.5251713     
   2066409565.1094615     
   2476108553.0907006     
   1262851858.0815096     
   1446673195.0564418     
   1715699218.1886423     
   2110517701.7545428     
   2663577664.6054969     
   4650812244.5960121     
   4510341683.0396719     
   4372242691.8052692     
   4236672631.5389843     
   4103837696.5898290     
   4945185254.7928514     
   4795001388.2172241     
   4646234207.1119308     
   4499004929.0975103     
   4353476917.2916174     
   5263776091.6167793     
   5104094786.0329294     
   4944925978.7531815     
   4786344503.3794060     
   4628462654.2619114     
   5602273565.7771034     
   5433427508.6073418     
   5264256961.6167021     
   5094785188.6071615     
   4925070598.0629969     
   5957116662.0855331     
   5779516357.9989014     
   5600831655.3725452     
   5421032852.7634192     
   5240125748.2158880     
   4103837696.5898290     
   3966300919.8291206     
   3830955512.7650099     
   3698042960.0215735     
   3567884302.7555943     
   4353476917.2916174     
   4202667306.6872134     
   4053455785.1121578     
   3906008009.1995683     
   3760558306.6434183     
   4628462654.2619114     
   4465194558.9395676     
   4303045727.5079794     
   4142113116.1876116     
   3982550975.1016154     
   4925070598.0629969     
   4749992261.0945253     
   4575660307.5867224     
   4402113358.1823893     
   4229437108.5289712     
   5240125748.2158880     
   5053720661.0373964     
   4867780441.7003746     
   4682296254.9023914     
   4497298054.8333483     
   3567884302.7555943     
   3430562334.5470557     
   3296026785.6566505     
   3164577127.2003260     
   3036602039.9769650     
   3760558306.6434183     
   3610891123.1339097     
   3463145843.9008446     
   3317538651.4604101     
   3174367572.8290043     
   3982550975.1016154     
   3821180178.0774384     
   3660951029.7563844     
   3501993771.8178787     
   3344508072.9081883     
   4229437108.5289712     
   4056967787.0062051     
   3884962104.4236736     
   3713470673.0255194     
   3542599376.8464136     
   4497298054.8333483     
   4314260414.2796926     
   4131113363.5243335     
   3947838912.6200724     
   3764460833.9360900     
   3036602039.9769650     
   2900129228.6302338     
   2766072531.7994957     
   2634775944.5216932     
   2506684606.7275958     
   3174367572.8290043     
   3026491411.7989359     
   2880446852.9128428     
   2736475524.3463349     
   2594909283.3007255     
   3344508072.9081883     
   3185882980.2165656     
   3028568624.6239514     
   2872707085.2912531     
   2718516901.8092127     
   3542599376.8464136     
   3373607628.1701689     
   3205476023.7931018     
   3038258494.9253268     
   2872072501.8668909     
   3764460833.9360900     
   3585207177.0097365     
   3406426175.6280770     
   3228098128.2163839     
   3050256766.6221614     
   2506684606.7275958     
   2368990449.0943298     
   2234910592.7833428     
   2104938512.3204641     
   1979715145.0941350     
   2594909283.3007255     
   2447405563.1261444     
   2302025796.9273920     
   2159076765.0809460     
   2018971879.6363292     
   2718516901.8092127     
   2563367989.7586641     
   2409172856.2072463     
   2256070849.7809711     
   2104257941.8578241     
   2872072501.8668909     
   2711546864.0405421     
   2551174490.8276296     
   2390986394.6996698     
   2231033628.0888944     
   3050256766.6221614     
   2886510993.3591547     
   2722460202.5823159     
   2558093306.7882743     
   2393404263.0672126     
   1979715145.0941350     
   1848726253.3276241     
   1717784802.8081794     
   1587243858.5863001     
   1457617959.8934262     
   2018971879.6363292     
   1881817205.0758812     
   1744972101.1781995     
   1608568353.0524745     
   1472787449.0263674     
   2104257941.8578241     
   1963587965.2084577     
   1823840859.7371838     
   1685049946.8361549     
   1547275983.3041346     
   2231033628.0888944     
   2087778572.5609276     
   1946121950.6499934     
   1806067396.3394935     
   1667690629.0631905     
   2393404263.0672126     
   2246864420.5466228     
   2102441861.0467842     
   1960141101.1422555     
   1820125208.7989366     
   1457617959.8934262     
   1348593065.5487769     
   1274552802.6420054     
   1243624862.6346595     
   1262851858.0815096     
   1472787449.0263674     
   1328554718.9503372     
   1198790316.7062836     
   1087975018.1125832     
   1002015280.4237283     
   1547275983.3041346     
   1397433849.1270216     
   1244043949.8477001     
   1084832582.7878547     
   917767860.14201367     
   1667690629.0631905     
   1552348970.9973934     
   1427922483.5974309     
   1294761288.4721580     
   1158976698.5229573     
   1820125208.7989366     
   1779582653.2344923     
   1735575726.6279130     
   1696711148.6460769     
   1681448497.0945108     
   1262851858.0815096     
   1446673195.0564418     
   1715699218.1886423     
   2110517701.7545428     
   2663577664.6054969     
   1002015280.4237283     
   1164713643.6659725     
   1425442549.2685587     
   1808783004.9141347     
   2334813264.8951159     
   917767860.14201367     
   963162448.22235572     
   1144955745.3502014     
   1476501593.2946491     
   1957470658.8401659     
   1158976698.5229573     
   1008515557.3407185     
   985255433.45994246     
   1161469413.2876518     
   1544055451.5136530     
   1681448497.0945108     
   1383881035.9800696     
   1129512761.6160944     
   1010058311.5503482     
   1152827794.4446371     
 </DataArray>
 <DataArray  type="Float64" Name="strain" NumberOfComponents="3" format="ascii">
   9.9324839270262366E-002  -2.9608798655543223E-002   8.7767736362764914E-004
   9.6323708512169093E-002  -2.8900583938294533E-002   5.8620583164969986E-004
   9.3322577754075819E-002  -2.8106192498490834E-002   4.6226123721659906E-004
   9.0321446995982546E-002  -2.7225624336132112E-002   5.0584358032795818E-004
   8.7320316237889273E-002  -2.6258879451218076E-002   7.1695286098460986E-004
   9.3248759433392392E-002  -2.7875010622375407E-002   7.7895421100426798E-003
   9.0413281448993632E-002  -2.7138421945405611E-002   7.5738695790719679E-003
   8.7577803464594872E-002  -2.6348746353601071E-002   7.5219756579456565E-003
   8.4742325480196029E-002  -2.5505983846962232E-002   7.6338603466635790E-003
   8.1906847495797297E-002  -2.4610134425488539E-002   7.9095236452256246E-003
   8.7180720942685141E-002  -2.6141222589207702E-002   1.4746325720039144E-002
   8.4507147404280281E-002  -2.5376259952516467E-002   1.4573362382355293E-002
   8.1833573865875420E-002  -2.4591300208711336E-002   1.4560429326815255E-002
   7.9160000327470587E-002  -2.3786343357792138E-002   1.4707526553418546E-002
   7.6486426789065698E-002  -2.2961389399759169E-002   1.5014654062165705E-002
   8.1120723798140781E-002  -2.4407434556039997E-002   2.1748028193617333E-002
   7.8605306378029233E-002  -2.3614097959627364E-002   2.1584684241499813E-002
   7.6089888957917656E-002  -2.2833854063821477E-002   2.1577622243825249E-002
   7.3574471537806052E-002  -2.2066702868622317E-002   2.1726842200593590E-002
   7.1059054117694531E-002  -2.1312644374029827E-002   2.2032344111804790E-002
   7.5068767999759145E-002  -2.2673646522872237E-002   2.8794649530777428E-002
   7.2707758370240294E-002  -2.1851935966738234E-002   2.8607835156505390E-002
   7.0346748740721443E-002  -2.1076407918931686E-002   2.8573554408975549E-002
   6.7985739111202592E-002  -2.0347062379452347E-002   2.8691807288188029E-002
   6.5624729481683769E-002  -1.9663899348300429E-002   2.8962593794143232E-002
   8.7320316237889273E-002  -2.6258879451218076E-002   7.1695286098460986E-004
   8.4228853117802704E-002  -2.5265231327313897E-002   4.7082409883214549E-004
   8.1137389997716136E-002  -2.4303953447984444E-002   4.1349573389998229E-004
   7.8045926877629568E-002  -2.3375045813230445E-002   5.4496776618817577E-004
   7.4954463757543000E-002  -2.2478508423050880E-002   8.6524019569678146E-004
   8.1906847495797297E-002  -2.4610134425488539E-002   7.9095236452256246E-003
   7.9004003858205551E-002  -2.3697460210648141E-002   7.6303582173697093E-003
   7.6101160220613723E-002  -2.2804223323909134E-002   7.5396313572828055E-003
   7.3198316583021977E-002  -2.1930423765270809E-002   7.6373430649652879E-003
   7.0295472945430149E-002  -2.1076061534733515E-002   7.9234933404166985E-003
   7.6486426789065698E-002  -2.2961389399759169E-002   1.5014654062165705E-002
   7.3771840804517375E-002  -2.2129689093982746E-002   1.4715384885080396E-002
   7.1057254819969079E-002  -2.1304493199833588E-002   1.4604192446312933E-002
   6.8342668835420783E-002  -2.0485801717311170E-002   1.4681076745863254E-002
   6.5628082850872460E-002  -1.9673614646415982E-002   1.4946037783731159E-002
   7.1059054117694531E-002  -2.1312644374029827E-002   2.2032344111804790E-002
   6.8532363956738340E-002  -2.0561917977317171E-002   2.1725904101964358E-002
   6.6005673795782135E-002  -1.9804763075757827E-002   2.1607179000989945E-002
   6.3478983634825931E-002  -1.9041179669351642E-002   2.1676168808882193E-002
   6.0952293473869740E-002  -1.8271167758098644E-002   2.1932873525640995E-002
   6.5624729481683769E-002  -1.9663899348300429E-002   2.8962593794143232E-002
   6.3285573314868365E-002  -1.8994146860651734E-002   2.8661915868021054E-002
   6.0946417148052948E-002  -1.8305032951682482E-002   2.8548591021314046E-002
   5.8607260981237592E-002  -1.7596557621392193E-002   2.8622619254022319E-002
   5.6268104814422182E-002  -1.6868720869781195E-002   2.8884000566145485E-002
   7.4954463757543000E-002  -2.2478508423050880E-002   8.6524019569678146E-004
   7.1898409592243362E-002  -2.1591942808106668E-002   5.6776614485098964E-004
   6.8842355426943724E-002  -2.0692950499057838E-002   4.5798719721956704E-004
   6.5786301261644087E-002  -1.9781531495904281E-002   5.3590335280204182E-004
   6.2730247096344449E-002  -1.8857685798645663E-002   8.0151461159905235E-004
   7.0295472945430149E-002  -2.1076061534733515E-002   7.9234933404166985E-003
   6.7424984086258966E-002  -2.0227752019078116E-002   7.6253695062611371E-003
   6.4554495227087727E-002  -1.9372110605085202E-002   7.5106811811481156E-003
   6.1684006367916572E-002  -1.8509137292754926E-002   7.5794283650778421E-003
   5.8813517508745305E-002  -1.7638832082087164E-002   7.8316110580498588E-003
   6.5628082850872460E-002  -1.9673614646415982E-002   1.4946037783731159E-002
   6.2938899703657986E-002  -1.8863561230049425E-002   1.4642169370498892E-002
   6.0249716556443511E-002  -1.8051270711112566E-002   1.4517476872137280E-002
   5.7560533409229037E-002  -1.7236743089605461E-002   1.4571960288646407E-002
   5.4871350262014562E-002  -1.6419978365528387E-002   1.4805619620026828E-002
   6.0952293473869740E-002  -1.8271167758098644E-002   2.1932873525640995E-002
   5.8440156444440318E-002  -1.7499370441020692E-002   2.1618165737564213E-002
   5.5928019415010896E-002  -1.6730430817139930E-002   2.1478374270186673E-002
   5.3415882385581502E-002  -1.5964348886456384E-002   2.1513499123508244E-002
   5.0903745356152053E-002  -1.5201124648969860E-002   2.1723540297529216E-002
   5.6268104814422182E-002  -1.6868720869781195E-002   2.8884000566145485E-002
   5.3928754308606108E-002  -1.6135179651992043E-002   2.8553358607457169E-002
   5.1589403802790063E-002  -1.5409590923167168E-002   2.8393373375296321E-002
   4.9250053296974003E-002  -1.4691954683306970E-002   2.8404044869663053E-002
   4.6910702791157943E-002  -1.3982270932411056E-002   2.8585373090557364E-002
   6.2730247096344449E-002  -1.8857685798645663E-002   8.0151461159905235E-004
   5.9748389317895279E-002  -1.7943264808198300E-002   5.0359089378848587E-004
   5.6766531539446108E-002  -1.7060119925477596E-002   3.9266214164129787E-004
   5.3784673760996937E-002  -1.6208251150483126E-002   4.6872835515790467E-004
   5.0802815982547767E-002  -1.5387658483215327E-002   7.3178953433772342E-004
   5.8813517508745305E-002  -1.7638832082087164E-002   7.8316110580498588E-003
   5.6012283195234380E-002  -1.6773763386965346E-002   7.4773376618043619E-003
   5.3211048881723511E-002  -1.5926499621271933E-002   7.2973162297720329E-003
   5.0409814568212641E-002  -1.5097040785008099E-002   7.2915467619523999E-003
   4.7608580254701716E-002  -1.4285386878172490E-002   7.4600292583452132E-003
   5.4871350262014562E-002  -1.6419978365528387E-002   1.4805619620026828E-002
   5.2237996411991200E-002  -1.5604261965731947E-002   1.4408467723644153E-002
   4.9604642561967865E-002  -1.4792879317066729E-002   1.4172824790023478E-002
   4.6971288711944503E-002  -1.3985830419532743E-002   1.4098690819165184E-002
   4.4337934861921169E-002  -1.3183115273129986E-002   1.4186065811069237E-002
   5.0903745356152053E-002  -1.5201124648969860E-002   2.1723540297529216E-002
   4.8425528968165543E-002  -1.4434760544498659E-002   2.1296981079307296E-002
   4.5947312580179020E-002  -1.3659259012861295E-002   2.1019187822396177E-002
   4.3469096192192525E-002  -1.2874620054057330E-002   2.0890160526797201E-002
   4.0990879804205987E-002  -1.2080843668087093E-002   2.0909899192509421E-002
   4.6910702791157943E-002  -1.3982270932411056E-002   2.8585373090557364E-002
   4.4574880863757493E-002  -1.3265259123265316E-002   2.8142877728793259E-002
   4.2239058936357099E-002  -1.2525638708655626E-002   2.7836405326890107E-002
   3.9903237008956649E-002  -1.1763409688582357E-002   2.7665955884847840E-002
   3.7567415081556255E-002  -1.0978572063044423E-002   2.7631529402665778E-002
   5.0802815982547767E-002  -1.5387658483215327E-002   7.3178953433772342E-004
   4.8074853017572750E-002  -1.4569914481164070E-002   4.7713032750462681E-004
   4.5346890052597733E-002  -1.3726591701820279E-002   2.7438143376479207E-004
   4.2618927087622716E-002  -1.2857690145183384E-002   1.2354285311799718E-004
   3.9890964122647699E-002  -1.1963209811253650E-002   2.4614585564908253E-005
   4.7608580254701716E-002  -1.4285386878172490E-002   7.4600292583452132E-003
   4.4941540438959982E-002  -1.3476627758146509E-002   7.1567702892695317E-003
   4.2274500623218331E-002  -1.2655853282310336E-002   6.9234473055664880E-003
   3.9607460807476638E-002  -1.1823063450663612E-002   6.7600603072365539E-003
   3.6940420991735001E-002  -1.0978258263206087E-002   6.6666092942805344E-003
   4.4337934861921169E-002  -1.3183115273129986E-002   1.4186065811069237E-002
   4.1749843867692649E-002  -1.2383341035128670E-002   1.3820643658267545E-002
   3.9161752873464156E-002  -1.1585114862799756E-002   1.3543183163119116E-002
   3.6573661879235636E-002  -1.0788436756142959E-002   1.3353684325624102E-002
   3.3985570885007088E-002  -9.9933067151584121E-003   1.3252147145781823E-002
   4.0990879804205987E-002  -1.2080843668087093E-002   2.0909899192509421E-002
   3.8499763303770529E-002  -1.1290054312111081E-002   2.0468750434499708E-002
   3.6008646803335237E-002  -1.0514376443289716E-002   2.0133589006423293E-002
   3.3517530302899834E-002  -9.7538100616225247E-003   1.9904414908279686E-002
   3.1026413802464431E-002  -9.0083551671103490E-003   1.9781228140069274E-002
   3.7567415081556255E-002  -1.0978572063044423E-002   2.7631529402665778E-002
   3.5191298747193900E-002  -1.0196767589093159E-002   2.7101090617965728E-002
   3.2815182412831490E-002  -9.4436380237793438E-003   2.6694664835478776E-002
   3.0439066078469079E-002  -8.7191833671023955E-003   2.6412252055204782E-002
   2.8062949744106669E-002  -8.0234036190626190E-003   2.6253852277143275E-002
   3.9890964122647699E-002  -1.1963209811253650E-002   2.4614585564908253E-005
   3.7470389933259018E-002  -1.1135461987724193E-002  -2.7134827219854607E-004
   3.5049815743870449E-002  -1.0466757962286577E-002  -4.7725496332573503E-004
   3.2629241554481880E-002  -9.9570977349420775E-003  -5.9310548781665862E-004
   3.0208667365093200E-002  -9.6064813056888632E-003  -6.1889984567087275E-004
   3.6940420991735001E-002  -1.0978258263206087E-002   6.6666092942805344E-003
   3.4591987503316379E-002  -1.0179523472793606E-002   6.2168240210390691E-003
   3.2243554014897979E-002  -9.4849448322809615E-003   5.8212639831016766E-003
   2.9895120526479468E-002  -8.8945223416678904E-003   5.4799291804686623E-003
   2.7546687038060957E-002  -8.4082560009548502E-003   5.1928196131383331E-003
   3.3985570885007088E-002  -9.9933067151584121E-003   1.3252147145781823E-002
   3.1673447166226137E-002  -9.2235849578633511E-003   1.2703427105255793E-002
   2.9361323447445214E-002  -8.5031317022753461E-003   1.2173101368701034E-002
   2.7049199728664264E-002  -7.8319469483948134E-003   1.1661169936117002E-002
   2.4737076009883285E-002  -7.2100306962217253E-003   1.1167632807504491E-002
   3.1026413802464431E-002  -9.0083551671103490E-003   1.9781228140069274E-002
   2.8714768921988328E-002  -8.2676464429328189E-003   1.9188460980451058E-002
   2.6403124041512259E-002  -7.5213185722698417E-003   1.8578257193471615E-002
   2.4091479161036176E-002  -6.7693715551216255E-003   1.7950616779130124E-002
   2.1779834280560198E-002  -6.0118053914878233E-003   1.7305539737427697E-002
   2.8062949744106669E-002  -8.0234036190626190E-003   2.6253852277143275E-002
   2.5715952770602901E-002  -7.3117079280024533E-003   2.5671925646625349E-002
   2.3368955797099078E-002  -6.5395054422643928E-003   2.5036731457413031E-002
   2.1021958823595310E-002  -5.7067961618480628E-003   2.4348269709507098E-002
   1.8674961850091487E-002  -4.8135800867543654E-003   2.3606540402906995E-002
   3.0208667365093200E-002  -9.6064813056888632E-003  -6.1889984567087275E-004
   2.9602249059133556E-002  -9.1330803340374800E-003  -3.6838540063310887E-004
   2.8995830753173968E-002  -8.2550664794927564E-003  -1.7998085303828626E-003
   2.8389412447214379E-002  -6.9724397420579814E-003  -4.9131692349197453E-003
   2.7782994141254735E-002  -5.2852001217316147E-003  -9.7084675142440346E-003
   2.7546687038060957E-002  -8.4082560009548502E-003   5.1928196131383331E-003
   2.5527807317771212E-002  -7.8698516444005717E-003   5.8717020497250916E-003
   2.3508927597481466E-002  -7.1230151062630642E-003   5.4075992324389421E-003
   2.1490047877191609E-002  -6.1677463865419807E-003   3.8005111612799403E-003
   1.9471168156901864E-002  -5.0040454852371408E-003   1.0504378362474753E-003
   2.4737076009883285E-002  -7.2100306962217253E-003   1.1167632807504491E-002
   2.1844687196177576E-002  -6.6066229547647737E-003   1.2078702534332242E-002
   1.8952298382471922E-002  -5.9909637330322341E-003   1.2385739328201167E-002
   1.6059909568766267E-002  -5.3630530310248628E-003   1.2088743189111475E-002
   1.3167520755060586E-002  -4.7228908487425558E-003   1.1187714117062819E-002
   2.1779834280560198E-002  -6.0118053914878233E-003   1.7305539737427697E-002
   1.8552888694352877E-002  -5.3433942651284205E-003   1.8252616053187690E-002
   1.5325943108145612E-002  -4.8589123598015288E-003   1.9134611756903723E-002
   1.2098997521938354E-002  -4.5583596755080814E-003   1.9951526848574850E-002
   8.8720519357310262E-003  -4.4417362122478043E-003   2.0703361328202233E-002
   1.8674961850091487E-002  -4.8135800867543654E-003   2.3606540402906995E-002
   1.5652411812296985E-002  -4.0801655754921784E-003   2.4393442606291837E-002
   1.2629861774502427E-002  -3.7268609865711844E-003   2.5654216518546269E-002
   9.6073117367078825E-003  -3.7536663199915568E-003   2.7388862139670872E-002
   6.5847616989133662E-003  -4.1605815757533859E-003   2.9597379469665230E-002
   2.7782994141254735E-002  -5.2852001217316147E-003  -9.7084675142440346E-003
   2.3355255095063310E-002  -4.2077521703449694E-003  -4.1847224768281066E-003
   1.8927516048872051E-002  -4.7545004397275270E-003   2.6039608460249886E-003
   1.4499777002680625E-002  -6.9254449298813275E-003   1.0657582454317305E-002
   1.0072037956489366E-002  -1.0720585640806135E-002   1.9976142348046899E-002
   1.9471168156901864E-002  -5.0040454852371408E-003   1.0504378362474753E-003
   1.6235856941180127E-002  -4.6914357272812568E-003   6.7424456566814728E-003
   1.3000545725458501E-002  -6.2894404376048763E-003   1.3554370852616793E-002
   9.7652345097368198E-003  -9.7980596162090677E-003   2.1486213424053824E-002
   6.5299232940150276E-003  -1.5217293263093179E-002   3.0537973370992066E-002
   1.3167520755060586E-002  -4.7228908487425558E-003   1.1187714117062819E-002
   1.0979616459872055E-002  -5.1751192842176552E-003   1.6761566473005585E-002
   8.7917121646835655E-003  -7.8243804354818092E-003   2.3310315294513134E-002
   6.6038078694950347E-003  -1.2670674302536038E-002   3.0833960581585343E-002
   4.4159035743064901E-003  -1.9714000885380667E-002   3.9332502334222808E-002
   8.8720519357310262E-003  -4.4417362122478043E-003   2.0703361328202233E-002
   7.5865336511392323E-003  -5.6588028411535540E-003   2.5872639972143660E-002
   6.3010153665472787E-003  -9.3593204333589503E-003   3.1871794171713368E-002
   5.0154970819553633E-003  -1.5543288988863837E-002   3.8700823926911626E-002
   3.7299787973634063E-003  -2.4210708507667933E-002   4.6359729237738290E-002
   6.5847616989133662E-003  -4.1605815757533859E-003   2.9597379469665230E-002
   6.0566085149815763E-003  -6.1424863980897859E-003   3.4075666154095852E-002
   5.5284553310498141E-003  -1.0894260431235897E-002   3.9238807484218652E-002
   5.0003021471179965E-003  -1.8415903675190921E-002   4.5086803460032993E-002
   4.4721489631862621E-003  -2.8707416129955199E-002   5.1619654081539235E-002
   7.5068767999759145E-002  -2.2673646522872237E-002   2.8794649530777428E-002
   7.2707758370240294E-002  -2.1851935966738234E-002   2.8607835156505390E-002
   7.0346748740721443E-002  -2.1076407918931686E-002   2.8573554408975549E-002
   6.7985739111202592E-002  -2.0347062379452347E-002   2.8691807288188029E-002
   6.5624729481683769E-002  -1.9663899348300429E-002   2.8962593794143232E-002
   6.8981986955729158E-002  -2.0719875021618317E-002   3.4262381110222839E-002
   6.6783257614405372E-002  -2.0019419624254714E-002   3.3973896790422620E-002
   6.4584528273081643E-002  -1.9340231257606311E-002   3.3857439420270280E-002
   6.2385798931757885E-002  -1.8682309921672899E-002   3.3913008999765695E-002
   6.0187069590434156E-002  -1.8045655616454631E-002   3.4140605528908879E-002
   6.2817514074239522E-002  -1.8766103520364369E-002   3.9596399792092160E-002
   6.0800558344016306E-002  -1.8186903281771222E-002   3.9231161004375764E-002
   5.8783602613793076E-002  -1.7604054596280928E-002   3.9057442489213105E-002
   5.6766646883569929E-002  -1.7017557463893475E-002   3.9075244246603455E-002
   5.4749691153346706E-002  -1.6427411884608861E-002   3.9284566276546903E-002
   5.6575349355290322E-002  -1.6812332019110435E-002   4.4796705576384474E-002
   5.4759660559073053E-002  -1.6354386939287743E-002   4.4379627798364824E-002
   5.2943971762855778E-002  -1.5867877934955605E-002   4.4173563615803595E-002
   5.1128282966638475E-002  -1.5352805006114040E-002   4.4178513028701398E-002
   4.9312594170421199E-002  -1.4809168152763078E-002   4.4394476037057540E-002
   5.0255492798881474E-002  -1.4858560517856501E-002   4.9863298463100558E-002
   4.8660564259575545E-002  -1.4521870596804154E-002   4.9419297172389409E-002
   4.7065635720269616E-002  -1.4131701273630198E-002   4.9205802800042442E-002
   4.5470707180963688E-002  -1.3688052548334544E-002   4.9222815346059406E-002
   4.3875778641657787E-002  -1.3190924420917294E-002   4.9470334810440497E-002
   6.5624729481683769E-002  -1.9663899348300429E-002   2.8962593794143232E-002
   6.3285573314868365E-002  -1.8994146860651734E-002   2.8661915868021054E-002
   6.0946417148052948E-002  -1.8305032951682482E-002   2.8548591021314046E-002
   5.8607260981237592E-002  -1.7596557621392193E-002   2.8622619254022319E-002
   5.6268104814422182E-002  -1.6868720869781195E-002   2.8884000566145485E-002
   6.0187069590434156E-002  -1.8045655616454631E-002   3.4140605528908879E-002
   5.8034463573975972E-002  -1.7413182567301663E-002   3.3855539097843459E-002
   5.5881857557517775E-002  -1.6767804999564158E-002   3.3756219888077227E-002
   5.3729251541059578E-002  -1.6109522913242164E-002   3.3842647899610286E-002
   5.1576645524601394E-002  -1.5438336308335798E-002   3.4114823132442657E-002
   5.4749691153346706E-002  -1.6427411884608861E-002   3.9284566276546903E-002
   5.2782029429129809E-002  -1.5832218273951551E-002   3.9008654437801986E-002
   5.0814367704912919E-002  -1.5230577047446056E-002   3.8916883962240412E-002
   4.8846705980696063E-002  -1.4622488205092304E-002   3.9009254849862292E-002
   4.6879044256479138E-002  -1.4007951746890457E-002   3.9285767100667432E-002
   4.9312594170421199E-002  -1.4809168152763078E-002   4.4394476037057540E-002
   4.7528270880329765E-002  -1.4251253980601349E-002   4.4121261887896696E-002
   4.5743947590238331E-002  -1.3693349095327788E-002   4.4030583243803503E-002
   4.3959624300146903E-002  -1.3135453496942456E-002   4.4122440104777526E-002
   4.2175301010055455E-002  -1.2577567185445088E-002   4.4396832470819367E-002
   4.3875778641657787E-002  -1.3190924420917294E-002   4.9470334810440497E-002
   4.2273187927575923E-002  -1.2670289687251368E-002   4.9193361448127637E-002
   4.0670597213494059E-002  -1.2156121143209686E-002   4.9097317732766210E-002
   3.9068006499412201E-002  -1.1648418788792511E-002   4.9182203664356688E-002
   3.7465415785330330E-002  -1.1147182623999718E-002   4.9448019242898433E-002
   5.6268104814422182E-002  -1.6868720869781195E-002   2.8884000566145485E-002
   5.3928754308606108E-002  -1.6135179651992043E-002   2.8553358607457169E-002
   5.1589403802790063E-002  -1.5409590923167168E-002   2.8393373375296321E-002
   4.9250053296974003E-002  -1.4691954683306970E-002   2.8404044869663053E-002
   4.6910702791157943E-002  -1.3982270932411056E-002   2.8585373090557364E-002
   5.1576645524601394E-002  -1.5438336308335798E-002   3.4114823132442657E-002
   4.9409963869601961E-002  -1.4761432694157972E-002   3.3775339825239115E-002
   4.7243282214602500E-002  -1.4085999580021644E-002   3.3610537493141093E-002
   4.5076600559603053E-002  -1.3412036965927101E-002   3.3620416136148752E-002
   4.2909918904603633E-002  -1.2739544851874174E-002   3.3804975754262334E-002
   4.6879044256479138E-002  -1.4007951746890457E-002   3.9285767100667432E-002
   4.4889055700874481E-002  -1.3387685736323915E-002   3.8943924433871138E-002
   4.2899067145269858E-002  -1.2762408236876181E-002   3.8780786990758744E-002
   4.0909078589665193E-002  -1.2132119248547344E-002   3.8796354771330158E-002
   3.8919090034060577E-002  -1.1496818771337319E-002   3.8990627775585610E-002
   4.2175301010055455E-002  -1.2577567185445088E-002   4.4396832470819367E-002
   4.0366029802423833E-002  -1.2013938778489795E-002   4.4059112433353170E-002
   3.8556758594792219E-002  -1.1438816893730715E-002   4.3904121868149196E-002
   3.6747487387160542E-002  -1.0852201531167616E-002   4.3931860775207228E-002
   3.4938216179528928E-002  -1.0254092690800395E-002   4.4142329154527454E-002
   3.7465415785330330E-002  -1.1147182623999718E-002   4.9448019242898433E-002
   3.5840886174249881E-002  -1.0640191820655814E-002   4.9120903823685502E-002
   3.4216356563169459E-002  -1.0115225550585055E-002   4.8980542125312582E-002
   3.2591826952088981E-002  -9.5722838137876839E-003   4.9026934147780088E-002
   3.0967297341008559E-002  -9.0113666102634715E-003   4.9260079891087827E-002
   4.6910702791157943E-002  -1.3982270932411056E-002   2.8585373090557364E-002
   4.4574880863757493E-002  -1.3265259123265316E-002   2.8142877728793259E-002
   4.2239058936357099E-002  -1.2525638708655626E-002   2.7836405326890107E-002
   3.9903237008956649E-002  -1.1763409688582357E-002   2.7665955884847840E-002
   3.7567415081556255E-002  -1.0978572063044423E-002   2.7631529402665778E-002
   4.2909918904603633E-002  -1.2739544851874174E-002   3.3804975754262334E-002
   4.0716231806516734E-002  -1.2058718508325988E-002   3.3398921060210307E-002
   3.8522544708429862E-002  -1.1359753205745879E-002   3.3141113064924871E-002
   3.6328857610342977E-002  -1.0642648944133300E-002   3.3031551768405776E-002
   3.4135170512256091E-002  -9.9074057234888047E-003   3.3070237170653050E-002
   3.8919090034060577E-002  -1.1496818771337319E-002   3.8990627775585610E-002
   3.6879761504192768E-002  -1.0852177893386522E-002   3.8616544102814107E-002
   3.4840432974325056E-002  -1.0193867702835695E-002   3.8402930867714492E-002
   3.2801104444457330E-002  -9.5218881996845788E-003   3.8349788070286855E-002
   3.0761775914589590E-002  -8.8362393839330755E-003   3.8457115710531231E-002
   3.4938216179528928E-002  -1.0254092690800395E-002   4.4142329154527454E-002
   3.3065469956785887E-002  -9.6456372784472361E-003   4.3795746856604423E-002
   3.1192723734042797E-002  -9.0279821999257291E-003   4.3621858735258881E-002
   2.9319977511299725E-002  -8.4011274552357462E-003   4.3620664790490676E-002
   2.7447231288556605E-002  -7.7650730443774019E-003   4.3792165022300128E-002
   3.0967297341008559E-002  -9.0113666102634715E-003   4.9260079891087827E-002
   2.9273357164295771E-002  -8.4390966635077835E-003   4.8936529321581212E-002
   2.7579416987582983E-002  -7.8620966970155692E-003   4.8797896667557794E-002
   2.5885476810870181E-002  -7.2803667107870021E-003   4.8844181929017405E-002
   2.4191536634157379E-002  -6.6939067048217282E-003   4.9075385105959990E-002
   3.7567415081556255E-002  -1.0978572063044423E-002   2.7631529402665778E-002
   3.5191298747193900E-002  -1.0196767589093159E-002   2.7101090617965728E-002
   3.2815182412831490E-002  -9.4436380237793438E-003   2.6694664835478776E-002
   3.0439066078469079E-002  -8.7191833671023955E-003   2.6412252055204782E-002
   2.8062949744106669E-002  -8.0234036190626190E-003   2.6253852277143275E-002
   3.4135170512256091E-002  -9.9074057234888047E-003   3.3070237170653050E-002
   3.1889157695987241E-002  -9.1726943063756838E-003   3.2580800136101096E-002
   2.9643144879718350E-002  -8.4571854553579240E-003   3.2227557135522916E-002
   2.7397132063449479E-002  -7.7608791704351712E-003   3.2010508168919566E-002
   2.5151119247180637E-002  -7.0837754516079876E-003   3.1929653236289879E-002
   3.0761775914589590E-002  -8.8362393839330755E-003   3.8457115710531231E-002
   2.8658047648175450E-002  -8.1486210236582646E-003   3.8018152768669072E-002
   2.6554319381761310E-002  -7.4707328869367262E-003   3.7727564892542365E-002
   2.4450591115347184E-002  -6.8025749737682800E-003   3.7585352082150761E-002
   2.2346862848933016E-002  -6.1441472841534117E-003   3.7591514337494802E-002
   2.7447231288556605E-002  -7.7650730443774019E-003   4.3792165022300128E-002
   2.5497968603758393E-002  -7.1245477409407065E-003   4.3413148515669929E-002
   2.3548705918960210E-002  -6.4842803185153619E-003   4.3194688106536330E-002
   2.1599443234161953E-002  -5.8442707771013333E-003   4.3136783794899165E-002
   1.9650180549363815E-002  -5.2045191166986970E-003   4.3239435580758198E-002
   2.4191536634157379E-002  -6.6939067048217282E-003   4.9075385105959990E-002
   2.2408920562736245E-002  -6.1004744582232595E-003   4.8765787377103631E-002
   2.0626304491315153E-002  -5.4978277500940531E-003   4.8628926777504855E-002
   1.8843688419894013E-002  -4.8859665804341507E-003   4.8664803307163829E-002
   1.7061072348472872E-002  -4.2648909492442044E-003   4.8873416966080607E-002
   2.8062949744106669E-002  -8.0234036190626190E-003   2.6253852277143275E-002
   2.5715952770602901E-002  -7.3117079280024533E-003   2.5671925646625349E-002
   2.3368955797099078E-002  -6.5395054422643928E-003   2.5036731457413031E-002
   2.1021958823595310E-002  -5.7067961618480628E-003   2.4348269709507098E-002
   1.8674961850091487E-002  -4.8135800867543654E-003   2.3606540402906995E-002
   2.5151119247180637E-002  -7.0837754516079876E-003   3.1929653236289879E-002
   2.2789401342406979E-002  -6.4083505615332714E-003   3.1532023183508118E-002
   2.0427683437633237E-002  -5.7170807628699194E-003   3.1158218826880302E-002
   1.8065965532859524E-002  -5.0099660556170988E-003   3.0808240166407055E-002
   1.5704247628085838E-002  -4.2870064397749763E-003   3.0482087202087671E-002
   2.2346862848933016E-002  -6.1441472841534117E-003   3.7591514337494802E-002
   2.0047517267737680E-002  -5.5049931950646724E-003   3.7333518976360475E-002
   1.7748171686542344E-002  -4.8946560834755293E-003   3.7176442566228513E-002
   1.5448826105346994E-002  -4.3131359493855728E-003   3.7120285107099166E-002
   1.3149480524151672E-002  -3.7604327927952541E-003   3.7165046598971990E-002
   1.9650180549363815E-002  -5.2045191166986970E-003   4.3239435580758198E-002
   1.7490300546595047E-002  -4.6016358285958375E-003   4.3076413025182711E-002
   1.5330420543826394E-002  -4.0722314040812085E-003   4.3091402675457961E-002
   1.3170540541057702E-002  -3.6163058431541058E-003   4.3284404531583942E-002
   1.1010660538288978E-002  -3.2338591458158095E-003   4.3655418593560848E-002
   1.7061072348472872E-002  -4.2648909492442044E-003   4.8873416966080607E-002
   1.5117751178979122E-002  -3.6982784621268916E-003   4.8760705329975007E-002
   1.3174430009485344E-002  -3.2498067246867213E-003   4.8903099154568808E-002
   1.1231108839991566E-002  -2.9194757369229857E-003   4.9300598439861176E-002
   9.2877876704977602E-003  -2.7072854988361428E-003   4.9953203185853168E-002
   1.8674961850091487E-002  -4.8135800867543654E-003   2.3606540402906995E-002
   1.5652411812296985E-002  -4.0801655754921784E-003   2.4393442606291837E-002
   1.2629861774502427E-002  -3.7268609865711844E-003   2.5654216518546269E-002
   9.6073117367078825E-003  -3.7536663199915568E-003   2.7388862139670872E-002
   6.5847616989133662E-003  -4.1605815757533859E-003   2.9597379469665230E-002
   1.5704247628085838E-002  -4.2870064397749763E-003   3.0482087202087671E-002
   1.3137211363986961E-002  -3.7744492411695973E-003   3.1258198755667321E-002
   1.0570175099888071E-002  -3.6985417856280067E-003   3.2471466147768246E-002
   8.0031388357891600E-003  -4.0592840731497881E-003   3.4121889378390585E-002
   5.4361025716902489E-003  -4.8566761037348583E-003   3.6209468447534143E-002
   1.3149480524151672E-002  -3.7604327927952541E-003   3.7165046598971990E-002
   1.1001242163399899E-002  -3.4687329068472939E-003   3.7873827682024575E-002
   8.8530038026481128E-003  -3.6702225846848152E-003   3.8983048733249606E-002
   6.7047654418963300E-003  -4.3649018263080160E-003   4.0492709752647522E-002
   4.5565270811445541E-003  -5.5527706317166081E-003   4.2402810740218649E-002
   1.1010660538288978E-002  -3.2338591458158095E-003   4.3655418593560848E-002
   9.2445042105358602E-003  -3.1630165725249071E-003   4.4240329385363542E-002
   7.4783478827826853E-003  -3.6419033837414086E-003   4.5188964274991084E-002
   5.7121915550295216E-003  -4.6705195794660235E-003   4.6501323262442683E-002
   3.9460352272763337E-003  -6.2488651596984413E-003   4.8177406347718547E-002
   9.2877876704977602E-003  -2.7072854988361428E-003   4.9953203185853168E-002
   7.8669975053947128E-003  -2.8573002382025203E-003   5.0357703865684389E-002
   6.4462073402916653E-003  -3.6135841827985016E-003   5.1089212772991610E-002
   5.0254171751886179E-003  -4.9761373326244890E-003   5.2147729907774998E-002
   3.6046270100855704E-003  -6.9449596876800523E-003   5.3533255270034052E-002
   6.5847616989133662E-003  -4.1605815757533859E-003   2.9597379469665230E-002
   6.0566085149815763E-003  -6.1424863980897859E-003   3.4075666154095852E-002
   5.5284553310498141E-003  -1.0894260431235897E-002   3.9238807484218652E-002
   5.0003021471179965E-003  -1.8415903675190921E-002   4.5086803460032993E-002
   4.4721489631862621E-003  -2.8707416129955199E-002   5.1619654081539235E-002
   5.4361025716902489E-003  -4.8566761037348583E-003   3.6209468447534143E-002
   5.4890339827177725E-003  -6.9906299168026043E-003   3.8349897201554517E-002
   5.5419653937452407E-003  -1.1361057551771719E-002   4.0967640499801339E-002
   5.5948968047727643E-003  -1.7967959008642446E-002   4.4062698342275497E-002
   5.6478282158002324E-003  -2.6811334287414557E-002   4.7635070728975881E-002
   4.5565270811445541E-003  -5.5527706317166081E-003   4.2402810740218649E-002
   4.9830029856661878E-003  -7.8387734355149230E-003   4.2738776952736118E-002
   5.4094788901878701E-003  -1.1827854672307528E-002   4.3344517608015373E-002
   5.8359547947095525E-003  -1.7520014342093580E-002   4.4220032706056171E-002
   6.2624306992312972E-003  -2.4915252444873914E-002   4.5365322246858297E-002
   3.9460352272763337E-003  -6.2488651596984413E-003   4.8177406347718547E-002
   4.5385155238270199E-003  -8.6869169542277136E-003   4.7242305407640885E-002
   5.1309958203777026E-003  -1.2294651792843121E-002   4.6369438808859617E-002
   5.7234761169283332E-003  -1.7072069675544796E-002   4.5558806551375550E-002
   6.3159564134790749E-003  -2.3019170602333272E-002   4.4810408635186399E-002
   3.6046270100855704E-003  -6.9449596876800523E-003   5.3533255270034052E-002
   4.1555715972001750E-003  -9.5350604729398380E-003   5.1860482566268407E-002
   4.7065161843147796E-003  -1.2761448913378992E-002   5.0042404102334515E-002
   5.2574607714294119E-003  -1.6624125008996085E-002   4.8079019878231877E-002
   5.8084053585439888E-003  -2.1123088759792630E-002   4.5970329893960660E-002
   5.0255492798881474E-002  -1.4858560517856501E-002   4.9863298463100558E-002
   4.8660564259575545E-002  -1.4521870596804154E-002   4.9419297172389409E-002
   4.7065635720269616E-002  -1.4131701273630198E-002   4.9205802800042442E-002
   4.5470707180963688E-002  -1.3688052548334544E-002   4.9222815346059406E-002
   4.3875778641657787E-002  -1.3190924420917294E-002   4.9470334810440497E-002
   4.3913814326641404E-002  -1.2987719758431715E-002   5.2921925706911621E-002
   4.2542568348642271E-002  -1.2684339447499249E-002   5.2552486422681149E-002
   4.1171322370643110E-002  -1.2339761823206369E-002   5.2399905342700365E-002
   3.9800076392643977E-002  -1.1953986885553235E-002   5.2464182466969211E-002
   3.8428830414644857E-002  -1.1527014634539701E-002   5.2745317795487384E-002
   3.7606183860198358E-002  -1.1116878999007013E-002   5.5953384384983235E-002
   3.6444971729391498E-002  -1.0846808298194260E-002   5.5646225018472384E-002
   3.5283759598584610E-002  -1.0547822372782581E-002   5.5542275142096545E-002
   3.4122547467777736E-002  -1.0219921222771901E-002   5.5641534755855725E-002
   3.2961335336970855E-002  -9.8631048481622741E-003   5.5944003859749722E-002
   3.1332601399552407E-002  -9.2460382395822827E-003   5.8957674497316127E-002
   3.0367774401823269E-002  -9.0092771488893414E-003   5.8700512959763244E-002
   2.9402947404094104E-002  -8.7558829223588000E-003   5.8632912198230885E-002
   2.8438120406364932E-002  -8.4858555599905804E-003   5.8754872212719078E-002
   2.7473293408635795E-002  -8.1991950617847364E-003   5.9066393003227649E-002
   2.5093066944703479E-002  -7.3751974801575249E-003   6.1934796043909501E-002
   2.4310976365937542E-002  -7.1717459995843114E-003   6.1715350246553613E-002
   2.3528885787171577E-002  -6.9639434719349635E-003   6.1671816511103428E-002
   2.2746795208405626E-002  -6.7517898972092455E-003   6.1804194837559223E-002
   2.1964704629639675E-002  -6.5352852754073099E-003   6.2112485225920999E-002
   4.3875778641657787E-002  -1.3190924420917294E-002   4.9470334810440497E-002
   4.2273187927575923E-002  -1.2670289687251368E-002   4.9193361448127637E-002
   4.0670597213494059E-002  -1.2156121143209686E-002   4.9097317732766210E-002
   3.9068006499412201E-002  -1.1648418788792511E-002   4.9182203664356688E-002
   3.7465415785330330E-002  -1.1147182623999718E-002   4.9448019242898433E-002
   3.8428830414644857E-002  -1.1527014634539701E-002   5.2745317795487384E-002
   3.7011045592538455E-002  -1.1079865838652017E-002   5.2448018620918982E-002
   3.5593260770432074E-002  -1.0633561266376448E-002   5.2339401583350015E-002
   3.4175475948325693E-002  -1.0188100917712651E-002   5.2419466682780289E-002
   3.2757691126219318E-002  -9.7434847926609613E-003   5.2688213919209942E-002
   3.2961335336970855E-002  -9.8631048481622741E-003   5.5944003859749722E-002
   3.1736108896887646E-002  -9.4894419900529159E-003   5.5632000838938447E-002
   3.0510882456804434E-002  -9.1110013895430997E-003   5.5516432445174124E-002
   2.9285656016721215E-002  -8.7277830466329573E-003   5.5597298678456905E-002
   2.8060429576638013E-002  -8.3397869613223152E-003   5.5874599538786540E-002
   2.7473293408635795E-002  -8.1991950617847364E-003   5.9066393003227649E-002
   2.6448377840623420E-002  -7.8990181414536897E-003   5.8745308102185770E-002
   2.5423462272611077E-002  -7.5884415127097787E-003   5.8628410318238532E-002
   2.4398546704598702E-002  -7.2674651755530693E-003   5.8715699651385983E-002
   2.3373631136586359E-002  -6.9360891299835581E-003   5.9007176101628152E-002
   2.1964704629639675E-002  -6.5352852754073099E-003   6.2112485225920999E-002
   2.1147852423745866E-002  -6.3085942928544914E-003   6.1787940410660880E-002
   2.0331000217852058E-002  -6.0658816358764994E-003   6.1675335202543202E-002
   1.9514148011958249E-002  -5.8071473044733445E-003   6.1774669601567841E-002
   1.8697295806064440E-002  -5.5323912986449120E-003   6.2085943607734950E-002
   3.7465415785330330E-002  -1.1147182623999718E-002   4.9448019242898433E-002
   3.5840886174249881E-002  -1.0640191820655814E-002   4.9120903823685502E-002
   3.4216356563169459E-002  -1.0115225550585055E-002   4.8980542125312582E-002
   3.2591826952088981E-002  -9.5722838137876839E-003   4.9026934147780088E-002
   3.0967297341008559E-002  -9.0113666102634715E-003   4.9260079891087827E-002
   3.2757691126219318E-002  -9.7434847926609613E-003   5.2688213919209942E-002
   3.1322010137948192E-002  -9.2920552544847324E-003   5.2389879769789344E-002
   2.9886329149677066E-002  -8.8261546664476498E-003   5.2282489145147257E-002
   2.8450648161405960E-002  -8.3457830285492418E-003   5.2366042045283369E-002
   2.7014967173134813E-002  -7.8509403407900913E-003   5.2640538470197840E-002
   2.8060429576638013E-002  -8.3397869613223152E-003   5.5874599538786540E-002
   2.6817787015114225E-002  -7.9439186883138030E-003   5.5601542242292801E-002
   2.5575144453590479E-002  -7.5370837823100362E-003   5.5523618274515574E-002
   2.4332501892066725E-002  -7.1192822433109142E-003   5.5640827635454533E-002
   2.3089859330542972E-002  -6.6905140713165445E-003   5.5953170325110074E-002
   2.3373631136586359E-002  -6.9360891299835581E-003   5.9007176101628152E-002
   2.2328216805748001E-002  -6.5957821221427973E-003   5.8755891241195735E-002
   2.1282802474909671E-002  -6.2480128981724711E-003   5.8703929513417505E-002
   2.0237388144071340E-002  -5.8927814580725293E-003   5.8851290918293962E-002
   1.9191973813232982E-002  -5.5300878018429700E-003   5.9197975455824663E-002
   1.8697295806064440E-002  -5.5323912986449120E-003   6.2085943607734950E-002
   1.7853299509849541E-002  -5.2476455559718194E-003   6.1852926766497951E-002
   1.7009303213634655E-002  -4.9589420140351004E-003   6.1823422861853272E-002
   1.6165306917419769E-002  -4.6662806728341097E-003   6.1997431893801136E-002
   1.5321310621204870E-002  -4.3696615323695065E-003   6.2374953862341598E-002
   3.0967297341008559E-002  -9.0113666102634715E-003   4.9260079891087827E-002
   2.9273357164295771E-002  -8.4390966635077835E-003   4.8936529321581212E-002
   2.7579416987582983E-002  -7.8620966970155692E-003   4.8797896667557794E-002
   2.5885476810870181E-002  -7.2803667107870021E-003   4.8844181929017405E-002
   2.4191536634157379E-002  -6.6939067048217282E-003   4.9075385105959990E-002
   2.7014967173134813E-002  -7.8509403407900913E-003   5.2640538470197840E-002
   2.5509860828761527E-002  -7.3458766665288611E-003   5.2353476614269256E-002
   2.4004754484388213E-002  -6.8348420691249356E-003   5.2259164507536510E-002
   2.2499648140014934E-002  -6.3178365485779958E-003   5.2357602149999766E-002
   2.0994541795641614E-002  -5.7948601048884441E-003   5.2648789541659080E-002
   2.3089859330542972E-002  -6.6905140713165445E-003   5.5953170325110074E-002
   2.1781418652222016E-002  -6.2526566695499108E-003   5.5703838086165747E-002
   2.0472977973901074E-002  -5.8075874412340106E-003   5.5655087430130368E-002
   1.9164537295580132E-002  -5.3553063863690416E-003   5.5806918357003694E-002
   1.7856096617259183E-002  -4.8958135049549378E-003   5.6159330866785928E-002
   1.9191973813232982E-002  -5.5300878018429700E-003   5.9197975455824663E-002
   1.8088030634677267E-002  -5.1594366725708635E-003   5.8987613737271224E-002
   1.6984087456121552E-002  -4.7803328133433423E-003   5.8985665435339160E-002
   1.5880144277565865E-002  -4.3927762241602834E-003   5.9192130550028789E-002
   1.4776201099010124E-002  -3.9967669050214871E-003   5.9607009081340409E-002
   1.5321310621204870E-002  -4.3696615323695065E-003   6.2374953862341598E-002
   1.4429696776127265E-002  -4.0662166755918161E-003   6.2204803567584954E-002
   1.3538082931049661E-002  -3.7530781854524797E-003   6.2250898523163012E-002
   1.2646469085972049E-002  -3.4302460619512268E-003   6.2513238729075438E-002
   1.1754855240894424E-002  -3.0977203050880364E-003   6.2991824185322454E-002
   2.4191536634157379E-002  -6.6939067048217282E-003   4.9075385105959990E-002
   2.2408920562736245E-002  -6.1004744582232595E-003   4.8765787377103631E-002
   2.0626304491315153E-002  -5.4978277500940531E-003   4.8628926777504855E-002
   1.8843688419894013E-002  -4.8859665804341507E-003   4.8664803307163829E-002
   1.7061072348472872E-002  -4.2648909492442044E-003   4.8873416966080607E-002
   2.0994541795641614E-002  -5.7948601048884441E-003   5.2648789541659080E-002
   1.9392532743956539E-002  -5.2676904659228474E-003   5.2411426327884258E-002
   1.7790523692271507E-002  -4.7381053595475092E-003   5.2362540024324028E-002
   1.6188514640586467E-002  -4.2061047857633489E-003   5.2502130630978222E-002
   1.4586505588901399E-002  -3.6716887445698010E-003   5.2830198147846841E-002
   1.7856096617259183E-002  -4.8958135049549378E-003   5.6159330866785928E-002
   1.6450434366266961E-002  -4.4349064736221577E-003   5.5987403173971648E-002
   1.5044772115274736E-002  -3.9783829690011874E-003   5.6019692172328411E-002
   1.3639109864282505E-002  -3.5262429910922696E-003   5.6256197861856580E-002
   1.2233447613290288E-002  -3.0784865398951755E-003   5.6696920242555848E-002
   1.4776201099010124E-002  -3.9967669050214871E-003   5.9607009081340409E-002
   1.3582625429667480E-002  -3.6021224813216068E-003   5.9493717915365188E-002
   1.2389049760324834E-002  -3.2186605784548655E-003   5.9600383221518262E-002
   1.1195474090982161E-002  -2.8463811964211071E-003   5.9927004999798958E-002
   1.0001898421639517E-002  -2.4852843352207166E-003   6.0473583250207699E-002
   1.1754855240894424E-002  -3.0977203050880364E-003   6.2991824185322454E-002
   1.0789105934158105E-002  -2.7693384890210559E-003   6.2930370552065462E-002
   9.8233566274217726E-003  -2.4589381879083771E-003   6.3104613171893198E-002
   8.8576073206854539E-003  -2.1665194017500694E-003   6.3514552044805495E-002
   7.8918580139491212E-003  -1.8920821305461466E-003   6.4160187170802518E-002
   1.7061072348472872E-002  -4.2648909492442044E-003   4.8873416966080607E-002
   1.5117751178979122E-002  -3.6982784621268916E-003   4.8760705329975007E-002
   1.3174430009485344E-002  -3.2498067246867213E-003   4.8903099154568808E-002
   1.1231108839991566E-002  -2.9194757369229857E-003   4.9300598439861176E-002
   9.2877876704977602E-003  -2.7072854988361428E-003   4.9953203185853168E-002
   1.4586505588901399E-002  -3.6716887445698010E-003   5.2830198147846841E-002
   1.2897613196172192E-002  -3.1941249215102219E-003   5.2721188285090037E-002
   1.1208720803442998E-002  -2.8326810021279125E-003   5.2865930515163584E-002
   9.5198284107137765E-003  -2.5873569864228591E-003   5.3264424838067204E-002
   7.8309360179845688E-003  -2.4581528743956582E-003   5.3916671253800619E-002
   1.2233447613290288E-002  -3.0784865398951755E-003   5.6696920242555848E-002
   1.0797630629456677E-002  -2.6899713808929970E-003   5.6593632999147298E-002
   9.3618136456230794E-003  -2.4155552795689650E-003   5.6742744480699908E-002
   7.9259966617894959E-003  -2.2552382359230586E-003   5.7144254687213944E-002
   6.4901796779558707E-003  -2.2090202499551737E-003   5.7798163618688836E-002
   1.0001898421639517E-002  -2.4852843352207166E-003   6.0473583250207699E-002
   8.8178034788325612E-003  -2.1858178402761608E-003   6.0378039472146677E-002
   7.6337085360256192E-003  -1.9984295570100313E-003   6.0533541051177718E-002
   6.4496135932186772E-003  -1.9231194854230950E-003   6.0940087987300967E-002
   5.2655186504117213E-003  -1.9598876255147446E-003   6.1597680280516418E-002
   7.8918580139491212E-003  -1.8920821305461466E-003   6.4160187170802518E-002
   6.9581317442998503E-003  -1.6816642996590470E-003   6.4074407704088232E-002
   6.0244054746505932E-003  -1.5813038344511254E-003   6.4238320226597201E-002
   5.0906792050013361E-003  -1.5910007349232216E-003   6.4651924738329342E-002
   4.1569529353520651E-003  -1.7107550010742045E-003   6.5315221239284682E-002
   9.2877876704977602E-003  -2.7072854988361428E-003   4.9953203185853168E-002
   7.8669975053947128E-003  -2.8573002382025203E-003   5.0357703865684389E-002
   6.4462073402916653E-003  -3.6135841827985016E-003   5.1089212772991610E-002
   5.0254171751886179E-003  -4.9761373326244890E-003   5.2147729907774998E-002
   3.6046270100855704E-003  -6.9449596876800523E-003   5.3533255270034052E-002
   7.8309360179845688E-003  -2.4581528743956582E-003   5.3916671253800619E-002
   6.7110735977450181E-003  -2.6434879422030377E-003   5.3851572932893554E-002
   5.5912111775054951E-003  -3.3417814660028911E-003   5.4061321874236901E-002
   4.4713487572659791E-003  -4.5530334457947325E-003   5.4545918077831962E-002
   3.3514863370264214E-003  -6.2772438815792420E-003   5.5305361543677822E-002
   6.4901796779558707E-003  -2.2090202499551737E-003   5.7798163618688836E-002
   5.6190840373551848E-003  -2.4296756462037217E-003   5.7356777046279728E-002
   4.7479883967544850E-003  -3.0699787492071418E-003   5.7138076770897578E-002
   3.8768927561537991E-003  -4.1299295589649690E-003   5.7142062792541748E-002
   3.0057971155530994E-003  -5.6095280754778765E-003   5.7368735111212488E-002
   5.2655186504117213E-003  -1.9598876255147446E-003   6.1597680280516418E-002
   4.5910288242251816E-003  -2.2158633502043223E-003   6.0873316205844061E-002
   3.9165389980386281E-003  -2.7981760324111288E-003   6.0319477462973330E-002
   3.2420491718521093E-003  -3.7068256721352090E-003   5.9936164051904495E-002
   2.5675593456655627E-003  -4.9418122693765665E-003   5.9723375972637591E-002
   4.1569529353520651E-003  -1.7107550010742045E-003   6.5315221239284682E-002
   3.6269079583549912E-003  -2.0020510542049230E-003   6.4401190411586096E-002
   3.0968629813579313E-003  -2.5263733156157542E-003   6.3605523950464260E-002
   2.5668180043608643E-003  -3.2837217853054976E-003   6.2928221855919758E-002
   2.0367730273637974E-003  -4.2740964632755896E-003   6.2369284127952063E-002
   3.6046270100855704E-003  -6.9449596876800523E-003   5.3533255270034052E-002
   4.1555715972001750E-003  -9.5350604729398380E-003   5.1860482566268407E-002
   4.7065161843147796E-003  -1.2761448913378992E-002   5.0042404102334515E-002
   5.2574607714294119E-003  -1.6624125008996085E-002   4.8079019878231877E-002
   5.8084053585439888E-003  -2.1123088759792630E-002   4.5970329893960660E-002
   3.3514863370264214E-003  -6.2772438815792420E-003   5.5305361543677822E-002
   3.7746322591708514E-003  -8.5456042637425123E-003   5.2951732840724519E-002
   4.1977781813152537E-003  -1.1389306082672856E-002   5.0487812567999057E-002
   4.6209241034596837E-003  -1.4808349338369331E-002   4.7913600725501937E-002
   5.0440700256040860E-003  -1.8802734030832324E-002   4.5229097313232991E-002
   3.0057971155530994E-003  -5.6095280754778765E-003   5.7368735111212488E-002
   3.3361585631241295E-003  -7.5561480545448534E-003   5.4395196627482600E-002
   3.6665200106952150E-003  -1.0017163251966471E-002   5.1346380764378113E-002
   3.9968814582662521E-003  -1.2992573667742015E-002   4.8222287521898485E-002
   4.3272429058373307E-003  -1.6482379301871797E-002   4.5022916900044230E-002
   2.5675593456655627E-003  -4.9418122693765665E-003   5.9723375972637591E-002
   2.8401505090601530E-003  -6.5666918453474721E-003   5.6190873926543761E-002
   3.1127416724547434E-003  -8.6450204212602105E-003   5.2618108691472258E-002
   3.3853328358493633E-003  -1.1176797997114647E-002   4.9005080267422396E-002
   3.6579239992439797E-003  -1.4162024572911269E-002   4.5351788654394515E-002
   2.0367730273637974E-003  -4.2740964632755896E-003   6.2369284127952063E-002
   2.2866080969788094E-003  -5.5772356361495357E-003   5.8338764737907334E-002
   2.5364431665938214E-003  -7.2728775905540888E-003   5.4302996349280763E-002
   2.7862782362088195E-003  -9.3610223264876460E-003   5.0261978962073545E-002
   3.0361133058238177E-003  -1.1841669843950964E-002   4.6215712576284762E-002
   2.5093066944703479E-002  -7.3751974801575249E-003   6.1934796043909501E-002
   2.4310976365937542E-002  -7.1717459995843114E-003   6.1715350246553613E-002
   2.3528885787171577E-002  -6.9639434719349635E-003   6.1671816511103428E-002
   2.2746795208405626E-002  -6.7517898972092455E-003   6.1804194837559223E-002
   2.1964704629639675E-002  -6.5352852754073099E-003   6.2112485225920999E-002
   1.8857867493264624E-002  -5.5313980632021864E-003   6.3054321617324827E-002
   1.8256591613473164E-002  -5.3788097455951811E-003   6.2818207691917732E-002
   1.7655315733681703E-002  -5.2229580073496346E-003   6.2767811102553778E-002
   1.7054039853890243E-002  -5.0638428484655502E-003   6.2903131849232852E-002
   1.6452763974098783E-002  -4.9014642689427235E-003   6.3224169931955149E-002
   1.2597290042848749E-002  -3.6875986462467925E-003   6.4123527840992733E-002
   1.2186634136168904E-002  -3.5858734916060786E-003   6.3869658161097034E-002
   1.1775978229489080E-002  -3.4819725427643888E-003   6.3811311091381509E-002
   1.1365322322809252E-002  -3.3758957997217440E-003   6.3948486631846158E-002
   1.0954666416129417E-002  -3.2676432624782203E-003   6.4281184782491133E-002
   6.3113345934558487E-003  -1.8437992292914263E-003   6.5142414714913208E-002
   6.1011039340247899E-003  -1.7929372376169067E-003   6.4869701654091214E-002
   5.8908732745937085E-003  -1.7409870781791015E-003   6.4802316477586497E-002
   5.6806426151626409E-003  -1.6879487509780765E-003   6.4940259185399099E-002
   5.4704119557315682E-003  -1.6338222560137033E-003   6.5283529777529076E-002
   1.1450859704886795E-009   1.8766393994340547E-010   6.6110982239086236E-002
   1.0070407910345303E-009  -9.8362784584082874E-010   6.5818338170900270E-002
   8.6899560464148706E-010  -1.6135938002426187E-009   6.5740827261168727E-002
   7.3095042865678472E-010  -1.7022342667372126E-009   6.5878449509891676E-002
   5.9290524573318848E-010  -1.2495491863440122E-009   6.6231204917069020E-002
   2.1964704629639675E-002  -6.5352852754073099E-003   6.2112485225920999E-002
   2.1147852423745866E-002  -6.3085942928544914E-003   6.1787940410660880E-002
   2.0331000217852058E-002  -6.0658816358764994E-003   6.1675335202543202E-002
   1.9514148011958249E-002  -5.8071473044733445E-003   6.1774669601567841E-002
   1.8697295806064440E-002  -5.5323912986449120E-003   6.2085943607734950E-002
   1.6452763974098783E-002  -4.9014642689427235E-003   6.3224169931955149E-002
   1.5845919728508281E-002  -4.7314458717656466E-003   6.2925555511975109E-002
   1.5239075482917766E-002  -4.5494112599183539E-003   6.2835017405459312E-002
   1.4632231237327264E-002  -4.3553604334010225E-003   6.2952555612407701E-002
   1.4025386991736763E-002  -4.1492933922135933E-003   6.3278170132820416E-002
   1.0954666416129417E-002  -3.2676432624782203E-003   6.4281184782491133E-002
   1.0553966837164037E-002  -3.1542974506767046E-003   6.4004495298036090E-002
   1.0153267258198668E-002  -3.0329408839602709E-003   6.3932018833367077E-002
   9.7525676792332913E-003  -2.9035735623288688E-003   6.4063755388484106E-002
   9.3518681002679183E-003  -2.7661954857824966E-003   6.4399704963387150E-002
   5.4704119557315682E-003  -1.6338222560137033E-003   6.5283529777529076E-002
   5.2719937497131570E-003  -1.5771490295877835E-003   6.5024759768843851E-002
   5.0735755436947423E-003  -1.5164705080021289E-003   6.4966339486266483E-002
   4.8751573376763259E-003  -1.4517866912566310E-003   6.5108268929796972E-002
   4.6767391316579181E-003  -1.3830975793513445E-003   6.5450548099435374E-002
   5.9290524573318848E-010  -1.2495491863440122E-009   6.6231204917069020E-002
   4.6615561757890056E-010  -6.0849891792003064E-010   6.5986348924398419E-002
   3.3940599636350655E-010  -1.3204408400024903E-010   6.5937979364157573E-002
   2.1265637167866558E-010   1.7981556868496007E-010   6.6086096236346439E-002
   8.5906746993824612E-011   3.2707986319380211E-010   6.6430699540964921E-002
   1.8697295806064440E-002  -5.5323912986449120E-003   6.2085943607734950E-002
   1.7853299509849541E-002  -5.2476455559718194E-003   6.1852926766497951E-002
   1.7009303213634655E-002  -4.9589420140351004E-003   6.1823422861853272E-002
   1.6165306917419769E-002  -4.6662806728341097E-003   6.1997431893801136E-002
   1.5321310621204870E-002  -4.3696615323695065E-003   6.2374953862341598E-002
   1.4025386991736763E-002  -4.1492933922135933E-003   6.3278170132820416E-002
   1.3386775161655644E-002  -3.9357340748281400E-003   6.3048877812478588E-002
   1.2748163331574532E-002  -3.7192064197164587E-003   6.3026841487811555E-002
   1.2109551501493423E-002  -3.4997104268786328E-003   6.3212061158819749E-002
   1.1470939671412314E-002  -3.2772460963146899E-003   6.3604536825502933E-002
   9.3518681002679183E-003  -2.7661954857824966E-003   6.4399704963387150E-002
   8.9223837954031625E-003  -2.6238225936845022E-003   6.4173147702402761E-002
   8.4928994905384067E-003  -2.4794708253980530E-003   6.4157589496175796E-002
   8.0634151856736475E-003  -2.3331401809232148E-003   6.4353030344706602E-002
   7.6339308808088951E-003  -2.1848306602599288E-003   6.4759470247995027E-002
   4.6767391316579181E-003  -1.3830975793513445E-003   6.5450548099435374E-002
   4.4601254110921027E-003  -1.3119111125408159E-003   6.5225736436270526E-002
   4.2435116905262908E-003  -1.2397352310796958E-003   6.5215666886945842E-002
   4.0268979699604780E-003  -1.1665699349677119E-003   6.5420339451461584E-002
   3.8102842493946635E-003  -1.0924152242051954E-003   6.5839754129817352E-002
   8.5906746993824612E-011   3.2707986319380211E-010   6.6430699540964921E-002
   8.7224602540736385E-012   3.6860284269302213E-010   6.6206644014081995E-002
  -6.8461826485677335E-011   3.6323885566069691E-010   6.6201073660121956E-002
  -1.4564610975598136E-010   3.1098775638005449E-010   6.6413988479084696E-002
  -2.2283039996517928E-010   2.1184959342335219E-010   6.6845388470970157E-002
   1.5321310621204870E-002  -4.3696615323695065E-003   6.2374953862341598E-002
   1.4429696776127265E-002  -4.0662166755918161E-003   6.2204803567584954E-002
   1.3538082931049661E-002  -3.7530781854524797E-003   6.2250898523163012E-002
   1.2646469085972049E-002  -3.4302460619512268E-003   6.2513238729075438E-002
   1.1754855240894424E-002  -3.0977203050880364E-003   6.2991824185322454E-002
   1.1470939671412314E-002  -3.2772460963146899E-003   6.3604536825502933E-002
   1.0797235633551415E-002  -3.0496624801561456E-003   6.3457895180230428E-002
   1.0123531595690530E-002  -2.8148086305342934E-003   6.3530827899056425E-002
   9.4498275578296237E-003  -2.5726845474497717E-003   6.3823334981981616E-002
   8.7761235199687454E-003  -2.3232902309017756E-003   6.4335416429005532E-002
   7.6339308808088951E-003  -2.1848306602599288E-003   6.4759470247995027E-002
   7.1814657639290916E-003  -2.0331082847203641E-003   6.4633913852307379E-002
   6.7290006470492880E-003  -1.8765390756163708E-003   6.4731260934482962E-002
   6.2765355301694897E-003  -1.7151230329481466E-003   6.5051511494521874E-002
   5.8240704132896809E-003  -1.5488601567154592E-003   6.5594665532424073E-002
   3.8102842493946635E-003  -1.0924152242051954E-003   6.5839754129817352E-002
   3.5823871672603213E-003  -1.0165540892844716E-003   6.5732859583815972E-002
   3.3544900851259661E-003  -9.3826952069842734E-004   6.5852197629442305E-002
   3.1265930029916139E-003  -8.5756151844627350E-004   6.6197768266696155E-002
   2.8986959208572687E-003  -7.7443008252900403E-004   6.6769571495577884E-002
  -2.2283039996517928E-010   2.1184959342335219E-010   6.6845388470970157E-002
  -1.5645492540405925E-010   1.0615119894197278E-010   6.6754732374756376E-002
  -9.0079450842939224E-011   3.4219696520843002E-011   6.6893637983934523E-002
  -2.3703979751266147E-011  -3.9449658817414246E-012   6.7262105298504779E-002
   4.2671498279300835E-011  -8.3428819408482013E-012   6.7860134318467047E-002
   1.1754855240894424E-002  -3.0977203050880364E-003   6.2991824185322454E-002
   1.0789105934158105E-002  -2.7693384890210559E-003   6.2930370552065462E-002
   9.8233566274217726E-003  -2.4589381879083771E-003   6.3104613171893198E-002
   8.8576073206854539E-003  -2.1665194017500694E-003   6.3514552044805495E-002
   7.8918580139491212E-003  -1.8920821305461466E-003   6.4160187170802518E-002
   8.7761235199687454E-003  -2.3232902309017756E-003   6.4335416429005532E-002
   8.0475057340001072E-003  -2.0770038663311396E-003   6.4286342851492040E-002
   7.3188879480314759E-003  -1.8442036391785183E-003   6.4475836062429320E-002
   6.5902701620628341E-003  -1.6248895494436581E-003   6.4903896061817068E-002
   5.8616523760942063E-003  -1.4190615971271248E-003   6.5570522849655866E-002
   5.8240704132896809E-003  -1.5488601567154592E-003   6.5594665532424073E-002
   5.3354546834547441E-003  -1.3846692436413344E-003   6.5562467388190396E-002
   4.8468389536198038E-003  -1.2294690904488814E-003   6.5771706567773508E-002
   4.3582232237848670E-003  -1.0832596971378020E-003   6.6222383071173341E-002
   3.8696074939499267E-003  -9.4604106370832497E-004   6.6914496898389714E-002
   2.8986959208572687E-003  -7.7443008252900403E-004   6.6769571495577884E-002
   2.6529527825220100E-003  -6.9233462095164011E-004   6.6758744162160447E-002
   2.4072096441867521E-003  -6.1473454171896702E-004   6.6992224687925844E-002
   2.1614665058514943E-003  -5.4162984483189028E-004   6.7470013072874008E-002
   1.9157233675162356E-003  -4.7302053028958069E-004   6.8192109317004673E-002
   4.2671498279300835E-011  -8.3428819408482013E-012   6.7860134318467047E-002
   3.1201909111988613E-011   1.7384427231093014E-012   6.7875173173402303E-002
   1.9732333822464199E-011   7.0108086003273229E-012   6.8137390422886468E-002
   8.2627515940458807E-012   7.4743475297900375E-012   6.8646786066919124E-002
  -3.2068306343724373E-012   3.1293856395109287E-012   6.9403360105500744E-002
   7.8918580139491212E-003  -1.8920821305461466E-003   6.4160187170802518E-002
   6.9581317442998503E-003  -1.6816642996590470E-003   6.4074407704088232E-002
   6.0244054746505932E-003  -1.5813038344511254E-003   6.4238320226597201E-002
   5.0906792050013361E-003  -1.5910007349232216E-003   6.4651924738329342E-002
   4.1569529353520651E-003  -1.7107550010742045E-003   6.5315221239284682E-002
   5.8616523760942063E-003  -1.4190615971271248E-003   6.5570522849655866E-002
   5.1735529904483948E-003  -1.2612482254314994E-003   6.5422538838680488E-002
   4.4854536048025626E-003  -1.1859778775598628E-003   6.5516116606489067E-002
   3.7973542191567372E-003  -1.1932505535116184E-003   6.5851256153081281E-002
   3.1092548335109188E-003  -1.2830662532875570E-003   6.6427957478457311E-002
   3.8696074939499267E-003  -9.4604106370832497E-004   6.6914496898389714E-002
   3.4190047818679972E-003  -8.4083215120397958E-004   6.6731822685009212E-002
   2.9684020697860816E-003  -7.9065192066792023E-004   6.6782580039972936E-002
   2.5177993577041521E-003  -7.9550037210034466E-004   6.7066768963280621E-002
   2.0671966456222365E-003  -8.5537750550090941E-004   6.7584389454932642E-002
   1.9157233675162356E-003  -4.7302053028958069E-004   6.8192109317004673E-002
   1.6944871185586904E-003  -4.2041607697627936E-004   6.8002259243074417E-002
   1.4732508696011382E-003  -3.9532596377626211E-004   6.8037710527048753E-002
   1.2520146206435852E-003  -3.9775019068857310E-004   6.8298463168927695E-002
   1.0307783716860409E-003  -4.2768875771426185E-004   6.8784517168711284E-002
  -3.2068306343724373E-012   3.1293856395109287E-012   6.9403360105500744E-002
   5.2045867615646557E-013  -2.7490232312743501E-012   6.9233848512876062E-002
   4.2477375783445126E-012  -6.8846317535786739E-012   6.9281508067716435E-002
   7.9750234194264635E-012  -9.2775023774471777E-012   6.9546338770022059E-002
   1.1702305791061463E-011  -9.9276142861981498E-012   7.0028340619792684E-002
   4.1569529353520651E-003  -1.7107550010742045E-003   6.5315221239284682E-002
   3.6269079583549912E-003  -2.0020510542049230E-003   6.4401190411586096E-002
   3.0968629813579313E-003  -2.5263733156157542E-003   6.3605523950464260E-002
   2.5668180043608643E-003  -3.2837217853054976E-003   6.2928221855919758E-002
   2.0367730273637974E-003  -4.2740964632755896E-003   6.2369284127952063E-002
   3.1092548335109188E-003  -1.2830662532875570E-003   6.6427957478457311E-002
   2.7011109423266538E-003  -1.5015382930415044E-003   6.5319205351740850E-002
   2.2929670511423958E-003  -1.8947799889269812E-003   6.4335891030072978E-002
   1.8848231599581239E-003  -2.4627913409440497E-003   6.3478014513453557E-002
   1.4766792687738589E-003  -3.2055723490929111E-003   6.2745575801882780E-002
   2.0671966456222365E-003  -8.5537750550090941E-004   6.7584389454932642E-002
   1.7880272787221090E-003  -1.0010255318777528E-003   6.6339172581346778E-002
   1.5088579118219848E-003  -1.2631866622383331E-003   6.5226466951280856E-002
   1.2296885449218520E-003  -1.6418608965824942E-003   6.4246272564734780E-002
   9.5051917802171926E-004  -2.1370482349102882E-003   6.3398589421708257E-002
   1.0307783716860409E-003  -4.2768875771426185E-004   6.8784517168711284E-002
   8.8765696754138090E-004  -5.0051277071400113E-004   6.7461092100403963E-002
   7.4453556339673047E-004  -6.3159333554967806E-004   6.6277251714087701E-002
   6.0141415925206833E-004  -8.2093045222065945E-004   6.5232996009762581E-002
   4.5829275510740619E-004  -1.0685241207276375E-003   6.4328324987428714E-002
   1.1702305791061463E-011  -9.9276142861981498E-012   7.0028340619792684E-002
   8.7844592711050495E-012  -9.5506935693379091E-012   6.8684963908911767E-002
   5.8666058122547327E-012  -8.8610230264407619E-012   6.7488245318493290E-002
   2.9487506186809398E-012  -7.8593520580483300E-012   6.6438184848537529E-002
   3.0905833448002795E-014  -6.5452088193751479E-012   6.5534782499043986E-002
   2.0367730273637974E-003  -4.2740964632755896E-003   6.2369284127952063E-002
   2.2866080969788094E-003  -5.5772356361495357E-003   5.8338764737907334E-002
   2.5364431665938214E-003  -7.2728775905540888E-003   5.4302996349280763E-002
   2.7862782362088195E-003  -9.3610223264876460E-003   5.0261978962073545E-002
   3.0361133058238177E-003  -1.1841669843950964E-002   4.6215712576284762E-002
   1.4766792687738589E-003  -3.2055723490929111E-003   6.2745575801882780E-002
   1.7069628976709855E-003  -4.1829267285535265E-003   5.8391247703527660E-002
   1.9372465265681121E-003  -5.4546581945068562E-003   5.4003065722317944E-002
   2.1675301554652422E-003  -7.0207667469520396E-003   4.9581029858253384E-002
   2.3978137843623515E-003  -8.8812523858896597E-003   4.5125140111334838E-002
   9.5051917802171926E-004  -2.1370482349102882E-003   6.3398589421708257E-002
   1.1326464819275198E-003  -2.7886178209573509E-003   5.8818578310080610E-002
   1.3147737858333133E-003  -3.6364387984596097E-003   5.4176108431325018E-002
   1.4969010897390826E-003  -4.6805111674164852E-003   4.9471179785441237E-002
   1.6790283936448935E-003  -5.9208349278285777E-003   4.4703792372429274E-002
   4.5829275510740619E-004  -1.0685241207276375E-003   6.4328324987428714E-002
   5.6365884974840866E-004  -1.3943089133614806E-003   5.9620756557565754E-002
   6.6902494438939725E-004  -1.8182194024121481E-003   5.4822124476301332E-002
   7.7439103903038844E-004  -2.3402555878813489E-003   4.9932428743635550E-002
   8.7975713367140218E-004  -2.9604174697672736E-003   4.4951669359568291E-002
   3.0905833448002795E-014  -6.5452088193751479E-012   6.5534782499043986E-002
   1.1336487304447473E-012  -5.7651661222735129E-012   6.0797782445983328E-002
   2.2363881579945399E-012  -6.3651306447809475E-012   5.5941113857247537E-002
   3.3391310549912845E-012  -8.3454354538048392E-012   5.0964776732837225E-002
   4.4418635436471732E-012  -1.1706191571647651E-011   4.5868771072751446E-002
   1.1450859704886795E-009   1.8766393994340547E-010   6.6110982239086236E-002
   1.0070407910345303E-009  -9.8362784584082874E-010   6.5818338170900270E-002
   8.6899560464148706E-010  -1.6135938002426187E-009   6.5740827261168727E-002
   7.3095042865678472E-010  -1.7022342667372126E-009   6.5878449509891676E-002
   5.9290524573318848E-010  -1.2495491863440122E-009   6.6231204917069020E-002
  -6.3113322527219226E-003   1.8437993276681497E-003   6.5142413123268017E-002
  -6.1011019166030168E-003   1.7929360355048440E-003   6.4869700958726406E-002
  -5.8908715804840972E-003   1.7409851776834101E-003   6.4802316584058550E-002
  -5.6806412443651914E-003   1.6879467542040109E-003   6.4940259999264310E-002
  -5.4704109082462649E-003   1.6338207650664072E-003   6.5283531204343936E-002
  -1.2597287550428837E-002   3.6875984676723317E-003   6.4123525940070078E-002
  -1.2186632108726548E-002   3.5858730546374229E-003   6.3869657572189140E-002
  -1.1775976667024254E-002   3.4819719689607800E-003   6.3811311625601164E-002
  -1.1365321225321971E-002   3.3758952106422869E-003   6.3948488100306303E-002
  -1.0954665783619685E-002   3.2676427796820284E-003   6.4281186996304349E-002
  -1.8857864748034789E-002   5.5313976076765276E-003   6.3054320689492238E-002
  -1.8256589569329833E-002   5.3788100737701128E-003   6.2818208011288387E-002
  -1.7655314390624888E-002   5.2229587602380979E-003   6.2767812385796692E-002
  -1.7054039211919943E-002   5.0638436670806470E-003   6.2903133813017348E-002
  -1.6452764033214988E-002   4.9014647942976913E-003   6.3224172292950256E-002
  -2.5093063845539734E-002   7.3751967476807234E-003   6.1934797371534955E-002
  -2.4310974298412842E-002   7.1717470929026916E-003   6.1715352276024205E-002
  -2.3528884751285964E-002   6.9639455515154158E-003   6.1671818864645067E-002
  -2.2746795204159086E-002   6.7517921235188821E-003   6.1804197137397515E-002
  -2.1964705657032201E-002   6.5352868089132432E-003   6.2112487094281577E-002
   5.9290524573318848E-010  -1.2495491863440122E-009   6.6231204917069020E-002
   4.6615561757890056E-010  -6.0849891792003064E-010   6.5986348924398419E-002
   3.3940599636350655E-010  -1.3204408400024903E-010   6.5937979364157573E-002
   2.1265637167866558E-010   1.7981556868496007E-010   6.6086096236346439E-002
   8.5906746993824612E-011   3.2707986319380211E-010   6.6430699540964921E-002
  -5.4704109082462649E-003   1.6338207650664072E-003   6.5283531204343936E-002
  -5.2719929152949948E-003   1.5771482628219452E-003   6.5024760712147148E-002
  -5.0735749223437317E-003   1.5164703000218327E-003   6.4966340026922420E-002
  -4.8751569293924608E-003   1.4517868766659725E-003   6.5108269148669837E-002
  -4.6767389364411917E-003   1.3830979927543785E-003   6.5450548077389287E-002
  -1.0954665783619685E-002   3.2676427796820284E-003   6.4281186996304349E-002
  -1.0553966296425136E-002   3.1542971341428361E-003   6.4004496708620975E-002
  -1.0153266809230592E-002   3.0329407320876314E-003   6.3932019602452067E-002
  -9.7525673220360473E-003   2.9035735735163746E-003   6.4063755677797651E-002
  -9.3518678348414978E-003   2.7661956584290326E-003   6.4399704934657714E-002
  -1.6452764033214988E-002   4.9014647942976913E-003   6.3224172292950256E-002
  -1.5845919677234789E-002   4.7314460054638241E-003   6.2925556913819944E-002
  -1.5239075321254588E-002   4.5494111641533781E-003   6.2835018090746445E-002
  -1.4632230965274384E-002   4.3553602703667498E-003   6.2952555823729828E-002
  -1.4025386609294182E-002   4.1492933241037283E-003   6.3278170112769955E-002
  -2.1964705657032201E-002   6.5352868089132432E-003   6.2112487094281577E-002
  -2.1147853057723959E-002   6.3085948767845623E-003   6.1787941327743984E-002
  -2.0331000458415713E-002   6.0658815962193191E-003   6.1675335491805566E-002
  -1.9514147859107468E-002   5.8071469672172013E-003   6.1774669586466463E-002
  -1.8697295259799233E-002   5.5323909897782575E-003   6.2085943611726480E-002
   8.5906746993824612E-011   3.2707986319380211E-010   6.6430699540964921E-002
   8.7224602540736385E-012   3.6860284269302213E-010   6.6206644014081995E-002
  -6.8461826485677335E-011   3.6323885566069691E-010   6.6201073660121956E-002
  -1.4564610975598136E-010   3.1098775638005449E-010   6.6413988479084696E-002
  -2.2283039996517928E-010   2.1184959342335219E-010   6.6845388470970157E-002
  -4.6767389364411917E-003   1.3830979927543785E-003   6.5450548077389287E-002
  -4.4601253710856992E-003   1.3119116281345156E-003   6.5225736370197102E-002
  -4.2435118057302067E-003   1.2397357626542371E-003   6.5215666775161565E-002
  -4.0268982403747090E-003   1.1665703963131824E-003   6.5420339292283053E-002
  -3.8102846750192217E-003   1.0924155291114346E-003   6.5839753921560940E-002
  -9.3518678348414978E-003   2.7661956584290326E-003   6.4399704934657714E-002
  -8.9223836877123062E-003   2.6238228876665076E-003   6.4173147593182545E-002
  -8.4928995405831147E-003   2.4794711620697990E-003   6.4157589303098242E-002
  -8.0634153934539370E-003   2.3331404816387229E-003   6.4353030064404487E-002
  -7.6339312463247454E-003   2.1848308463735255E-003   6.4759469877101447E-002
  -1.4025386609294182E-002   4.1492933241037283E-003   6.3278170112769955E-002
  -1.3386774941157378E-002   3.9357341471983401E-003   6.3048877683038476E-002
  -1.2748163273020568E-002   3.7192065614852984E-003   6.3026841243931583E-002
  -1.2109551604883752E-002   3.4997105669643171E-003   6.3212060795449276E-002
  -1.1470939936746954E-002   3.2772461636356026E-003   6.3604536337591389E-002
  -1.8697295259799233E-002   5.5323909897782575E-003   6.2085943611726480E-002
  -1.7853299131420884E-002   5.2476454067302003E-003   6.1852926639764938E-002
  -1.7009303003042549E-002   4.9589419609007701E-003   6.1823422597661798E-002
  -1.6165306874664210E-002   4.6662806522896685E-003   6.1997431485417254E-002
  -1.5321310746285864E-002   4.3696614808975132E-003   6.2374953303031166E-002
  -2.2283039996517928E-010   2.1184959342335219E-010   6.6845388470970157E-002
  -1.5645492540405925E-010   1.0615119894197278E-010   6.6754732374756376E-002
  -9.0079450842939224E-011   3.4219696520843002E-011   6.6893637983934523E-002
  -2.3703979751266147E-011  -3.9449658817414246E-012   6.7262105298504779E-002
   4.2671498279300835E-011  -8.3428819408482013E-012   6.7860134318467047E-002
  -3.8102846750192217E-003   1.0924155291114346E-003   6.5839753921560940E-002
  -3.5823874683618868E-003   1.0165542234709113E-003   6.5732859469995020E-002
  -3.3544902617045624E-003   9.3826954181294719E-004   6.5852197593600892E-002
  -3.1265930550472372E-003   8.5756148413759087E-004   6.6197768292378251E-002
  -2.8986958483898963E-003   7.7443005044497415E-004   6.6769571566327568E-002
  -7.6339312463247454E-003   2.1848308463735255E-003   6.4759469877101447E-002
  -7.1814660296058569E-003   2.0331083407904571E-003   6.4633913660399306E-002
  -6.7290008128869823E-003   1.8765390494058579E-003   6.4731260888648556E-002
  -6.2765355961681051E-003   1.7151229722200349E-003   6.5051511561849337E-002
  -5.8240703794492331E-003   1.5488601092327192E-003   6.5594665680001302E-002
  -1.1470939936746954E-002   3.2772461636356026E-003   6.3604536337591389E-002
  -1.0797235840186818E-002   3.0496624581100307E-003   6.3457894945968873E-002
  -1.0123531743626686E-002   2.8148085569989385E-003   6.3530827869077697E-002
  -9.4498276470665662E-003   2.5726844603025352E-003   6.3823335106917650E-002
  -8.7761235505064150E-003   2.3232901680205753E-003   6.4335416659488387E-002
  -1.5321310746285864E-002   4.3696614808975132E-003   6.2374953303031166E-002
  -1.4429696900104781E-002   4.0662165754297153E-003   6.2204803326704305E-002
  -1.3538083053923695E-002   3.7530780645921163E-003   6.2250898534888327E-002
  -1.2646469207742617E-002   3.4302459483849489E-003   6.2513238927583190E-002
  -1.1754855361561532E-002   3.0977202268082094E-003   6.2991824504788796E-002
   4.2671498279300835E-011  -8.3428819408482013E-012   6.7860134318467047E-002
   3.1201909111988613E-011   1.7384427231093014E-012   6.7875173173402303E-002
   1.9732333822464199E-011   7.0108086003273229E-012   6.8137390422886468E-002
   8.2627515940458807E-012   7.4743475297900375E-012   6.8646786066919124E-002
  -3.2068306343724373E-012   3.1293856395109287E-012   6.9403360105500744E-002
  -2.8986958483898963E-003   7.7443005044497415E-004   6.6769571566327568E-002
  -2.6529527290547715E-003   6.9233461445483702E-004   6.6758744200827835E-002
  -2.4072096097196329E-003   6.1473454988744680E-004   6.6992224702389219E-002
  -2.1614664903845046E-003   5.4162985674249126E-004   6.7470013071011178E-002
  -1.9157233710493694E-003   4.7302053501996344E-004   6.8192109306693838E-002
  -5.8240703794492331E-003   1.5488601092327192E-003   6.5594665680001302E-002
  -5.3354546567972710E-003   1.3846692271716476E-003   6.5562467470298064E-002
  -4.8468389341453358E-003   1.2294690927643209E-003   6.5771706600167471E-002
  -4.3582232114933867E-003   1.0832597060105829E-003   6.6222383069609897E-002
  -3.8696074888414384E-003   9.4604106691059675E-004   6.6914496878625107E-002
  -8.7761235505064150E-003   2.3232901680205753E-003   6.4335416659488387E-002
  -8.0475057520255858E-003   2.0770038398883056E-003   6.4286342981812489E-002
  -7.3188879535447393E-003   1.8442036356409661E-003   6.4475836116221652E-002
  -6.5902701550639015E-003   1.6248895552787006E-003   6.4903896062715641E-002
  -5.8616523565830636E-003   1.4190615988012023E-003   6.5570522821294469E-002
  -1.1754855361561532E-002   3.0977202268082094E-003   6.2991824504788796E-002
  -1.0789106014739702E-002   2.7693384526049081E-003   6.2930370735371555E-002
  -9.8233566679178722E-003   2.4589381785178055E-003   6.3104613250551445E-002
  -8.8576073210960490E-003   2.1665194045467004E-003   6.3514552050328382E-002
  -7.8918579742742190E-003   1.8920821306919189E-003   6.4160187134702285E-002
  -3.2068306343724373E-012   3.1293856395109287E-012   6.9403360105500744E-002
   5.2045867615646557E-013  -2.7490232312743501E-012   6.9233848512876062E-002
   4.2477375783445126E-012  -6.8846317535786739E-012   6.9281508067716435E-002
   7.9750234194264635E-012  -9.2775023774471777E-012   6.9546338770022059E-002
   1.1702305791061463E-011  -9.9276142861981498E-012   7.0028340619792684E-002
  -1.9157233710493694E-003   4.7302053501996344E-004   6.8192109306693838E-002
  -1.6944871158209029E-003   4.2041607083970201E-004   6.8002259240858454E-002
  -1.4732508605924607E-003   3.9532595032254481E-004   6.8037710530560347E-002
  -1.2520146053640107E-003   3.9775017346790897E-004   6.8298463175799462E-002
  -1.0307783501355521E-003   4.2768874027576675E-004   6.8784517176575855E-002
  -3.8696074888414384E-003   9.4604106691059675E-004   6.6914496878625107E-002
  -3.4190047740396117E-003   8.4083214442870480E-004   6.6731822681498826E-002
  -2.9684020592377937E-003   7.9065190752951320E-004   6.6782580047982140E-002
  -2.5177993444359600E-003   7.9550035621310175E-004   6.7066768978074925E-002
  -2.0671966296341489E-003   8.5537749047914780E-004   6.7584389471777195E-002
  -5.8616523565830636E-003   1.4190615988012023E-003   6.5570522821294469E-002
  -5.1735529741356555E-003   1.2612482180176798E-003   6.5422538834797594E-002
  -4.4854535916882673E-003   1.1859778647368077E-003   6.5516116619982342E-002
  -3.7973542092408791E-003   1.1932505389582373E-003   6.5851256176848783E-002
  -3.1092548267934706E-003   1.2830662406825843E-003   6.6427957505396665E-002
  -7.8918579742742190E-003   1.8920821306919189E-003   6.4160187134702285E-002
  -6.9581317161090464E-003   1.6816642916063218E-003   6.4074407700754454E-002
  -6.0244054579438773E-003   1.5813038219435471E-003   6.4238320246560565E-002
  -5.0906791997787099E-003   1.5910007217036226E-003   6.4651924772120561E-002
  -4.1569529416135356E-003   1.7107549908860209E-003   6.5315221277434277E-002
   1.1702305791061463E-011  -9.9276142861981498E-012   7.0028340619792684E-002
   8.7844592711050495E-012  -9.5506935693379091E-012   6.8684963908911767E-002
   5.8666058122547327E-012  -8.8610230264407619E-012   6.7488245318493290E-002
   2.9487506186809398E-012  -7.8593520580483300E-012   6.6438184848537529E-002
   3.0905833448002795E-014  -6.5452088193751479E-012   6.5534782499043986E-002
  -1.0307783501355521E-003   4.2768874027576675E-004   6.8784517176575855E-002
  -8.8765695121292149E-004   5.0051275475287982E-004   6.7461092105406240E-002
  -7.4453555229030480E-004   6.3159332090553799E-004   6.6277251717455188E-002
  -6.0141415336767770E-004   8.2093043873420618E-004   6.5232996012722366E-002
  -4.5829275444505754E-004   1.0685241082384334E-003   6.4328324991208108E-002
  -2.0671966296341489E-003   8.5537749047914780E-004   6.7584389471777195E-002
  -1.7880272661150460E-003   1.0010255190560646E-003   6.6339172591682094E-002
  -1.5088579025959430E-003   1.2631866506724321E-003   6.5226466957561874E-002
  -1.2296885390768336E-003   1.6418608853277644E-003   6.4246272569415841E-002
  -9.5051917555772324E-004   2.1370482230221866E-003   6.3398589427244356E-002
  -3.1092548267934706E-003   1.2830662406825843E-003   6.6427957505396665E-002
  -2.7011109359218869E-003   1.5015382833593882E-003   6.5319205367739941E-002
  -2.2929670450503033E-003   1.8947799804391596E-003   6.4335891038813667E-002
  -1.8848231541787196E-003   2.4627913319211006E-003   6.3478014518617870E-002
  -1.4766792633071359E-003   3.2055723378058842E-003   6.2745575807152607E-002
  -4.1569529416135356E-003   1.7107549908860209E-003   6.5315221277434277E-002
  -3.6269079606334534E-003   2.0020510476626563E-003   6.4401190433579170E-002
  -3.0968629796533920E-003   2.5263733102059149E-003   6.3605523961210719E-002
  -2.5668179986733288E-003   3.2837217785148878E-003   6.2928221860328343E-002
  -2.0367730176932483E-003   4.2740964525895819E-003   6.2369284130932900E-002
   3.0905833448002795E-014  -6.5452088193751479E-012   6.5534782499043986E-002
   1.1336487304447473E-012  -5.7651661222735129E-012   6.0797782445983328E-002
   2.2363881579945399E-012  -6.3651306447809475E-012   5.5941113857247537E-002
   3.3391310549912845E-012  -8.3454354538048392E-012   5.0964776732837225E-002
   4.4418635436471732E-012  -1.1706191571647651E-011   4.5868771072751446E-002
  -4.5829275444505754E-004   1.0685241082384334E-003   6.4328324991208108E-002
  -5.6365884715534748E-004   1.3943089010467480E-003   5.9620756560148536E-002
  -6.6902493986565302E-004   1.8182193887863463E-003   5.4822124477137746E-002
  -7.7439103257594382E-004   2.3402555714573392E-003   4.9932428742175766E-002
  -8.7975712528623462E-004   2.9604174490602819E-003   4.4951669355262736E-002
  -9.5051917555772324E-004   2.1370482230221866E-003   6.3398589427244356E-002
  -1.1326464783571813E-003   2.7886178078582180E-003   5.8818578314497549E-002
  -1.3147737811566038E-003   3.6364387839378232E-003   5.4176108433523468E-002
  -1.4969010839560462E-003   4.6805111512603914E-003   4.9471179784322167E-002
  -1.6790283867554705E-003   5.9208349098269775E-003   4.4703792366894035E-002
  -1.4766792633071359E-003   3.2055723378058842E-003   6.2745575807152607E-002
  -1.7069628924718059E-003   4.1829267146697990E-003   5.8391247709030245E-002
  -1.9372465216364895E-003   5.4546581790889670E-003   5.4003065726405008E-002
  -2.1675301508011589E-003   7.0207667310634159E-003   4.9581029859276496E-002
  -2.3978137799658432E-003   8.8812523705935620E-003   4.5125140107643985E-002
  -2.0367730176932483E-003   4.2740964525895819E-003   6.2369284130932900E-002
  -2.2866080894992785E-003   5.5772356214818242E-003   5.8338764743747107E-002
  -2.5364431613053053E-003   7.2728775742407770E-003   5.4302996355782285E-002
  -2.7862782331113493E-003   9.3610223108663293E-003   5.0261978967037768E-002
  -3.0361133049173622E-003   1.1841669831360147E-002   4.6215712577514001E-002
  -2.5093063845539734E-002   7.3751967476807234E-003   6.1934797371534955E-002
  -2.4310974298412842E-002   7.1717470929026916E-003   6.1715352276024205E-002
  -2.3528884751285964E-002   6.9639455515154158E-003   6.1671818864645067E-002
  -2.2746795204159086E-002   6.7517921235188821E-003   6.1804197137397515E-002
  -2.1964705657032201E-002   6.5352868089132432E-003   6.2112487094281577E-002
  -3.1332598190644288E-002   9.2460377942920613E-003   5.8957676952234583E-002
  -3.0367772446711211E-002   9.0092781092954988E-003   5.8700514947658045E-002
  -2.9402946702778116E-002   8.7558846580275546E-003   5.8632913652562374E-002
  -2.8438120958845042E-002   8.4858574404882182E-003   5.8754873066947461E-002
  -2.7473295214911944E-002   8.1991964566773545E-003   5.9066393190813360E-002
  -3.7606181131048987E-002   1.1116878840903455E-002   5.5953387442546909E-002
  -3.6444970164960427E-002   1.0846809125688417E-002   5.5646226649242250E-002
  -3.5283759198871917E-002   1.0547823764539693E-002   5.5542275590767798E-002
  -3.4122548232783378E-002   1.0219922757457332E-002   5.5641534267123260E-002
  -3.2961337266694875E-002   9.8631061044412993E-003   5.5944002678308888E-002
  -4.3913812666753746E-002   1.2987719887514848E-002   5.2921928842471835E-002
  -4.2542567453160582E-002   1.2684340142081307E-002   5.2552487380776919E-002
  -4.1171322239567376E-002   1.2339762871051888E-002   5.2399904679261332E-002
  -3.9800077025974177E-002   1.1953988074426530E-002   5.2464180737925026E-002
  -3.8428831812380985E-002   1.1527015752205244E-002   5.2745315556768042E-002
  -5.0255492797758761E-002   1.4858560934126186E-002   4.9863301152009432E-002
  -4.8660564311311633E-002   1.4521871158474087E-002   4.9419297142261898E-002
  -4.7065635824864518E-002   1.4131701977563971E-002   4.9205800918043052E-002
  -4.5470707338417397E-002   1.3688053391395782E-002   4.9222812479352673E-002
  -4.3875778851970290E-002   1.3190925399969300E-002   4.9470331826190816E-002
  -2.1964705657032201E-002   6.5352868089132432E-003   6.2112487094281577E-002
  -2.1147853057723959E-002   6.3085948767845623E-003   6.1787941327743984E-002
  -2.0331000458415713E-002   6.0658815962193191E-003   6.1675335491805566E-002
  -1.9514147859107468E-002   5.8071469672172013E-003   6.1774669586466463E-002
  -1.8697295259799233E-002   5.5323909897782575E-003   6.2085943611726480E-002
  -2.7473295214911944E-002   8.1991964566773545E-003   5.9066393190813360E-002
  -2.6448379030401717E-002   7.8990188331441724E-003   5.8745308154170367E-002
  -2.5423462845891493E-002   7.5884416964378601E-003   5.8628410357332114E-002
  -2.4398546661381269E-002   7.2674650465582458E-003   5.8715699800298594E-002
  -2.3373630476871014E-002   6.9360888835055534E-003   5.9007176483069773E-002
  -3.2961337266694875E-002   9.8631061044412993E-003   5.5944002678308888E-002
  -3.1736110187777132E-002   9.4894427895035743E-003   5.5632000206824038E-002
  -3.0510883108859393E-002   9.1110017966563456E-003   5.5516432284349548E-002
  -2.9285656029941650E-002   8.7277831258995124E-003   5.5597298910885197E-002
  -2.8060428951023911E-002   8.3397867772330436E-003   5.5874600086431192E-002
  -3.8428831812380985E-002   1.1527015752205244E-002   5.2745315556768042E-002
  -3.7011046529850253E-002   1.1079866745863025E-002   5.2448017485704962E-002
  -3.5593261247319451E-002   1.0633561896874887E-002   5.2339401272857716E-002
  -3.4175475964788676E-002   1.0188101205240640E-002   5.2419466918226250E-002
  -3.2757690682257888E-002   9.7434846709604922E-003   5.2688214421810702E-002
  -4.3875778851970290E-002   1.3190925399969300E-002   4.9470331826190816E-002
  -4.2273188056620947E-002   1.2670290702222531E-002   4.9193359990813146E-002
  -4.0670597261271625E-002   1.2156121997093330E-002   4.9097317322856826E-002
  -3.9068006465922303E-002   1.1648419284581952E-002   4.9182203822321788E-002
  -3.7465415670572960E-002   1.1147182564687885E-002   4.9448019489208128E-002
  -1.8697295259799233E-002   5.5323909897782575E-003   6.2085943611726480E-002
  -1.7853299131420884E-002   5.2476454067302003E-003   6.1852926639764938E-002
  -1.7009303003042549E-002   4.9589419609007701E-003   6.1823422597661798E-002
  -1.6165306874664210E-002   4.6662806522896685E-003   6.1997431485417254E-002
  -1.5321310746285864E-002   4.3696614808975132E-003   6.2374953303031166E-002
  -2.3373630476871014E-002   6.9360888835055534E-003   5.9007176483069773E-002
  -2.2328216307865092E-002   6.5957818673515467E-003   5.8755891336890742E-002
  -2.1282802138859195E-002   6.2480126581680451E-003   5.8703929342108260E-002
  -2.0237387969853290E-002   5.8927812559547293E-003   5.8851290498722404E-002
  -1.9191973800847376E-002   5.5300876607120020E-003   5.9197974806733389E-002
  -2.8060428951023911E-002   8.3397867772330436E-003   5.5874600086431192E-002
  -2.6817786519852289E-002   7.9439183279729902E-003   5.5601542435786494E-002
  -2.5575144088680654E-002   7.5370833554352507E-003   5.5523618158076438E-002
  -2.4332501657509026E-002   7.1192818596198422E-003   5.5640827253301307E-002
  -2.3089859226337398E-002   6.6905138405266851E-003   5.5953169721460902E-002
  -3.2757690682257888E-002   9.7434846709604922E-003   5.2688214421810702E-002
  -3.1322009767382392E-002   9.2920547885944407E-003   5.2389879936452152E-002
  -2.9886328852506895E-002   8.8261540527026019E-003   5.2282489045566580E-002
  -2.8450647937631419E-002   8.3457824632848180E-003   5.2366041749153901E-002
  -2.7014967022755899E-002   7.8509400203413265E-003   5.2640538047214261E-002
  -3.7465415670572960E-002   1.1147182564687885E-002   4.9448019489208128E-002
  -3.5840886050455462E-002   1.0640191249215752E-002   4.9120903838887786E-002
  -3.4216356430337949E-002   1.0115224749969703E-002   4.8980542004578437E-002
  -3.2591826810220464E-002   9.5722830669499256E-003   4.9026933986280247E-002
  -3.0967297190102938E-002   9.0113662001559125E-003   4.9260079783992994E-002
  -1.5321310746285864E-002   4.3696614808975132E-003   6.2374953303031166E-002
  -1.4429696900104781E-002   4.0662165754297153E-003   6.2204803326704305E-002
  -1.3538083053923695E-002   3.7530780645921163E-003   6.2250898534888327E-002
  -1.2646469207742617E-002   3.4302459483849489E-003   6.2513238927583190E-002
  -1.1754855361561532E-002   3.0977202268082094E-003   6.2991824504788796E-002
  -1.9191973800847376E-002   5.5300876607120020E-003   5.9197974806733389E-002
  -1.8088030674927102E-002   5.1594365941516063E-003   5.8987613377218612E-002
  -1.6984087549006870E-002   4.7803327779852439E-003   5.8985665322671466E-002
  -1.5880144423086596E-002   4.3927762122127241E-003   5.9192130643091811E-002
  -1.4776201297166364E-002   3.9967668968343695E-003   5.9607009338479733E-002
  -2.3089859226337398E-002   6.6905138405266851E-003   5.5953169721460902E-002
  -2.1781418630221233E-002   6.2526566128736638E-003   5.5703837694522043E-002
  -2.0472978034105065E-002   5.8075874913782674E-003   5.5655087233007321E-002
  -1.9164537437988908E-002   5.3553064760405011E-003   5.5806918336916853E-002
  -1.7856096841872737E-002   4.8958135668603631E-003   5.6159331006250923E-002
  -2.7014967022755899E-002   7.8509400203413265E-003   5.2640538047214261E-002
  -2.5509860765987116E-002   7.3458766315955826E-003   5.2353476278614752E-002
  -2.4004754509218292E-002   6.8348422047713429E-003   5.2259164265896135E-002
  -2.2499648252449482E-002   6.3178367398681662E-003   5.2357602009058514E-002
  -2.0994541995680686E-002   5.7948602368864954E-003   5.2648789508102055E-002
  -3.0967297190102938E-002   9.0113662001559125E-003   4.9260079783992994E-002
  -2.9273357082224727E-002   8.4390966503175568E-003   4.8936529129496531E-002
  -2.7579416974346543E-002   7.8620969181645156E-003   4.8797896421337666E-002
  -2.5885476866468360E-002   7.2803670036960220E-003   4.8844181659516747E-002
  -2.4191536758590149E-002   6.6939069069124058E-003   4.9075384844033287E-002
  -1.1754855361561532E-002   3.0977202268082094E-003   6.2991824504788796E-002
  -1.0789106014739702E-002   2.7693384526049081E-003   6.2930370735371555E-002
  -9.8233566679178722E-003   2.4589381785178055E-003   6.3104613250551445E-002
  -8.8576073210960490E-003   2.1665194045467004E-003   6.3514552050328382E-002
  -7.8918579742742190E-003   1.8920821306919189E-003   6.4160187134702285E-002
  -1.4776201297166364E-002   3.9967668968343695E-003   5.9607009338479733E-002
  -1.3582625563848733E-002   3.6021224682378783E-003   5.9493718073502622E-002
  -1.2389049830531122E-002   3.2186605628104770E-003   5.9600383296919995E-002
  -1.1195474097213522E-002   2.8463811805526026E-003   5.9927005008731757E-002
  -1.0001898363895881E-002   2.4852843214642206E-003   6.0473583208938309E-002
  -1.7856096841872737E-002   4.8958135668603631E-003   5.6159331006250923E-002
  -1.6450434518261808E-002   4.4349064838705987E-003   5.5987403268766861E-002
  -1.5044772194650903E-002   3.9783829471032733E-003   5.6019692223475012E-002
  -1.3639109871039973E-002   3.5262429565587304E-003   5.6256197870375051E-002
  -1.2233447547429067E-002   3.0784865122366889E-003   5.6696920209467316E-002
  -2.0994541995680686E-002   5.7948602368864954E-003   5.2648789508102055E-002
  -1.9392532877978930E-002   5.2676904995034440E-003   5.2411426321164530E-002
  -1.7790523760277201E-002   4.7381053313960628E-003   5.2362540030216509E-002
  -1.6188514642575456E-002   4.2061047325648564E-003   5.2502130635258146E-002
  -1.4586505524873719E-002   3.6716887030092960E-003   5.2830198136289364E-002
  -2.4191536758590149E-002   6.6939069069124058E-003   4.9075384844033287E-002
  -2.2408920643000041E-002   6.1004745151361783E-003   4.8765787230695468E-002
  -2.0626304527410003E-002   5.4978277156886579E-003   4.8628926717144805E-002
  -1.8843688411819930E-002   4.8859665085707951E-003   4.8664803303381077E-002
  -1.7061072296229857E-002   4.2648908937815699E-003   4.8873416989404617E-002
  -7.8918579742742190E-003   1.8920821306919189E-003   6.4160187134702285E-002
  -6.9581317161090464E-003   1.6816642916063218E-003   6.4074407700754454E-002
  -6.0244054579438773E-003   1.5813038219435471E-003   6.4238320246560565E-002
  -5.0906791997787099E-003   1.5910007217036226E-003   6.4651924772120561E-002
  -4.1569529416135356E-003   1.7107549908860209E-003   6.5315221277434277E-002
  -1.0001898363895881E-002   2.4852843214642206E-003   6.0473583208938309E-002
  -8.8178034398198532E-003   2.1858178293831521E-003   6.0378039457369692E-002
  -7.6337085157438117E-003   1.9984295481459691E-003   6.0533541057868956E-002
  -6.4496135916677477E-003   1.9231194777542468E-003   6.0940088010436017E-002
  -5.2655186675917114E-003   1.9598876182066460E-003   6.1597680315070902E-002
  -1.2233447547429067E-002   3.0784865122366889E-003   5.6696920209467316E-002
  -1.0797630585128132E-002   2.6899713671594827E-003   5.6593632981700032E-002
  -9.3618136228272412E-003   2.4155552743487241E-003   5.6742744478314289E-002
  -7.9259966605263518E-003   2.2552382338048710E-003   5.7144254699310629E-002
  -6.4901796982254432E-003   2.2090202455274377E-003   5.7798163644688677E-002
  -1.4586505524873719E-002   3.6716887030092960E-003   5.2830198136289364E-002
  -1.2897613152033955E-002   3.1941249049359521E-003   5.2721188273745216E-002
  -1.1208720779194178E-002   2.8326810005509795E-003   5.2865930507896772E-002
  -9.5198284063543834E-003   2.5873569898556617E-003   5.3264424838744377E-002
  -7.8309360335146409E-003   2.4581528728480906E-003   5.3916671266287609E-002
  -1.7061072296229857E-002   4.2648908937815699E-003   4.8873416989404617E-002
  -1.5117751140537219E-002   3.6982784427126436E-003   4.8760705333505516E-002
  -1.3174429984844624E-002   3.2498067267538455E-003   4.8903099146616391E-002
  -1.1231108829152014E-002   2.9194757459062165E-003   4.9300598428737075E-002
  -9.2877876734593912E-003   2.7072855001689655E-003   4.9953203179867622E-002
  -4.1569529416135356E-003   1.7107549908860209E-003   6.5315221277434277E-002
  -3.6269079606334534E-003   2.0020510476626563E-003   6.4401190433579170E-002
  -3.0968629796533920E-003   2.5263733102059149E-003   6.3605523961210719E-002
  -2.5668179986733288E-003   3.2837217785148878E-003   6.2928221860328343E-002
  -2.0367730176932483E-003   4.2740964525895819E-003   6.2369284130932900E-002
  -5.2655186675917114E-003   1.9598876182066460E-003   6.1597680315070902E-002
  -4.5910288338631942E-003   2.2158633426075380E-003   6.0873316229231256E-002
  -3.9165390001346893E-003   2.7981760240605447E-003   6.0319477477401934E-002
  -3.2420491664061730E-003   3.7068256625647569E-003   5.9936164059582978E-002
  -2.5675593326776672E-003   4.9418122581212920E-003   5.9723375975774484E-002
  -6.4901796982254432E-003   2.2090202455274377E-003   5.7798163644688677E-002
  -5.6190840492245323E-003   2.4296756375523920E-003   5.7356777068150205E-002
  -4.7479884002236778E-003   3.0699787379149385E-003   5.7138076788145989E-002
  -3.8768927512227830E-003   4.1299295466152887E-003   5.7142062804676104E-002
  -3.0057971022219125E-003   5.6095280636534461E-003   5.7368735117740544E-002
  -7.8309360335146409E-003   2.4581528728480906E-003   5.3916671266287609E-002
  -6.7110736067174997E-003   2.6434879324972599E-003   5.3851572950336109E-002
  -5.5912111799203161E-003   3.3417814517697278E-003   5.4061321893442982E-002
  -4.4713487531231749E-003   4.5530334306657112E-003   5.4545918095607770E-002
  -3.3514863263259904E-003   6.2772438691850452E-003   5.5305361556831398E-002
  -9.2877876734593912E-003   2.7072855001689655E-003   4.9953203179867622E-002
  -7.8669975063420106E-003   2.8573002274418502E-003   5.0357703875788973E-002
  -6.4462073392246716E-003   3.6135841656240453E-003   5.1089212793292649E-002
  -5.0254171721073049E-003   4.9761373147159324E-003   5.2147729932378400E-002
  -3.6046270049899520E-003   6.9449596747173103E-003   5.3533255293046311E-002
  -2.0367730176932483E-003   4.2740964525895819E-003   6.2369284130932900E-002
  -2.2866080894992785E-003   5.5772356214818242E-003   5.8338764743747107E-002
  -2.5364431613053053E-003   7.2728775742407770E-003   5.4302996355782285E-002
  -2.7862782331113493E-003   9.3610223108663293E-003   5.0261978967037768E-002
  -3.0361133049173622E-003   1.1841669831360147E-002   4.6215712577514001E-002
  -2.5675593326776672E-003   4.9418122581212920E-003   5.9723375975774484E-002
  -2.8401504998034413E-003   6.5666918325388290E-003   5.6190873931757257E-002
  -3.1127416669291912E-003   8.6450204076249371E-003   5.2618108697879529E-002
  -3.3853328340549757E-003   1.1176797983380948E-002   4.9005080274141716E-002
  -3.6579240011807429E-003   1.4162024559805975E-002   4.5351788660543679E-002
  -3.0057971022219125E-003   5.6095280636534461E-003   5.7368735117740544E-002
  -3.3361585537481295E-003   7.5561480435960560E-003   5.4395196633693077E-002
  -3.6665200052743898E-003   1.0017163241009985E-002   5.1346380770705302E-002
  -3.9968814568005556E-003   1.2992573655895179E-002   4.8222287528776456E-002
  -4.3272429083268359E-003   1.6482379288251803E-002   4.5022916907906940E-002
  -3.3514863263259904E-003   6.2772438691850452E-003   5.5305361556831398E-002
  -3.7746322513333899E-003   8.5456042546532829E-003   5.2951732849556232E-002
  -4.1977781763407624E-003   1.1389306074394590E-002   5.0487812574259466E-002
  -4.6209241013481679E-003   1.4808349328409492E-002   4.7913600730941169E-002
  -5.0440700263555327E-003   1.8802734016697520E-002   4.5229097319601369E-002
  -3.6046270049899520E-003   6.9449596747173103E-003   5.3533255293046311E-002
  -4.1555715925591791E-003   9.5350604657105098E-003   5.1860482579345391E-002
  -4.7065161801284477E-003   1.2761448907779582E-002   5.0042404108542216E-002
  -5.2574607676976887E-003   1.6624125000923959E-002   4.8079019880636620E-002
  -5.8084053552669435E-003   2.1123088745143459E-002   4.5970329895629103E-002
  -5.0255492797758761E-002   1.4858560934126186E-002   4.9863301152009432E-002
  -4.8660564311311633E-002   1.4521871158474087E-002   4.9419297142261898E-002
  -4.7065635824864518E-002   1.4131701977563971E-002   4.9205800918043052E-002
  -4.5470707338417397E-002   1.3688053391395782E-002   4.9222812479352673E-002
  -4.3875778851970290E-002   1.3190925399969300E-002   4.9470331826190816E-002
  -5.6575350481895034E-002   1.6812331550280613E-002   4.4796707887935383E-002
  -5.4759661186698158E-002   1.6354386702170237E-002   4.4379628703749008E-002
  -5.2943971891501261E-002   1.5867877885922588E-002   4.4173563351533718E-002
  -5.1128282596304336E-002   1.5352805101537789E-002   4.4178511831289485E-002
  -4.9312593301107467E-002   1.4809168349015689E-002   4.4394474143016144E-002
  -6.2817514676993674E-002   1.8766102166434984E-002   3.9596401832842520E-002
  -6.0800558526604480E-002   1.8186902245866304E-002   3.9231162911338241E-002
  -5.8783602376215410E-002   1.7604053794281260E-002   3.9057443868247360E-002
  -5.6766646225826264E-002   1.7017556811679935E-002   3.9075244703570086E-002
  -5.4749690075437105E-002   1.6427411298062217E-002   3.9284565417306141E-002
  -6.8981985383054834E-002   2.0719872782589410E-002   3.4262382986730927E-002
  -6.6783256331030952E-002   2.0019417789562358E-002   3.3973899765029486E-002
  -6.4584527279007084E-002   1.9340229702639933E-002   3.3857442468184180E-002
  -6.2385798226983202E-002   1.8682308521822039E-002   3.3913011096194663E-002
  -6.0187069174959376E-002   1.8045654247108647E-002   3.4140605649061170E-002
  -7.5068762600078276E-002   2.2673643398743781E-002   2.8794651349600464E-002
  -7.2707754599977248E-002   2.1851933333258466E-002   2.8607839264822854E-002
  -7.0346746599876164E-002   2.1076405610998522E-002   2.8573559151343797E-002
  -6.7985738599775136E-002   2.0347060231964136E-002   2.8691811009163154E-002
  -6.5624730599674080E-002   1.9663897196155189E-002   2.8962594838280953E-002
  -4.3875778851970290E-002   1.3190925399969300E-002   4.9470331826190816E-002
  -4.2273188056620947E-002   1.2670290702222531E-002   4.9193359990813146E-002
  -4.0670597261271625E-002   1.2156121997093330E-002   4.9097317322856826E-002
  -3.9068006465922303E-002   1.1648419284581952E-002   4.9182203822321788E-002
  -3.7465415670572960E-002   1.1147182564687885E-002   4.9448019489208128E-002
  -4.9312593301107467E-002   1.4809168349015689E-002   4.4394474143016144E-002
  -4.7528270274089762E-002   1.4251254215817993E-002   4.4121260646394600E-002
  -4.5743947247072009E-002   1.3693349289405798E-002   4.4030582445688610E-002
  -4.3959624220054332E-002   1.3135453569779451E-002   4.4122439540897909E-002
  -4.2175301193036557E-002   1.2577567056938632E-002   4.4396831932022790E-002
  -5.4749690075437105E-002   1.6427411298062217E-002   3.9284565417306141E-002
  -5.2782028688256925E-002   1.5832217729413317E-002   3.9008653473609017E-002
  -5.0814367301076781E-002   1.5230576581718148E-002   3.8916882954321393E-002
  -4.8846705913896588E-002   1.4622487854976949E-002   3.9009253859443302E-002
  -4.6879044526716443E-002   1.4007951549189462E-002   3.9285766188974808E-002
  -6.0187069174959376E-002   1.8045654247108647E-002   3.4140605649061170E-002
  -5.8034463299122582E-002   1.7413181243008599E-002   3.3855538472456426E-002
  -5.5881857423285781E-002   1.6767803874030502E-002   3.3756218848755251E-002
  -5.3729251547449029E-002   1.6109522140174391E-002   3.3842646777957799E-002
  -5.1576645671612187E-002   1.5438336041440251E-002   3.4114822260063966E-002
  -6.5624730599674080E-002   1.9663897196155189E-002   2.8962594838280953E-002
  -6.3285574106686601E-002   1.8994144756604103E-002   2.8661915642936797E-002
  -6.0946417613699150E-002   1.8305031166343008E-002   2.8548590128990275E-002
  -5.8607261120711698E-002   1.7596556425371983E-002   2.8622618296441693E-002
  -5.6268104627724219E-002   1.6868720533691040E-002   2.8884000145290634E-002
  -3.7465415670572960E-002   1.1147182564687885E-002   4.9448019489208128E-002
  -3.5840886050455462E-002   1.0640191249215752E-002   4.9120903838887786E-002
  -3.4216356430337949E-002   1.0115224749969703E-002   4.8980542004578437E-002
  -3.2591826810220464E-002   9.5722830669499256E-003   4.9026933986280247E-002
  -3.0967297190102938E-002   9.0113662001559125E-003   4.9260079783992994E-002
  -4.2175301193036557E-002   1.2577567056938632E-002   4.4396831932022790E-002
  -4.0366029907202727E-002   1.2013938466807317E-002   4.4059112047620835E-002
  -3.8556758621368849E-002   1.1438816515308259E-002   4.3904121678640759E-002
  -3.6747487335534970E-002   1.0852201202441888E-002   4.3931860825082290E-002
  -3.4938216049701085E-002   1.0254092528208025E-002   4.4142329486945520E-002
  -4.6879044526716443E-002   1.4007951549189462E-002   3.9285766188974808E-002
  -4.4889055875755535E-002   1.3387685684398562E-002   3.8943923892897941E-002
  -4.2899067224794682E-002   1.2762408280646717E-002   3.8780786811653478E-002
  -4.0909078573833808E-002   1.2132119337933966E-002   3.8796354945241258E-002
  -3.8919089922872921E-002   1.1496818856260332E-002   3.8990628293661331E-002
  -5.1576645671612187E-002   1.5438336041440251E-002   3.4114822260063966E-002
  -4.9409963956113814E-002   1.4761432901989884E-002   3.3775339374718744E-002
  -4.7243282240615359E-002   1.4086000045985168E-002   3.3610537403616428E-002
  -4.5076600525116889E-002   1.3412037473426041E-002   3.3620416346757019E-002
  -4.2909918809618461E-002   1.2739545184312598E-002   3.3804976204140399E-002
  -5.6268104627724219E-002   1.6868720533691040E-002   2.8884000145290634E-002
  -5.3928754148277608E-002   1.6135180119581344E-002   2.8553358493083492E-002
  -5.1589403668830969E-002   1.5409591811323758E-002   2.8393373454529858E-002
  -4.9250053189384357E-002   1.4691955608918152E-002   2.8404045029629649E-002
  -4.6910702709937718E-002   1.3982271512364752E-002   2.8585373218382948E-002
  -3.0967297190102938E-002   9.0113662001559125E-003   4.9260079783992994E-002
  -2.9273357082224727E-002   8.4390966503175568E-003   4.8936529129496531E-002
  -2.7579416974346543E-002   7.8620969181645156E-003   4.8797896421337666E-002
  -2.5885476866468360E-002   7.2803670036960220E-003   4.8844181659516747E-002
  -2.4191536758590149E-002   6.6939069069124058E-003   4.9075384844033287E-002
  -3.4938216049701085E-002   1.0254092528208025E-002   4.4142329486945520E-002
  -3.3065469867614286E-002   9.6456373010583574E-003   4.3795746983356226E-002
  -3.1192723685527522E-002   9.0279823294439204E-003   4.3621858681846370E-002
  -2.9319977503440755E-002   8.4011276133647041E-003   4.3620664582415883E-002
  -2.7447231321353974E-002   7.7650731528209338E-003   4.3792164685064916E-002
  -3.8919089922872921E-002   1.1496818856260332E-002   3.8990628293661331E-002
  -3.6879761410835876E-002   1.0852177951799019E-002   3.8616544378829595E-002
  -3.4840432898798838E-002   1.0193867740723554E-002   3.8402930921818977E-002
  -3.2801104386761801E-002   9.5218882230335544E-003   3.8349787922629455E-002
  -3.0761775874724749E-002   8.8362393987292953E-003   3.8457115381260981E-002
  -4.2909918809618461E-002   1.2739545184312598E-002   3.3804976204140399E-002
  -4.0716231711889511E-002   1.2058718602539806E-002   3.3398921315916680E-002
  -3.8522544614160534E-002   1.1359753152003129E-002   3.3141113141255674E-002
  -3.6328857516431619E-002   1.0642648832702488E-002   3.3031551680157457E-002
  -3.4135170418702655E-002   9.9074056446377956E-003   3.3070236932621934E-002
  -4.6910702709937718E-002   1.3982271512364752E-002   2.8585373218382948E-002
  -4.4574880770775122E-002   1.3265259253280370E-002   2.8142877794617327E-002
  -4.2239058831612594E-002   1.2525638563282676E-002   2.7836405340156412E-002
  -3.9903236892450088E-002   1.1763409442371163E-002   2.7665955854999785E-002
  -3.7567414953287470E-002   1.0978571890546074E-002   2.7631529339147698E-002
  -2.4191536758590149E-002   6.6939069069124058E-003   4.9075384844033287E-002
  -2.2408920643000041E-002   6.1004745151361783E-003   4.8765787230695468E-002
  -2.0626304527410003E-002   5.4978277156886579E-003   4.8628926717144805E-002
  -1.8843688411819930E-002   4.8859665085707951E-003   4.8664803303381077E-002
  -1.7061072296229857E-002   4.2648908937815699E-003   4.8873416989404617E-002
  -2.7447231321353974E-002   7.7650731528209338E-003   4.3792164685064916E-002
  -2.5497968619218124E-002   7.1245477738952068E-003   4.3413148317893668E-002
  -2.3548705917082274E-002   6.4842803026705642E-003   4.3194688024026845E-002
  -2.1599443214946452E-002   5.8442707391465620E-003   4.3136783803464362E-002
  -1.9650180512810630E-002   5.2045190833238664E-003   4.3239435656206471E-002
  -3.0761775874724749E-002   8.8362393987292953E-003   3.8457115381260981E-002
  -2.8658047612525911E-002   8.1486210326542907E-003   3.8018152575628350E-002
  -2.6554319350327021E-002   7.4707328896520125E-003   3.7727564816817258E-002
  -2.4450591088128186E-002   6.8025749697227141E-003   3.7585352104827933E-002
  -2.2346862825929292E-002   6.1441472728662183E-003   3.7591514439660439E-002
  -3.4135170418702655E-002   9.9074056446377956E-003   3.3070236932621934E-002
  -3.1889157622923443E-002   9.1726942914133469E-003   3.2580800003899728E-002
  -2.9643144827144207E-002   8.4571854766338564E-003   3.2227557095516349E-002
  -2.7397132031364981E-002   7.7608792002987845E-003   3.2010508207472102E-002
  -2.5151119235585814E-002   7.0837754624084870E-003   3.1929653339766731E-002
  -3.7567414953287470E-002   1.0978571890546074E-002   2.7631529339147698E-002
  -3.5191298650410652E-002   1.0196767550172348E-002   2.7101090602707489E-002
  -3.2815182347533833E-002   9.4436380636154504E-003   2.6694664860123840E-002
  -3.0439066044656987E-002   8.7191834308748759E-003   2.6412252111396445E-002
  -2.8062949741780169E-002   8.0234036519508667E-003   2.6253852356525220E-002
  -1.7061072296229857E-002   4.2648908937815699E-003   4.8873416989404617E-002
  -1.5117751140537219E-002   3.6982784427126436E-003   4.8760705333505516E-002
  -1.3174429984844624E-002   3.2498067267538455E-003   4.8903099146616391E-002
  -1.1231108829152014E-002   2.9194757459062165E-003   4.9300598428737075E-002
  -9.2877876734593912E-003   2.7072855001689655E-003   4.9953203179867622E-002
  -1.9650180512810630E-002   5.2045190833238664E-003   4.3239435656206471E-002
  -1.7490300516881579E-002   4.6016358103793675E-003   4.3076413071579167E-002
  -1.5330420520952563E-002   4.0722313954896783E-003   4.3091402698414827E-002
  -1.3170540525023530E-002   3.6163058386557007E-003   4.3284404536713561E-002
  -1.1010660529094496E-002   3.2338591398766159E-003   4.3655418586475203E-002
  -2.2346862825929292E-002   6.1441472728662183E-003   3.7591514439660439E-002
  -2.0047517247310673E-002   5.5049931780460915E-003   3.7333519049249364E-002
  -1.7748171668692019E-002   4.8946560642257608E-003   3.7176442612754684E-002
  -1.5448826090073350E-002   4.3131359314051917E-003   3.7120285130176248E-002
  -1.3149480511454689E-002   3.7604327795846548E-003   3.7165046601513513E-002
  -2.5151119235585814E-002   7.0837754624084870E-003   3.1929653339766731E-002
  -2.2789401331824343E-002   6.4083505457128709E-003   3.1532023266516510E-002
  -2.0427683428062955E-002   5.7170807329616630E-003   3.1158218889635783E-002
  -1.8065965524301550E-002   5.0099660241547904E-003   3.0808240209124479E-002
  -1.5704247620540093E-002   4.2870064192926105E-003   3.0482087224982211E-002
  -2.8062949741780169E-002   8.0234036519508667E-003   2.6253852356525220E-002
  -2.5715952770422740E-002   7.3117079133796503E-003   2.5671925723380506E-002
  -2.3368955799065380E-002   6.5395054016976761E-003   2.5036731529058498E-002
  -2.1021958827708014E-002   5.7067961169042780E-003   2.4348269773558862E-002
  -1.8674961856350591E-002   4.8135800590003441E-003   2.3606540456881930E-002
  -9.2877876734593912E-003   2.7072855001689655E-003   4.9953203179867622E-002
  -7.8669975063420106E-003   2.8573002274418502E-003   5.0357703875788973E-002
  -6.4462073392246716E-003   3.6135841656240453E-003   5.1089212793292649E-002
  -5.0254171721073049E-003   4.9761373147159324E-003   5.2147729932378400E-002
  -3.6046270049899520E-003   6.9449596747173103E-003   5.3533255293046311E-002
  -1.1010660529094496E-002   3.2338591398766159E-003   4.3655418586475203E-002
  -9.2445042037287151E-003   3.1630165632300922E-003   4.4240329390897115E-002
  -7.4783478783628787E-003   3.6419033727926320E-003   4.5188964290233807E-002
  -5.7121915529970702E-003   4.6705195685645823E-003   4.6501323284485072E-002
  -3.9460352276312616E-003   6.2488651505454573E-003   4.8177406373651310E-002
  -1.3149480511454689E-002   3.7604327795846548E-003   3.7165046601513513E-002
  -1.1001242154507845E-002   3.4687328990184729E-003   3.7873827689735712E-002
  -8.8530037975610328E-003   3.6702225799612326E-003   3.8983048746204993E-002
  -6.7047654406141924E-003   4.3649018224129026E-003   4.0492709770921752E-002
  -4.5565270836673763E-003   5.5527706263736043E-003   4.2402810763885579E-002
  -1.5704247620540093E-002   4.2870064192926105E-003   3.0482087224982211E-002
  -1.3137211358679700E-002   3.7744492348068398E-003   3.1258198772304527E-002
  -1.0570175096819252E-002   3.6985417871297707E-003   3.2471466161206400E-002
  -8.0031388349588329E-003   4.0592840762614987E-003   3.4121889391688073E-002
  -5.4361025730984124E-003   4.8566761022017513E-003   3.6209468463750324E-002
  -1.8674961856350591E-002   4.8135800590003441E-003   2.3606540456881930E-002
  -1.5652411816244050E-002   4.0801655705952067E-003   2.4393442638603768E-002
  -1.2629861776137452E-002   3.7268609942983089E-003   2.5654216535237861E-002
  -9.6073117360308824E-003   3.7536663301099560E-003   2.7388862146784543E-002
  -6.5847616959243127E-003   4.1605815780301203E-003   2.9597379473243812E-002
  -3.6046270049899520E-003   6.9449596747173103E-003   5.3533255293046311E-002
  -4.1555715925591791E-003   9.5350604657105098E-003   5.1860482579345391E-002
  -4.7065161801284477E-003   1.2761448907779582E-002   5.0042404108542216E-002
  -5.2574607676976887E-003   1.6624125000923959E-002   4.8079019880636620E-002
  -5.8084053552669435E-003   2.1123088745143459E-002   4.5970329895629103E-002
  -3.9460352276312616E-003   6.2488651505454573E-003   4.8177406373651310E-002
  -4.5385155224072354E-003   8.6869169470220609E-003   4.7242305423379649E-002
  -5.1309958171832648E-003   1.2294651786280975E-002   4.6369438815796804E-002
  -5.7234761119593219E-003   1.7072069668321921E-002   4.5558806550902914E-002
  -6.3159564067353235E-003   2.3019170593145510E-002   4.4810408628697118E-002
  -4.5565270836673763E-003   5.5527706263736043E-003   4.2402810763885579E-002
  -4.9830029858592383E-003   7.8387734283332788E-003   4.2738776968750336E-002
  -5.4094788880510968E-003   1.1827854664782061E-002   4.3344517616095091E-002
  -5.8359547902430177E-003   1.7520014335720112E-002   4.4220032705918955E-002
  -6.2624306924348727E-003   2.4915252441147562E-002   4.5365322238222539E-002
  -5.4361025730984124E-003   4.8566761022017513E-003   3.6209468463750324E-002
  -5.4890339829152231E-003   6.9906299096445523E-003   3.8349897215457868E-002
  -5.5419653927320910E-003   1.1361057543283634E-002   4.0967640509436444E-002
  -5.5948968025490023E-003   1.7967959003118743E-002   4.4062698345685630E-002
  -5.6478282123657714E-003   2.6811334289149613E-002   4.7635070724204726E-002
  -6.5847616959243127E-003   4.1605815780301203E-003   2.9597379473243812E-002
  -6.0566085135751457E-003   6.1424863909560479E-003   3.4075666163501883E-002
  -5.5284553312260343E-003   1.0894260421784541E-002   3.9238807495821426E-002
  -5.0003021488769089E-003   1.8415903670516542E-002   4.5086803470202275E-002
  -4.4721489665278114E-003   2.8707416137151665E-002   5.1619654086644928E-002
  -7.5068762600078276E-002   2.2673643398743781E-002   2.8794651349600464E-002
  -7.2707754599977248E-002   2.1851933333258466E-002   2.8607839264822854E-002
  -7.0346746599876164E-002   2.1076405610998522E-002   2.8573559151343797E-002
  -6.7985738599775136E-002   2.0347060231964136E-002   2.8691811009163154E-002
  -6.5624730599674080E-002   1.9663897196155189E-002   2.8962594838280953E-002
  -8.1120716452776215E-002   2.4407430588445966E-002   2.1748034875373801E-002
  -7.8605301282030221E-002   2.3614095115624067E-002   2.1584688639858518E-002
  -7.6089886111284033E-002   2.2833852120181325E-002   2.1577624774334947E-002
  -7.3574470940537984E-002   2.2066701602117579E-002   2.1726843278803032E-002
  -7.1059055769791810E-002   2.1312643561433031E-002   2.2032344153262884E-002
  -8.7180717065861252E-002   2.6141217778148262E-002   1.4746337926733688E-002
  -8.4507144325776620E-002   2.5376256897989807E-002   1.4573367674634158E-002
  -8.1833571585692155E-002   2.4591298629364142E-002   1.4560430191219845E-002
  -7.9159998845607635E-002   2.3786342972271082E-002   1.4707525476490249E-002
  -7.6486426105523059E-002   2.2961389926710735E-002   1.5014653530446023E-002
  -9.3248764439332651E-002   2.7875004967850531E-002   7.7895605036802651E-003
  -9.0413283731216487E-002   2.7138418680355533E-002   7.5738763691502453E-003
  -8.7577803023100254E-002   2.6348745138546951E-002   7.5219754019985909E-003
  -8.4742322314983978E-002   2.5505984342424529E-002   7.6338576022251716E-003
  -8.1906841606867772E-002   2.4610136291988563E-002   7.9095229698302218E-003
  -9.9324858573190955E-002   2.9608792157552744E-002   8.7770260621344853E-004
  -9.6323719498349614E-002   2.8900580462721259E-002   5.8621472340647518E-004
  -9.3322580423508494E-002   2.8106191647729595E-002   4.6226040667118884E-004
  -9.0321441348667209E-002   2.7225625712577958E-002   5.0583965600728420E-004
  -8.7320302273825923E-002   2.6258882657266280E-002   7.1695247141573271E-004
  -6.5624730599674080E-002   1.9663897196155189E-002   2.8962594838280953E-002
  -6.3285574106686601E-002   1.8994144756604103E-002   2.8661915642936797E-002
  -6.0946417613699150E-002   1.8305031166343008E-002   2.8548590128990275E-002
  -5.8607261120711698E-002   1.7596556425371983E-002   2.8622618296441693E-002
  -5.6268104627724219E-002   1.6868720533691040E-002   2.8884000145290634E-002
  -7.1059055769791810E-002   2.1312643561433031E-002   2.2032344153262884E-002
  -6.8532365203872514E-002   2.0561917468738047E-002   2.1725905317784636E-002
  -6.6005674637953177E-002   1.9804762794643327E-002   2.1607180946772220E-002
  -6.3478984072033867E-002   1.9041179539148856E-002   2.1676171040225650E-002
  -6.0952293506114530E-002   1.8271167702254787E-002   2.1932875598145302E-002
  -7.6486426105523059E-002   2.2961389926710735E-002   1.5014653530446023E-002
  -7.3771840683603623E-002   2.2129690180872019E-002   1.4715387624143678E-002
  -7.1057255261684188E-002   2.1304494422943708E-002   1.4604196965375363E-002
  -6.8342669839764739E-002   2.0485802652925843E-002   1.4681081554141471E-002
  -6.5628084417845331E-002   1.9673614870818534E-002   1.4946041390441686E-002
  -8.1906841606867772E-002   2.4610136291988563E-002   7.9095229698302218E-003
  -7.9004000545880027E-002   2.3697462893005922E-002   7.6303625620141383E-003
  -7.6101159484892253E-002   2.2804226051243808E-002   7.5396381848002268E-003
  -7.3198318423904479E-002   2.1930425766702715E-002   7.6373498381889946E-003
  -7.0295477362916733E-002   2.1076062039382115E-002   7.9234975221798912E-003
  -8.7320302273825923E-002   2.6258882657266280E-002   7.1695247141573271E-004
  -8.4228844790701640E-002   2.5265235605140046E-002   4.7083013139570529E-004
  -8.1137387307577302E-002   2.4303957679544602E-002   4.1350460504653574E-004
  -7.8045929824453020E-002   2.3375048880479553E-002   5.4497589236776958E-004
  -7.4954472341328682E-002   2.2478509207945918E-002   8.6524399336029845E-004
  -5.6268104627724219E-002   1.6868720533691040E-002   2.8884000145290634E-002
  -5.3928754148277608E-002   1.6135180119581344E-002   2.8553358493083492E-002
  -5.1589403668830969E-002   1.5409591811323758E-002   2.8393373454529858E-002
  -4.9250053189384357E-002   1.4691955608918152E-002   2.8404045029629649E-002
  -4.6910702709937718E-002   1.3982271512364752E-002   2.8585373218382948E-002
  -6.0952293506114530E-002   1.8271167702254787E-002   2.1932875598145302E-002
  -5.8440156421254455E-002   1.7499370421834359E-002   2.1618166804457162E-002
  -5.5928019336394408E-002   1.6730430835760646E-002   2.1478374607942205E-002
  -5.3415882251534326E-002   1.5964348944034562E-002   2.1513499008600813E-002
  -5.0903745166674286E-002   1.5201124746654804E-002   2.1723540006432729E-002
  -6.5628084417845331E-002   1.9673614870818534E-002   1.4946041390441686E-002
  -6.2938900744051923E-002   1.8863560724087333E-002   1.4642171043767416E-002
  -6.0249717070258592E-002   1.8051269860197908E-002   1.4517477277786454E-002
  -5.7560533396465247E-002   1.7236742279150803E-002   1.4571960092498747E-002
  -5.4871349722671860E-002   1.6419977980944966E-002   1.4805619487904126E-002
  -7.0295477362916733E-002   2.1076062039382115E-002   7.9234975221798912E-003
  -6.7424987116670165E-002   2.0227751026340161E-002   7.6253712110144443E-003
  -6.4554496870423542E-002   1.9372108884634871E-002   7.5106814640620023E-003
  -6.1684006624176946E-002   1.8509135614266738E-002   7.5794282813229970E-003
  -5.8813516377930357E-002   1.7638831215235296E-002   7.8316116627969931E-003
  -7.4954472341328682E-002   2.2478509207945918E-002   8.6524399336029845E-004
  -7.1898415539108917E-002   2.1591941328593212E-002   5.6776730619839677E-004
  -6.8842358736889264E-002   2.0692947909071863E-002   4.5798716676936913E-004
  -6.5786301934669528E-002   1.9781528949383405E-002   5.3590357507399267E-004
  -6.2730245132449847E-002   1.8857684449525181E-002   8.0151653111104615E-004
  -4.6910702709937718E-002   1.3982271512364752E-002   2.8585373218382948E-002
  -4.4574880770775122E-002   1.3265259253280370E-002   2.8142877794617327E-002
  -4.2239058831612594E-002   1.2525638563282676E-002   2.7836405340156412E-002
  -3.9903236892450088E-002   1.1763409442371163E-002   2.7665955854999785E-002
  -3.7567414953287470E-002   1.0978571890546074E-002   2.7631529339147698E-002
  -5.0903745166674286E-002   1.5201124746654804E-002   2.1723540006432729E-002
  -4.8425528798602249E-002   1.4434760669853608E-002   2.1296981000959336E-002
  -4.5947312430530213E-002   1.3659259139861435E-002   2.1019187884000173E-002
  -4.3469096062458169E-002   1.2874620156678590E-002   2.0890160655555740E-002
  -4.0990879694386140E-002   1.2080843720304824E-002   2.0909899315625979E-002
  -5.4871349722671860E-002   1.6419977980944966E-002   1.4805619487904126E-002
  -5.2237996006480186E-002   1.5604262086426568E-002   1.4408467878445241E-002
  -4.9604642290288534E-002   1.4792879716440097E-002   1.4172825076711304E-002
  -4.6971288574096867E-002   1.3985830870985854E-002   1.4098691082701634E-002
  -4.4337934857905145E-002   1.3183115550063851E-002   1.4186065896417022E-002
  -5.8813516377930357E-002   1.7638831215235296E-002   7.8316116627969931E-003
  -5.6012282394408953E-002   1.6773763502999445E-002   7.4773384270756908E-003
  -5.3211048410887522E-002   1.5926500293019140E-002   7.2973169182892934E-003
  -5.0409814427366098E-002   1.5097041585293144E-002   7.2915471364376518E-003
  -4.7608580443844695E-002   1.4285387379822406E-002   7.4600290815210329E-003
  -6.2730245132449847E-002   1.8857684449525181E-002   8.0151653111104615E-004
  -5.9748387962388572E-002   1.7943264919572766E-002   5.0359264685018168E-004
  -5.6766530792327241E-002   1.7060120869597906E-002   3.9266340873456151E-004
  -5.3784673622265938E-002   1.6208252299600476E-002   4.6872881676396361E-004
  -5.0802816452204635E-002   1.5387659209581628E-002   7.3178887093816591E-004
  -3.7567414953287470E-002   1.0978571890546074E-002   2.7631529339147698E-002
  -3.5191298650410652E-002   1.0196767550172348E-002   2.7101090602707489E-002
  -3.2815182347533833E-002   9.4436380636154504E-003   2.6694664860123840E-002
  -3.0439066044656987E-002   8.7191834308748759E-003   2.6412252111396445E-002
  -2.8062949741780169E-002   8.0234036519508667E-003   2.6253852356525220E-002
  -4.0990879694386140E-002   1.2080843720304824E-002   2.0909899315625979E-002
  -3.8499763222275010E-002   1.1290054311740627E-002   2.0468750513456646E-002
  -3.6008646750163922E-002   1.0514376411986215E-002   2.0133589055899376E-002
  -3.3517530278052869E-002   9.7538100210411566E-003   1.9904414942954529E-002
  -3.1026413805941760E-002   9.0083551389060768E-003   1.9781228174621912E-002
  -4.4337934857905145E-002   1.3183115550063851E-002   1.4186065896417022E-002
  -4.1749843865803854E-002   1.2383341073309156E-002   1.3820643683511324E-002
  -3.9161752873702570E-002   1.1585114760356993E-002   1.3543183165974013E-002
  -3.6573661881601285E-002   1.0788436611207774E-002   1.3353684343804649E-002
  -3.3985570889499987E-002   9.9933066258612868E-003   1.3252147217003851E-002
  -4.7608580443844695E-002   1.4285387379822406E-002   7.4600290815210329E-003
  -4.4941540580997252E-002   1.3476627834876950E-002   7.1567701128723779E-003
  -4.2274500718149720E-002   1.2655853108727765E-002   6.9234471903479033E-003
  -3.9607460855302201E-002   1.1823063201374001E-002   6.7600603139474757E-003
  -3.6940420992454745E-002   1.0978258112816164E-002   6.6666094836710169E-003
  -5.0802816452204635E-002   1.5387659209581628E-002   7.3178887093816591E-004
  -4.8074853367854997E-002   1.4569914596445743E-002   4.7712980153924445E-004
  -4.5346890283505359E-002   1.3726591457098369E-002   2.7438112902067324E-004
  -4.2618927199155748E-002   1.2857689791540741E-002   1.2354285338178617E-004
  -3.9890964114806082E-002   1.1963209599771485E-002   2.4614974623582420E-005
  -2.8062949741780169E-002   8.0234036519508667E-003   2.6253852356525220E-002
  -2.5715952770422740E-002   7.3117079133796503E-003   2.5671925723380506E-002
  -2.3368955799065380E-002   6.5395054016976761E-003   2.5036731529058498E-002
  -2.1021958827708014E-002   5.7067961169042780E-003   2.4348269773558862E-002
  -1.8674961856350591E-002   4.8135800590003441E-003   2.3606540456881930E-002
  -3.1026413805941760E-002   9.0083551389060768E-003   1.9781228174621912E-002
  -2.8714768930030790E-002   8.2676464341241429E-003   1.9188461024204961E-002
  -2.6403124054119834E-002   7.5213185752399658E-003   1.8578257244072194E-002
  -2.4091479178208912E-002   6.7693715622528516E-003   1.7950616834224276E-002
  -2.1779834302297962E-002   6.0118053951631056E-003   1.7305539794660818E-002
  -3.3985570889499987E-002   9.9933066258612868E-003   1.3252147217003851E-002
  -3.1673447177573456E-002   9.2235849548688020E-003   1.2703427168322623E-002
  -2.9361323465646936E-002   8.5031317487821445E-003   1.2173101421387972E-002
  -2.7049199753720443E-002   7.8319470076010922E-003   1.1661169976199759E-002
  -2.4737076041793940E-002   7.2100307313256451E-003   1.1167632832758262E-002
  -3.6940420992454745E-002   1.0978258112816164E-002   6.6666094836710169E-003
  -3.4591987513050634E-002   1.0179523475612934E-002   6.2168241557338869E-003
  -3.2243554033646600E-002   9.4849449223247673E-003   5.8212640610055960E-003
  -2.9895120554242545E-002   8.8945224529491107E-003   5.4799291994853394E-003
  -2.7546687074838455E-002   8.4082560674879625E-003   5.1928195711741648E-003
  -3.9890964114806082E-002   1.1963209599771485E-002   2.4614974623582420E-005
  -3.7470389936462456E-002   1.1135461996358176E-002  -2.7134801356082372E-004
  -3.5049815758118885E-002   1.0466758095866557E-002  -4.7725483707522498E-004
  -3.2629241579775259E-002   9.9570978982977815E-003  -5.9310549591866379E-004
  -3.0208667401431688E-002   9.6064814036507240E-003  -6.1889999009157037E-004
  -1.8674961856350591E-002   4.8135800590003441E-003   2.3606540456881930E-002
  -1.5652411816244050E-002   4.0801655705952067E-003   2.4393442638603768E-002
  -1.2629861776137452E-002   3.7268609942983089E-003   2.5654216535237861E-002
  -9.6073117360308824E-003   3.7536663301099560E-003   2.7388862146784543E-002
  -6.5847616959243127E-003   4.1605815780301203E-003   2.9597379473243812E-002
  -2.1779834302297962E-002   6.0118053951631056E-003   1.7305539794660818E-002
  -1.8552888708747522E-002   5.3433942628188236E-003   1.8252616089216522E-002
  -1.5325943115197110E-002   4.8589123540683510E-003   1.9134611775747767E-002
  -1.2098997521646698E-002   4.5583596689121111E-003   1.9951526854254054E-002
  -8.8720519280962584E-003   4.4417362073494449E-003   2.0703361324735825E-002
  -2.4737076041793940E-002   7.2100307313256451E-003   1.1167632832758262E-002
  -2.1844687217736761E-002   6.6066229550423849E-003   1.2078702551633486E-002
  -1.8952298393679699E-002   5.9909637138386151E-003   1.2385739339546731E-002
  -1.6059909569622603E-002   5.3630530077140443E-003   1.2088743196497970E-002
  -1.3167520745565403E-002   4.7228908366686584E-003   1.1187714122487702E-002
  -2.7546687074838455E-002   8.4082560674879625E-003   5.1928195711741648E-003
  -2.5527807343211879E-002   7.8698516472666402E-003   5.8717020258539435E-003
  -2.3508927611585156E-002   7.1230150736084352E-003   5.4075992266348627E-003
  -2.1490047879958559E-002   6.1677463465160884E-003   3.8005111735165166E-003
  -1.9471168148331854E-002   5.0040454659877054E-003   1.0504378664994291E-003
  -3.0208667401431688E-002   9.6064814036507240E-003  -6.1889999009157037E-004
  -2.9602249085172616E-002   9.1330803394898963E-003  -3.6838548812168082E-004
  -2.8995830768913600E-002   8.2550664333790880E-003  -1.7998085629878091E-003
  -2.8389412452654611E-002   6.9724396853181742E-003  -4.9131692146904896E-003
  -2.7782994136395511E-002   5.2852000953071965E-003  -9.7084674432287299E-003
  -6.5847616959243127E-003   4.1605815780301203E-003   2.9597379473243812E-002
  -6.0566085135751457E-003   6.1424863909560479E-003   3.4075666163501883E-002
  -5.5284553312260343E-003   1.0894260421784541E-002   3.9238807495821426E-002
  -5.0003021488769089E-003   1.8415903670516542E-002   4.5086803470202275E-002
  -4.4721489665278114E-003   2.8707416137151665E-002   5.1619654086644928E-002
  -8.8720519280962584E-003   4.4417362073494449E-003   2.0703361324735825E-002
  -7.5865336477169143E-003   5.6588028387286049E-003   2.5872639975761891E-002
  -6.3010153673376534E-003   9.3593204323973445E-003   3.1871794180786728E-002
  -5.0154970869584758E-003   1.5543288988355927E-002   3.8700823939810364E-002
  -3.7299788065790485E-003   2.4210708506604339E-002   4.6359729252833271E-002
  -1.3167520745565403E-002   4.7228908366686584E-003   1.1187714122487702E-002
  -1.0979616455218444E-002   5.1751192865008289E-003   1.6761566478668277E-002
  -8.7917121648715818E-003   7.8243804430100372E-003   2.3310315300785256E-002
  -6.6038078745245497E-003   1.2670674306194979E-002   3.0833960588838569E-002
  -4.4159035841776495E-003   1.9714000876056792E-002   3.9332502342828257E-002
  -1.9471168148331854E-002   5.0040454659877054E-003   1.0504378664994291E-003
  -1.6235856936079780E-002   4.6914357342733304E-003   6.7424456722213616E-003
  -1.3000545723827679E-002   6.2894404536230075E-003   1.3554370855817108E-002
  -9.7652345115755192E-003   9.7980596240345302E-003   2.1486213417287146E-002
  -6.5299232993235035E-003   1.5217293245509578E-002   3.0537973356630416E-002
  -2.7782994136395511E-002   5.2852000953071965E-003  -9.7084674432287299E-003
  -2.3355255090300675E-002   4.2077521820458319E-003  -4.1847224435787034E-003
  -1.8927516044205894E-002   4.7545004642350897E-003   2.6039608458822416E-003
  -1.4499776998111141E-002   6.9254449418727493E-003   1.0657582425155195E-002
  -1.0072037952016277E-002   1.0720585614961919E-002   1.9976142294239274E-002
 </DataArray>
 </PointData>
 </Piece>
 </UnstructuredGrid>
 </VTKFile>
