 <VTKFile type="UnstructuredGrid"  version="0.1"   >
 <UnstructuredGrid>
 <Piece  NumberOfPoints="          1600 "  NumberOfCells="         1024 ">
 <Points>
 <DataArray  type="Float64" NumberOfComponents="3"  format="ascii" >
   0.0000000000000000        0.0000000000000000        0.0000000000000000     
   3.1250000000000000E-002   0.0000000000000000        0.0000000000000000     
   6.2500000000000000E-002   0.0000000000000000        0.0000000000000000     
   9.3750000000000000E-002   0.0000000000000000        0.0000000000000000     
  0.12500000000000000        0.0000000000000000        0.0000000000000000     
   0.0000000000000000        3.1250000000000000E-002   0.0000000000000000     
   3.1250000000000000E-002   3.1250000000000000E-002   0.0000000000000000     
   6.2500000000000000E-002   3.1250000000000000E-002   0.0000000000000000     
   9.3750000000000000E-002   3.1250000000000000E-002   0.0000000000000000     
  0.12500000000000000        3.1250000000000000E-002   0.0000000000000000     
   0.0000000000000000        6.2500000000000000E-002   0.0000000000000000     
   3.1250000000000000E-002   6.2500000000000000E-002   0.0000000000000000     
   6.2500000000000000E-002   6.2500000000000000E-002   0.0000000000000000     
   9.3750000000000000E-002   6.2500000000000000E-002   0.0000000000000000     
  0.12500000000000000        6.2500000000000000E-002   0.0000000000000000     
   0.0000000000000000        9.3750000000000000E-002   0.0000000000000000     
   3.1250000000000000E-002   9.3750000000000000E-002   0.0000000000000000     
   6.2500000000000000E-002   9.3750000000000000E-002   0.0000000000000000     
   9.3750000000000000E-002   9.3750000000000000E-002   0.0000000000000000     
  0.12500000000000000        9.3750000000000000E-002   0.0000000000000000     
   0.0000000000000000       0.12500000000000000        0.0000000000000000     
   3.1250000000000000E-002  0.12500000000000000        0.0000000000000000     
   6.2500000000000000E-002  0.12500000000000000        0.0000000000000000     
   9.3750000000000000E-002  0.12500000000000000        0.0000000000000000     
  0.12500000000000000       0.12500000000000000        0.0000000000000000     
  0.12500000000000000        0.0000000000000000        0.0000000000000000     
  0.15625000000000000        0.0000000000000000        0.0000000000000000     
  0.18750000000000000        0.0000000000000000        0.0000000000000000     
  0.21875000000000000        0.0000000000000000        0.0000000000000000     
  0.25000000000000000        0.0000000000000000        0.0000000000000000     
  0.12500000000000000        3.1250000000000000E-002   0.0000000000000000     
  0.15625000000000000        3.1250000000000000E-002   0.0000000000000000     
  0.18750000000000000        3.1250000000000000E-002   0.0000000000000000     
  0.21875000000000000        3.1250000000000000E-002   0.0000000000000000     
  0.25000000000000000        3.1250000000000000E-002   0.0000000000000000     
  0.12500000000000000        6.2500000000000000E-002   0.0000000000000000     
  0.15625000000000000        6.2500000000000000E-002   0.0000000000000000     
  0.18750000000000000        6.2500000000000000E-002   0.0000000000000000     
  0.21875000000000000        6.2500000000000000E-002   0.0000000000000000     
  0.25000000000000000        6.2500000000000000E-002   0.0000000000000000     
  0.12500000000000000        9.3750000000000000E-002   0.0000000000000000     
  0.15625000000000000        9.3750000000000000E-002   0.0000000000000000     
  0.18750000000000000        9.3750000000000000E-002   0.0000000000000000     
  0.21875000000000000        9.3750000000000000E-002   0.0000000000000000     
  0.25000000000000000        9.3750000000000000E-002   0.0000000000000000     
  0.12500000000000000       0.12500000000000000        0.0000000000000000     
  0.15625000000000000       0.12500000000000000        0.0000000000000000     
  0.18750000000000000       0.12500000000000000        0.0000000000000000     
  0.21875000000000000       0.12500000000000000        0.0000000000000000     
  0.25000000000000000       0.12500000000000000        0.0000000000000000     
  0.25000000000000000        0.0000000000000000        0.0000000000000000     
  0.28125000000000000        0.0000000000000000        0.0000000000000000     
  0.31250000000000000        0.0000000000000000        0.0000000000000000     
  0.34375000000000000        0.0000000000000000        0.0000000000000000     
  0.37500000000000000        0.0000000000000000        0.0000000000000000     
  0.25000000000000000        3.1250000000000000E-002   0.0000000000000000     
  0.28125000000000000        3.1250000000000000E-002   0.0000000000000000     
  0.31250000000000000        3.1250000000000000E-002   0.0000000000000000     
  0.34375000000000000        3.1250000000000000E-002   0.0000000000000000     
  0.37500000000000000        3.1250000000000000E-002   0.0000000000000000     
  0.25000000000000000        6.2500000000000000E-002   0.0000000000000000     
  0.28125000000000000        6.2500000000000000E-002   0.0000000000000000     
  0.31250000000000000        6.2500000000000000E-002   0.0000000000000000     
  0.34375000000000000        6.2500000000000000E-002   0.0000000000000000     
  0.37500000000000000        6.2500000000000000E-002   0.0000000000000000     
  0.25000000000000000        9.3750000000000000E-002   0.0000000000000000     
  0.28125000000000000        9.3750000000000000E-002   0.0000000000000000     
  0.31250000000000000        9.3750000000000000E-002   0.0000000000000000     
  0.34375000000000000        9.3750000000000000E-002   0.0000000000000000     
  0.37500000000000000        9.3750000000000000E-002   0.0000000000000000     
  0.25000000000000000       0.12500000000000000        0.0000000000000000     
  0.28125000000000000       0.12500000000000000        0.0000000000000000     
  0.31250000000000000       0.12500000000000000        0.0000000000000000     
  0.34375000000000000       0.12500000000000000        0.0000000000000000     
  0.37500000000000000       0.12500000000000000        0.0000000000000000     
  0.37500000000000000        0.0000000000000000        0.0000000000000000     
  0.40625000000000000        0.0000000000000000        0.0000000000000000     
  0.43750000000000000        0.0000000000000000        0.0000000000000000     
  0.46875000000000000        0.0000000000000000        0.0000000000000000     
  0.50000000000000000        0.0000000000000000        0.0000000000000000     
  0.37500000000000000        3.1250000000000000E-002   0.0000000000000000     
  0.40625000000000000        3.1250000000000000E-002   0.0000000000000000     
  0.43750000000000000        3.1250000000000000E-002   0.0000000000000000     
  0.46875000000000000        3.1250000000000000E-002   0.0000000000000000     
  0.50000000000000000        3.1250000000000000E-002   0.0000000000000000     
  0.37500000000000000        6.2500000000000000E-002   0.0000000000000000     
  0.40625000000000000        6.2500000000000000E-002   0.0000000000000000     
  0.43750000000000000        6.2500000000000000E-002   0.0000000000000000     
  0.46875000000000000        6.2500000000000000E-002   0.0000000000000000     
  0.50000000000000000        6.2500000000000000E-002   0.0000000000000000     
  0.37500000000000000        9.3750000000000000E-002   0.0000000000000000     
  0.40625000000000000        9.3750000000000000E-002   0.0000000000000000     
  0.43750000000000000        9.3750000000000000E-002   0.0000000000000000     
  0.46875000000000000        9.3750000000000000E-002   0.0000000000000000     
  0.50000000000000000        9.3750000000000000E-002   0.0000000000000000     
  0.37500000000000000       0.12500000000000000        0.0000000000000000     
  0.40625000000000000       0.12500000000000000        0.0000000000000000     
  0.43750000000000000       0.12500000000000000        0.0000000000000000     
  0.46875000000000000       0.12500000000000000        0.0000000000000000     
  0.50000000000000000       0.12500000000000000        0.0000000000000000     
  0.50000000000000000        0.0000000000000000        0.0000000000000000     
  0.53125000000000000        0.0000000000000000        0.0000000000000000     
  0.56250000000000000        0.0000000000000000        0.0000000000000000     
  0.59375000000000000        0.0000000000000000        0.0000000000000000     
  0.62500000000000000        0.0000000000000000        0.0000000000000000     
  0.50000000000000000        3.1250000000000000E-002   0.0000000000000000     
  0.53125000000000000        3.1250000000000000E-002   0.0000000000000000     
  0.56250000000000000        3.1250000000000000E-002   0.0000000000000000     
  0.59375000000000000        3.1250000000000000E-002   0.0000000000000000     
  0.62500000000000000        3.1250000000000000E-002   0.0000000000000000     
  0.50000000000000000        6.2500000000000000E-002   0.0000000000000000     
  0.53125000000000000        6.2500000000000000E-002   0.0000000000000000     
  0.56250000000000000        6.2500000000000000E-002   0.0000000000000000     
  0.59375000000000000        6.2500000000000000E-002   0.0000000000000000     
  0.62500000000000000        6.2500000000000000E-002   0.0000000000000000     
  0.50000000000000000        9.3750000000000000E-002   0.0000000000000000     
  0.53125000000000000        9.3750000000000000E-002   0.0000000000000000     
  0.56250000000000000        9.3750000000000000E-002   0.0000000000000000     
  0.59375000000000000        9.3750000000000000E-002   0.0000000000000000     
  0.62500000000000000        9.3750000000000000E-002   0.0000000000000000     
  0.50000000000000000       0.12500000000000000        0.0000000000000000     
  0.53125000000000000       0.12500000000000000        0.0000000000000000     
  0.56250000000000000       0.12500000000000000        0.0000000000000000     
  0.59375000000000000       0.12500000000000000        0.0000000000000000     
  0.62500000000000000       0.12500000000000000        0.0000000000000000     
  0.62500000000000000        0.0000000000000000        0.0000000000000000     
  0.65625000000000000        0.0000000000000000        0.0000000000000000     
  0.68750000000000000        0.0000000000000000        0.0000000000000000     
  0.71875000000000000        0.0000000000000000        0.0000000000000000     
  0.75000000000000000        0.0000000000000000        0.0000000000000000     
  0.62500000000000000        3.1250000000000000E-002   0.0000000000000000     
  0.65625000000000000        3.1250000000000000E-002   0.0000000000000000     
  0.68750000000000000        3.1250000000000000E-002   0.0000000000000000     
  0.71875000000000000        3.1250000000000000E-002   0.0000000000000000     
  0.75000000000000000        3.1250000000000000E-002   0.0000000000000000     
  0.62500000000000000        6.2500000000000000E-002   0.0000000000000000     
  0.65625000000000000        6.2500000000000000E-002   0.0000000000000000     
  0.68750000000000000        6.2500000000000000E-002   0.0000000000000000     
  0.71875000000000000        6.2500000000000000E-002   0.0000000000000000     
  0.75000000000000000        6.2500000000000000E-002   0.0000000000000000     
  0.62500000000000000        9.3750000000000000E-002   0.0000000000000000     
  0.65625000000000000        9.3750000000000000E-002   0.0000000000000000     
  0.68750000000000000        9.3750000000000000E-002   0.0000000000000000     
  0.71875000000000000        9.3750000000000000E-002   0.0000000000000000     
  0.75000000000000000        9.3750000000000000E-002   0.0000000000000000     
  0.62500000000000000       0.12500000000000000        0.0000000000000000     
  0.65625000000000000       0.12500000000000000        0.0000000000000000     
  0.68750000000000000       0.12500000000000000        0.0000000000000000     
  0.71875000000000000       0.12500000000000000        0.0000000000000000     
  0.75000000000000000       0.12500000000000000        0.0000000000000000     
  0.75000000000000000        0.0000000000000000        0.0000000000000000     
  0.78125000000000000        0.0000000000000000        0.0000000000000000     
  0.81250000000000000        0.0000000000000000        0.0000000000000000     
  0.84375000000000000        0.0000000000000000        0.0000000000000000     
  0.87500000000000000        0.0000000000000000        0.0000000000000000     
  0.75000000000000000        3.1250000000000000E-002   0.0000000000000000     
  0.78125000000000000        3.1250000000000000E-002   0.0000000000000000     
  0.81250000000000000        3.1250000000000000E-002   0.0000000000000000     
  0.84375000000000000        3.1250000000000000E-002   0.0000000000000000     
  0.87500000000000000        3.1250000000000000E-002   0.0000000000000000     
  0.75000000000000000        6.2500000000000000E-002   0.0000000000000000     
  0.78125000000000000        6.2500000000000000E-002   0.0000000000000000     
  0.81250000000000000        6.2500000000000000E-002   0.0000000000000000     
  0.84375000000000000        6.2500000000000000E-002   0.0000000000000000     
  0.87500000000000000        6.2500000000000000E-002   0.0000000000000000     
  0.75000000000000000        9.3750000000000000E-002   0.0000000000000000     
  0.78125000000000000        9.3750000000000000E-002   0.0000000000000000     
  0.81250000000000000        9.3750000000000000E-002   0.0000000000000000     
  0.84375000000000000        9.3750000000000000E-002   0.0000000000000000     
  0.87500000000000000        9.3750000000000000E-002   0.0000000000000000     
  0.75000000000000000       0.12500000000000000        0.0000000000000000     
  0.78125000000000000       0.12500000000000000        0.0000000000000000     
  0.81250000000000000       0.12500000000000000        0.0000000000000000     
  0.84375000000000000       0.12500000000000000        0.0000000000000000     
  0.87500000000000000       0.12500000000000000        0.0000000000000000     
  0.87500000000000000        0.0000000000000000        0.0000000000000000     
  0.90625000000000000        0.0000000000000000        0.0000000000000000     
  0.93750000000000000        0.0000000000000000        0.0000000000000000     
  0.96875000000000000        0.0000000000000000        0.0000000000000000     
   1.0000000000000000        0.0000000000000000        0.0000000000000000     
  0.87500000000000000        3.1250000000000000E-002   0.0000000000000000     
  0.90625000000000000        3.1250000000000000E-002   0.0000000000000000     
  0.93750000000000000        3.1250000000000000E-002   0.0000000000000000     
  0.96875000000000000        3.1250000000000000E-002   0.0000000000000000     
   1.0000000000000000        3.1250000000000000E-002   0.0000000000000000     
  0.87500000000000000        6.2500000000000000E-002   0.0000000000000000     
  0.90625000000000000        6.2500000000000000E-002   0.0000000000000000     
  0.93750000000000000        6.2500000000000000E-002   0.0000000000000000     
  0.96875000000000000        6.2500000000000000E-002   0.0000000000000000     
   1.0000000000000000        6.2500000000000000E-002   0.0000000000000000     
  0.87500000000000000        9.3750000000000000E-002   0.0000000000000000     
  0.90625000000000000        9.3750000000000000E-002   0.0000000000000000     
  0.93750000000000000        9.3750000000000000E-002   0.0000000000000000     
  0.96875000000000000        9.3750000000000000E-002   0.0000000000000000     
   1.0000000000000000        9.3750000000000000E-002   0.0000000000000000     
  0.87500000000000000       0.12500000000000000        0.0000000000000000     
  0.90625000000000000       0.12500000000000000        0.0000000000000000     
  0.93750000000000000       0.12500000000000000        0.0000000000000000     
  0.96875000000000000       0.12500000000000000        0.0000000000000000     
   1.0000000000000000       0.12500000000000000        0.0000000000000000     
   0.0000000000000000       0.12500000000000000        0.0000000000000000     
   3.1250000000000000E-002  0.12500000000000000        0.0000000000000000     
   6.2500000000000000E-002  0.12500000000000000        0.0000000000000000     
   9.3750000000000000E-002  0.12500000000000000        0.0000000000000000     
  0.12500000000000000       0.12500000000000000        0.0000000000000000     
   0.0000000000000000       0.15625000000000000        0.0000000000000000     
   3.1250000000000000E-002  0.15625000000000000        0.0000000000000000     
   6.2500000000000000E-002  0.15625000000000000        0.0000000000000000     
   9.3750000000000000E-002  0.15625000000000000        0.0000000000000000     
  0.12500000000000000       0.15625000000000000        0.0000000000000000     
   0.0000000000000000       0.18750000000000000        0.0000000000000000     
   3.1250000000000000E-002  0.18750000000000000        0.0000000000000000     
   6.2500000000000000E-002  0.18750000000000000        0.0000000000000000     
   9.3750000000000000E-002  0.18750000000000000        0.0000000000000000     
  0.12500000000000000       0.18750000000000000        0.0000000000000000     
   0.0000000000000000       0.21875000000000000        0.0000000000000000     
   3.1250000000000000E-002  0.21875000000000000        0.0000000000000000     
   6.2500000000000000E-002  0.21875000000000000        0.0000000000000000     
   9.3750000000000000E-002  0.21875000000000000        0.0000000000000000     
  0.12500000000000000       0.21875000000000000        0.0000000000000000     
   0.0000000000000000       0.25000000000000000        0.0000000000000000     
   3.1250000000000000E-002  0.25000000000000000        0.0000000000000000     
   6.2500000000000000E-002  0.25000000000000000        0.0000000000000000     
   9.3750000000000000E-002  0.25000000000000000        0.0000000000000000     
  0.12500000000000000       0.25000000000000000        0.0000000000000000     
  0.12500000000000000       0.12500000000000000        0.0000000000000000     
  0.15625000000000000       0.12500000000000000        0.0000000000000000     
  0.18750000000000000       0.12500000000000000        0.0000000000000000     
  0.21875000000000000       0.12500000000000000        0.0000000000000000     
  0.25000000000000000       0.12500000000000000        0.0000000000000000     
  0.12500000000000000       0.15625000000000000        0.0000000000000000     
  0.15625000000000000       0.15625000000000000        0.0000000000000000     
  0.18750000000000000       0.15625000000000000        0.0000000000000000     
  0.21875000000000000       0.15625000000000000        0.0000000000000000     
  0.25000000000000000       0.15625000000000000        0.0000000000000000     
  0.12500000000000000       0.18750000000000000        0.0000000000000000     
  0.15625000000000000       0.18750000000000000        0.0000000000000000     
  0.18750000000000000       0.18750000000000000        0.0000000000000000     
  0.21875000000000000       0.18750000000000000        0.0000000000000000     
  0.25000000000000000       0.18750000000000000        0.0000000000000000     
  0.12500000000000000       0.21875000000000000        0.0000000000000000     
  0.15625000000000000       0.21875000000000000        0.0000000000000000     
  0.18750000000000000       0.21875000000000000        0.0000000000000000     
  0.21875000000000000       0.21875000000000000        0.0000000000000000     
  0.25000000000000000       0.21875000000000000        0.0000000000000000     
  0.12500000000000000       0.25000000000000000        0.0000000000000000     
  0.15625000000000000       0.25000000000000000        0.0000000000000000     
  0.18750000000000000       0.25000000000000000        0.0000000000000000     
  0.21875000000000000       0.25000000000000000        0.0000000000000000     
  0.25000000000000000       0.25000000000000000        0.0000000000000000     
  0.25000000000000000       0.12500000000000000        0.0000000000000000     
  0.28125000000000000       0.12500000000000000        0.0000000000000000     
  0.31250000000000000       0.12500000000000000        0.0000000000000000     
  0.34375000000000000       0.12500000000000000        0.0000000000000000     
  0.37500000000000000       0.12500000000000000        0.0000000000000000     
  0.25000000000000000       0.15625000000000000        0.0000000000000000     
  0.28125000000000000       0.15625000000000000        0.0000000000000000     
  0.31250000000000000       0.15625000000000000        0.0000000000000000     
  0.34375000000000000       0.15625000000000000        0.0000000000000000     
  0.37500000000000000       0.15625000000000000        0.0000000000000000     
  0.25000000000000000       0.18750000000000000        0.0000000000000000     
  0.28125000000000000       0.18750000000000000        0.0000000000000000     
  0.31250000000000000       0.18750000000000000        0.0000000000000000     
  0.34375000000000000       0.18750000000000000        0.0000000000000000     
  0.37500000000000000       0.18750000000000000        0.0000000000000000     
  0.25000000000000000       0.21875000000000000        0.0000000000000000     
  0.28125000000000000       0.21875000000000000        0.0000000000000000     
  0.31250000000000000       0.21875000000000000        0.0000000000000000     
  0.34375000000000000       0.21875000000000000        0.0000000000000000     
  0.37500000000000000       0.21875000000000000        0.0000000000000000     
  0.25000000000000000       0.25000000000000000        0.0000000000000000     
  0.28125000000000000       0.25000000000000000        0.0000000000000000     
  0.31250000000000000       0.25000000000000000        0.0000000000000000     
  0.34375000000000000       0.25000000000000000        0.0000000000000000     
  0.37500000000000000       0.25000000000000000        0.0000000000000000     
  0.37500000000000000       0.12500000000000000        0.0000000000000000     
  0.40625000000000000       0.12500000000000000        0.0000000000000000     
  0.43750000000000000       0.12500000000000000        0.0000000000000000     
  0.46875000000000000       0.12500000000000000        0.0000000000000000     
  0.50000000000000000       0.12500000000000000        0.0000000000000000     
  0.37500000000000000       0.15625000000000000        0.0000000000000000     
  0.40625000000000000       0.15625000000000000        0.0000000000000000     
  0.43750000000000000       0.15625000000000000        0.0000000000000000     
  0.46875000000000000       0.15625000000000000        0.0000000000000000     
  0.50000000000000000       0.15625000000000000        0.0000000000000000     
  0.37500000000000000       0.18750000000000000        0.0000000000000000     
  0.40625000000000000       0.18750000000000000        0.0000000000000000     
  0.43750000000000000       0.18750000000000000        0.0000000000000000     
  0.46875000000000000       0.18750000000000000        0.0000000000000000     
  0.50000000000000000       0.18750000000000000        0.0000000000000000     
  0.37500000000000000       0.21875000000000000        0.0000000000000000     
  0.40625000000000000       0.21875000000000000        0.0000000000000000     
  0.43750000000000000       0.21875000000000000        0.0000000000000000     
  0.46875000000000000       0.21875000000000000        0.0000000000000000     
  0.50000000000000000       0.21875000000000000        0.0000000000000000     
  0.37500000000000000       0.25000000000000000        0.0000000000000000     
  0.40625000000000000       0.25000000000000000        0.0000000000000000     
  0.43750000000000000       0.25000000000000000        0.0000000000000000     
  0.46875000000000000       0.25000000000000000        0.0000000000000000     
  0.50000000000000000       0.25000000000000000        0.0000000000000000     
  0.50000000000000000       0.12500000000000000        0.0000000000000000     
  0.53125000000000000       0.12500000000000000        0.0000000000000000     
  0.56250000000000000       0.12500000000000000        0.0000000000000000     
  0.59375000000000000       0.12500000000000000        0.0000000000000000     
  0.62500000000000000       0.12500000000000000        0.0000000000000000     
  0.50000000000000000       0.15625000000000000        0.0000000000000000     
  0.53125000000000000       0.15625000000000000        0.0000000000000000     
  0.56250000000000000       0.15625000000000000        0.0000000000000000     
  0.59375000000000000       0.15625000000000000        0.0000000000000000     
  0.62500000000000000       0.15625000000000000        0.0000000000000000     
  0.50000000000000000       0.18750000000000000        0.0000000000000000     
  0.53125000000000000       0.18750000000000000        0.0000000000000000     
  0.56250000000000000       0.18750000000000000        0.0000000000000000     
  0.59375000000000000       0.18750000000000000        0.0000000000000000     
  0.62500000000000000       0.18750000000000000        0.0000000000000000     
  0.50000000000000000       0.21875000000000000        0.0000000000000000     
  0.53125000000000000       0.21875000000000000        0.0000000000000000     
  0.56250000000000000       0.21875000000000000        0.0000000000000000     
  0.59375000000000000       0.21875000000000000        0.0000000000000000     
  0.62500000000000000       0.21875000000000000        0.0000000000000000     
  0.50000000000000000       0.25000000000000000        0.0000000000000000     
  0.53125000000000000       0.25000000000000000        0.0000000000000000     
  0.56250000000000000       0.25000000000000000        0.0000000000000000     
  0.59375000000000000       0.25000000000000000        0.0000000000000000     
  0.62500000000000000       0.25000000000000000        0.0000000000000000     
  0.62500000000000000       0.12500000000000000        0.0000000000000000     
  0.65625000000000000       0.12500000000000000        0.0000000000000000     
  0.68750000000000000       0.12500000000000000        0.0000000000000000     
  0.71875000000000000       0.12500000000000000        0.0000000000000000     
  0.75000000000000000       0.12500000000000000        0.0000000000000000     
  0.62500000000000000       0.15625000000000000        0.0000000000000000     
  0.65625000000000000       0.15625000000000000        0.0000000000000000     
  0.68750000000000000       0.15625000000000000        0.0000000000000000     
  0.71875000000000000       0.15625000000000000        0.0000000000000000     
  0.75000000000000000       0.15625000000000000        0.0000000000000000     
  0.62500000000000000       0.18750000000000000        0.0000000000000000     
  0.65625000000000000       0.18750000000000000        0.0000000000000000     
  0.68750000000000000       0.18750000000000000        0.0000000000000000     
  0.71875000000000000       0.18750000000000000        0.0000000000000000     
  0.75000000000000000       0.18750000000000000        0.0000000000000000     
  0.62500000000000000       0.21875000000000000        0.0000000000000000     
  0.65625000000000000       0.21875000000000000        0.0000000000000000     
  0.68750000000000000       0.21875000000000000        0.0000000000000000     
  0.71875000000000000       0.21875000000000000        0.0000000000000000     
  0.75000000000000000       0.21875000000000000        0.0000000000000000     
  0.62500000000000000       0.25000000000000000        0.0000000000000000     
  0.65625000000000000       0.25000000000000000        0.0000000000000000     
  0.68750000000000000       0.25000000000000000        0.0000000000000000     
  0.71875000000000000       0.25000000000000000        0.0000000000000000     
  0.75000000000000000       0.25000000000000000        0.0000000000000000     
  0.75000000000000000       0.12500000000000000        0.0000000000000000     
  0.78125000000000000       0.12500000000000000        0.0000000000000000     
  0.81250000000000000       0.12500000000000000        0.0000000000000000     
  0.84375000000000000       0.12500000000000000        0.0000000000000000     
  0.87500000000000000       0.12500000000000000        0.0000000000000000     
  0.75000000000000000       0.15625000000000000        0.0000000000000000     
  0.78125000000000000       0.15625000000000000        0.0000000000000000     
  0.81250000000000000       0.15625000000000000        0.0000000000000000     
  0.84375000000000000       0.15625000000000000        0.0000000000000000     
  0.87500000000000000       0.15625000000000000        0.0000000000000000     
  0.75000000000000000       0.18750000000000000        0.0000000000000000     
  0.78125000000000000       0.18750000000000000        0.0000000000000000     
  0.81250000000000000       0.18750000000000000        0.0000000000000000     
  0.84375000000000000       0.18750000000000000        0.0000000000000000     
  0.87500000000000000       0.18750000000000000        0.0000000000000000     
  0.75000000000000000       0.21875000000000000        0.0000000000000000     
  0.78125000000000000       0.21875000000000000        0.0000000000000000     
  0.81250000000000000       0.21875000000000000        0.0000000000000000     
  0.84375000000000000       0.21875000000000000        0.0000000000000000     
  0.87500000000000000       0.21875000000000000        0.0000000000000000     
  0.75000000000000000       0.25000000000000000        0.0000000000000000     
  0.78125000000000000       0.25000000000000000        0.0000000000000000     
  0.81250000000000000       0.25000000000000000        0.0000000000000000     
  0.84375000000000000       0.25000000000000000        0.0000000000000000     
  0.87500000000000000       0.25000000000000000        0.0000000000000000     
  0.87500000000000000       0.12500000000000000        0.0000000000000000     
  0.90625000000000000       0.12500000000000000        0.0000000000000000     
  0.93750000000000000       0.12500000000000000        0.0000000000000000     
  0.96875000000000000       0.12500000000000000        0.0000000000000000     
   1.0000000000000000       0.12500000000000000        0.0000000000000000     
  0.87500000000000000       0.15625000000000000        0.0000000000000000     
  0.90625000000000000       0.15625000000000000        0.0000000000000000     
  0.93750000000000000       0.15625000000000000        0.0000000000000000     
  0.96875000000000000       0.15625000000000000        0.0000000000000000     
   1.0000000000000000       0.15625000000000000        0.0000000000000000     
  0.87500000000000000       0.18750000000000000        0.0000000000000000     
  0.90625000000000000       0.18750000000000000        0.0000000000000000     
  0.93750000000000000       0.18750000000000000        0.0000000000000000     
  0.96875000000000000       0.18750000000000000        0.0000000000000000     
   1.0000000000000000       0.18750000000000000        0.0000000000000000     
  0.87500000000000000       0.21875000000000000        0.0000000000000000     
  0.90625000000000000       0.21875000000000000        0.0000000000000000     
  0.93750000000000000       0.21875000000000000        0.0000000000000000     
  0.96875000000000000       0.21875000000000000        0.0000000000000000     
   1.0000000000000000       0.21875000000000000        0.0000000000000000     
  0.87500000000000000       0.25000000000000000        0.0000000000000000     
  0.90625000000000000       0.25000000000000000        0.0000000000000000     
  0.93750000000000000       0.25000000000000000        0.0000000000000000     
  0.96875000000000000       0.25000000000000000        0.0000000000000000     
   1.0000000000000000       0.25000000000000000        0.0000000000000000     
   0.0000000000000000       0.25000000000000000        0.0000000000000000     
   3.1250000000000000E-002  0.25000000000000000        0.0000000000000000     
   6.2500000000000000E-002  0.25000000000000000        0.0000000000000000     
   9.3750000000000000E-002  0.25000000000000000        0.0000000000000000     
  0.12500000000000000       0.25000000000000000        0.0000000000000000     
   0.0000000000000000       0.28125000000000000        0.0000000000000000     
   3.1250000000000000E-002  0.28125000000000000        0.0000000000000000     
   6.2500000000000000E-002  0.28125000000000000        0.0000000000000000     
   9.3750000000000000E-002  0.28125000000000000        0.0000000000000000     
  0.12500000000000000       0.28125000000000000        0.0000000000000000     
   0.0000000000000000       0.31250000000000000        0.0000000000000000     
   3.1250000000000000E-002  0.31250000000000000        0.0000000000000000     
   6.2500000000000000E-002  0.31250000000000000        0.0000000000000000     
   9.3750000000000000E-002  0.31250000000000000        0.0000000000000000     
  0.12500000000000000       0.31250000000000000        0.0000000000000000     
   0.0000000000000000       0.34375000000000000        0.0000000000000000     
   3.1250000000000000E-002  0.34375000000000000        0.0000000000000000     
   6.2500000000000000E-002  0.34375000000000000        0.0000000000000000     
   9.3750000000000000E-002  0.34375000000000000        0.0000000000000000     
  0.12500000000000000       0.34375000000000000        0.0000000000000000     
   0.0000000000000000       0.37500000000000000        0.0000000000000000     
   3.1250000000000000E-002  0.37500000000000000        0.0000000000000000     
   6.2500000000000000E-002  0.37500000000000000        0.0000000000000000     
   9.3750000000000000E-002  0.37500000000000000        0.0000000000000000     
  0.12500000000000000       0.37500000000000000        0.0000000000000000     
  0.12500000000000000       0.25000000000000000        0.0000000000000000     
  0.15625000000000000       0.25000000000000000        0.0000000000000000     
  0.18750000000000000       0.25000000000000000        0.0000000000000000     
  0.21875000000000000       0.25000000000000000        0.0000000000000000     
  0.25000000000000000       0.25000000000000000        0.0000000000000000     
  0.12500000000000000       0.28125000000000000        0.0000000000000000     
  0.15625000000000000       0.28125000000000000        0.0000000000000000     
  0.18750000000000000       0.28125000000000000        0.0000000000000000     
  0.21875000000000000       0.28125000000000000        0.0000000000000000     
  0.25000000000000000       0.28125000000000000        0.0000000000000000     
  0.12500000000000000       0.31250000000000000        0.0000000000000000     
  0.15625000000000000       0.31250000000000000        0.0000000000000000     
  0.18750000000000000       0.31250000000000000        0.0000000000000000     
  0.21875000000000000       0.31250000000000000        0.0000000000000000     
  0.25000000000000000       0.31250000000000000        0.0000000000000000     
  0.12500000000000000       0.34375000000000000        0.0000000000000000     
  0.15625000000000000       0.34375000000000000        0.0000000000000000     
  0.18750000000000000       0.34375000000000000        0.0000000000000000     
  0.21875000000000000       0.34375000000000000        0.0000000000000000     
  0.25000000000000000       0.34375000000000000        0.0000000000000000     
  0.12500000000000000       0.37500000000000000        0.0000000000000000     
  0.15625000000000000       0.37500000000000000        0.0000000000000000     
  0.18750000000000000       0.37500000000000000        0.0000000000000000     
  0.21875000000000000       0.37500000000000000        0.0000000000000000     
  0.25000000000000000       0.37500000000000000        0.0000000000000000     
  0.25000000000000000       0.25000000000000000        0.0000000000000000     
  0.28125000000000000       0.25000000000000000        0.0000000000000000     
  0.31250000000000000       0.25000000000000000        0.0000000000000000     
  0.34375000000000000       0.25000000000000000        0.0000000000000000     
  0.37500000000000000       0.25000000000000000        0.0000000000000000     
  0.25000000000000000       0.28125000000000000        0.0000000000000000     
  0.28125000000000000       0.28125000000000000        0.0000000000000000     
  0.31250000000000000       0.28125000000000000        0.0000000000000000     
  0.34375000000000000       0.28125000000000000        0.0000000000000000     
  0.37500000000000000       0.28125000000000000        0.0000000000000000     
  0.25000000000000000       0.31250000000000000        0.0000000000000000     
  0.28125000000000000       0.31250000000000000        0.0000000000000000     
  0.31250000000000000       0.31250000000000000        0.0000000000000000     
  0.34375000000000000       0.31250000000000000        0.0000000000000000     
  0.37500000000000000       0.31250000000000000        0.0000000000000000     
  0.25000000000000000       0.34375000000000000        0.0000000000000000     
  0.28125000000000000       0.34375000000000000        0.0000000000000000     
  0.31250000000000000       0.34375000000000000        0.0000000000000000     
  0.34375000000000000       0.34375000000000000        0.0000000000000000     
  0.37500000000000000       0.34375000000000000        0.0000000000000000     
  0.25000000000000000       0.37500000000000000        0.0000000000000000     
  0.28125000000000000       0.37500000000000000        0.0000000000000000     
  0.31250000000000000       0.37500000000000000        0.0000000000000000     
  0.34375000000000000       0.37500000000000000        0.0000000000000000     
  0.37500000000000000       0.37500000000000000        0.0000000000000000     
  0.37500000000000000       0.25000000000000000        0.0000000000000000     
  0.40625000000000000       0.25000000000000000        0.0000000000000000     
  0.43750000000000000       0.25000000000000000        0.0000000000000000     
  0.46875000000000000       0.25000000000000000        0.0000000000000000     
  0.50000000000000000       0.25000000000000000        0.0000000000000000     
  0.37500000000000000       0.28125000000000000        0.0000000000000000     
  0.40625000000000000       0.28125000000000000        0.0000000000000000     
  0.43750000000000000       0.28125000000000000        0.0000000000000000     
  0.46875000000000000       0.28125000000000000        0.0000000000000000     
  0.50000000000000000       0.28125000000000000        0.0000000000000000     
  0.37500000000000000       0.31250000000000000        0.0000000000000000     
  0.40625000000000000       0.31250000000000000        0.0000000000000000     
  0.43750000000000000       0.31250000000000000        0.0000000000000000     
  0.46875000000000000       0.31250000000000000        0.0000000000000000     
  0.50000000000000000       0.31250000000000000        0.0000000000000000     
  0.37500000000000000       0.34375000000000000        0.0000000000000000     
  0.40625000000000000       0.34375000000000000        0.0000000000000000     
  0.43750000000000000       0.34375000000000000        0.0000000000000000     
  0.46875000000000000       0.34375000000000000        0.0000000000000000     
  0.50000000000000000       0.34375000000000000        0.0000000000000000     
  0.37500000000000000       0.37500000000000000        0.0000000000000000     
  0.40625000000000000       0.37500000000000000        0.0000000000000000     
  0.43750000000000000       0.37500000000000000        0.0000000000000000     
  0.46875000000000000       0.37500000000000000        0.0000000000000000     
  0.50000000000000000       0.37500000000000000        0.0000000000000000     
  0.50000000000000000       0.25000000000000000        0.0000000000000000     
  0.53125000000000000       0.25000000000000000        0.0000000000000000     
  0.56250000000000000       0.25000000000000000        0.0000000000000000     
  0.59375000000000000       0.25000000000000000        0.0000000000000000     
  0.62500000000000000       0.25000000000000000        0.0000000000000000     
  0.50000000000000000       0.28125000000000000        0.0000000000000000     
  0.53125000000000000       0.28125000000000000        0.0000000000000000     
  0.56250000000000000       0.28125000000000000        0.0000000000000000     
  0.59375000000000000       0.28125000000000000        0.0000000000000000     
  0.62500000000000000       0.28125000000000000        0.0000000000000000     
  0.50000000000000000       0.31250000000000000        0.0000000000000000     
  0.53125000000000000       0.31250000000000000        0.0000000000000000     
  0.56250000000000000       0.31250000000000000        0.0000000000000000     
  0.59375000000000000       0.31250000000000000        0.0000000000000000     
  0.62500000000000000       0.31250000000000000        0.0000000000000000     
  0.50000000000000000       0.34375000000000000        0.0000000000000000     
  0.53125000000000000       0.34375000000000000        0.0000000000000000     
  0.56250000000000000       0.34375000000000000        0.0000000000000000     
  0.59375000000000000       0.34375000000000000        0.0000000000000000     
  0.62500000000000000       0.34375000000000000        0.0000000000000000     
  0.50000000000000000       0.37500000000000000        0.0000000000000000     
  0.53125000000000000       0.37500000000000000        0.0000000000000000     
  0.56250000000000000       0.37500000000000000        0.0000000000000000     
  0.59375000000000000       0.37500000000000000        0.0000000000000000     
  0.62500000000000000       0.37500000000000000        0.0000000000000000     
  0.62500000000000000       0.25000000000000000        0.0000000000000000     
  0.65625000000000000       0.25000000000000000        0.0000000000000000     
  0.68750000000000000       0.25000000000000000        0.0000000000000000     
  0.71875000000000000       0.25000000000000000        0.0000000000000000     
  0.75000000000000000       0.25000000000000000        0.0000000000000000     
  0.62500000000000000       0.28125000000000000        0.0000000000000000     
  0.65625000000000000       0.28125000000000000        0.0000000000000000     
  0.68750000000000000       0.28125000000000000        0.0000000000000000     
  0.71875000000000000       0.28125000000000000        0.0000000000000000     
  0.75000000000000000       0.28125000000000000        0.0000000000000000     
  0.62500000000000000       0.31250000000000000        0.0000000000000000     
  0.65625000000000000       0.31250000000000000        0.0000000000000000     
  0.68750000000000000       0.31250000000000000        0.0000000000000000     
  0.71875000000000000       0.31250000000000000        0.0000000000000000     
  0.75000000000000000       0.31250000000000000        0.0000000000000000     
  0.62500000000000000       0.34375000000000000        0.0000000000000000     
  0.65625000000000000       0.34375000000000000        0.0000000000000000     
  0.68750000000000000       0.34375000000000000        0.0000000000000000     
  0.71875000000000000       0.34375000000000000        0.0000000000000000     
  0.75000000000000000       0.34375000000000000        0.0000000000000000     
  0.62500000000000000       0.37500000000000000        0.0000000000000000     
  0.65625000000000000       0.37500000000000000        0.0000000000000000     
  0.68750000000000000       0.37500000000000000        0.0000000000000000     
  0.71875000000000000       0.37500000000000000        0.0000000000000000     
  0.75000000000000000       0.37500000000000000        0.0000000000000000     
  0.75000000000000000       0.25000000000000000        0.0000000000000000     
  0.78125000000000000       0.25000000000000000        0.0000000000000000     
  0.81250000000000000       0.25000000000000000        0.0000000000000000     
  0.84375000000000000       0.25000000000000000        0.0000000000000000     
  0.87500000000000000       0.25000000000000000        0.0000000000000000     
  0.75000000000000000       0.28125000000000000        0.0000000000000000     
  0.78125000000000000       0.28125000000000000        0.0000000000000000     
  0.81250000000000000       0.28125000000000000        0.0000000000000000     
  0.84375000000000000       0.28125000000000000        0.0000000000000000     
  0.87500000000000000       0.28125000000000000        0.0000000000000000     
  0.75000000000000000       0.31250000000000000        0.0000000000000000     
  0.78125000000000000       0.31250000000000000        0.0000000000000000     
  0.81250000000000000       0.31250000000000000        0.0000000000000000     
  0.84375000000000000       0.31250000000000000        0.0000000000000000     
  0.87500000000000000       0.31250000000000000        0.0000000000000000     
  0.75000000000000000       0.34375000000000000        0.0000000000000000     
  0.78125000000000000       0.34375000000000000        0.0000000000000000     
  0.81250000000000000       0.34375000000000000        0.0000000000000000     
  0.84375000000000000       0.34375000000000000        0.0000000000000000     
  0.87500000000000000       0.34375000000000000        0.0000000000000000     
  0.75000000000000000       0.37500000000000000        0.0000000000000000     
  0.78125000000000000       0.37500000000000000        0.0000000000000000     
  0.81250000000000000       0.37500000000000000        0.0000000000000000     
  0.84375000000000000       0.37500000000000000        0.0000000000000000     
  0.87500000000000000       0.37500000000000000        0.0000000000000000     
  0.87500000000000000       0.25000000000000000        0.0000000000000000     
  0.90625000000000000       0.25000000000000000        0.0000000000000000     
  0.93750000000000000       0.25000000000000000        0.0000000000000000     
  0.96875000000000000       0.25000000000000000        0.0000000000000000     
   1.0000000000000000       0.25000000000000000        0.0000000000000000     
  0.87500000000000000       0.28125000000000000        0.0000000000000000     
  0.90625000000000000       0.28125000000000000        0.0000000000000000     
  0.93750000000000000       0.28125000000000000        0.0000000000000000     
  0.96875000000000000       0.28125000000000000        0.0000000000000000     
   1.0000000000000000       0.28125000000000000        0.0000000000000000     
  0.87500000000000000       0.31250000000000000        0.0000000000000000     
  0.90625000000000000       0.31250000000000000        0.0000000000000000     
  0.93750000000000000       0.31250000000000000        0.0000000000000000     
  0.96875000000000000       0.31250000000000000        0.0000000000000000     
   1.0000000000000000       0.31250000000000000        0.0000000000000000     
  0.87500000000000000       0.34375000000000000        0.0000000000000000     
  0.90625000000000000       0.34375000000000000        0.0000000000000000     
  0.93750000000000000       0.34375000000000000        0.0000000000000000     
  0.96875000000000000       0.34375000000000000        0.0000000000000000     
   1.0000000000000000       0.34375000000000000        0.0000000000000000     
  0.87500000000000000       0.37500000000000000        0.0000000000000000     
  0.90625000000000000       0.37500000000000000        0.0000000000000000     
  0.93750000000000000       0.37500000000000000        0.0000000000000000     
  0.96875000000000000       0.37500000000000000        0.0000000000000000     
   1.0000000000000000       0.37500000000000000        0.0000000000000000     
   0.0000000000000000       0.37500000000000000        0.0000000000000000     
   3.1250000000000000E-002  0.37500000000000000        0.0000000000000000     
   6.2500000000000000E-002  0.37500000000000000        0.0000000000000000     
   9.3750000000000000E-002  0.37500000000000000        0.0000000000000000     
  0.12500000000000000       0.37500000000000000        0.0000000000000000     
   0.0000000000000000       0.40625000000000000        0.0000000000000000     
   3.1250000000000000E-002  0.40625000000000000        0.0000000000000000     
   6.2500000000000000E-002  0.40625000000000000        0.0000000000000000     
   9.3750000000000000E-002  0.40625000000000000        0.0000000000000000     
  0.12500000000000000       0.40625000000000000        0.0000000000000000     
   0.0000000000000000       0.43750000000000000        0.0000000000000000     
   3.1250000000000000E-002  0.43750000000000000        0.0000000000000000     
   6.2500000000000000E-002  0.43750000000000000        0.0000000000000000     
   9.3750000000000000E-002  0.43750000000000000        0.0000000000000000     
  0.12500000000000000       0.43750000000000000        0.0000000000000000     
   0.0000000000000000       0.46875000000000000        0.0000000000000000     
   3.1250000000000000E-002  0.46875000000000000        0.0000000000000000     
   6.2500000000000000E-002  0.46875000000000000        0.0000000000000000     
   9.3750000000000000E-002  0.46875000000000000        0.0000000000000000     
  0.12500000000000000       0.46875000000000000        0.0000000000000000     
   0.0000000000000000       0.50000000000000000        0.0000000000000000     
   3.1250000000000000E-002  0.50000000000000000        0.0000000000000000     
   6.2500000000000000E-002  0.50000000000000000        0.0000000000000000     
   9.3750000000000000E-002  0.50000000000000000        0.0000000000000000     
  0.12500000000000000       0.50000000000000000        0.0000000000000000     
  0.12500000000000000       0.37500000000000000        0.0000000000000000     
  0.15625000000000000       0.37500000000000000        0.0000000000000000     
  0.18750000000000000       0.37500000000000000        0.0000000000000000     
  0.21875000000000000       0.37500000000000000        0.0000000000000000     
  0.25000000000000000       0.37500000000000000        0.0000000000000000     
  0.12500000000000000       0.40625000000000000        0.0000000000000000     
  0.15625000000000000       0.40625000000000000        0.0000000000000000     
  0.18750000000000000       0.40625000000000000        0.0000000000000000     
  0.21875000000000000       0.40625000000000000        0.0000000000000000     
  0.25000000000000000       0.40625000000000000        0.0000000000000000     
  0.12500000000000000       0.43750000000000000        0.0000000000000000     
  0.15625000000000000       0.43750000000000000        0.0000000000000000     
  0.18750000000000000       0.43750000000000000        0.0000000000000000     
  0.21875000000000000       0.43750000000000000        0.0000000000000000     
  0.25000000000000000       0.43750000000000000        0.0000000000000000     
  0.12500000000000000       0.46875000000000000        0.0000000000000000     
  0.15625000000000000       0.46875000000000000        0.0000000000000000     
  0.18750000000000000       0.46875000000000000        0.0000000000000000     
  0.21875000000000000       0.46875000000000000        0.0000000000000000     
  0.25000000000000000       0.46875000000000000        0.0000000000000000     
  0.12500000000000000       0.50000000000000000        0.0000000000000000     
  0.15625000000000000       0.50000000000000000        0.0000000000000000     
  0.18750000000000000       0.50000000000000000        0.0000000000000000     
  0.21875000000000000       0.50000000000000000        0.0000000000000000     
  0.25000000000000000       0.50000000000000000        0.0000000000000000     
  0.25000000000000000       0.37500000000000000        0.0000000000000000     
  0.28125000000000000       0.37500000000000000        0.0000000000000000     
  0.31250000000000000       0.37500000000000000        0.0000000000000000     
  0.34375000000000000       0.37500000000000000        0.0000000000000000     
  0.37500000000000000       0.37500000000000000        0.0000000000000000     
  0.25000000000000000       0.40625000000000000        0.0000000000000000     
  0.28125000000000000       0.40625000000000000        0.0000000000000000     
  0.31250000000000000       0.40625000000000000        0.0000000000000000     
  0.34375000000000000       0.40625000000000000        0.0000000000000000     
  0.37500000000000000       0.40625000000000000        0.0000000000000000     
  0.25000000000000000       0.43750000000000000        0.0000000000000000     
  0.28125000000000000       0.43750000000000000        0.0000000000000000     
  0.31250000000000000       0.43750000000000000        0.0000000000000000     
  0.34375000000000000       0.43750000000000000        0.0000000000000000     
  0.37500000000000000       0.43750000000000000        0.0000000000000000     
  0.25000000000000000       0.46875000000000000        0.0000000000000000     
  0.28125000000000000       0.46875000000000000        0.0000000000000000     
  0.31250000000000000       0.46875000000000000        0.0000000000000000     
  0.34375000000000000       0.46875000000000000        0.0000000000000000     
  0.37500000000000000       0.46875000000000000        0.0000000000000000     
  0.25000000000000000       0.50000000000000000        0.0000000000000000     
  0.28125000000000000       0.50000000000000000        0.0000000000000000     
  0.31250000000000000       0.50000000000000000        0.0000000000000000     
  0.34375000000000000       0.50000000000000000        0.0000000000000000     
  0.37500000000000000       0.50000000000000000        0.0000000000000000     
  0.37500000000000000       0.37500000000000000        0.0000000000000000     
  0.40625000000000000       0.37500000000000000        0.0000000000000000     
  0.43750000000000000       0.37500000000000000        0.0000000000000000     
  0.46875000000000000       0.37500000000000000        0.0000000000000000     
  0.50000000000000000       0.37500000000000000        0.0000000000000000     
  0.37500000000000000       0.40625000000000000        0.0000000000000000     
  0.40625000000000000       0.40625000000000000        0.0000000000000000     
  0.43750000000000000       0.40625000000000000        0.0000000000000000     
  0.46875000000000000       0.40625000000000000        0.0000000000000000     
  0.50000000000000000       0.40625000000000000        0.0000000000000000     
  0.37500000000000000       0.43750000000000000        0.0000000000000000     
  0.40625000000000000       0.43750000000000000        0.0000000000000000     
  0.43750000000000000       0.43750000000000000        0.0000000000000000     
  0.46875000000000000       0.43750000000000000        0.0000000000000000     
  0.50000000000000000       0.43750000000000000        0.0000000000000000     
  0.37500000000000000       0.46875000000000000        0.0000000000000000     
  0.40625000000000000       0.46875000000000000        0.0000000000000000     
  0.43750000000000000       0.46875000000000000        0.0000000000000000     
  0.46875000000000000       0.46875000000000000        0.0000000000000000     
  0.50000000000000000       0.46875000000000000        0.0000000000000000     
  0.37500000000000000       0.50000000000000000        0.0000000000000000     
  0.40625000000000000       0.50000000000000000        0.0000000000000000     
  0.43750000000000000       0.50000000000000000        0.0000000000000000     
  0.46875000000000000       0.50000000000000000        0.0000000000000000     
  0.50000000000000000       0.50000000000000000        0.0000000000000000     
  0.50000000000000000       0.37500000000000000        0.0000000000000000     
  0.53125000000000000       0.37500000000000000        0.0000000000000000     
  0.56250000000000000       0.37500000000000000        0.0000000000000000     
  0.59375000000000000       0.37500000000000000        0.0000000000000000     
  0.62500000000000000       0.37500000000000000        0.0000000000000000     
  0.50000000000000000       0.40625000000000000        0.0000000000000000     
  0.53125000000000000       0.40625000000000000        0.0000000000000000     
  0.56250000000000000       0.40625000000000000        0.0000000000000000     
  0.59375000000000000       0.40625000000000000        0.0000000000000000     
  0.62500000000000000       0.40625000000000000        0.0000000000000000     
  0.50000000000000000       0.43750000000000000        0.0000000000000000     
  0.53125000000000000       0.43750000000000000        0.0000000000000000     
  0.56250000000000000       0.43750000000000000        0.0000000000000000     
  0.59375000000000000       0.43750000000000000        0.0000000000000000     
  0.62500000000000000       0.43750000000000000        0.0000000000000000     
  0.50000000000000000       0.46875000000000000        0.0000000000000000     
  0.53125000000000000       0.46875000000000000        0.0000000000000000     
  0.56250000000000000       0.46875000000000000        0.0000000000000000     
  0.59375000000000000       0.46875000000000000        0.0000000000000000     
  0.62500000000000000       0.46875000000000000        0.0000000000000000     
  0.50000000000000000       0.50000000000000000        0.0000000000000000     
  0.53125000000000000       0.50000000000000000        0.0000000000000000     
  0.56250000000000000       0.50000000000000000        0.0000000000000000     
  0.59375000000000000       0.50000000000000000        0.0000000000000000     
  0.62500000000000000       0.50000000000000000        0.0000000000000000     
  0.62500000000000000       0.37500000000000000        0.0000000000000000     
  0.65625000000000000       0.37500000000000000        0.0000000000000000     
  0.68750000000000000       0.37500000000000000        0.0000000000000000     
  0.71875000000000000       0.37500000000000000        0.0000000000000000     
  0.75000000000000000       0.37500000000000000        0.0000000000000000     
  0.62500000000000000       0.40625000000000000        0.0000000000000000     
  0.65625000000000000       0.40625000000000000        0.0000000000000000     
  0.68750000000000000       0.40625000000000000        0.0000000000000000     
  0.71875000000000000       0.40625000000000000        0.0000000000000000     
  0.75000000000000000       0.40625000000000000        0.0000000000000000     
  0.62500000000000000       0.43750000000000000        0.0000000000000000     
  0.65625000000000000       0.43750000000000000        0.0000000000000000     
  0.68750000000000000       0.43750000000000000        0.0000000000000000     
  0.71875000000000000       0.43750000000000000        0.0000000000000000     
  0.75000000000000000       0.43750000000000000        0.0000000000000000     
  0.62500000000000000       0.46875000000000000        0.0000000000000000     
  0.65625000000000000       0.46875000000000000        0.0000000000000000     
  0.68750000000000000       0.46875000000000000        0.0000000000000000     
  0.71875000000000000       0.46875000000000000        0.0000000000000000     
  0.75000000000000000       0.46875000000000000        0.0000000000000000     
  0.62500000000000000       0.50000000000000000        0.0000000000000000     
  0.65625000000000000       0.50000000000000000        0.0000000000000000     
  0.68750000000000000       0.50000000000000000        0.0000000000000000     
  0.71875000000000000       0.50000000000000000        0.0000000000000000     
  0.75000000000000000       0.50000000000000000        0.0000000000000000     
  0.75000000000000000       0.37500000000000000        0.0000000000000000     
  0.78125000000000000       0.37500000000000000        0.0000000000000000     
  0.81250000000000000       0.37500000000000000        0.0000000000000000     
  0.84375000000000000       0.37500000000000000        0.0000000000000000     
  0.87500000000000000       0.37500000000000000        0.0000000000000000     
  0.75000000000000000       0.40625000000000000        0.0000000000000000     
  0.78125000000000000       0.40625000000000000        0.0000000000000000     
  0.81250000000000000       0.40625000000000000        0.0000000000000000     
  0.84375000000000000       0.40625000000000000        0.0000000000000000     
  0.87500000000000000       0.40625000000000000        0.0000000000000000     
  0.75000000000000000       0.43750000000000000        0.0000000000000000     
  0.78125000000000000       0.43750000000000000        0.0000000000000000     
  0.81250000000000000       0.43750000000000000        0.0000000000000000     
  0.84375000000000000       0.43750000000000000        0.0000000000000000     
  0.87500000000000000       0.43750000000000000        0.0000000000000000     
  0.75000000000000000       0.46875000000000000        0.0000000000000000     
  0.78125000000000000       0.46875000000000000        0.0000000000000000     
  0.81250000000000000       0.46875000000000000        0.0000000000000000     
  0.84375000000000000       0.46875000000000000        0.0000000000000000     
  0.87500000000000000       0.46875000000000000        0.0000000000000000     
  0.75000000000000000       0.50000000000000000        0.0000000000000000     
  0.78125000000000000       0.50000000000000000        0.0000000000000000     
  0.81250000000000000       0.50000000000000000        0.0000000000000000     
  0.84375000000000000       0.50000000000000000        0.0000000000000000     
  0.87500000000000000       0.50000000000000000        0.0000000000000000     
  0.87500000000000000       0.37500000000000000        0.0000000000000000     
  0.90625000000000000       0.37500000000000000        0.0000000000000000     
  0.93750000000000000       0.37500000000000000        0.0000000000000000     
  0.96875000000000000       0.37500000000000000        0.0000000000000000     
   1.0000000000000000       0.37500000000000000        0.0000000000000000     
  0.87500000000000000       0.40625000000000000        0.0000000000000000     
  0.90625000000000000       0.40625000000000000        0.0000000000000000     
  0.93750000000000000       0.40625000000000000        0.0000000000000000     
  0.96875000000000000       0.40625000000000000        0.0000000000000000     
   1.0000000000000000       0.40625000000000000        0.0000000000000000     
  0.87500000000000000       0.43750000000000000        0.0000000000000000     
  0.90625000000000000       0.43750000000000000        0.0000000000000000     
  0.93750000000000000       0.43750000000000000        0.0000000000000000     
  0.96875000000000000       0.43750000000000000        0.0000000000000000     
   1.0000000000000000       0.43750000000000000        0.0000000000000000     
  0.87500000000000000       0.46875000000000000        0.0000000000000000     
  0.90625000000000000       0.46875000000000000        0.0000000000000000     
  0.93750000000000000       0.46875000000000000        0.0000000000000000     
  0.96875000000000000       0.46875000000000000        0.0000000000000000     
   1.0000000000000000       0.46875000000000000        0.0000000000000000     
  0.87500000000000000       0.50000000000000000        0.0000000000000000     
  0.90625000000000000       0.50000000000000000        0.0000000000000000     
  0.93750000000000000       0.50000000000000000        0.0000000000000000     
  0.96875000000000000       0.50000000000000000        0.0000000000000000     
   1.0000000000000000       0.50000000000000000        0.0000000000000000     
   0.0000000000000000       0.50000000000000000        0.0000000000000000     
   3.1250000000000000E-002  0.50000000000000000        0.0000000000000000     
   6.2500000000000000E-002  0.50000000000000000        0.0000000000000000     
   9.3750000000000000E-002  0.50000000000000000        0.0000000000000000     
  0.12500000000000000       0.50000000000000000        0.0000000000000000     
   0.0000000000000000       0.53125000000000000        0.0000000000000000     
   3.1250000000000000E-002  0.53125000000000000        0.0000000000000000     
   6.2500000000000000E-002  0.53125000000000000        0.0000000000000000     
   9.3750000000000000E-002  0.53125000000000000        0.0000000000000000     
  0.12500000000000000       0.53125000000000000        0.0000000000000000     
   0.0000000000000000       0.56250000000000000        0.0000000000000000     
   3.1250000000000000E-002  0.56250000000000000        0.0000000000000000     
   6.2500000000000000E-002  0.56250000000000000        0.0000000000000000     
   9.3750000000000000E-002  0.56250000000000000        0.0000000000000000     
  0.12500000000000000       0.56250000000000000        0.0000000000000000     
   0.0000000000000000       0.59375000000000000        0.0000000000000000     
   3.1250000000000000E-002  0.59375000000000000        0.0000000000000000     
   6.2500000000000000E-002  0.59375000000000000        0.0000000000000000     
   9.3750000000000000E-002  0.59375000000000000        0.0000000000000000     
  0.12500000000000000       0.59375000000000000        0.0000000000000000     
   0.0000000000000000       0.62500000000000000        0.0000000000000000     
   3.1250000000000000E-002  0.62500000000000000        0.0000000000000000     
   6.2500000000000000E-002  0.62500000000000000        0.0000000000000000     
   9.3750000000000000E-002  0.62500000000000000        0.0000000000000000     
  0.12500000000000000       0.62500000000000000        0.0000000000000000     
  0.12500000000000000       0.50000000000000000        0.0000000000000000     
  0.15625000000000000       0.50000000000000000        0.0000000000000000     
  0.18750000000000000       0.50000000000000000        0.0000000000000000     
  0.21875000000000000       0.50000000000000000        0.0000000000000000     
  0.25000000000000000       0.50000000000000000        0.0000000000000000     
  0.12500000000000000       0.53125000000000000        0.0000000000000000     
  0.15625000000000000       0.53125000000000000        0.0000000000000000     
  0.18750000000000000       0.53125000000000000        0.0000000000000000     
  0.21875000000000000       0.53125000000000000        0.0000000000000000     
  0.25000000000000000       0.53125000000000000        0.0000000000000000     
  0.12500000000000000       0.56250000000000000        0.0000000000000000     
  0.15625000000000000       0.56250000000000000        0.0000000000000000     
  0.18750000000000000       0.56250000000000000        0.0000000000000000     
  0.21875000000000000       0.56250000000000000        0.0000000000000000     
  0.25000000000000000       0.56250000000000000        0.0000000000000000     
  0.12500000000000000       0.59375000000000000        0.0000000000000000     
  0.15625000000000000       0.59375000000000000        0.0000000000000000     
  0.18750000000000000       0.59375000000000000        0.0000000000000000     
  0.21875000000000000       0.59375000000000000        0.0000000000000000     
  0.25000000000000000       0.59375000000000000        0.0000000000000000     
  0.12500000000000000       0.62500000000000000        0.0000000000000000     
  0.15625000000000000       0.62500000000000000        0.0000000000000000     
  0.18750000000000000       0.62500000000000000        0.0000000000000000     
  0.21875000000000000       0.62500000000000000        0.0000000000000000     
  0.25000000000000000       0.62500000000000000        0.0000000000000000     
  0.25000000000000000       0.50000000000000000        0.0000000000000000     
  0.28125000000000000       0.50000000000000000        0.0000000000000000     
  0.31250000000000000       0.50000000000000000        0.0000000000000000     
  0.34375000000000000       0.50000000000000000        0.0000000000000000     
  0.37500000000000000       0.50000000000000000        0.0000000000000000     
  0.25000000000000000       0.53125000000000000        0.0000000000000000     
  0.28125000000000000       0.53125000000000000        0.0000000000000000     
  0.31250000000000000       0.53125000000000000        0.0000000000000000     
  0.34375000000000000       0.53125000000000000        0.0000000000000000     
  0.37500000000000000       0.53125000000000000        0.0000000000000000     
  0.25000000000000000       0.56250000000000000        0.0000000000000000     
  0.28125000000000000       0.56250000000000000        0.0000000000000000     
  0.31250000000000000       0.56250000000000000        0.0000000000000000     
  0.34375000000000000       0.56250000000000000        0.0000000000000000     
  0.37500000000000000       0.56250000000000000        0.0000000000000000     
  0.25000000000000000       0.59375000000000000        0.0000000000000000     
  0.28125000000000000       0.59375000000000000        0.0000000000000000     
  0.31250000000000000       0.59375000000000000        0.0000000000000000     
  0.34375000000000000       0.59375000000000000        0.0000000000000000     
  0.37500000000000000       0.59375000000000000        0.0000000000000000     
  0.25000000000000000       0.62500000000000000        0.0000000000000000     
  0.28125000000000000       0.62500000000000000        0.0000000000000000     
  0.31250000000000000       0.62500000000000000        0.0000000000000000     
  0.34375000000000000       0.62500000000000000        0.0000000000000000     
  0.37500000000000000       0.62500000000000000        0.0000000000000000     
  0.37500000000000000       0.50000000000000000        0.0000000000000000     
  0.40625000000000000       0.50000000000000000        0.0000000000000000     
  0.43750000000000000       0.50000000000000000        0.0000000000000000     
  0.46875000000000000       0.50000000000000000        0.0000000000000000     
  0.50000000000000000       0.50000000000000000        0.0000000000000000     
  0.37500000000000000       0.53125000000000000        0.0000000000000000     
  0.40625000000000000       0.53125000000000000        0.0000000000000000     
  0.43750000000000000       0.53125000000000000        0.0000000000000000     
  0.46875000000000000       0.53125000000000000        0.0000000000000000     
  0.50000000000000000       0.53125000000000000        0.0000000000000000     
  0.37500000000000000       0.56250000000000000        0.0000000000000000     
  0.40625000000000000       0.56250000000000000        0.0000000000000000     
  0.43750000000000000       0.56250000000000000        0.0000000000000000     
  0.46875000000000000       0.56250000000000000        0.0000000000000000     
  0.50000000000000000       0.56250000000000000        0.0000000000000000     
  0.37500000000000000       0.59375000000000000        0.0000000000000000     
  0.40625000000000000       0.59375000000000000        0.0000000000000000     
  0.43750000000000000       0.59375000000000000        0.0000000000000000     
  0.46875000000000000       0.59375000000000000        0.0000000000000000     
  0.50000000000000000       0.59375000000000000        0.0000000000000000     
  0.37500000000000000       0.62500000000000000        0.0000000000000000     
  0.40625000000000000       0.62500000000000000        0.0000000000000000     
  0.43750000000000000       0.62500000000000000        0.0000000000000000     
  0.46875000000000000       0.62500000000000000        0.0000000000000000     
  0.50000000000000000       0.62500000000000000        0.0000000000000000     
  0.50000000000000000       0.50000000000000000        0.0000000000000000     
  0.53125000000000000       0.50000000000000000        0.0000000000000000     
  0.56250000000000000       0.50000000000000000        0.0000000000000000     
  0.59375000000000000       0.50000000000000000        0.0000000000000000     
  0.62500000000000000       0.50000000000000000        0.0000000000000000     
  0.50000000000000000       0.53125000000000000        0.0000000000000000     
  0.53125000000000000       0.53125000000000000        0.0000000000000000     
  0.56250000000000000       0.53125000000000000        0.0000000000000000     
  0.59375000000000000       0.53125000000000000        0.0000000000000000     
  0.62500000000000000       0.53125000000000000        0.0000000000000000     
  0.50000000000000000       0.56250000000000000        0.0000000000000000     
  0.53125000000000000       0.56250000000000000        0.0000000000000000     
  0.56250000000000000       0.56250000000000000        0.0000000000000000     
  0.59375000000000000       0.56250000000000000        0.0000000000000000     
  0.62500000000000000       0.56250000000000000        0.0000000000000000     
  0.50000000000000000       0.59375000000000000        0.0000000000000000     
  0.53125000000000000       0.59375000000000000        0.0000000000000000     
  0.56250000000000000       0.59375000000000000        0.0000000000000000     
  0.59375000000000000       0.59375000000000000        0.0000000000000000     
  0.62500000000000000       0.59375000000000000        0.0000000000000000     
  0.50000000000000000       0.62500000000000000        0.0000000000000000     
  0.53125000000000000       0.62500000000000000        0.0000000000000000     
  0.56250000000000000       0.62500000000000000        0.0000000000000000     
  0.59375000000000000       0.62500000000000000        0.0000000000000000     
  0.62500000000000000       0.62500000000000000        0.0000000000000000     
  0.62500000000000000       0.50000000000000000        0.0000000000000000     
  0.65625000000000000       0.50000000000000000        0.0000000000000000     
  0.68750000000000000       0.50000000000000000        0.0000000000000000     
  0.71875000000000000       0.50000000000000000        0.0000000000000000     
  0.75000000000000000       0.50000000000000000        0.0000000000000000     
  0.62500000000000000       0.53125000000000000        0.0000000000000000     
  0.65625000000000000       0.53125000000000000        0.0000000000000000     
  0.68750000000000000       0.53125000000000000        0.0000000000000000     
  0.71875000000000000       0.53125000000000000        0.0000000000000000     
  0.75000000000000000       0.53125000000000000        0.0000000000000000     
  0.62500000000000000       0.56250000000000000        0.0000000000000000     
  0.65625000000000000       0.56250000000000000        0.0000000000000000     
  0.68750000000000000       0.56250000000000000        0.0000000000000000     
  0.71875000000000000       0.56250000000000000        0.0000000000000000     
  0.75000000000000000       0.56250000000000000        0.0000000000000000     
  0.62500000000000000       0.59375000000000000        0.0000000000000000     
  0.65625000000000000       0.59375000000000000        0.0000000000000000     
  0.68750000000000000       0.59375000000000000        0.0000000000000000     
  0.71875000000000000       0.59375000000000000        0.0000000000000000     
  0.75000000000000000       0.59375000000000000        0.0000000000000000     
  0.62500000000000000       0.62500000000000000        0.0000000000000000     
  0.65625000000000000       0.62500000000000000        0.0000000000000000     
  0.68750000000000000       0.62500000000000000        0.0000000000000000     
  0.71875000000000000       0.62500000000000000        0.0000000000000000     
  0.75000000000000000       0.62500000000000000        0.0000000000000000     
  0.75000000000000000       0.50000000000000000        0.0000000000000000     
  0.78125000000000000       0.50000000000000000        0.0000000000000000     
  0.81250000000000000       0.50000000000000000        0.0000000000000000     
  0.84375000000000000       0.50000000000000000        0.0000000000000000     
  0.87500000000000000       0.50000000000000000        0.0000000000000000     
  0.75000000000000000       0.53125000000000000        0.0000000000000000     
  0.78125000000000000       0.53125000000000000        0.0000000000000000     
  0.81250000000000000       0.53125000000000000        0.0000000000000000     
  0.84375000000000000       0.53125000000000000        0.0000000000000000     
  0.87500000000000000       0.53125000000000000        0.0000000000000000     
  0.75000000000000000       0.56250000000000000        0.0000000000000000     
  0.78125000000000000       0.56250000000000000        0.0000000000000000     
  0.81250000000000000       0.56250000000000000        0.0000000000000000     
  0.84375000000000000       0.56250000000000000        0.0000000000000000     
  0.87500000000000000       0.56250000000000000        0.0000000000000000     
  0.75000000000000000       0.59375000000000000        0.0000000000000000     
  0.78125000000000000       0.59375000000000000        0.0000000000000000     
  0.81250000000000000       0.59375000000000000        0.0000000000000000     
  0.84375000000000000       0.59375000000000000        0.0000000000000000     
  0.87500000000000000       0.59375000000000000        0.0000000000000000     
  0.75000000000000000       0.62500000000000000        0.0000000000000000     
  0.78125000000000000       0.62500000000000000        0.0000000000000000     
  0.81250000000000000       0.62500000000000000        0.0000000000000000     
  0.84375000000000000       0.62500000000000000        0.0000000000000000     
  0.87500000000000000       0.62500000000000000        0.0000000000000000     
  0.87500000000000000       0.50000000000000000        0.0000000000000000     
  0.90625000000000000       0.50000000000000000        0.0000000000000000     
  0.93750000000000000       0.50000000000000000        0.0000000000000000     
  0.96875000000000000       0.50000000000000000        0.0000000000000000     
   1.0000000000000000       0.50000000000000000        0.0000000000000000     
  0.87500000000000000       0.53125000000000000        0.0000000000000000     
  0.90625000000000000       0.53125000000000000        0.0000000000000000     
  0.93750000000000000       0.53125000000000000        0.0000000000000000     
  0.96875000000000000       0.53125000000000000        0.0000000000000000     
   1.0000000000000000       0.53125000000000000        0.0000000000000000     
  0.87500000000000000       0.56250000000000000        0.0000000000000000     
  0.90625000000000000       0.56250000000000000        0.0000000000000000     
  0.93750000000000000       0.56250000000000000        0.0000000000000000     
  0.96875000000000000       0.56250000000000000        0.0000000000000000     
   1.0000000000000000       0.56250000000000000        0.0000000000000000     
  0.87500000000000000       0.59375000000000000        0.0000000000000000     
  0.90625000000000000       0.59375000000000000        0.0000000000000000     
  0.93750000000000000       0.59375000000000000        0.0000000000000000     
  0.96875000000000000       0.59375000000000000        0.0000000000000000     
   1.0000000000000000       0.59375000000000000        0.0000000000000000     
  0.87500000000000000       0.62500000000000000        0.0000000000000000     
  0.90625000000000000       0.62500000000000000        0.0000000000000000     
  0.93750000000000000       0.62500000000000000        0.0000000000000000     
  0.96875000000000000       0.62500000000000000        0.0000000000000000     
   1.0000000000000000       0.62500000000000000        0.0000000000000000     
   0.0000000000000000       0.62500000000000000        0.0000000000000000     
   3.1250000000000000E-002  0.62500000000000000        0.0000000000000000     
   6.2500000000000000E-002  0.62500000000000000        0.0000000000000000     
   9.3750000000000000E-002  0.62500000000000000        0.0000000000000000     
  0.12500000000000000       0.62500000000000000        0.0000000000000000     
   0.0000000000000000       0.65625000000000000        0.0000000000000000     
   3.1250000000000000E-002  0.65625000000000000        0.0000000000000000     
   6.2500000000000000E-002  0.65625000000000000        0.0000000000000000     
   9.3750000000000000E-002  0.65625000000000000        0.0000000000000000     
  0.12500000000000000       0.65625000000000000        0.0000000000000000     
   0.0000000000000000       0.68750000000000000        0.0000000000000000     
   3.1250000000000000E-002  0.68750000000000000        0.0000000000000000     
   6.2500000000000000E-002  0.68750000000000000        0.0000000000000000     
   9.3750000000000000E-002  0.68750000000000000        0.0000000000000000     
  0.12500000000000000       0.68750000000000000        0.0000000000000000     
   0.0000000000000000       0.71875000000000000        0.0000000000000000     
   3.1250000000000000E-002  0.71875000000000000        0.0000000000000000     
   6.2500000000000000E-002  0.71875000000000000        0.0000000000000000     
   9.3750000000000000E-002  0.71875000000000000        0.0000000000000000     
  0.12500000000000000       0.71875000000000000        0.0000000000000000     
   0.0000000000000000       0.75000000000000000        0.0000000000000000     
   3.1250000000000000E-002  0.75000000000000000        0.0000000000000000     
   6.2500000000000000E-002  0.75000000000000000        0.0000000000000000     
   9.3750000000000000E-002  0.75000000000000000        0.0000000000000000     
  0.12500000000000000       0.75000000000000000        0.0000000000000000     
  0.12500000000000000       0.62500000000000000        0.0000000000000000     
  0.15625000000000000       0.62500000000000000        0.0000000000000000     
  0.18750000000000000       0.62500000000000000        0.0000000000000000     
  0.21875000000000000       0.62500000000000000        0.0000000000000000     
  0.25000000000000000       0.62500000000000000        0.0000000000000000     
  0.12500000000000000       0.65625000000000000        0.0000000000000000     
  0.15625000000000000       0.65625000000000000        0.0000000000000000     
  0.18750000000000000       0.65625000000000000        0.0000000000000000     
  0.21875000000000000       0.65625000000000000        0.0000000000000000     
  0.25000000000000000       0.65625000000000000        0.0000000000000000     
  0.12500000000000000       0.68750000000000000        0.0000000000000000     
  0.15625000000000000       0.68750000000000000        0.0000000000000000     
  0.18750000000000000       0.68750000000000000        0.0000000000000000     
  0.21875000000000000       0.68750000000000000        0.0000000000000000     
  0.25000000000000000       0.68750000000000000        0.0000000000000000     
  0.12500000000000000       0.71875000000000000        0.0000000000000000     
  0.15625000000000000       0.71875000000000000        0.0000000000000000     
  0.18750000000000000       0.71875000000000000        0.0000000000000000     
  0.21875000000000000       0.71875000000000000        0.0000000000000000     
  0.25000000000000000       0.71875000000000000        0.0000000000000000     
  0.12500000000000000       0.75000000000000000        0.0000000000000000     
  0.15625000000000000       0.75000000000000000        0.0000000000000000     
  0.18750000000000000       0.75000000000000000        0.0000000000000000     
  0.21875000000000000       0.75000000000000000        0.0000000000000000     
  0.25000000000000000       0.75000000000000000        0.0000000000000000     
  0.25000000000000000       0.62500000000000000        0.0000000000000000     
  0.28125000000000000       0.62500000000000000        0.0000000000000000     
  0.31250000000000000       0.62500000000000000        0.0000000000000000     
  0.34375000000000000       0.62500000000000000        0.0000000000000000     
  0.37500000000000000       0.62500000000000000        0.0000000000000000     
  0.25000000000000000       0.65625000000000000        0.0000000000000000     
  0.28125000000000000       0.65625000000000000        0.0000000000000000     
  0.31250000000000000       0.65625000000000000        0.0000000000000000     
  0.34375000000000000       0.65625000000000000        0.0000000000000000     
  0.37500000000000000       0.65625000000000000        0.0000000000000000     
  0.25000000000000000       0.68750000000000000        0.0000000000000000     
  0.28125000000000000       0.68750000000000000        0.0000000000000000     
  0.31250000000000000       0.68750000000000000        0.0000000000000000     
  0.34375000000000000       0.68750000000000000        0.0000000000000000     
  0.37500000000000000       0.68750000000000000        0.0000000000000000     
  0.25000000000000000       0.71875000000000000        0.0000000000000000     
  0.28125000000000000       0.71875000000000000        0.0000000000000000     
  0.31250000000000000       0.71875000000000000        0.0000000000000000     
  0.34375000000000000       0.71875000000000000        0.0000000000000000     
  0.37500000000000000       0.71875000000000000        0.0000000000000000     
  0.25000000000000000       0.75000000000000000        0.0000000000000000     
  0.28125000000000000       0.75000000000000000        0.0000000000000000     
  0.31250000000000000       0.75000000000000000        0.0000000000000000     
  0.34375000000000000       0.75000000000000000        0.0000000000000000     
  0.37500000000000000       0.75000000000000000        0.0000000000000000     
  0.37500000000000000       0.62500000000000000        0.0000000000000000     
  0.40625000000000000       0.62500000000000000        0.0000000000000000     
  0.43750000000000000       0.62500000000000000        0.0000000000000000     
  0.46875000000000000       0.62500000000000000        0.0000000000000000     
  0.50000000000000000       0.62500000000000000        0.0000000000000000     
  0.37500000000000000       0.65625000000000000        0.0000000000000000     
  0.40625000000000000       0.65625000000000000        0.0000000000000000     
  0.43750000000000000       0.65625000000000000        0.0000000000000000     
  0.46875000000000000       0.65625000000000000        0.0000000000000000     
  0.50000000000000000       0.65625000000000000        0.0000000000000000     
  0.37500000000000000       0.68750000000000000        0.0000000000000000     
  0.40625000000000000       0.68750000000000000        0.0000000000000000     
  0.43750000000000000       0.68750000000000000        0.0000000000000000     
  0.46875000000000000       0.68750000000000000        0.0000000000000000     
  0.50000000000000000       0.68750000000000000        0.0000000000000000     
  0.37500000000000000       0.71875000000000000        0.0000000000000000     
  0.40625000000000000       0.71875000000000000        0.0000000000000000     
  0.43750000000000000       0.71875000000000000        0.0000000000000000     
  0.46875000000000000       0.71875000000000000        0.0000000000000000     
  0.50000000000000000       0.71875000000000000        0.0000000000000000     
  0.37500000000000000       0.75000000000000000        0.0000000000000000     
  0.40625000000000000       0.75000000000000000        0.0000000000000000     
  0.43750000000000000       0.75000000000000000        0.0000000000000000     
  0.46875000000000000       0.75000000000000000        0.0000000000000000     
  0.50000000000000000       0.75000000000000000        0.0000000000000000     
  0.50000000000000000       0.62500000000000000        0.0000000000000000     
  0.53125000000000000       0.62500000000000000        0.0000000000000000     
  0.56250000000000000       0.62500000000000000        0.0000000000000000     
  0.59375000000000000       0.62500000000000000        0.0000000000000000     
  0.62500000000000000       0.62500000000000000        0.0000000000000000     
  0.50000000000000000       0.65625000000000000        0.0000000000000000     
  0.53125000000000000       0.65625000000000000        0.0000000000000000     
  0.56250000000000000       0.65625000000000000        0.0000000000000000     
  0.59375000000000000       0.65625000000000000        0.0000000000000000     
  0.62500000000000000       0.65625000000000000        0.0000000000000000     
  0.50000000000000000       0.68750000000000000        0.0000000000000000     
  0.53125000000000000       0.68750000000000000        0.0000000000000000     
  0.56250000000000000       0.68750000000000000        0.0000000000000000     
  0.59375000000000000       0.68750000000000000        0.0000000000000000     
  0.62500000000000000       0.68750000000000000        0.0000000000000000     
  0.50000000000000000       0.71875000000000000        0.0000000000000000     
  0.53125000000000000       0.71875000000000000        0.0000000000000000     
  0.56250000000000000       0.71875000000000000        0.0000000000000000     
  0.59375000000000000       0.71875000000000000        0.0000000000000000     
  0.62500000000000000       0.71875000000000000        0.0000000000000000     
  0.50000000000000000       0.75000000000000000        0.0000000000000000     
  0.53125000000000000       0.75000000000000000        0.0000000000000000     
  0.56250000000000000       0.75000000000000000        0.0000000000000000     
  0.59375000000000000       0.75000000000000000        0.0000000000000000     
  0.62500000000000000       0.75000000000000000        0.0000000000000000     
  0.62500000000000000       0.62500000000000000        0.0000000000000000     
  0.65625000000000000       0.62500000000000000        0.0000000000000000     
  0.68750000000000000       0.62500000000000000        0.0000000000000000     
  0.71875000000000000       0.62500000000000000        0.0000000000000000     
  0.75000000000000000       0.62500000000000000        0.0000000000000000     
  0.62500000000000000       0.65625000000000000        0.0000000000000000     
  0.65625000000000000       0.65625000000000000        0.0000000000000000     
  0.68750000000000000       0.65625000000000000        0.0000000000000000     
  0.71875000000000000       0.65625000000000000        0.0000000000000000     
  0.75000000000000000       0.65625000000000000        0.0000000000000000     
  0.62500000000000000       0.68750000000000000        0.0000000000000000     
  0.65625000000000000       0.68750000000000000        0.0000000000000000     
  0.68750000000000000       0.68750000000000000        0.0000000000000000     
  0.71875000000000000       0.68750000000000000        0.0000000000000000     
  0.75000000000000000       0.68750000000000000        0.0000000000000000     
  0.62500000000000000       0.71875000000000000        0.0000000000000000     
  0.65625000000000000       0.71875000000000000        0.0000000000000000     
  0.68750000000000000       0.71875000000000000        0.0000000000000000     
  0.71875000000000000       0.71875000000000000        0.0000000000000000     
  0.75000000000000000       0.71875000000000000        0.0000000000000000     
  0.62500000000000000       0.75000000000000000        0.0000000000000000     
  0.65625000000000000       0.75000000000000000        0.0000000000000000     
  0.68750000000000000       0.75000000000000000        0.0000000000000000     
  0.71875000000000000       0.75000000000000000        0.0000000000000000     
  0.75000000000000000       0.75000000000000000        0.0000000000000000     
  0.75000000000000000       0.62500000000000000        0.0000000000000000     
  0.78125000000000000       0.62500000000000000        0.0000000000000000     
  0.81250000000000000       0.62500000000000000        0.0000000000000000     
  0.84375000000000000       0.62500000000000000        0.0000000000000000     
  0.87500000000000000       0.62500000000000000        0.0000000000000000     
  0.75000000000000000       0.65625000000000000        0.0000000000000000     
  0.78125000000000000       0.65625000000000000        0.0000000000000000     
  0.81250000000000000       0.65625000000000000        0.0000000000000000     
  0.84375000000000000       0.65625000000000000        0.0000000000000000     
  0.87500000000000000       0.65625000000000000        0.0000000000000000     
  0.75000000000000000       0.68750000000000000        0.0000000000000000     
  0.78125000000000000       0.68750000000000000        0.0000000000000000     
  0.81250000000000000       0.68750000000000000        0.0000000000000000     
  0.84375000000000000       0.68750000000000000        0.0000000000000000     
  0.87500000000000000       0.68750000000000000        0.0000000000000000     
  0.75000000000000000       0.71875000000000000        0.0000000000000000     
  0.78125000000000000       0.71875000000000000        0.0000000000000000     
  0.81250000000000000       0.71875000000000000        0.0000000000000000     
  0.84375000000000000       0.71875000000000000        0.0000000000000000     
  0.87500000000000000       0.71875000000000000        0.0000000000000000     
  0.75000000000000000       0.75000000000000000        0.0000000000000000     
  0.78125000000000000       0.75000000000000000        0.0000000000000000     
  0.81250000000000000       0.75000000000000000        0.0000000000000000     
  0.84375000000000000       0.75000000000000000        0.0000000000000000     
  0.87500000000000000       0.75000000000000000        0.0000000000000000     
  0.87500000000000000       0.62500000000000000        0.0000000000000000     
  0.90625000000000000       0.62500000000000000        0.0000000000000000     
  0.93750000000000000       0.62500000000000000        0.0000000000000000     
  0.96875000000000000       0.62500000000000000        0.0000000000000000     
   1.0000000000000000       0.62500000000000000        0.0000000000000000     
  0.87500000000000000       0.65625000000000000        0.0000000000000000     
  0.90625000000000000       0.65625000000000000        0.0000000000000000     
  0.93750000000000000       0.65625000000000000        0.0000000000000000     
  0.96875000000000000       0.65625000000000000        0.0000000000000000     
   1.0000000000000000       0.65625000000000000        0.0000000000000000     
  0.87500000000000000       0.68750000000000000        0.0000000000000000     
  0.90625000000000000       0.68750000000000000        0.0000000000000000     
  0.93750000000000000       0.68750000000000000        0.0000000000000000     
  0.96875000000000000       0.68750000000000000        0.0000000000000000     
   1.0000000000000000       0.68750000000000000        0.0000000000000000     
  0.87500000000000000       0.71875000000000000        0.0000000000000000     
  0.90625000000000000       0.71875000000000000        0.0000000000000000     
  0.93750000000000000       0.71875000000000000        0.0000000000000000     
  0.96875000000000000       0.71875000000000000        0.0000000000000000     
   1.0000000000000000       0.71875000000000000        0.0000000000000000     
  0.87500000000000000       0.75000000000000000        0.0000000000000000     
  0.90625000000000000       0.75000000000000000        0.0000000000000000     
  0.93750000000000000       0.75000000000000000        0.0000000000000000     
  0.96875000000000000       0.75000000000000000        0.0000000000000000     
   1.0000000000000000       0.75000000000000000        0.0000000000000000     
   0.0000000000000000       0.75000000000000000        0.0000000000000000     
   3.1250000000000000E-002  0.75000000000000000        0.0000000000000000     
   6.2500000000000000E-002  0.75000000000000000        0.0000000000000000     
   9.3750000000000000E-002  0.75000000000000000        0.0000000000000000     
  0.12500000000000000       0.75000000000000000        0.0000000000000000     
   0.0000000000000000       0.78125000000000000        0.0000000000000000     
   3.1250000000000000E-002  0.78125000000000000        0.0000000000000000     
   6.2500000000000000E-002  0.78125000000000000        0.0000000000000000     
   9.3750000000000000E-002  0.78125000000000000        0.0000000000000000     
  0.12500000000000000       0.78125000000000000        0.0000000000000000     
   0.0000000000000000       0.81250000000000000        0.0000000000000000     
   3.1250000000000000E-002  0.81250000000000000        0.0000000000000000     
   6.2500000000000000E-002  0.81250000000000000        0.0000000000000000     
   9.3750000000000000E-002  0.81250000000000000        0.0000000000000000     
  0.12500000000000000       0.81250000000000000        0.0000000000000000     
   0.0000000000000000       0.84375000000000000        0.0000000000000000     
   3.1250000000000000E-002  0.84375000000000000        0.0000000000000000     
   6.2500000000000000E-002  0.84375000000000000        0.0000000000000000     
   9.3750000000000000E-002  0.84375000000000000        0.0000000000000000     
  0.12500000000000000       0.84375000000000000        0.0000000000000000     
   0.0000000000000000       0.87500000000000000        0.0000000000000000     
   3.1250000000000000E-002  0.87500000000000000        0.0000000000000000     
   6.2500000000000000E-002  0.87500000000000000        0.0000000000000000     
   9.3750000000000000E-002  0.87500000000000000        0.0000000000000000     
  0.12500000000000000       0.87500000000000000        0.0000000000000000     
  0.12500000000000000       0.75000000000000000        0.0000000000000000     
  0.15625000000000000       0.75000000000000000        0.0000000000000000     
  0.18750000000000000       0.75000000000000000        0.0000000000000000     
  0.21875000000000000       0.75000000000000000        0.0000000000000000     
  0.25000000000000000       0.75000000000000000        0.0000000000000000     
  0.12500000000000000       0.78125000000000000        0.0000000000000000     
  0.15625000000000000       0.78125000000000000        0.0000000000000000     
  0.18750000000000000       0.78125000000000000        0.0000000000000000     
  0.21875000000000000       0.78125000000000000        0.0000000000000000     
  0.25000000000000000       0.78125000000000000        0.0000000000000000     
  0.12500000000000000       0.81250000000000000        0.0000000000000000     
  0.15625000000000000       0.81250000000000000        0.0000000000000000     
  0.18750000000000000       0.81250000000000000        0.0000000000000000     
  0.21875000000000000       0.81250000000000000        0.0000000000000000     
  0.25000000000000000       0.81250000000000000        0.0000000000000000     
  0.12500000000000000       0.84375000000000000        0.0000000000000000     
  0.15625000000000000       0.84375000000000000        0.0000000000000000     
  0.18750000000000000       0.84375000000000000        0.0000000000000000     
  0.21875000000000000       0.84375000000000000        0.0000000000000000     
  0.25000000000000000       0.84375000000000000        0.0000000000000000     
  0.12500000000000000       0.87500000000000000        0.0000000000000000     
  0.15625000000000000       0.87500000000000000        0.0000000000000000     
  0.18750000000000000       0.87500000000000000        0.0000000000000000     
  0.21875000000000000       0.87500000000000000        0.0000000000000000     
  0.25000000000000000       0.87500000000000000        0.0000000000000000     
  0.25000000000000000       0.75000000000000000        0.0000000000000000     
  0.28125000000000000       0.75000000000000000        0.0000000000000000     
  0.31250000000000000       0.75000000000000000        0.0000000000000000     
  0.34375000000000000       0.75000000000000000        0.0000000000000000     
  0.37500000000000000       0.75000000000000000        0.0000000000000000     
  0.25000000000000000       0.78125000000000000        0.0000000000000000     
  0.28125000000000000       0.78125000000000000        0.0000000000000000     
  0.31250000000000000       0.78125000000000000        0.0000000000000000     
  0.34375000000000000       0.78125000000000000        0.0000000000000000     
  0.37500000000000000       0.78125000000000000        0.0000000000000000     
  0.25000000000000000       0.81250000000000000        0.0000000000000000     
  0.28125000000000000       0.81250000000000000        0.0000000000000000     
  0.31250000000000000       0.81250000000000000        0.0000000000000000     
  0.34375000000000000       0.81250000000000000        0.0000000000000000     
  0.37500000000000000       0.81250000000000000        0.0000000000000000     
  0.25000000000000000       0.84375000000000000        0.0000000000000000     
  0.28125000000000000       0.84375000000000000        0.0000000000000000     
  0.31250000000000000       0.84375000000000000        0.0000000000000000     
  0.34375000000000000       0.84375000000000000        0.0000000000000000     
  0.37500000000000000       0.84375000000000000        0.0000000000000000     
  0.25000000000000000       0.87500000000000000        0.0000000000000000     
  0.28125000000000000       0.87500000000000000        0.0000000000000000     
  0.31250000000000000       0.87500000000000000        0.0000000000000000     
  0.34375000000000000       0.87500000000000000        0.0000000000000000     
  0.37500000000000000       0.87500000000000000        0.0000000000000000     
  0.37500000000000000       0.75000000000000000        0.0000000000000000     
  0.40625000000000000       0.75000000000000000        0.0000000000000000     
  0.43750000000000000       0.75000000000000000        0.0000000000000000     
  0.46875000000000000       0.75000000000000000        0.0000000000000000     
  0.50000000000000000       0.75000000000000000        0.0000000000000000     
  0.37500000000000000       0.78125000000000000        0.0000000000000000     
  0.40625000000000000       0.78125000000000000        0.0000000000000000     
  0.43750000000000000       0.78125000000000000        0.0000000000000000     
  0.46875000000000000       0.78125000000000000        0.0000000000000000     
  0.50000000000000000       0.78125000000000000        0.0000000000000000     
  0.37500000000000000       0.81250000000000000        0.0000000000000000     
  0.40625000000000000       0.81250000000000000        0.0000000000000000     
  0.43750000000000000       0.81250000000000000        0.0000000000000000     
  0.46875000000000000       0.81250000000000000        0.0000000000000000     
  0.50000000000000000       0.81250000000000000        0.0000000000000000     
  0.37500000000000000       0.84375000000000000        0.0000000000000000     
  0.40625000000000000       0.84375000000000000        0.0000000000000000     
  0.43750000000000000       0.84375000000000000        0.0000000000000000     
  0.46875000000000000       0.84375000000000000        0.0000000000000000     
  0.50000000000000000       0.84375000000000000        0.0000000000000000     
  0.37500000000000000       0.87500000000000000        0.0000000000000000     
  0.40625000000000000       0.87500000000000000        0.0000000000000000     
  0.43750000000000000       0.87500000000000000        0.0000000000000000     
  0.46875000000000000       0.87500000000000000        0.0000000000000000     
  0.50000000000000000       0.87500000000000000        0.0000000000000000     
  0.50000000000000000       0.75000000000000000        0.0000000000000000     
  0.53125000000000000       0.75000000000000000        0.0000000000000000     
  0.56250000000000000       0.75000000000000000        0.0000000000000000     
  0.59375000000000000       0.75000000000000000        0.0000000000000000     
  0.62500000000000000       0.75000000000000000        0.0000000000000000     
  0.50000000000000000       0.78125000000000000        0.0000000000000000     
  0.53125000000000000       0.78125000000000000        0.0000000000000000     
  0.56250000000000000       0.78125000000000000        0.0000000000000000     
  0.59375000000000000       0.78125000000000000        0.0000000000000000     
  0.62500000000000000       0.78125000000000000        0.0000000000000000     
  0.50000000000000000       0.81250000000000000        0.0000000000000000     
  0.53125000000000000       0.81250000000000000        0.0000000000000000     
  0.56250000000000000       0.81250000000000000        0.0000000000000000     
  0.59375000000000000       0.81250000000000000        0.0000000000000000     
  0.62500000000000000       0.81250000000000000        0.0000000000000000     
  0.50000000000000000       0.84375000000000000        0.0000000000000000     
  0.53125000000000000       0.84375000000000000        0.0000000000000000     
  0.56250000000000000       0.84375000000000000        0.0000000000000000     
  0.59375000000000000       0.84375000000000000        0.0000000000000000     
  0.62500000000000000       0.84375000000000000        0.0000000000000000     
  0.50000000000000000       0.87500000000000000        0.0000000000000000     
  0.53125000000000000       0.87500000000000000        0.0000000000000000     
  0.56250000000000000       0.87500000000000000        0.0000000000000000     
  0.59375000000000000       0.87500000000000000        0.0000000000000000     
  0.62500000000000000       0.87500000000000000        0.0000000000000000     
  0.62500000000000000       0.75000000000000000        0.0000000000000000     
  0.65625000000000000       0.75000000000000000        0.0000000000000000     
  0.68750000000000000       0.75000000000000000        0.0000000000000000     
  0.71875000000000000       0.75000000000000000        0.0000000000000000     
  0.75000000000000000       0.75000000000000000        0.0000000000000000     
  0.62500000000000000       0.78125000000000000        0.0000000000000000     
  0.65625000000000000       0.78125000000000000        0.0000000000000000     
  0.68750000000000000       0.78125000000000000        0.0000000000000000     
  0.71875000000000000       0.78125000000000000        0.0000000000000000     
  0.75000000000000000       0.78125000000000000        0.0000000000000000     
  0.62500000000000000       0.81250000000000000        0.0000000000000000     
  0.65625000000000000       0.81250000000000000        0.0000000000000000     
  0.68750000000000000       0.81250000000000000        0.0000000000000000     
  0.71875000000000000       0.81250000000000000        0.0000000000000000     
  0.75000000000000000       0.81250000000000000        0.0000000000000000     
  0.62500000000000000       0.84375000000000000        0.0000000000000000     
  0.65625000000000000       0.84375000000000000        0.0000000000000000     
  0.68750000000000000       0.84375000000000000        0.0000000000000000     
  0.71875000000000000       0.84375000000000000        0.0000000000000000     
  0.75000000000000000       0.84375000000000000        0.0000000000000000     
  0.62500000000000000       0.87500000000000000        0.0000000000000000     
  0.65625000000000000       0.87500000000000000        0.0000000000000000     
  0.68750000000000000       0.87500000000000000        0.0000000000000000     
  0.71875000000000000       0.87500000000000000        0.0000000000000000     
  0.75000000000000000       0.87500000000000000        0.0000000000000000     
  0.75000000000000000       0.75000000000000000        0.0000000000000000     
  0.78125000000000000       0.75000000000000000        0.0000000000000000     
  0.81250000000000000       0.75000000000000000        0.0000000000000000     
  0.84375000000000000       0.75000000000000000        0.0000000000000000     
  0.87500000000000000       0.75000000000000000        0.0000000000000000     
  0.75000000000000000       0.78125000000000000        0.0000000000000000     
  0.78125000000000000       0.78125000000000000        0.0000000000000000     
  0.81250000000000000       0.78125000000000000        0.0000000000000000     
  0.84375000000000000       0.78125000000000000        0.0000000000000000     
  0.87500000000000000       0.78125000000000000        0.0000000000000000     
  0.75000000000000000       0.81250000000000000        0.0000000000000000     
  0.78125000000000000       0.81250000000000000        0.0000000000000000     
  0.81250000000000000       0.81250000000000000        0.0000000000000000     
  0.84375000000000000       0.81250000000000000        0.0000000000000000     
  0.87500000000000000       0.81250000000000000        0.0000000000000000     
  0.75000000000000000       0.84375000000000000        0.0000000000000000     
  0.78125000000000000       0.84375000000000000        0.0000000000000000     
  0.81250000000000000       0.84375000000000000        0.0000000000000000     
  0.84375000000000000       0.84375000000000000        0.0000000000000000     
  0.87500000000000000       0.84375000000000000        0.0000000000000000     
  0.75000000000000000       0.87500000000000000        0.0000000000000000     
  0.78125000000000000       0.87500000000000000        0.0000000000000000     
  0.81250000000000000       0.87500000000000000        0.0000000000000000     
  0.84375000000000000       0.87500000000000000        0.0000000000000000     
  0.87500000000000000       0.87500000000000000        0.0000000000000000     
  0.87500000000000000       0.75000000000000000        0.0000000000000000     
  0.90625000000000000       0.75000000000000000        0.0000000000000000     
  0.93750000000000000       0.75000000000000000        0.0000000000000000     
  0.96875000000000000       0.75000000000000000        0.0000000000000000     
   1.0000000000000000       0.75000000000000000        0.0000000000000000     
  0.87500000000000000       0.78125000000000000        0.0000000000000000     
  0.90625000000000000       0.78125000000000000        0.0000000000000000     
  0.93750000000000000       0.78125000000000000        0.0000000000000000     
  0.96875000000000000       0.78125000000000000        0.0000000000000000     
   1.0000000000000000       0.78125000000000000        0.0000000000000000     
  0.87500000000000000       0.81250000000000000        0.0000000000000000     
  0.90625000000000000       0.81250000000000000        0.0000000000000000     
  0.93750000000000000       0.81250000000000000        0.0000000000000000     
  0.96875000000000000       0.81250000000000000        0.0000000000000000     
   1.0000000000000000       0.81250000000000000        0.0000000000000000     
  0.87500000000000000       0.84375000000000000        0.0000000000000000     
  0.90625000000000000       0.84375000000000000        0.0000000000000000     
  0.93750000000000000       0.84375000000000000        0.0000000000000000     
  0.96875000000000000       0.84375000000000000        0.0000000000000000     
   1.0000000000000000       0.84375000000000000        0.0000000000000000     
  0.87500000000000000       0.87500000000000000        0.0000000000000000     
  0.90625000000000000       0.87500000000000000        0.0000000000000000     
  0.93750000000000000       0.87500000000000000        0.0000000000000000     
  0.96875000000000000       0.87500000000000000        0.0000000000000000     
   1.0000000000000000       0.87500000000000000        0.0000000000000000     
   0.0000000000000000       0.87500000000000000        0.0000000000000000     
   3.1250000000000000E-002  0.87500000000000000        0.0000000000000000     
   6.2500000000000000E-002  0.87500000000000000        0.0000000000000000     
   9.3750000000000000E-002  0.87500000000000000        0.0000000000000000     
  0.12500000000000000       0.87500000000000000        0.0000000000000000     
   0.0000000000000000       0.90625000000000000        0.0000000000000000     
   3.1250000000000000E-002  0.90625000000000000        0.0000000000000000     
   6.2500000000000000E-002  0.90625000000000000        0.0000000000000000     
   9.3750000000000000E-002  0.90625000000000000        0.0000000000000000     
  0.12500000000000000       0.90625000000000000        0.0000000000000000     
   0.0000000000000000       0.93750000000000000        0.0000000000000000     
   3.1250000000000000E-002  0.93750000000000000        0.0000000000000000     
   6.2500000000000000E-002  0.93750000000000000        0.0000000000000000     
   9.3750000000000000E-002  0.93750000000000000        0.0000000000000000     
  0.12500000000000000       0.93750000000000000        0.0000000000000000     
   0.0000000000000000       0.96875000000000000        0.0000000000000000     
   3.1250000000000000E-002  0.96875000000000000        0.0000000000000000     
   6.2500000000000000E-002  0.96875000000000000        0.0000000000000000     
   9.3750000000000000E-002  0.96875000000000000        0.0000000000000000     
  0.12500000000000000       0.96875000000000000        0.0000000000000000     
   0.0000000000000000        1.0000000000000000        0.0000000000000000     
   3.1250000000000000E-002   1.0000000000000000        0.0000000000000000     
   6.2500000000000000E-002   1.0000000000000000        0.0000000000000000     
   9.3750000000000000E-002   1.0000000000000000        0.0000000000000000     
  0.12500000000000000        1.0000000000000000        0.0000000000000000     
  0.12500000000000000       0.87500000000000000        0.0000000000000000     
  0.15625000000000000       0.87500000000000000        0.0000000000000000     
  0.18750000000000000       0.87500000000000000        0.0000000000000000     
  0.21875000000000000       0.87500000000000000        0.0000000000000000     
  0.25000000000000000       0.87500000000000000        0.0000000000000000     
  0.12500000000000000       0.90625000000000000        0.0000000000000000     
  0.15625000000000000       0.90625000000000000        0.0000000000000000     
  0.18750000000000000       0.90625000000000000        0.0000000000000000     
  0.21875000000000000       0.90625000000000000        0.0000000000000000     
  0.25000000000000000       0.90625000000000000        0.0000000000000000     
  0.12500000000000000       0.93750000000000000        0.0000000000000000     
  0.15625000000000000       0.93750000000000000        0.0000000000000000     
  0.18750000000000000       0.93750000000000000        0.0000000000000000     
  0.21875000000000000       0.93750000000000000        0.0000000000000000     
  0.25000000000000000       0.93750000000000000        0.0000000000000000     
  0.12500000000000000       0.96875000000000000        0.0000000000000000     
  0.15625000000000000       0.96875000000000000        0.0000000000000000     
  0.18750000000000000       0.96875000000000000        0.0000000000000000     
  0.21875000000000000       0.96875000000000000        0.0000000000000000     
  0.25000000000000000       0.96875000000000000        0.0000000000000000     
  0.12500000000000000        1.0000000000000000        0.0000000000000000     
  0.15625000000000000        1.0000000000000000        0.0000000000000000     
  0.18750000000000000        1.0000000000000000        0.0000000000000000     
  0.21875000000000000        1.0000000000000000        0.0000000000000000     
  0.25000000000000000        1.0000000000000000        0.0000000000000000     
  0.25000000000000000       0.87500000000000000        0.0000000000000000     
  0.28125000000000000       0.87500000000000000        0.0000000000000000     
  0.31250000000000000       0.87500000000000000        0.0000000000000000     
  0.34375000000000000       0.87500000000000000        0.0000000000000000     
  0.37500000000000000       0.87500000000000000        0.0000000000000000     
  0.25000000000000000       0.90625000000000000        0.0000000000000000     
  0.28125000000000000       0.90625000000000000        0.0000000000000000     
  0.31250000000000000       0.90625000000000000        0.0000000000000000     
  0.34375000000000000       0.90625000000000000        0.0000000000000000     
  0.37500000000000000       0.90625000000000000        0.0000000000000000     
  0.25000000000000000       0.93750000000000000        0.0000000000000000     
  0.28125000000000000       0.93750000000000000        0.0000000000000000     
  0.31250000000000000       0.93750000000000000        0.0000000000000000     
  0.34375000000000000       0.93750000000000000        0.0000000000000000     
  0.37500000000000000       0.93750000000000000        0.0000000000000000     
  0.25000000000000000       0.96875000000000000        0.0000000000000000     
  0.28125000000000000       0.96875000000000000        0.0000000000000000     
  0.31250000000000000       0.96875000000000000        0.0000000000000000     
  0.34375000000000000       0.96875000000000000        0.0000000000000000     
  0.37500000000000000       0.96875000000000000        0.0000000000000000     
  0.25000000000000000        1.0000000000000000        0.0000000000000000     
  0.28125000000000000        1.0000000000000000        0.0000000000000000     
  0.31250000000000000        1.0000000000000000        0.0000000000000000     
  0.34375000000000000        1.0000000000000000        0.0000000000000000     
  0.37500000000000000        1.0000000000000000        0.0000000000000000     
  0.37500000000000000       0.87500000000000000        0.0000000000000000     
  0.40625000000000000       0.87500000000000000        0.0000000000000000     
  0.43750000000000000       0.87500000000000000        0.0000000000000000     
  0.46875000000000000       0.87500000000000000        0.0000000000000000     
  0.50000000000000000       0.87500000000000000        0.0000000000000000     
  0.37500000000000000       0.90625000000000000        0.0000000000000000     
  0.40625000000000000       0.90625000000000000        0.0000000000000000     
  0.43750000000000000       0.90625000000000000        0.0000000000000000     
  0.46875000000000000       0.90625000000000000        0.0000000000000000     
  0.50000000000000000       0.90625000000000000        0.0000000000000000     
  0.37500000000000000       0.93750000000000000        0.0000000000000000     
  0.40625000000000000       0.93750000000000000        0.0000000000000000     
  0.43750000000000000       0.93750000000000000        0.0000000000000000     
  0.46875000000000000       0.93750000000000000        0.0000000000000000     
  0.50000000000000000       0.93750000000000000        0.0000000000000000     
  0.37500000000000000       0.96875000000000000        0.0000000000000000     
  0.40625000000000000       0.96875000000000000        0.0000000000000000     
  0.43750000000000000       0.96875000000000000        0.0000000000000000     
  0.46875000000000000       0.96875000000000000        0.0000000000000000     
  0.50000000000000000       0.96875000000000000        0.0000000000000000     
  0.37500000000000000        1.0000000000000000        0.0000000000000000     
  0.40625000000000000        1.0000000000000000        0.0000000000000000     
  0.43750000000000000        1.0000000000000000        0.0000000000000000     
  0.46875000000000000        1.0000000000000000        0.0000000000000000     
  0.50000000000000000        1.0000000000000000        0.0000000000000000     
  0.50000000000000000       0.87500000000000000        0.0000000000000000     
  0.53125000000000000       0.87500000000000000        0.0000000000000000     
  0.56250000000000000       0.87500000000000000        0.0000000000000000     
  0.59375000000000000       0.87500000000000000        0.0000000000000000     
  0.62500000000000000       0.87500000000000000        0.0000000000000000     
  0.50000000000000000       0.90625000000000000        0.0000000000000000     
  0.53125000000000000       0.90625000000000000        0.0000000000000000     
  0.56250000000000000       0.90625000000000000        0.0000000000000000     
  0.59375000000000000       0.90625000000000000        0.0000000000000000     
  0.62500000000000000       0.90625000000000000        0.0000000000000000     
  0.50000000000000000       0.93750000000000000        0.0000000000000000     
  0.53125000000000000       0.93750000000000000        0.0000000000000000     
  0.56250000000000000       0.93750000000000000        0.0000000000000000     
  0.59375000000000000       0.93750000000000000        0.0000000000000000     
  0.62500000000000000       0.93750000000000000        0.0000000000000000     
  0.50000000000000000       0.96875000000000000        0.0000000000000000     
  0.53125000000000000       0.96875000000000000        0.0000000000000000     
  0.56250000000000000       0.96875000000000000        0.0000000000000000     
  0.59375000000000000       0.96875000000000000        0.0000000000000000     
  0.62500000000000000       0.96875000000000000        0.0000000000000000     
  0.50000000000000000        1.0000000000000000        0.0000000000000000     
  0.53125000000000000        1.0000000000000000        0.0000000000000000     
  0.56250000000000000        1.0000000000000000        0.0000000000000000     
  0.59375000000000000        1.0000000000000000        0.0000000000000000     
  0.62500000000000000        1.0000000000000000        0.0000000000000000     
  0.62500000000000000       0.87500000000000000        0.0000000000000000     
  0.65625000000000000       0.87500000000000000        0.0000000000000000     
  0.68750000000000000       0.87500000000000000        0.0000000000000000     
  0.71875000000000000       0.87500000000000000        0.0000000000000000     
  0.75000000000000000       0.87500000000000000        0.0000000000000000     
  0.62500000000000000       0.90625000000000000        0.0000000000000000     
  0.65625000000000000       0.90625000000000000        0.0000000000000000     
  0.68750000000000000       0.90625000000000000        0.0000000000000000     
  0.71875000000000000       0.90625000000000000        0.0000000000000000     
  0.75000000000000000       0.90625000000000000        0.0000000000000000     
  0.62500000000000000       0.93750000000000000        0.0000000000000000     
  0.65625000000000000       0.93750000000000000        0.0000000000000000     
  0.68750000000000000       0.93750000000000000        0.0000000000000000     
  0.71875000000000000       0.93750000000000000        0.0000000000000000     
  0.75000000000000000       0.93750000000000000        0.0000000000000000     
  0.62500000000000000       0.96875000000000000        0.0000000000000000     
  0.65625000000000000       0.96875000000000000        0.0000000000000000     
  0.68750000000000000       0.96875000000000000        0.0000000000000000     
  0.71875000000000000       0.96875000000000000        0.0000000000000000     
  0.75000000000000000       0.96875000000000000        0.0000000000000000     
  0.62500000000000000        1.0000000000000000        0.0000000000000000     
  0.65625000000000000        1.0000000000000000        0.0000000000000000     
  0.68750000000000000        1.0000000000000000        0.0000000000000000     
  0.71875000000000000        1.0000000000000000        0.0000000000000000     
  0.75000000000000000        1.0000000000000000        0.0000000000000000     
  0.75000000000000000       0.87500000000000000        0.0000000000000000     
  0.78125000000000000       0.87500000000000000        0.0000000000000000     
  0.81250000000000000       0.87500000000000000        0.0000000000000000     
  0.84375000000000000       0.87500000000000000        0.0000000000000000     
  0.87500000000000000       0.87500000000000000        0.0000000000000000     
  0.75000000000000000       0.90625000000000000        0.0000000000000000     
  0.78125000000000000       0.90625000000000000        0.0000000000000000     
  0.81250000000000000       0.90625000000000000        0.0000000000000000     
  0.84375000000000000       0.90625000000000000        0.0000000000000000     
  0.87500000000000000       0.90625000000000000        0.0000000000000000     
  0.75000000000000000       0.93750000000000000        0.0000000000000000     
  0.78125000000000000       0.93750000000000000        0.0000000000000000     
  0.81250000000000000       0.93750000000000000        0.0000000000000000     
  0.84375000000000000       0.93750000000000000        0.0000000000000000     
  0.87500000000000000       0.93750000000000000        0.0000000000000000     
  0.75000000000000000       0.96875000000000000        0.0000000000000000     
  0.78125000000000000       0.96875000000000000        0.0000000000000000     
  0.81250000000000000       0.96875000000000000        0.0000000000000000     
  0.84375000000000000       0.96875000000000000        0.0000000000000000     
  0.87500000000000000       0.96875000000000000        0.0000000000000000     
  0.75000000000000000        1.0000000000000000        0.0000000000000000     
  0.78125000000000000        1.0000000000000000        0.0000000000000000     
  0.81250000000000000        1.0000000000000000        0.0000000000000000     
  0.84375000000000000        1.0000000000000000        0.0000000000000000     
  0.87500000000000000        1.0000000000000000        0.0000000000000000     
  0.87500000000000000       0.87500000000000000        0.0000000000000000     
  0.90625000000000000       0.87500000000000000        0.0000000000000000     
  0.93750000000000000       0.87500000000000000        0.0000000000000000     
  0.96875000000000000       0.87500000000000000        0.0000000000000000     
   1.0000000000000000       0.87500000000000000        0.0000000000000000     
  0.87500000000000000       0.90625000000000000        0.0000000000000000     
  0.90625000000000000       0.90625000000000000        0.0000000000000000     
  0.93750000000000000       0.90625000000000000        0.0000000000000000     
  0.96875000000000000       0.90625000000000000        0.0000000000000000     
   1.0000000000000000       0.90625000000000000        0.0000000000000000     
  0.87500000000000000       0.93750000000000000        0.0000000000000000     
  0.90625000000000000       0.93750000000000000        0.0000000000000000     
  0.93750000000000000       0.93750000000000000        0.0000000000000000     
  0.96875000000000000       0.93750000000000000        0.0000000000000000     
   1.0000000000000000       0.93750000000000000        0.0000000000000000     
  0.87500000000000000       0.96875000000000000        0.0000000000000000     
  0.90625000000000000       0.96875000000000000        0.0000000000000000     
  0.93750000000000000       0.96875000000000000        0.0000000000000000     
  0.96875000000000000       0.96875000000000000        0.0000000000000000     
   1.0000000000000000       0.96875000000000000        0.0000000000000000     
  0.87500000000000000        1.0000000000000000        0.0000000000000000     
  0.90625000000000000        1.0000000000000000        0.0000000000000000     
  0.93750000000000000        1.0000000000000000        0.0000000000000000     
  0.96875000000000000        1.0000000000000000        0.0000000000000000     
   1.0000000000000000        1.0000000000000000        0.0000000000000000     
 </DataArray>
 </Points>
 <Cells>
 <DataArray  type="Int32"  Name="connectivity"  format="ascii">
           0           1           6           5
           1           2           7           6
           2           3           8           7
           3           4           9           8
           5           6          11          10
           6           7          12          11
           7           8          13          12
           8           9          14          13
          10          11          16          15
          11          12          17          16
          12          13          18          17
          13          14          19          18
          15          16          21          20
          16          17          22          21
          17          18          23          22
          18          19          24          23
          25          26          31          30
          26          27          32          31
          27          28          33          32
          28          29          34          33
          30          31          36          35
          31          32          37          36
          32          33          38          37
          33          34          39          38
          35          36          41          40
          36          37          42          41
          37          38          43          42
          38          39          44          43
          40          41          46          45
          41          42          47          46
          42          43          48          47
          43          44          49          48
          50          51          56          55
          51          52          57          56
          52          53          58          57
          53          54          59          58
          55          56          61          60
          56          57          62          61
          57          58          63          62
          58          59          64          63
          60          61          66          65
          61          62          67          66
          62          63          68          67
          63          64          69          68
          65          66          71          70
          66          67          72          71
          67          68          73          72
          68          69          74          73
          75          76          81          80
          76          77          82          81
          77          78          83          82
          78          79          84          83
          80          81          86          85
          81          82          87          86
          82          83          88          87
          83          84          89          88
          85          86          91          90
          86          87          92          91
          87          88          93          92
          88          89          94          93
          90          91          96          95
          91          92          97          96
          92          93          98          97
          93          94          99          98
         100         101         106         105
         101         102         107         106
         102         103         108         107
         103         104         109         108
         105         106         111         110
         106         107         112         111
         107         108         113         112
         108         109         114         113
         110         111         116         115
         111         112         117         116
         112         113         118         117
         113         114         119         118
         115         116         121         120
         116         117         122         121
         117         118         123         122
         118         119         124         123
         125         126         131         130
         126         127         132         131
         127         128         133         132
         128         129         134         133
         130         131         136         135
         131         132         137         136
         132         133         138         137
         133         134         139         138
         135         136         141         140
         136         137         142         141
         137         138         143         142
         138         139         144         143
         140         141         146         145
         141         142         147         146
         142         143         148         147
         143         144         149         148
         150         151         156         155
         151         152         157         156
         152         153         158         157
         153         154         159         158
         155         156         161         160
         156         157         162         161
         157         158         163         162
         158         159         164         163
         160         161         166         165
         161         162         167         166
         162         163         168         167
         163         164         169         168
         165         166         171         170
         166         167         172         171
         167         168         173         172
         168         169         174         173
         175         176         181         180
         176         177         182         181
         177         178         183         182
         178         179         184         183
         180         181         186         185
         181         182         187         186
         182         183         188         187
         183         184         189         188
         185         186         191         190
         186         187         192         191
         187         188         193         192
         188         189         194         193
         190         191         196         195
         191         192         197         196
         192         193         198         197
         193         194         199         198
         200         201         206         205
         201         202         207         206
         202         203         208         207
         203         204         209         208
         205         206         211         210
         206         207         212         211
         207         208         213         212
         208         209         214         213
         210         211         216         215
         211         212         217         216
         212         213         218         217
         213         214         219         218
         215         216         221         220
         216         217         222         221
         217         218         223         222
         218         219         224         223
         225         226         231         230
         226         227         232         231
         227         228         233         232
         228         229         234         233
         230         231         236         235
         231         232         237         236
         232         233         238         237
         233         234         239         238
         235         236         241         240
         236         237         242         241
         237         238         243         242
         238         239         244         243
         240         241         246         245
         241         242         247         246
         242         243         248         247
         243         244         249         248
         250         251         256         255
         251         252         257         256
         252         253         258         257
         253         254         259         258
         255         256         261         260
         256         257         262         261
         257         258         263         262
         258         259         264         263
         260         261         266         265
         261         262         267         266
         262         263         268         267
         263         264         269         268
         265         266         271         270
         266         267         272         271
         267         268         273         272
         268         269         274         273
         275         276         281         280
         276         277         282         281
         277         278         283         282
         278         279         284         283
         280         281         286         285
         281         282         287         286
         282         283         288         287
         283         284         289         288
         285         286         291         290
         286         287         292         291
         287         288         293         292
         288         289         294         293
         290         291         296         295
         291         292         297         296
         292         293         298         297
         293         294         299         298
         300         301         306         305
         301         302         307         306
         302         303         308         307
         303         304         309         308
         305         306         311         310
         306         307         312         311
         307         308         313         312
         308         309         314         313
         310         311         316         315
         311         312         317         316
         312         313         318         317
         313         314         319         318
         315         316         321         320
         316         317         322         321
         317         318         323         322
         318         319         324         323
         325         326         331         330
         326         327         332         331
         327         328         333         332
         328         329         334         333
         330         331         336         335
         331         332         337         336
         332         333         338         337
         333         334         339         338
         335         336         341         340
         336         337         342         341
         337         338         343         342
         338         339         344         343
         340         341         346         345
         341         342         347         346
         342         343         348         347
         343         344         349         348
         350         351         356         355
         351         352         357         356
         352         353         358         357
         353         354         359         358
         355         356         361         360
         356         357         362         361
         357         358         363         362
         358         359         364         363
         360         361         366         365
         361         362         367         366
         362         363         368         367
         363         364         369         368
         365         366         371         370
         366         367         372         371
         367         368         373         372
         368         369         374         373
         375         376         381         380
         376         377         382         381
         377         378         383         382
         378         379         384         383
         380         381         386         385
         381         382         387         386
         382         383         388         387
         383         384         389         388
         385         386         391         390
         386         387         392         391
         387         388         393         392
         388         389         394         393
         390         391         396         395
         391         392         397         396
         392         393         398         397
         393         394         399         398
         400         401         406         405
         401         402         407         406
         402         403         408         407
         403         404         409         408
         405         406         411         410
         406         407         412         411
         407         408         413         412
         408         409         414         413
         410         411         416         415
         411         412         417         416
         412         413         418         417
         413         414         419         418
         415         416         421         420
         416         417         422         421
         417         418         423         422
         418         419         424         423
         425         426         431         430
         426         427         432         431
         427         428         433         432
         428         429         434         433
         430         431         436         435
         431         432         437         436
         432         433         438         437
         433         434         439         438
         435         436         441         440
         436         437         442         441
         437         438         443         442
         438         439         444         443
         440         441         446         445
         441         442         447         446
         442         443         448         447
         443         444         449         448
         450         451         456         455
         451         452         457         456
         452         453         458         457
         453         454         459         458
         455         456         461         460
         456         457         462         461
         457         458         463         462
         458         459         464         463
         460         461         466         465
         461         462         467         466
         462         463         468         467
         463         464         469         468
         465         466         471         470
         466         467         472         471
         467         468         473         472
         468         469         474         473
         475         476         481         480
         476         477         482         481
         477         478         483         482
         478         479         484         483
         480         481         486         485
         481         482         487         486
         482         483         488         487
         483         484         489         488
         485         486         491         490
         486         487         492         491
         487         488         493         492
         488         489         494         493
         490         491         496         495
         491         492         497         496
         492         493         498         497
         493         494         499         498
         500         501         506         505
         501         502         507         506
         502         503         508         507
         503         504         509         508
         505         506         511         510
         506         507         512         511
         507         508         513         512
         508         509         514         513
         510         511         516         515
         511         512         517         516
         512         513         518         517
         513         514         519         518
         515         516         521         520
         516         517         522         521
         517         518         523         522
         518         519         524         523
         525         526         531         530
         526         527         532         531
         527         528         533         532
         528         529         534         533
         530         531         536         535
         531         532         537         536
         532         533         538         537
         533         534         539         538
         535         536         541         540
         536         537         542         541
         537         538         543         542
         538         539         544         543
         540         541         546         545
         541         542         547         546
         542         543         548         547
         543         544         549         548
         550         551         556         555
         551         552         557         556
         552         553         558         557
         553         554         559         558
         555         556         561         560
         556         557         562         561
         557         558         563         562
         558         559         564         563
         560         561         566         565
         561         562         567         566
         562         563         568         567
         563         564         569         568
         565         566         571         570
         566         567         572         571
         567         568         573         572
         568         569         574         573
         575         576         581         580
         576         577         582         581
         577         578         583         582
         578         579         584         583
         580         581         586         585
         581         582         587         586
         582         583         588         587
         583         584         589         588
         585         586         591         590
         586         587         592         591
         587         588         593         592
         588         589         594         593
         590         591         596         595
         591         592         597         596
         592         593         598         597
         593         594         599         598
         600         601         606         605
         601         602         607         606
         602         603         608         607
         603         604         609         608
         605         606         611         610
         606         607         612         611
         607         608         613         612
         608         609         614         613
         610         611         616         615
         611         612         617         616
         612         613         618         617
         613         614         619         618
         615         616         621         620
         616         617         622         621
         617         618         623         622
         618         619         624         623
         625         626         631         630
         626         627         632         631
         627         628         633         632
         628         629         634         633
         630         631         636         635
         631         632         637         636
         632         633         638         637
         633         634         639         638
         635         636         641         640
         636         637         642         641
         637         638         643         642
         638         639         644         643
         640         641         646         645
         641         642         647         646
         642         643         648         647
         643         644         649         648
         650         651         656         655
         651         652         657         656
         652         653         658         657
         653         654         659         658
         655         656         661         660
         656         657         662         661
         657         658         663         662
         658         659         664         663
         660         661         666         665
         661         662         667         666
         662         663         668         667
         663         664         669         668
         665         666         671         670
         666         667         672         671
         667         668         673         672
         668         669         674         673
         675         676         681         680
         676         677         682         681
         677         678         683         682
         678         679         684         683
         680         681         686         685
         681         682         687         686
         682         683         688         687
         683         684         689         688
         685         686         691         690
         686         687         692         691
         687         688         693         692
         688         689         694         693
         690         691         696         695
         691         692         697         696
         692         693         698         697
         693         694         699         698
         700         701         706         705
         701         702         707         706
         702         703         708         707
         703         704         709         708
         705         706         711         710
         706         707         712         711
         707         708         713         712
         708         709         714         713
         710         711         716         715
         711         712         717         716
         712         713         718         717
         713         714         719         718
         715         716         721         720
         716         717         722         721
         717         718         723         722
         718         719         724         723
         725         726         731         730
         726         727         732         731
         727         728         733         732
         728         729         734         733
         730         731         736         735
         731         732         737         736
         732         733         738         737
         733         734         739         738
         735         736         741         740
         736         737         742         741
         737         738         743         742
         738         739         744         743
         740         741         746         745
         741         742         747         746
         742         743         748         747
         743         744         749         748
         750         751         756         755
         751         752         757         756
         752         753         758         757
         753         754         759         758
         755         756         761         760
         756         757         762         761
         757         758         763         762
         758         759         764         763
         760         761         766         765
         761         762         767         766
         762         763         768         767
         763         764         769         768
         765         766         771         770
         766         767         772         771
         767         768         773         772
         768         769         774         773
         775         776         781         780
         776         777         782         781
         777         778         783         782
         778         779         784         783
         780         781         786         785
         781         782         787         786
         782         783         788         787
         783         784         789         788
         785         786         791         790
         786         787         792         791
         787         788         793         792
         788         789         794         793
         790         791         796         795
         791         792         797         796
         792         793         798         797
         793         794         799         798
         800         801         806         805
         801         802         807         806
         802         803         808         807
         803         804         809         808
         805         806         811         810
         806         807         812         811
         807         808         813         812
         808         809         814         813
         810         811         816         815
         811         812         817         816
         812         813         818         817
         813         814         819         818
         815         816         821         820
         816         817         822         821
         817         818         823         822
         818         819         824         823
         825         826         831         830
         826         827         832         831
         827         828         833         832
         828         829         834         833
         830         831         836         835
         831         832         837         836
         832         833         838         837
         833         834         839         838
         835         836         841         840
         836         837         842         841
         837         838         843         842
         838         839         844         843
         840         841         846         845
         841         842         847         846
         842         843         848         847
         843         844         849         848
         850         851         856         855
         851         852         857         856
         852         853         858         857
         853         854         859         858
         855         856         861         860
         856         857         862         861
         857         858         863         862
         858         859         864         863
         860         861         866         865
         861         862         867         866
         862         863         868         867
         863         864         869         868
         865         866         871         870
         866         867         872         871
         867         868         873         872
         868         869         874         873
         875         876         881         880
         876         877         882         881
         877         878         883         882
         878         879         884         883
         880         881         886         885
         881         882         887         886
         882         883         888         887
         883         884         889         888
         885         886         891         890
         886         887         892         891
         887         888         893         892
         888         889         894         893
         890         891         896         895
         891         892         897         896
         892         893         898         897
         893         894         899         898
         900         901         906         905
         901         902         907         906
         902         903         908         907
         903         904         909         908
         905         906         911         910
         906         907         912         911
         907         908         913         912
         908         909         914         913
         910         911         916         915
         911         912         917         916
         912         913         918         917
         913         914         919         918
         915         916         921         920
         916         917         922         921
         917         918         923         922
         918         919         924         923
         925         926         931         930
         926         927         932         931
         927         928         933         932
         928         929         934         933
         930         931         936         935
         931         932         937         936
         932         933         938         937
         933         934         939         938
         935         936         941         940
         936         937         942         941
         937         938         943         942
         938         939         944         943
         940         941         946         945
         941         942         947         946
         942         943         948         947
         943         944         949         948
         950         951         956         955
         951         952         957         956
         952         953         958         957
         953         954         959         958
         955         956         961         960
         956         957         962         961
         957         958         963         962
         958         959         964         963
         960         961         966         965
         961         962         967         966
         962         963         968         967
         963         964         969         968
         965         966         971         970
         966         967         972         971
         967         968         973         972
         968         969         974         973
         975         976         981         980
         976         977         982         981
         977         978         983         982
         978         979         984         983
         980         981         986         985
         981         982         987         986
         982         983         988         987
         983         984         989         988
         985         986         991         990
         986         987         992         991
         987         988         993         992
         988         989         994         993
         990         991         996         995
         991         992         997         996
         992         993         998         997
         993         994         999         998
        1000        1001        1006        1005
        1001        1002        1007        1006
        1002        1003        1008        1007
        1003        1004        1009        1008
        1005        1006        1011        1010
        1006        1007        1012        1011
        1007        1008        1013        1012
        1008        1009        1014        1013
        1010        1011        1016        1015
        1011        1012        1017        1016
        1012        1013        1018        1017
        1013        1014        1019        1018
        1015        1016        1021        1020
        1016        1017        1022        1021
        1017        1018        1023        1022
        1018        1019        1024        1023
        1025        1026        1031        1030
        1026        1027        1032        1031
        1027        1028        1033        1032
        1028        1029        1034        1033
        1030        1031        1036        1035
        1031        1032        1037        1036
        1032        1033        1038        1037
        1033        1034        1039        1038
        1035        1036        1041        1040
        1036        1037        1042        1041
        1037        1038        1043        1042
        1038        1039        1044        1043
        1040        1041        1046        1045
        1041        1042        1047        1046
        1042        1043        1048        1047
        1043        1044        1049        1048
        1050        1051        1056        1055
        1051        1052        1057        1056
        1052        1053        1058        1057
        1053        1054        1059        1058
        1055        1056        1061        1060
        1056        1057        1062        1061
        1057        1058        1063        1062
        1058        1059        1064        1063
        1060        1061        1066        1065
        1061        1062        1067        1066
        1062        1063        1068        1067
        1063        1064        1069        1068
        1065        1066        1071        1070
        1066        1067        1072        1071
        1067        1068        1073        1072
        1068        1069        1074        1073
        1075        1076        1081        1080
        1076        1077        1082        1081
        1077        1078        1083        1082
        1078        1079        1084        1083
        1080        1081        1086        1085
        1081        1082        1087        1086
        1082        1083        1088        1087
        1083        1084        1089        1088
        1085        1086        1091        1090
        1086        1087        1092        1091
        1087        1088        1093        1092
        1088        1089        1094        1093
        1090        1091        1096        1095
        1091        1092        1097        1096
        1092        1093        1098        1097
        1093        1094        1099        1098
        1100        1101        1106        1105
        1101        1102        1107        1106
        1102        1103        1108        1107
        1103        1104        1109        1108
        1105        1106        1111        1110
        1106        1107        1112        1111
        1107        1108        1113        1112
        1108        1109        1114        1113
        1110        1111        1116        1115
        1111        1112        1117        1116
        1112        1113        1118        1117
        1113        1114        1119        1118
        1115        1116        1121        1120
        1116        1117        1122        1121
        1117        1118        1123        1122
        1118        1119        1124        1123
        1125        1126        1131        1130
        1126        1127        1132        1131
        1127        1128        1133        1132
        1128        1129        1134        1133
        1130        1131        1136        1135
        1131        1132        1137        1136
        1132        1133        1138        1137
        1133        1134        1139        1138
        1135        1136        1141        1140
        1136        1137        1142        1141
        1137        1138        1143        1142
        1138        1139        1144        1143
        1140        1141        1146        1145
        1141        1142        1147        1146
        1142        1143        1148        1147
        1143        1144        1149        1148
        1150        1151        1156        1155
        1151        1152        1157        1156
        1152        1153        1158        1157
        1153        1154        1159        1158
        1155        1156        1161        1160
        1156        1157        1162        1161
        1157        1158        1163        1162
        1158        1159        1164        1163
        1160        1161        1166        1165
        1161        1162        1167        1166
        1162        1163        1168        1167
        1163        1164        1169        1168
        1165        1166        1171        1170
        1166        1167        1172        1171
        1167        1168        1173        1172
        1168        1169        1174        1173
        1175        1176        1181        1180
        1176        1177        1182        1181
        1177        1178        1183        1182
        1178        1179        1184        1183
        1180        1181        1186        1185
        1181        1182        1187        1186
        1182        1183        1188        1187
        1183        1184        1189        1188
        1185        1186        1191        1190
        1186        1187        1192        1191
        1187        1188        1193        1192
        1188        1189        1194        1193
        1190        1191        1196        1195
        1191        1192        1197        1196
        1192        1193        1198        1197
        1193        1194        1199        1198
        1200        1201        1206        1205
        1201        1202        1207        1206
        1202        1203        1208        1207
        1203        1204        1209        1208
        1205        1206        1211        1210
        1206        1207        1212        1211
        1207        1208        1213        1212
        1208        1209        1214        1213
        1210        1211        1216        1215
        1211        1212        1217        1216
        1212        1213        1218        1217
        1213        1214        1219        1218
        1215        1216        1221        1220
        1216        1217        1222        1221
        1217        1218        1223        1222
        1218        1219        1224        1223
        1225        1226        1231        1230
        1226        1227        1232        1231
        1227        1228        1233        1232
        1228        1229        1234        1233
        1230        1231        1236        1235
        1231        1232        1237        1236
        1232        1233        1238        1237
        1233        1234        1239        1238
        1235        1236        1241        1240
        1236        1237        1242        1241
        1237        1238        1243        1242
        1238        1239        1244        1243
        1240        1241        1246        1245
        1241        1242        1247        1246
        1242        1243        1248        1247
        1243        1244        1249        1248
        1250        1251        1256        1255
        1251        1252        1257        1256
        1252        1253        1258        1257
        1253        1254        1259        1258
        1255        1256        1261        1260
        1256        1257        1262        1261
        1257        1258        1263        1262
        1258        1259        1264        1263
        1260        1261        1266        1265
        1261        1262        1267        1266
        1262        1263        1268        1267
        1263        1264        1269        1268
        1265        1266        1271        1270
        1266        1267        1272        1271
        1267        1268        1273        1272
        1268        1269        1274        1273
        1275        1276        1281        1280
        1276        1277        1282        1281
        1277        1278        1283        1282
        1278        1279        1284        1283
        1280        1281        1286        1285
        1281        1282        1287        1286
        1282        1283        1288        1287
        1283        1284        1289        1288
        1285        1286        1291        1290
        1286        1287        1292        1291
        1287        1288        1293        1292
        1288        1289        1294        1293
        1290        1291        1296        1295
        1291        1292        1297        1296
        1292        1293        1298        1297
        1293        1294        1299        1298
        1300        1301        1306        1305
        1301        1302        1307        1306
        1302        1303        1308        1307
        1303        1304        1309        1308
        1305        1306        1311        1310
        1306        1307        1312        1311
        1307        1308        1313        1312
        1308        1309        1314        1313
        1310        1311        1316        1315
        1311        1312        1317        1316
        1312        1313        1318        1317
        1313        1314        1319        1318
        1315        1316        1321        1320
        1316        1317        1322        1321
        1317        1318        1323        1322
        1318        1319        1324        1323
        1325        1326        1331        1330
        1326        1327        1332        1331
        1327        1328        1333        1332
        1328        1329        1334        1333
        1330        1331        1336        1335
        1331        1332        1337        1336
        1332        1333        1338        1337
        1333        1334        1339        1338
        1335        1336        1341        1340
        1336        1337        1342        1341
        1337        1338        1343        1342
        1338        1339        1344        1343
        1340        1341        1346        1345
        1341        1342        1347        1346
        1342        1343        1348        1347
        1343        1344        1349        1348
        1350        1351        1356        1355
        1351        1352        1357        1356
        1352        1353        1358        1357
        1353        1354        1359        1358
        1355        1356        1361        1360
        1356        1357        1362        1361
        1357        1358        1363        1362
        1358        1359        1364        1363
        1360        1361        1366        1365
        1361        1362        1367        1366
        1362        1363        1368        1367
        1363        1364        1369        1368
        1365        1366        1371        1370
        1366        1367        1372        1371
        1367        1368        1373        1372
        1368        1369        1374        1373
        1375        1376        1381        1380
        1376        1377        1382        1381
        1377        1378        1383        1382
        1378        1379        1384        1383
        1380        1381        1386        1385
        1381        1382        1387        1386
        1382        1383        1388        1387
        1383        1384        1389        1388
        1385        1386        1391        1390
        1386        1387        1392        1391
        1387        1388        1393        1392
        1388        1389        1394        1393
        1390        1391        1396        1395
        1391        1392        1397        1396
        1392        1393        1398        1397
        1393        1394        1399        1398
        1400        1401        1406        1405
        1401        1402        1407        1406
        1402        1403        1408        1407
        1403        1404        1409        1408
        1405        1406        1411        1410
        1406        1407        1412        1411
        1407        1408        1413        1412
        1408        1409        1414        1413
        1410        1411        1416        1415
        1411        1412        1417        1416
        1412        1413        1418        1417
        1413        1414        1419        1418
        1415        1416        1421        1420
        1416        1417        1422        1421
        1417        1418        1423        1422
        1418        1419        1424        1423
        1425        1426        1431        1430
        1426        1427        1432        1431
        1427        1428        1433        1432
        1428        1429        1434        1433
        1430        1431        1436        1435
        1431        1432        1437        1436
        1432        1433        1438        1437
        1433        1434        1439        1438
        1435        1436        1441        1440
        1436        1437        1442        1441
        1437        1438        1443        1442
        1438        1439        1444        1443
        1440        1441        1446        1445
        1441        1442        1447        1446
        1442        1443        1448        1447
        1443        1444        1449        1448
        1450        1451        1456        1455
        1451        1452        1457        1456
        1452        1453        1458        1457
        1453        1454        1459        1458
        1455        1456        1461        1460
        1456        1457        1462        1461
        1457        1458        1463        1462
        1458        1459        1464        1463
        1460        1461        1466        1465
        1461        1462        1467        1466
        1462        1463        1468        1467
        1463        1464        1469        1468
        1465        1466        1471        1470
        1466        1467        1472        1471
        1467        1468        1473        1472
        1468        1469        1474        1473
        1475        1476        1481        1480
        1476        1477        1482        1481
        1477        1478        1483        1482
        1478        1479        1484        1483
        1480        1481        1486        1485
        1481        1482        1487        1486
        1482        1483        1488        1487
        1483        1484        1489        1488
        1485        1486        1491        1490
        1486        1487        1492        1491
        1487        1488        1493        1492
        1488        1489        1494        1493
        1490        1491        1496        1495
        1491        1492        1497        1496
        1492        1493        1498        1497
        1493        1494        1499        1498
        1500        1501        1506        1505
        1501        1502        1507        1506
        1502        1503        1508        1507
        1503        1504        1509        1508
        1505        1506        1511        1510
        1506        1507        1512        1511
        1507        1508        1513        1512
        1508        1509        1514        1513
        1510        1511        1516        1515
        1511        1512        1517        1516
        1512        1513        1518        1517
        1513        1514        1519        1518
        1515        1516        1521        1520
        1516        1517        1522        1521
        1517        1518        1523        1522
        1518        1519        1524        1523
        1525        1526        1531        1530
        1526        1527        1532        1531
        1527        1528        1533        1532
        1528        1529        1534        1533
        1530        1531        1536        1535
        1531        1532        1537        1536
        1532        1533        1538        1537
        1533        1534        1539        1538
        1535        1536        1541        1540
        1536        1537        1542        1541
        1537        1538        1543        1542
        1538        1539        1544        1543
        1540        1541        1546        1545
        1541        1542        1547        1546
        1542        1543        1548        1547
        1543        1544        1549        1548
        1550        1551        1556        1555
        1551        1552        1557        1556
        1552        1553        1558        1557
        1553        1554        1559        1558
        1555        1556        1561        1560
        1556        1557        1562        1561
        1557        1558        1563        1562
        1558        1559        1564        1563
        1560        1561        1566        1565
        1561        1562        1567        1566
        1562        1563        1568        1567
        1563        1564        1569        1568
        1565        1566        1571        1570
        1566        1567        1572        1571
        1567        1568        1573        1572
        1568        1569        1574        1573
        1575        1576        1581        1580
        1576        1577        1582        1581
        1577        1578        1583        1582
        1578        1579        1584        1583
        1580        1581        1586        1585
        1581        1582        1587        1586
        1582        1583        1588        1587
        1583        1584        1589        1588
        1585        1586        1591        1590
        1586        1587        1592        1591
        1587        1588        1593        1592
        1588        1589        1594        1593
        1590        1591        1596        1595
        1591        1592        1597        1596
        1592        1593        1598        1597
        1593        1594        1599        1598
 </DataArray>
 <DataArray  type="Int32"  Name="offsets"  format="ascii"> 
           4
           8
          12
          16
          20
          24
          28
          32
          36
          40
          44
          48
          52
          56
          60
          64
          68
          72
          76
          80
          84
          88
          92
          96
         100
         104
         108
         112
         116
         120
         124
         128
         132
         136
         140
         144
         148
         152
         156
         160
         164
         168
         172
         176
         180
         184
         188
         192
         196
         200
         204
         208
         212
         216
         220
         224
         228
         232
         236
         240
         244
         248
         252
         256
         260
         264
         268
         272
         276
         280
         284
         288
         292
         296
         300
         304
         308
         312
         316
         320
         324
         328
         332
         336
         340
         344
         348
         352
         356
         360
         364
         368
         372
         376
         380
         384
         388
         392
         396
         400
         404
         408
         412
         416
         420
         424
         428
         432
         436
         440
         444
         448
         452
         456
         460
         464
         468
         472
         476
         480
         484
         488
         492
         496
         500
         504
         508
         512
         516
         520
         524
         528
         532
         536
         540
         544
         548
         552
         556
         560
         564
         568
         572
         576
         580
         584
         588
         592
         596
         600
         604
         608
         612
         616
         620
         624
         628
         632
         636
         640
         644
         648
         652
         656
         660
         664
         668
         672
         676
         680
         684
         688
         692
         696
         700
         704
         708
         712
         716
         720
         724
         728
         732
         736
         740
         744
         748
         752
         756
         760
         764
         768
         772
         776
         780
         784
         788
         792
         796
         800
         804
         808
         812
         816
         820
         824
         828
         832
         836
         840
         844
         848
         852
         856
         860
         864
         868
         872
         876
         880
         884
         888
         892
         896
         900
         904
         908
         912
         916
         920
         924
         928
         932
         936
         940
         944
         948
         952
         956
         960
         964
         968
         972
         976
         980
         984
         988
         992
         996
        1000
        1004
        1008
        1012
        1016
        1020
        1024
        1028
        1032
        1036
        1040
        1044
        1048
        1052
        1056
        1060
        1064
        1068
        1072
        1076
        1080
        1084
        1088
        1092
        1096
        1100
        1104
        1108
        1112
        1116
        1120
        1124
        1128
        1132
        1136
        1140
        1144
        1148
        1152
        1156
        1160
        1164
        1168
        1172
        1176
        1180
        1184
        1188
        1192
        1196
        1200
        1204
        1208
        1212
        1216
        1220
        1224
        1228
        1232
        1236
        1240
        1244
        1248
        1252
        1256
        1260
        1264
        1268
        1272
        1276
        1280
        1284
        1288
        1292
        1296
        1300
        1304
        1308
        1312
        1316
        1320
        1324
        1328
        1332
        1336
        1340
        1344
        1348
        1352
        1356
        1360
        1364
        1368
        1372
        1376
        1380
        1384
        1388
        1392
        1396
        1400
        1404
        1408
        1412
        1416
        1420
        1424
        1428
        1432
        1436
        1440
        1444
        1448
        1452
        1456
        1460
        1464
        1468
        1472
        1476
        1480
        1484
        1488
        1492
        1496
        1500
        1504
        1508
        1512
        1516
        1520
        1524
        1528
        1532
        1536
        1540
        1544
        1548
        1552
        1556
        1560
        1564
        1568
        1572
        1576
        1580
        1584
        1588
        1592
        1596
        1600
        1604
        1608
        1612
        1616
        1620
        1624
        1628
        1632
        1636
        1640
        1644
        1648
        1652
        1656
        1660
        1664
        1668
        1672
        1676
        1680
        1684
        1688
        1692
        1696
        1700
        1704
        1708
        1712
        1716
        1720
        1724
        1728
        1732
        1736
        1740
        1744
        1748
        1752
        1756
        1760
        1764
        1768
        1772
        1776
        1780
        1784
        1788
        1792
        1796
        1800
        1804
        1808
        1812
        1816
        1820
        1824
        1828
        1832
        1836
        1840
        1844
        1848
        1852
        1856
        1860
        1864
        1868
        1872
        1876
        1880
        1884
        1888
        1892
        1896
        1900
        1904
        1908
        1912
        1916
        1920
        1924
        1928
        1932
        1936
        1940
        1944
        1948
        1952
        1956
        1960
        1964
        1968
        1972
        1976
        1980
        1984
        1988
        1992
        1996
        2000
        2004
        2008
        2012
        2016
        2020
        2024
        2028
        2032
        2036
        2040
        2044
        2048
        2052
        2056
        2060
        2064
        2068
        2072
        2076
        2080
        2084
        2088
        2092
        2096
        2100
        2104
        2108
        2112
        2116
        2120
        2124
        2128
        2132
        2136
        2140
        2144
        2148
        2152
        2156
        2160
        2164
        2168
        2172
        2176
        2180
        2184
        2188
        2192
        2196
        2200
        2204
        2208
        2212
        2216
        2220
        2224
        2228
        2232
        2236
        2240
        2244
        2248
        2252
        2256
        2260
        2264
        2268
        2272
        2276
        2280
        2284
        2288
        2292
        2296
        2300
        2304
        2308
        2312
        2316
        2320
        2324
        2328
        2332
        2336
        2340
        2344
        2348
        2352
        2356
        2360
        2364
        2368
        2372
        2376
        2380
        2384
        2388
        2392
        2396
        2400
        2404
        2408
        2412
        2416
        2420
        2424
        2428
        2432
        2436
        2440
        2444
        2448
        2452
        2456
        2460
        2464
        2468
        2472
        2476
        2480
        2484
        2488
        2492
        2496
        2500
        2504
        2508
        2512
        2516
        2520
        2524
        2528
        2532
        2536
        2540
        2544
        2548
        2552
        2556
        2560
        2564
        2568
        2572
        2576
        2580
        2584
        2588
        2592
        2596
        2600
        2604
        2608
        2612
        2616
        2620
        2624
        2628
        2632
        2636
        2640
        2644
        2648
        2652
        2656
        2660
        2664
        2668
        2672
        2676
        2680
        2684
        2688
        2692
        2696
        2700
        2704
        2708
        2712
        2716
        2720
        2724
        2728
        2732
        2736
        2740
        2744
        2748
        2752
        2756
        2760
        2764
        2768
        2772
        2776
        2780
        2784
        2788
        2792
        2796
        2800
        2804
        2808
        2812
        2816
        2820
        2824
        2828
        2832
        2836
        2840
        2844
        2848
        2852
        2856
        2860
        2864
        2868
        2872
        2876
        2880
        2884
        2888
        2892
        2896
        2900
        2904
        2908
        2912
        2916
        2920
        2924
        2928
        2932
        2936
        2940
        2944
        2948
        2952
        2956
        2960
        2964
        2968
        2972
        2976
        2980
        2984
        2988
        2992
        2996
        3000
        3004
        3008
        3012
        3016
        3020
        3024
        3028
        3032
        3036
        3040
        3044
        3048
        3052
        3056
        3060
        3064
        3068
        3072
        3076
        3080
        3084
        3088
        3092
        3096
        3100
        3104
        3108
        3112
        3116
        3120
        3124
        3128
        3132
        3136
        3140
        3144
        3148
        3152
        3156
        3160
        3164
        3168
        3172
        3176
        3180
        3184
        3188
        3192
        3196
        3200
        3204
        3208
        3212
        3216
        3220
        3224
        3228
        3232
        3236
        3240
        3244
        3248
        3252
        3256
        3260
        3264
        3268
        3272
        3276
        3280
        3284
        3288
        3292
        3296
        3300
        3304
        3308
        3312
        3316
        3320
        3324
        3328
        3332
        3336
        3340
        3344
        3348
        3352
        3356
        3360
        3364
        3368
        3372
        3376
        3380
        3384
        3388
        3392
        3396
        3400
        3404
        3408
        3412
        3416
        3420
        3424
        3428
        3432
        3436
        3440
        3444
        3448
        3452
        3456
        3460
        3464
        3468
        3472
        3476
        3480
        3484
        3488
        3492
        3496
        3500
        3504
        3508
        3512
        3516
        3520
        3524
        3528
        3532
        3536
        3540
        3544
        3548
        3552
        3556
        3560
        3564
        3568
        3572
        3576
        3580
        3584
        3588
        3592
        3596
        3600
        3604
        3608
        3612
        3616
        3620
        3624
        3628
        3632
        3636
        3640
        3644
        3648
        3652
        3656
        3660
        3664
        3668
        3672
        3676
        3680
        3684
        3688
        3692
        3696
        3700
        3704
        3708
        3712
        3716
        3720
        3724
        3728
        3732
        3736
        3740
        3744
        3748
        3752
        3756
        3760
        3764
        3768
        3772
        3776
        3780
        3784
        3788
        3792
        3796
        3800
        3804
        3808
        3812
        3816
        3820
        3824
        3828
        3832
        3836
        3840
        3844
        3848
        3852
        3856
        3860
        3864
        3868
        3872
        3876
        3880
        3884
        3888
        3892
        3896
        3900
        3904
        3908
        3912
        3916
        3920
        3924
        3928
        3932
        3936
        3940
        3944
        3948
        3952
        3956
        3960
        3964
        3968
        3972
        3976
        3980
        3984
        3988
        3992
        3996
        4000
        4004
        4008
        4012
        4016
        4020
        4024
        4028
        4032
        4036
        4040
        4044
        4048
        4052
        4056
        4060
        4064
        4068
        4072
        4076
        4080
        4084
        4088
        4092
        4096
 </DataArray>
 <DataArray  type="UInt8"  Name="types"  format="ascii">
 9
 9
 9
 9
 9
 9
 9
 9
 9
 9
 9
 9
 9
 9
 9
 9
 9
 9
 9
 9
 9
 9
 9
 9
 9
 9
 9
 9
 9
 9
 9
 9
 9
 9
 9
 9
 9
 9
 9
 9
 9
 9
 9
 9
 9
 9
 9
 9
 9
 9
 9
 9
 9
 9
 9
 9
 9
 9
 9
 9
 9
 9
 9
 9
 9
 9
 9
 9
 9
 9
 9
 9
 9
 9
 9
 9
 9
 9
 9
 9
 9
 9
 9
 9
 9
 9
 9
 9
 9
 9
 9
 9
 9
 9
 9
 9
 9
 9
 9
 9
 9
 9
 9
 9
 9
 9
 9
 9
 9
 9
 9
 9
 9
 9
 9
 9
 9
 9
 9
 9
 9
 9
 9
 9
 9
 9
 9
 9
 9
 9
 9
 9
 9
 9
 9
 9
 9
 9
 9
 9
 9
 9
 9
 9
 9
 9
 9
 9
 9
 9
 9
 9
 9
 9
 9
 9
 9
 9
 9
 9
 9
 9
 9
 9
 9
 9
 9
 9
 9
 9
 9
 9
 9
 9
 9
 9
 9
 9
 9
 9
 9
 9
 9
 9
 9
 9
 9
 9
 9
 9
 9
 9
 9
 9
 9
 9
 9
 9
 9
 9
 9
 9
 9
 9
 9
 9
 9
 9
 9
 9
 9
 9
 9
 9
 9
 9
 9
 9
 9
 9
 9
 9
 9
 9
 9
 9
 9
 9
 9
 9
 9
 9
 9
 9
 9
 9
 9
 9
 9
 9
 9
 9
 9
 9
 9
 9
 9
 9
 9
 9
 9
 9
 9
 9
 9
 9
 9
 9
 9
 9
 9
 9
 9
 9
 9
 9
 9
 9
 9
 9
 9
 9
 9
 9
 9
 9
 9
 9
 9
 9
 9
 9
 9
 9
 9
 9
 9
 9
 9
 9
 9
 9
 9
 9
 9
 9
 9
 9
 9
 9
 9
 9
 9
 9
 9
 9
 9
 9
 9
 9
 9
 9
 9
 9
 9
 9
 9
 9
 9
 9
 9
 9
 9
 9
 9
 9
 9
 9
 9
 9
 9
 9
 9
 9
 9
 9
 9
 9
 9
 9
 9
 9
 9
 9
 9
 9
 9
 9
 9
 9
 9
 9
 9
 9
 9
 9
 9
 9
 9
 9
 9
 9
 9
 9
 9
 9
 9
 9
 9
 9
 9
 9
 9
 9
 9
 9
 9
 9
 9
 9
 9
 9
 9
 9
 9
 9
 9
 9
 9
 9
 9
 9
 9
 9
 9
 9
 9
 9
 9
 9
 9
 9
 9
 9
 9
 9
 9
 9
 9
 9
 9
 9
 9
 9
 9
 9
 9
 9
 9
 9
 9
 9
 9
 9
 9
 9
 9
 9
 9
 9
 9
 9
 9
 9
 9
 9
 9
 9
 9
 9
 9
 9
 9
 9
 9
 9
 9
 9
 9
 9
 9
 9
 9
 9
 9
 9
 9
 9
 9
 9
 9
 9
 9
 9
 9
 9
 9
 9
 9
 9
 9
 9
 9
 9
 9
 9
 9
 9
 9
 9
 9
 9
 9
 9
 9
 9
 9
 9
 9
 9
 9
 9
 9
 9
 9
 9
 9
 9
 9
 9
 9
 9
 9
 9
 9
 9
 9
 9
 9
 9
 9
 9
 9
 9
 9
 9
 9
 9
 9
 9
 9
 9
 9
 9
 9
 9
 9
 9
 9
 9
 9
 9
 9
 9
 9
 9
 9
 9
 9
 9
 9
 9
 9
 9
 9
 9
 9
 9
 9
 9
 9
 9
 9
 9
 9
 9
 9
 9
 9
 9
 9
 9
 9
 9
 9
 9
 9
 9
 9
 9
 9
 9
 9
 9
 9
 9
 9
 9
 9
 9
 9
 9
 9
 9
 9
 9
 9
 9
 9
 9
 9
 9
 9
 9
 9
 9
 9
 9
 9
 9
 9
 9
 9
 9
 9
 9
 9
 9
 9
 9
 9
 9
 9
 9
 9
 9
 9
 9
 9
 9
 9
 9
 9
 9
 9
 9
 9
 9
 9
 9
 9
 9
 9
 9
 9
 9
 9
 9
 9
 9
 9
 9
 9
 9
 9
 9
 9
 9
 9
 9
 9
 9
 9
 9
 9
 9
 9
 9
 9
 9
 9
 9
 9
 9
 9
 9
 9
 9
 9
 9
 9
 9
 9
 9
 9
 9
 9
 9
 9
 9
 9
 9
 9
 9
 9
 9
 9
 9
 9
 9
 9
 9
 9
 9
 9
 9
 9
 9
 9
 9
 9
 9
 9
 9
 9
 9
 9
 9
 9
 9
 9
 9
 9
 9
 9
 9
 9
 9
 9
 9
 9
 9
 9
 9
 9
 9
 9
 9
 9
 9
 9
 9
 9
 9
 9
 9
 9
 9
 9
 9
 9
 9
 9
 9
 9
 9
 9
 9
 9
 9
 9
 9
 9
 9
 9
 9
 9
 9
 9
 9
 9
 9
 9
 9
 9
 9
 9
 9
 9
 9
 9
 9
 9
 9
 9
 9
 9
 9
 9
 9
 9
 9
 9
 9
 9
 9
 9
 9
 9
 9
 9
 9
 9
 9
 9
 9
 9
 9
 9
 9
 9
 9
 9
 9
 9
 9
 9
 9
 9
 9
 9
 9
 9
 9
 9
 9
 9
 9
 9
 9
 9
 9
 9
 9
 9
 9
 9
 9
 9
 9
 9
 9
 9
 9
 9
 9
 9
 9
 9
 9
 9
 9
 9
 9
 9
 9
 9
 9
 9
 9
 9
 9
 9
 9
 9
 9
 9
 9
 9
 9
 9
 9
 9
 9
 9
 9
 9
 9
 9
 9
 9
 9
 9
 9
 9
 9
 9
 9
 9
 9
 9
 9
 9
 9
 9
 9
 9
 9
 9
 9
 9
 9
 9
 9
 9
 9
 9
 9
 9
 9
 9
 9
 9
 9
 9
 9
 9
 9
 9
 9
 9
 9
 9
 9
 9
 9
 9
 9
 9
 9
 9
 9
 9
 9
 9
 9
 9
 9
 9
 9
 9
 9
 9
 9
 9
 9
 9
 9
 9
 9
 9
 9
 9
 9
 9
 9
 9
 9
 9
 9
 9
 9
 9
 9
 9
 9
 9
 9
 9
 9
 9
 9
 9
 9
 9
 9
 9
 9
 9
 9
 9
 9
 9
 9
 9
 9
 9
 9
 9
 9
 9
 9
 9
 9
 9
 9
 9
 9
 9
 9
 9
 9
 9
 9
 9
 9
 9
 9
 9
 9
 9
 9
 9
 9
 9
 9
 9
 9
 9
 9
 9
 9
 9
 9
 9
 9
 9
 9
 9
 9
 9
 9
 9
 9
 </DataArray>
 </Cells> 
 <PointData>
 <DataArray  type="Float64" Name="disp" NumberOfComponents="3" format="ascii">
   0.0000000000000000        0.0000000000000000        0.0000000000000000     
   6.0960069696099819E-003   3.7903274601515072E-003   0.0000000000000000     
   1.1666082892434428E-002   7.3237702211913919E-003   0.0000000000000000     
   1.6710227768473335E-002   1.0600328283119654E-002   0.0000000000000000     
   2.1228441597726709E-002   1.3620001645936294E-002   0.0000000000000000     
   0.0000000000000000        0.0000000000000000        0.0000000000000000     
   4.8911766785005948E-003   3.0220299175966478E-003   0.0000000000000000     
   9.5736633999214810E-003   6.0604507104439799E-003   0.0000000000000000     
   1.4047460164262660E-002   9.1152623785419953E-003   0.0000000000000000     
   1.8312566971524131E-002   1.2186464921890697E-002   0.0000000000000000     
   0.0000000000000000        0.0000000000000000        0.0000000000000000     
   3.9535732701352268E-003   2.4250169877147116E-003   0.0000000000000000     
   7.9106116582005719E-003   5.0628272659355130E-003   0.0000000000000000     
   1.1871115164196033E-002   7.9134308346624060E-003   0.0000000000000000     
   1.5835083788121613E-002   1.0976827693895389E-002   0.0000000000000000     
   0.0000000000000000        0.0000000000000000        0.0000000000000000     
   3.2831967445138784E-003   1.9992886705056975E-003   0.0000000000000000     
   6.6769276672716971E-003   4.3308998876659920E-003   0.0000000000000000     
   1.0181192768273456E-002   6.9948336514808803E-003   0.0000000000000000     
   1.3795992047519155E-002   9.9910899619503665E-003   0.0000000000000000     
   0.0000000000000000        0.0000000000000000        0.0000000000000000     
   2.8800471016365500E-003   1.7448449659696070E-003   0.0000000000000000     
   5.8726114271348603E-003   3.8646685756354151E-003   0.0000000000000000     
   8.9776929764949324E-003   6.3594708289974235E-003   0.0000000000000000     
   1.2195291749716761E-002   9.2292517260556348E-003   0.0000000000000000     
   2.1228441597726709E-002   1.3620001645936294E-002   0.0000000000000000     
   2.5433518004253069E-002   1.6613173208301867E-002   0.0000000000000000     
   2.9538250612110937E-002   1.9810225868876936E-002   0.0000000000000000     
   3.3542639421300313E-002   2.3211159627661501E-002   0.0000000000000000     
   3.7446684431821191E-002   2.6815974484655558E-002   0.0000000000000000     
   1.8312566971524131E-002   1.2186464921890697E-002   0.0000000000000000     
   2.2407207202608272E-002   1.5342161512186144E-002   0.0000000000000000     
   2.6369604238417478E-002   1.8650455321124401E-002   0.0000000000000000     
   3.0199758078951738E-002   2.2111346348705464E-002   0.0000000000000000     
   3.3897668724211065E-002   2.5724834594929337E-002   0.0000000000000000     
   1.5835083788121613E-002   1.0976827693895389E-002   0.0000000000000000     
   1.9730799176817814E-002   1.4211607460891231E-002   0.0000000000000000     
   2.3486542977125140E-002   1.7576359752906709E-002   0.0000000000000000     
   2.7102315189043595E-002   2.1071084569941813E-002   0.0000000000000000     
   3.0578115812573171E-002   2.4695781911996548E-002   0.0000000000000000     
   1.3795992047519155E-002   9.9910899619503665E-003   0.0000000000000000     
   1.7404293926881684E-002   1.3221511054417132E-002   0.0000000000000000     
   2.0889066828233920E-002   1.6587939164223860E-002   0.0000000000000000     
   2.4250310751575865E-002   2.0090374291370543E-002   0.0000000000000000     
   2.7488025696907517E-002   2.3728816435857190E-002   0.0000000000000000     
   1.2195291749716761E-002   9.2292517260556348E-003   0.0000000000000000     
   1.5427691452799881E-002   1.2371872292763842E-002   0.0000000000000000     
   1.8577175791743811E-002   1.5685193555075850E-002   0.0000000000000000     
   2.1643744766548553E-002   1.9169215512991652E-002   0.0000000000000000     
   2.4627398377214105E-002   2.2823938166511262E-002   0.0000000000000000     
   3.7446684431821191E-002   2.6815974484655558E-002   0.0000000000000000     
   4.1255216818255468E-002   3.0620525103387378E-002   0.0000000000000000     
   4.4973067755185024E-002   3.4620666147385244E-002   0.0000000000000000     
   4.8600237242609867E-002   3.8816397616649137E-002   0.0000000000000000     
   5.2136725280529983E-002   4.3207719511179077E-002   0.0000000000000000     
   3.3897668724211065E-002   2.5724834594929337E-002   0.0000000000000000     
   3.7486494531393383E-002   2.9520361185077820E-002   0.0000000000000000     
   4.0989393857696649E-002   3.3527367244432713E-002   0.0000000000000000     
   4.4406366703120856E-002   3.7745852772994019E-002   0.0000000000000000     
   4.7737413067665997E-002   4.2175817770761730E-002   0.0000000000000000     
   3.0578115812573171E-002   2.4695781911996548E-002   0.0000000000000000     
   3.3943072926353055E-002   2.8495608203300028E-002   0.0000000000000000     
   3.7226314609022412E-002   3.2515719868081376E-002   0.0000000000000000     
   4.0427840860581238E-002   3.6756116906340584E-002   0.0000000000000000     
   4.3547651681029552E-002   4.1216799318077646E-002   0.0000000000000000     
   2.7488025696907517E-002   2.3728816435857190E-002   0.0000000000000000     
   3.0624952003134476E-002   2.7546266158054011E-002   0.0000000000000000     
   3.3683830009162315E-002   3.1585724018331228E-002   0.0000000000000000     
   3.6664659714991048E-002   3.5847190016688832E-002   0.0000000000000000     
   3.9567441120620654E-002   4.0330664153126833E-002   0.0000000000000000     
   2.4627398377214105E-002   2.2823938166511262E-002   0.0000000000000000     
   2.7532131761737647E-002   2.6672335049339763E-002   0.0000000000000000     
   3.0361940058116370E-002   3.0737379695182268E-002   0.0000000000000000     
   3.3116823266350251E-002   3.5019072104038776E-002   0.0000000000000000     
   3.5796781386439311E-002   3.9517412275909283E-002   0.0000000000000000     
   5.2136725280529983E-002   4.3207719511179077E-002   0.0000000000000000     
   5.5577782849658842E-002   4.7798452494038329E-002   0.0000000000000000     
   5.8918660930709882E-002   5.2592417228290160E-002   0.0000000000000000     
   6.2159359523683122E-002   5.7589613713934576E-002   0.0000000000000000     
   6.5299878628578542E-002   6.2790041950971584E-002   0.0000000000000000     
   4.7737413067665997E-002   4.2175817770761730E-002   0.0000000000000000     
   5.0978274443672943E-002   4.6809691867850153E-002   0.0000000000000000     
   5.4124692323482541E-002   5.1639904694373587E-002   0.0000000000000000     
   5.7176666707094814E-002   5.6666456250332037E-002   0.0000000000000000     
   6.0134197594509733E-002   6.1889346535725490E-002   0.0000000000000000     
   4.3547651681029552E-002   4.1216799318077646E-002   0.0000000000000000     
   4.6582564424035834E-002   4.5884091409549660E-002   0.0000000000000000     
   4.9529396443268585E-002   5.0744317487013725E-002   0.0000000000000000     
   5.2388147738727818E-002   5.5797477550469821E-002   0.0000000000000000     
   5.5158818310413527E-002   6.1043571599917960E-002   0.0000000000000000     
   3.9567441120620654E-002   4.0330664153126833E-002   0.0000000000000000     
   4.2390652790747538E-002   4.5021651119136870E-002   0.0000000000000000     
   4.5132773290068026E-002   4.9905655606210561E-002   0.0000000000000000     
   4.7793802618582154E-002   5.4982677614347927E-002   0.0000000000000000     
   5.0373740776289887E-002   6.0252717143548969E-002   0.0000000000000000     
   3.5796781386439311E-002   3.9517412275909283E-002   0.0000000000000000     
   3.8402539543808019E-002   4.4222370996611741E-002   0.0000000000000000     
   4.0934822863880845E-002   4.9123919051964095E-002   0.0000000000000000     
   4.3393631346657795E-002   5.4222056441966364E-002   0.0000000000000000     
   4.5778964992138862E-002   5.9516783166618528E-002   0.0000000000000000     
   6.5299878628578542E-002   6.2790041950971584E-002   0.0000000000000000     
   6.8347190240345357E-002   6.8180193375537421E-002   0.0000000000000000     
   7.1308266353932767E-002   7.3746559423768343E-002   0.0000000000000000     
   7.4183106969340787E-002   7.9489140095664365E-002   0.0000000000000000     
   7.6971712086569388E-002   8.5407935391225487E-002   0.0000000000000000     
   6.0134197594509733E-002   6.1889346535725490E-002   0.0000000000000000     
   6.3001761948057927E-002   6.7300272533318828E-002   0.0000000000000000     
   6.5783836730070003E-002   7.2890931225876920E-002   0.0000000000000000     
   6.8480421940545960E-002   7.8661322613399753E-002   0.0000000000000000     
   7.1091517579485786E-002   8.4611446695887313E-002   0.0000000000000000     
   5.5158818310413527E-002   6.1043571599917960E-002   0.0000000000000000     
   5.7843775044279774E-002   6.6477016247874249E-002   0.0000000000000000     
   6.0445384826280674E-002   7.2092228106854783E-002   0.0000000000000000     
   6.2963647656416211E-002   7.7889207176859598E-002   0.0000000000000000     
   6.5398563534686371E-002   8.3867953457888667E-002   0.0000000000000000     
   5.0373740776289887E-002   6.0252717143548969E-002   0.0000000000000000     
   5.2873229529010898E-002   6.5710424519203670E-002   0.0000000000000000     
   5.5292910642564766E-002   7.1350450066701973E-002   0.0000000000000000     
   5.7632784116951524E-002   7.7172793786043956E-002   0.0000000000000000     
   5.9892849952171152E-002   8.3177455677229506E-002   0.0000000000000000     
   4.5778964992138862E-002   5.9516783166618528E-002   0.0000000000000000     
   4.8090125402251285E-002   6.5000497347307076E-002   0.0000000000000000     
   5.0326414178922314E-002   7.0665597105418476E-002   0.0000000000000000     
   5.2487831322151922E-002   7.6512082440952742E-002   0.0000000000000000     
   5.4574376831940122E-002   8.2539953353909873E-002   0.0000000000000000     
   7.6971712086569388E-002   8.5407935391225487E-002   0.0000000000000000     
   7.9666436490933523E-002   9.1496779404862685E-002   0.0000000000000000     
   8.2259634967748060E-002   9.7749506230987021E-002   0.0000000000000000     
   8.4751307517013028E-002  0.10416611586959845        0.0000000000000000     
   8.7141454138728425E-002  0.11074660832069702        0.0000000000000000     
   7.1091517579485786E-002   8.4611446695887313E-002   0.0000000000000000     
   7.3612589139120138E-002   9.0732577250785429E-002   0.0000000000000000     
   7.6039102111679677E-002   9.7015988055539820E-002   0.0000000000000000     
   7.8371056497164360E-002  0.10346167911015056        0.0000000000000000     
   8.0608452295574229E-002  0.11006965041461758        0.0000000000000000     
   6.5398563534686371E-002   8.3867953457888667E-002   0.0000000000000000     
   6.7747922813359077E-002   9.0018068691991165E-002   0.0000000000000000     
   7.0009515844702205E-002   9.6329154621216287E-002   0.0000000000000000     
   7.2183342628715758E-002  0.10280121124556407        0.0000000000000000     
   7.4269403165399719E-002  0.10943423856503445        0.0000000000000000     
   5.9892849952171152E-002   8.3177455677229506E-002   0.0000000000000000     
   6.2072437513650318E-002   8.9353253728479937E-002   0.0000000000000000     
   6.4170876166815660E-002   9.5689005928016435E-002   0.0000000000000000     
   6.6188165911667179E-002  0.10218471227583897        0.0000000000000000     
   6.8124306748204883E-002  0.10884037277194759        0.0000000000000000     
   5.4574376831940122E-002   8.2539953353909873E-002   0.0000000000000000     
   5.6586133239993848E-002   8.8738132360251742E-002   0.0000000000000000     
   5.8523183078020027E-002   9.5095541975940223E-002   0.0000000000000000     
   6.0385526346018667E-002  0.10161218220097533        0.0000000000000000     
   6.2173163043989760E-002  0.10828805303535702        0.0000000000000000     
   8.7141454138728425E-002  0.11074660832069702        0.0000000000000000     
   8.9427387771195022E-002  0.11747280289742831        0.0000000000000000     
   9.1606421352713643E-002  0.12432651891293800        0.0000000000000000     
   9.3678554883284262E-002  0.13130775636722605        0.0000000000000000     
   9.5643788362906906E-002  0.13841651526029250        0.0000000000000000     
   8.0608452295574229E-002  0.11006965041461758        0.0000000000000000     
   8.2753445048912175E-002  0.11682167731221642        0.0000000000000000     
   8.4808190299181116E-002  0.12369953514622253        0.0000000000000000     
   8.6772688046381052E-002  0.13070322391663594        0.0000000000000000     
   8.8646938290511956E-002  0.13783274362345665        0.0000000000000000     
   7.4269403165399719E-002  0.10943423856503445        0.0000000000000000     
   7.6272708149658724E-002  0.11621050550342896        0.0000000000000000     
   7.8198268276397337E-002  0.12311228098454916        0.0000000000000000     
   8.0046083545615557E-002  0.13013956500839496        0.0000000000000000     
   8.1816153957313412E-002  0.13729235757496647        0.0000000000000000     
   6.8124306748204883E-002  0.10884037277194759        0.0000000000000000     
   6.9985177073434657E-002  0.11563928747106597        0.0000000000000000     
   7.1776655284362306E-002  0.12256475642791781        0.0000000000000000     
   7.3498741380987859E-002  0.12961677964250309        0.0000000000000000     
   7.5151435363311300E-002  0.13679535711482188        0.0000000000000000     
   6.2173163043989760E-002  0.10828805303535702        0.0000000000000000     
   6.3890851820239986E-002  0.11510802321512741        0.0000000000000000     
   6.5543351323076038E-002  0.12205696147632851        0.0000000000000000     
   6.7130661552497917E-002  0.12913486781896036        0.0000000000000000     
   6.8652782508505622E-002  0.13634174224302295        0.0000000000000000     
   9.5643788362906906E-002  0.13841651526029250        0.0000000000000000     
   9.7535111954433373E-002  0.14564257916769846        0.0000000000000000     
   9.9385515820715406E-002  0.15297573166500514        0.0000000000000000     
  0.10119499996175305       0.16041597275221250        0.0000000000000000     
  0.10296356437754629       0.16796330242932053        0.0000000000000000     
   8.8646938290511956E-002  0.13783274362345665        0.0000000000000000     
   9.0438536956279181E-002  0.14508264707191446        0.0000000000000000     
   9.2155079968388079E-002  0.15244748706723912        0.0000000000000000     
   9.3796567326838637E-002  0.15992726360943066        0.0000000000000000     
   9.5362999031630841E-002  0.16752197669848906        0.0000000000000000     
   8.1816153957313412E-002  0.13729235757496647        0.0000000000000000     
   8.3500008011959434E-002  0.14456741007503279        0.0000000000000000     
   8.5089174210022156E-002  0.15196147389936315        0.0000000000000000     
   8.6583652551501591E-002  0.15947454904795758        0.0000000000000000     
   8.7983443036397754E-002  0.16710663552081600        0.0000000000000000     
   7.5151435363311300E-002  0.13679535711482188        0.0000000000000000     
   7.6719525121474091E-002  0.14409686817705347        0.0000000000000000     
   7.8187798545617623E-002  0.15151769216137728        0.0000000000000000     
   7.9556255635741951E-002  0.15905782906779323        0.0000000000000000     
   8.0824896391847034E-002  0.16671727889630136        0.0000000000000000     
   6.8652782508505622E-002  0.13634174224302295        0.0000000000000000     
   7.0097088284823153E-002  0.14367102137797655        0.0000000000000000     
   7.1450952975174509E-002  0.15111614185328143        0.0000000000000000     
   7.2714376579559675E-002  0.15867710366893764        0.0000000000000000     
   7.3887359097978680E-002  0.16635390682494511        0.0000000000000000     
   0.0000000000000000        0.0000000000000000        0.0000000000000000     
   2.8800471016365500E-003   1.7448449659696070E-003   0.0000000000000000     
   5.8726114271348603E-003   3.8646685756354151E-003   0.0000000000000000     
   8.9776929764949324E-003   6.3594708289974235E-003   0.0000000000000000     
   1.2195291749716761E-002   9.2292517260556348E-003   0.0000000000000000     
   0.0000000000000000        0.0000000000000000        0.0000000000000000     
   2.6102884927281154E-003   1.5889963275593007E-003   0.0000000000000000     
   5.2896845884283479E-003   3.5567900713900213E-003   0.0000000000000000     
   8.0381882871006956E-003   5.9033812314921641E-003   0.0000000000000000     
   1.0855799588745163E-002   8.6287698078657254E-003   0.0000000000000000     
   0.0000000000000000        0.0000000000000000        0.0000000000000000     
   2.3400850690134495E-003   1.4590532087276412E-003   0.0000000000000000     
   4.7201688017904477E-003   3.2999211164760527E-003   0.0000000000000000     
   7.1402511983309934E-003   5.5226037232452346E-003   0.0000000000000000     
   9.6003322586350887E-003   8.1271010290351851E-003   0.0000000000000000     
   0.0000000000000000        0.0000000000000000        0.0000000000000000     
   2.0694368304925524E-003   1.3550156094746283E-003   0.0000000000000000     
   4.1640640672211595E-003   3.0940617108935063E-003   0.0000000000000000     
   6.2838817101858215E-003   5.2171383042566334E-003   0.0000000000000000     
   8.4288897593865365E-003   7.7242453895640098E-003   0.0000000000000000     
   0.0000000000000000        0.0000000000000000        0.0000000000000000     
   1.7983437771654238E-003   1.2768835298002622E-003   0.0000000000000000     
   3.6213703847204838E-003   2.9392118546423831E-003   0.0000000000000000     
   5.4690798226651799E-003   4.9869849745263622E-003   0.0000000000000000     
   7.3414720909995117E-003   7.4202028894522010E-003   0.0000000000000000     
   1.2195291749716761E-002   9.2292517260556348E-003   0.0000000000000000     
   1.5427691452799881E-002   1.2371872292763842E-002   0.0000000000000000     
   1.8577175791743811E-002   1.5685193555075850E-002   0.0000000000000000     
   2.1643744766548553E-002   1.9169215512991652E-002   0.0000000000000000     
   2.4627398377214105E-002   2.2823938166511262E-002   0.0000000000000000     
   1.0855799588745163E-002   8.6287698078657254E-003   0.0000000000000000     
   1.3689152237768955E-002   1.1650729595095418E-002   0.0000000000000000     
   1.6484879978579281E-002   1.4887034387765946E-002   0.0000000000000000     
   1.9242982811176139E-002   1.8337684185877313E-002   0.0000000000000000     
   2.1963460735559534E-002   2.2002678989429519E-002   0.0000000000000000     
   9.6003322586350887E-003   8.1271010290351851E-003   0.0000000000000000     
   1.2076836764985447E-002   1.1046121380575908E-002   0.0000000000000000     
   1.4546189499664786E-002   1.4212373124597404E-002   0.0000000000000000     
   1.7008390462673110E-002   1.7625856261099679E-002   0.0000000000000000     
   1.9463439654010411E-002   2.1286570790082716E-002   0.0000000000000000     
   8.4288897593865365E-003   7.7242453895640098E-003   0.0000000000000000     
   1.0590745034449357E-002   1.0558047649205315E-002   0.0000000000000000     
   1.2761104355000330E-002   1.3661209765570226E-002   0.0000000000000000     
   1.4939967721039456E-002   1.7033731738658742E-002   0.0000000000000000     
   1.7127335132566732E-002   2.0675613568470863E-002   0.0000000000000000     
   7.3414720909995117E-003   7.4202028894522010E-003   0.0000000000000000     
   9.2308770461606866E-003   1.0186508400983636E-002   0.0000000000000000     
   1.1129624544585911E-002   1.3233544310684409E-002   0.0000000000000000     
   1.3037714586275180E-002   1.6561310618554512E-002   0.0000000000000000     
   1.4955147171228500E-002   2.0169807324593954E-002   0.0000000000000000     
   2.4627398377214105E-002   2.2823938166511262E-002   0.0000000000000000     
   2.7532131761737647E-002   2.6672335049339763E-002   0.0000000000000000     
   3.0361940058116370E-002   3.0737379695182268E-002   0.0000000000000000     
   3.3116823266350251E-002   3.5019072104038776E-002   0.0000000000000000     
   3.5796781386439311E-002   3.9517412275909283E-002   0.0000000000000000     
   2.1963460735559534E-002   2.2002678989429519E-002   0.0000000000000000     
   2.4629785039841860E-002   2.5880041547906452E-002   0.0000000000000000     
   2.7225427012135525E-002   2.9967794610791996E-002   0.0000000000000000     
   2.9750386652440515E-002   3.4265938178086153E-002   0.0000000000000000     
   3.2204663960756844E-002   3.8774472249788923E-002   0.0000000000000000     
   1.9463439654010411E-002   2.1286570790082716E-002   0.0000000000000000     
   2.1883084675126389E-002   2.5175612324503230E-002   0.0000000000000000     
   2.4239073127470739E-002   2.9274076477317897E-002   0.0000000000000000     
   2.6531405011043466E-002   3.3581963248526733E-002   0.0000000000000000     
   2.8760080325844560E-002   3.8099272638129712E-002   0.0000000000000000     
   1.7127335132566732E-002   2.0675613568470863E-002   0.0000000000000000     
   1.9292030667591234E-002   2.4559047379130110E-002   0.0000000000000000     
   2.1402878404122024E-002   2.8656225294759984E-002   0.0000000000000000     
   2.3459878342159100E-002   3.2967147315360497E-002   0.0000000000000000     
   2.5463030481702474E-002   3.7491813440931637E-002   0.0000000000000000     
   1.4955147171228500E-002   2.0169807324593954E-002   0.0000000000000000     
   1.6856623017236387E-002   2.4030346711787085E-002   0.0000000000000000     
   1.8716842842089368E-002   2.8114241063118245E-002   0.0000000000000000     
   2.0535806645787431E-002   3.2421490378587450E-002   0.0000000000000000     
   2.2313514428330586E-002   3.6952094658194691E-002   0.0000000000000000     
   3.5796781386439311E-002   3.9517412275909283E-002   0.0000000000000000     
   3.8402539543808019E-002   4.4222370996611741E-002   0.0000000000000000     
   4.0934822863880845E-002   4.9123919051964095E-002   0.0000000000000000     
   4.3393631346657795E-002   5.4222056441966364E-002   0.0000000000000000     
   4.5778964992138862E-002   5.9516783166618528E-002   0.0000000000000000     
   3.2204663960756844E-002   3.8774472249788923E-002   0.0000000000000000     
   3.4590666096416124E-002   4.3488792283685525E-002   0.0000000000000000     
   3.6910800218749984E-002   4.8404293737561124E-002   0.0000000000000000     
   3.9165066327758437E-002   5.3520976611415742E-002   0.0000000000000000     
   4.1353464423441469E-002   5.8838840905249365E-002   0.0000000000000000     
   2.8760080325844560E-002   3.8099272638129712E-002   0.0000000000000000     
   3.0927473861770659E-002   4.2823456222069421E-002   0.0000000000000000     
   3.3035960408718389E-002   4.7751965576288413E-002   0.0000000000000000     
   3.5085539966687743E-002   5.2884800700786681E-002   0.0000000000000000     
   3.7076212535678742E-002   5.8221961595564233E-002   0.0000000000000000     
   2.5463030481702474E-002   3.7491813440931637E-002   0.0000000000000000     
   2.7412962839871626E-002   4.2226362811763445E-002   0.0000000000000000     
   2.9310303433786052E-002   4.7166934568145968E-002   0.0000000000000000     
   3.1155052263445736E-002   5.2313528710079188E-002   0.0000000000000000     
   3.2947209328850688E-002   5.7666145237563124E-002   0.0000000000000000     
   2.2313514428330586E-002   3.6952094658194691E-002   0.0000000000000000     
   2.4047133030719033E-002   4.1697512052767588E-002   0.0000000000000000     
   2.5733829293952969E-002   4.6649200713133776E-002   0.0000000000000000     
   2.7373603218032391E-002   5.1807160639293262E-002   0.0000000000000000     
   2.8966454802957311E-002   5.7171391831246025E-002   0.0000000000000000     
   4.5778964992138862E-002   5.9516783166618528E-002   0.0000000000000000     
   4.8090125402251285E-002   6.5000497347307076E-002   0.0000000000000000     
   5.0326414178922314E-002   7.0665597105418476E-002   0.0000000000000000     
   5.2487831322151922E-002   7.6512082440952742E-002   0.0000000000000000     
   5.4574376831940122E-002   8.2539953353909873E-002   0.0000000000000000     
   4.1353464423441469E-002   5.8838840905249365E-002   0.0000000000000000     
   4.3474417203835020E-002   6.4347364713615948E-002   0.0000000000000000     
   4.5526347366975035E-002   7.0036026131069434E-002   0.0000000000000000     
   4.7509254912861502E-002   7.5904825157609809E-002   0.0000000000000000     
   4.9423139841494428E-002   8.1953761793237073E-002   0.0000000000000000     
   3.7076212535678742E-002   5.8221961595564233E-002   0.0000000000000000     
   3.9006059473596130E-002   6.3751156599561765E-002   0.0000000000000000     
   4.0873162138344660E-002   6.9460094051719976E-002   0.0000000000000000     
   4.2677520529924351E-002   7.5348773952038844E-002   0.0000000000000000     
   4.4419134648335190E-002   8.1417196300518413E-002   0.0000000000000000     
   3.2947209328850688E-002   5.7666145237563124E-002   0.0000000000000000     
   3.4685052211534617E-002   6.3211873005144512E-002   0.0000000000000000     
   3.6366858493031215E-002   6.8937800867370114E-002   0.0000000000000000     
   3.7992628173340474E-002   7.4843928824239903E-002   0.0000000000000000     
   3.9562361252462416E-002   8.0930256875753892E-002   0.0000000000000000     
   2.8966454802957311E-002   5.7171391831246025E-002   0.0000000000000000     
   3.0511395417650487E-002   6.2729513930364189E-002   0.0000000000000000     
   3.2007436431034673E-002   6.8469146578019807E-002   0.0000000000000000     
   3.3454577843109880E-002   7.4390289774212942E-002   0.0000000000000000     
   3.4852819653876106E-002   8.0492943518943538E-002   0.0000000000000000     
   5.4574376831940122E-002   8.2539953353909873E-002   0.0000000000000000     
   5.6586133239993848E-002   8.8738132360251742E-002   0.0000000000000000     
   5.8523183078020027E-002   9.5095541975940223E-002   0.0000000000000000     
   6.0385526346018667E-002  0.10161218220097533        0.0000000000000000     
   6.2173163043989760E-002  0.10828805303535702        0.0000000000000000     
   4.9423139841494428E-002   8.1953761793237073E-002   0.0000000000000000     
   5.1268267993854720E-002   8.8172122508071951E-002   0.0000000000000000     
   5.3044905210923254E-002   9.4549193772235196E-002   0.0000000000000000     
   5.4753051492700072E-002  0.10108497558572675        0.0000000000000000     
   5.6392706839185139E-002  0.10777946794854666        0.0000000000000000     
   4.4419134648335190E-002   8.1417196300518413E-002   0.0000000000000000     
   4.6098099776697918E-002   8.7654642092705945E-002   0.0000000000000000     
   4.7714511198133275E-002   9.4050392324148815E-002   0.0000000000000000     
   4.9268368912641254E-002  0.10060444699484695        0.0000000000000000     
   5.0759672920221870E-002  0.10731680610480042        0.0000000000000000     
   3.9562361252462416E-002   8.0930256875753892E-002   0.0000000000000000     
   4.1075628588523462E-002   8.7185691114153765E-002   0.0000000000000000     
   4.2532001039650068E-002   9.3599137631681095E-002   0.0000000000000000     
   4.3931478605842247E-002  0.10017059642833596        0.0000000000000000     
   4.5274061287099966E-002  0.10690006750411832        0.0000000000000000     
   3.4852819653876106E-002   8.0492943518943538E-002   0.0000000000000000     
   3.6200854429331360E-002   8.6765269572415316E-002   0.0000000000000000     
   3.7497374735473668E-002   9.3195429694832077E-002   0.0000000000000000     
   3.8742380572303024E-002   9.9783423886193739E-002   0.0000000000000000     
   3.9935871939819428E-002  0.10652925214650030        0.0000000000000000     
   6.2173163043989760E-002  0.10828805303535702        0.0000000000000000     
   6.3890851820239986E-002  0.11510802321512741        0.0000000000000000     
   6.5543351323076038E-002  0.12205696147632851        0.0000000000000000     
   6.7130661552497917E-002  0.12913486781896036        0.0000000000000000     
   6.8652782508505622E-002  0.13634174224302295        0.0000000000000000     
   5.6392706839185139E-002  0.10777946794854666        0.0000000000000000     
   5.7966796863475854E-002  0.11461915816770195        0.0000000000000000     
   5.9478247178669626E-002  0.12159053355019961        0.0000000000000000     
   6.0927057784766432E-002  0.12869359409603967        0.0000000000000000     
   6.2313228681766294E-002  0.13592833980522209        0.0000000000000000     
   5.0759672920221870E-002  0.10731680610480042        0.0000000000000000     
   5.2190076676543393E-002  0.11417513776087822        0.0000000000000000     
   5.3561233637274136E-002  0.12116711006994939        0.0000000000000000     
   5.4873143802414093E-002  0.12829272303201392        0.0000000000000000     
   5.6125807171963256E-002  0.13555197664707180        0.0000000000000000     
   4.5274061287099966E-002  0.10690006750411832        0.0000000000000000     
   4.6560691259442628E-002  0.11377596199465627        0.0000000000000000     
   4.7792310698889610E-002  0.12078669103557786        0.0000000000000000     
   4.8968919605440898E-002  0.12793225462688315        0.0000000000000000     
   5.0090517979096513E-002  0.13521265276857206        0.0000000000000000     
   3.9935871939819428E-002  0.10652925214650030        0.0000000000000000     
   4.1078640612173534E-002  0.11342163086903599        0.0000000000000000     
   4.2171478363516007E-002  0.12044927644708502        0.0000000000000000     
   4.3214385193846849E-002  0.12761218888064726        0.0000000000000000     
   4.4207361103166067E-002  0.13491036816972285        0.0000000000000000     
   6.8652782508505622E-002  0.13634174224302295        0.0000000000000000     
   7.0097088284823153E-002  0.14367102137797655        0.0000000000000000     
   7.1450952975174509E-002  0.15111614185328143        0.0000000000000000     
   7.2714376579559675E-002  0.15867710366893764        0.0000000000000000     
   7.3887359097978680E-002  0.16635390682494511        0.0000000000000000     
   6.2313228681766294E-002  0.13592833980522209        0.0000000000000000     
   6.3630318800981647E-002  0.14328460914988922        0.0000000000000000     
   6.4871887073724960E-002  0.15075224060218329        0.0000000000000000     
   6.6037933499996204E-002  0.15833123416210437        0.0000000000000000     
   6.7128458079795394E-002  0.16602158982965240        0.0000000000000000     
   5.6125807171963256E-002  0.13555197664707180        0.0000000000000000     
   5.7316837968924624E-002  0.14293237096487876        0.0000000000000000     
   5.8443850416301187E-002  0.15042140603519050        0.0000000000000000     
   5.9506844514092938E-002  0.15801908185800703        0.0000000000000000     
   6.0505820262299864E-002  0.16572539843332837        0.0000000000000000     
   5.0090517979096513E-002  0.13521265276857206        0.0000000000000000     
   5.1156645788652075E-002  0.14261430682294518        0.0000000000000000     
   5.2166843002903196E-002  0.15012363815230306        0.0000000000000000     
   5.3121109621849877E-002  0.15774064675664565        0.0000000000000000     
   5.4019445645492110E-002  0.16546533263597302        0.0000000000000000     
   4.4207361103166067E-002  0.13491036816972285        0.0000000000000000     
   4.5149742260163980E-002  0.14233041672408847        0.0000000000000000     
   4.6040864833530967E-002  0.14985893695352093        0.0000000000000000     
   4.6880728823267007E-002  0.15749592885802025        0.0000000000000000     
   4.7669334229372112E-002  0.16524139243758637        0.0000000000000000     
   0.0000000000000000        0.0000000000000000        0.0000000000000000     
   1.7983437771654238E-003   1.2768835298002622E-003   0.0000000000000000     
   3.6213703847204838E-003   2.9392118546423831E-003   0.0000000000000000     
   5.4690798226651799E-003   4.9869849745263622E-003   0.0000000000000000     
   7.3414720909995117E-003   7.4202028894522010E-003   0.0000000000000000     
   0.0000000000000000        0.0000000000000000        0.0000000000000000     
   1.5350656700703199E-003   1.2175671694730447E-003   0.0000000000000000     
   3.0994267809778871E-003   2.8208849701338726E-003   0.0000000000000000     
   4.6930833327227025E-003   4.8099534019824851E-003   0.0000000000000000     
   6.3160353253047651E-003   7.1847724650188792E-003   0.0000000000000000     
   0.0000000000000000        0.0000000000000000        0.0000000000000000     
   1.2878622702454968E-003   1.1699767282614788E-003   0.0000000000000000     
   2.6055722826828381E-003   2.7245944797791664E-003   0.0000000000000000     
   3.9531300373120241E-003   4.6638532545530634E-003   0.0000000000000000     
   5.3305355341330537E-003   6.9877530525831689E-003   0.0000000000000000     
   0.0000000000000000        0.0000000000000000        0.0000000000000000     
   1.0567335776909546E-003   1.1341122061655641E-003   0.0000000000000000     
   2.1398068898353354E-003   2.6503403835782635E-003   0.0000000000000000     
   3.2492199364331422E-003   4.5486845322380981E-003   0.0000000000000000     
   4.3849727174843749E-003   6.8291446521450659E-003   0.0000000000000000     
   0.0000000000000000        0.0000000000000000        0.0000000000000000     
   8.4167959240669316E-004   1.1099736031853005E-003   0.0000000000000000     
   1.7021306024353794E-003   2.5981226815311636E-003   0.0000000000000000     
   2.5813530300860584E-003   4.4644472350375882E-003   0.0000000000000000     
   3.4793468753587303E-003   6.7089472637045754E-003   0.0000000000000000     
   7.3414720909995117E-003   7.4202028894522010E-003   0.0000000000000000     
   9.2308770461606866E-003   1.0186508400983636E-002   0.0000000000000000     
   1.1129624544585911E-002   1.3233544310684409E-002   0.0000000000000000     
   1.3037714586275180E-002   1.6561310618554512E-002   0.0000000000000000     
   1.4955147171228500E-002   2.0169807324593954E-002   0.0000000000000000     
   6.3160353253047651E-003   7.1847724650188792E-003   0.0000000000000000     
   7.9556224500459977E-003   9.8957893736389101E-003   0.0000000000000000     
   9.5991843982683213E-003   1.2893451342238427E-002   0.0000000000000000     
   1.1246721169971736E-002   1.6177758370817433E-002   0.0000000000000000     
   1.2898232765156240E-002   1.9748710459375929E-002   0.0000000000000000     
   5.3305355341330537E-003   6.9877530525831689E-003   0.0000000000000000     
   6.7233708960318574E-003   9.6501763048991718E-003   0.0000000000000000     
   8.1172182458943629E-003   1.2605005442530768E-002   0.0000000000000000     
   9.5120775837205709E-003   1.5852240465477948E-002   0.0000000000000000     
   1.0907948909510481E-002   1.9391881373740726E-002   0.0000000000000000     
   4.3849727174843749E-003   6.8291446521450659E-003   0.0000000000000000     
   5.5341223841182622E-003   9.4496691947644224E-003   0.0000000000000000     
   6.6837260874640318E-003   1.2368206611561423E-002   0.0000000000000000     
   7.8337838275216853E-003   1.5584756902536065E-002   0.0000000000000000     
   8.9842956042912193E-003   1.9099320067688347E-002   0.0000000000000000     
   3.4793468753587303E-003   6.7089472637045754E-003   0.0000000000000000     
   4.3878769143052146E-003   9.2942680432346637E-003   0.0000000000000000     
   5.2987079229773306E-003   1.2183054849330398E-002   0.0000000000000000     
   6.2118399013750773E-003   1.5375307681991773E-002   0.0000000000000000     
   7.1272728494984573E-003   1.8871026541218791E-002   0.0000000000000000     
   1.4955147171228500E-002   2.0169807324593954E-002   0.0000000000000000     
   1.6856623017236387E-002   2.4030346711787085E-002   0.0000000000000000     
   1.8716842842089368E-002   2.8114241063118245E-002   0.0000000000000000     
   2.0535806645787431E-002   3.2421490378587450E-002   0.0000000000000000     
   2.2313514428330586E-002   3.6952094658194691E-002   0.0000000000000000     
   1.2898232765156240E-002   1.9748710459375929E-002   0.0000000000000000     
   1.4537295201481039E-002   2.3580145867322964E-002   0.0000000000000000     
   1.6147484496605330E-002   2.7645902854067601E-002   0.0000000000000000     
   1.7728800650529109E-002   3.1945981419609845E-002   0.0000000000000000     
   1.9281243663252380E-002   3.6480381563949678E-002   0.0000000000000000     
   1.0907948909510481E-002   1.9391881373740726E-002   0.0000000000000000     
   1.2294480697744357E-002   2.3199080390586567E-002   0.0000000000000000     
   1.3661321422902457E-002   2.7248989739282966E-002   0.0000000000000000     
   1.5008471084984784E-002   3.1541609419829905E-002   0.0000000000000000     
   1.6335929683991335E-002   3.6076939432227402E-002   0.0000000000000000     
   8.9842956042912193E-003   1.9099320067688347E-002   0.0000000000000000     
   1.0128179506026340E-002   2.2887150281577891E-002   0.0000000000000000     
   1.1258353620980753E-002   2.6923501718764325E-002   0.0000000000000000     
   1.2374817949154458E-002   3.1208374379247644E-002   0.0000000000000000     
   1.3477572490547454E-002   3.5741768263027850E-002   0.0000000000000000     
   7.1272728494984573E-003   1.8871026541218791E-002   0.0000000000000000     
   8.0383916263269961E-003   2.2644355540296941E-002   0.0000000000000000     
   8.9385810908402200E-003   2.6669438792511695E-002   0.0000000000000000     
   9.8278412430381334E-003   3.0946276297863062E-002   0.0000000000000000     
   1.0706172082920736E-002   3.5474868056351042E-002   0.0000000000000000     
   2.2313514428330586E-002   3.6952094658194691E-002   0.0000000000000000     
   2.4047133030719033E-002   4.1697512052767588E-002   0.0000000000000000     
   2.5733829293952969E-002   4.6649200713133776E-002   0.0000000000000000     
   2.7373603218032391E-002   5.1807160639293262E-002   0.0000000000000000     
   2.8966454802957311E-002   5.7171391831246025E-002   0.0000000000000000     
   1.9281243663252380E-002   3.6480381563949678E-002   0.0000000000000000     
   2.0798565921363581E-002   4.1235053919254458E-002   0.0000000000000000     
   2.2274519811451149E-002   4.6195949117691516E-002   0.0000000000000000     
   2.3709105333515085E-002   5.1363067159260867E-002   0.0000000000000000     
   2.5102322487555388E-002   5.6736408043962488E-002   0.0000000000000000     
   1.6335929683991335E-002   3.6076939432227402E-002   0.0000000000000000     
   1.7635842998855979E-002   4.0837138385396633E-002   0.0000000000000000     
   1.8900356808512587E-002   4.5804364888258828E-002   0.0000000000000000     
   2.0129471112961157E-002   5.0978618940813944E-002   0.0000000000000000     
   2.1323185912201687E-002   5.6359900543062023E-002   0.0000000000000000     
   1.3477572490547454E-002   3.5741768263027850E-002   0.0000000000000000     
   1.4558964263196231E-002   4.0503765451194142E-002   0.0000000000000000     
   1.5611340285137283E-002   4.5474448024835704E-002   0.0000000000000000     
   1.6634700556370615E-002   5.0653815983952549E-002   0.0000000000000000     
   1.7629045076896215E-002   5.6041869328544658E-002   0.0000000000000000     
   1.0706172082920736E-002   3.5474868056351042E-002   0.0000000000000000     
   1.1567929714384332E-002   4.0234935116646962E-002   0.0000000000000000     
   1.2407470241325236E-002   4.5206198527422158E-002   0.0000000000000000     
   1.3224793663743449E-002   5.0388658288676620E-002   0.0000000000000000     
   1.4019899981638967E-002   5.5782314400410371E-002   0.0000000000000000     
   2.8966454802957311E-002   5.7171391831246025E-002   0.0000000000000000     
   3.0511395417650487E-002   6.2729513930364189E-002   0.0000000000000000     
   3.2007436431034673E-002   6.8469146578019807E-002   0.0000000000000000     
   3.3454577843109880E-002   7.4390289774212942E-002   0.0000000000000000     
   3.4852819653876106E-002   8.0492943518943538E-002   0.0000000000000000     
   2.5102322487555388E-002   5.6736408043962488E-002   0.0000000000000000     
   2.6453932661782833E-002   6.2304375533179489E-002   0.0000000000000000     
   2.7763697244408192E-002   6.8055373388294982E-002   0.0000000000000000     
   2.9031616235431480E-002   7.3989401609308961E-002   0.0000000000000000     
   3.0257689634852682E-002   8.0106460196221391E-002   0.0000000000000000     
   2.1323185912201687E-002   5.6359900543062023E-002   0.0000000000000000     
   2.2481507513770749E-002   6.1936753971549165E-002   0.0000000000000000     
   2.3604442225204920E-002   6.7697723502821466E-002   0.0000000000000000     
   2.4691990046504200E-002   7.3642809136878956E-002   0.0000000000000000     
   2.5744150977668589E-002   7.9772010873721585E-002   0.0000000000000000     
   1.7629045076896215E-002   5.6041869328544658E-002   0.0000000000000000     
   1.8594119973614244E-002   6.1626649245473189E-002   0.0000000000000000     
   1.9529671373424849E-002   6.7396196921599261E-002   0.0000000000000000     
   2.0435699276328042E-002   7.3350512356922914E-002   0.0000000000000000     
   2.1312203682323814E-002   7.9489595551444067E-002   0.0000000000000000     
   1.4019899981638967E-002   5.5782314400410371E-002   0.0000000000000000     
   1.4791770041313306E-002   6.1374061354951562E-002   0.0000000000000000     
   1.5539384689067985E-002   6.7150793644628379E-002   0.0000000000000000     
   1.6262743924903005E-002   7.3112511269440822E-002   0.0000000000000000     
   1.6961847748818364E-002   7.9259214229388877E-002   0.0000000000000000     
   3.4852819653876106E-002   8.0492943518943538E-002   0.0000000000000000     
   3.6200854429331360E-002   8.6765269572415316E-002   0.0000000000000000     
   3.7497374735473668E-002   9.3195429694832077E-002   0.0000000000000000     
   3.8742380572303024E-002   9.9783423886193739E-002   0.0000000000000000     
   3.9935871939819428E-002  0.10652925214650030        0.0000000000000000     
   3.0257689634852682E-002   8.0106460196221391E-002   0.0000000000000000     
   3.1439840163623445E-002   8.6393941565864510E-002   0.0000000000000000     
   3.2575990542695388E-002   9.2839238135070418E-002   0.0000000000000000     
   3.3666140772068531E-002   9.9442349903839183E-002   0.0000000000000000     
   3.4710290851742868E-002  0.10620327687217074        0.0000000000000000     
   2.5744150977668589E-002   7.9772010873721585E-002   0.0000000000000000     
   2.6758648655901558E-002   8.6072271192875027E-002   0.0000000000000000     
   2.7733206718406608E-002   9.2530532573864899E-002   0.0000000000000000     
   2.8667825165183725E-002   9.9146795016691200E-002   0.0000000000000000     
   2.9562503996232919E-002  0.10592105852135393        0.0000000000000000     
   2.1312203682323814E-002   7.9489595551444067E-002   0.0000000000000000     
   2.2157279906165717E-002   8.5800258453446909E-002   0.0000000000000000     
   2.2969023262607313E-002   9.2269313011215465E-002   0.0000000000000000     
   2.3747433751648606E-002   9.8896759224749775E-002   0.0000000000000000     
   2.4492511373289588E-002  0.10568259709404981        0.0000000000000000     
   1.6961847748818364E-002   7.9259214229388877E-002   0.0000000000000000     
   1.7635733914415915E-002   8.5577903347580142E-002   0.0000000000000000     
   1.8283440175297518E-002   9.2055579447122171E-002   0.0000000000000000     
   1.8904966531463167E-002   9.8692242528014937E-002   0.0000000000000000     
   1.9500312982912864E-002  0.10548789259025848        0.0000000000000000     
   3.9935871939819428E-002  0.10652925214650030        0.0000000000000000     
   4.1078640612173534E-002  0.11342163086903599        0.0000000000000000     
   4.2171478363516007E-002  0.12044927644708502        0.0000000000000000     
   4.3214385193846849E-002  0.12761218888064726        0.0000000000000000     
   4.4207361103166067E-002  0.13491036816972285        0.0000000000000000     
   3.4710290851742868E-002  0.10620327687217074        0.0000000000000000     
   3.5709312406798768E-002  0.11311076430144228        0.0000000000000000     
   3.6664077062316586E-002  0.12015355745303090        0.0000000000000000     
   3.7574584818296342E-002  0.12733165632693660        0.0000000000000000     
   3.8440835674738029E-002  0.13464506092315942        0.0000000000000000     
   2.9562503996232919E-002  0.10592105852135393        0.0000000000000000     
   3.0418094315380940E-002  0.11284198220929983        0.0000000000000000     
   3.1235447226454556E-002  0.11989822520197566        0.0000000000000000     
   3.2014562729453758E-002  0.12708978749938138        0.0000000000000000     
   3.2755440824378548E-002  0.13441666910151701        0.0000000000000000     
   2.4492511373289588E-002  0.10568259709404981        0.0000000000000000     
   2.5204986337920079E-002  0.11261528459260864        0.0000000000000000     
   2.5885588855929915E-002  0.11968327969391920        0.0000000000000000     
   2.6534318927319098E-002  0.12688658239798153        0.0000000000000000     
   2.7151176552087614E-002  0.13422519270479558        0.0000000000000000     
   1.9500312982912864E-002  0.10548789259025848        0.0000000000000000     
   2.0069988474416180E-002  0.11243067145136872        0.0000000000000000     
   2.0614501950742683E-002  0.11950872092886158        0.0000000000000000     
   2.1133853411892365E-002  0.12672204102273704        0.0000000000000000     
   2.1628042857865237E-002  0.13407063173299519        0.0000000000000000     
   4.4207361103166067E-002  0.13491036816972285        0.0000000000000000     
   4.5149742260163980E-002  0.14233041672408847        0.0000000000000000     
   4.6040864833530967E-002  0.14985893695352093        0.0000000000000000     
   4.6880728823267007E-002  0.15749592885802025        0.0000000000000000     
   4.7669334229372112E-002  0.16524139243758637        0.0000000000000000     
   3.8440835674738029E-002  0.13464506092315942        0.0000000000000000     
   3.9261128655551009E-002  0.14208110513958969        0.0000000000000000     
   4.0033762784644635E-002  0.14962712287411786        0.0000000000000000     
   4.0758738062018920E-002  0.15728311412674384        0.0000000000000000     
   4.1436054487673846E-002  0.16504907889746767        0.0000000000000000     
   3.2755440824378548E-002  0.13441666910151701        0.0000000000000000     
   3.3455806246903780E-002  0.14186677654072993        0.0000000000000000     
   3.4113383732704311E-002  0.14942801634936739        0.0000000000000000     
   3.4728173281780149E-002  0.15710038852742950        0.0000000000000000     
   3.5300174894131280E-002  0.16488389307491616        0.0000000000000000     
   2.7151176552087614E-002  0.13422519270479558        0.0000000000000000     
   2.7733775034222308E-002  0.14168743092750907        0.0000000000000000     
   2.8279727677709997E-002  0.14926161737926966        0.0000000000000000     
   2.8789034482550699E-002  0.15694775206007719        0.0000000000000000     
   2.9261695448744400E-002  0.16474583496993184        0.0000000000000000     
   2.1628042857865237E-002  0.13407063173299519        0.0000000000000000     
   2.2095035017506579E-002  0.14154306829992722        0.0000000000000000     
   2.2532794619661692E-002  0.14912792596382449        0.0000000000000000     
   2.2941321664330570E-002  0.15682520472468700        0.0000000000000000     
   2.3320616151513218E-002  0.16463490458251478        0.0000000000000000     
   0.0000000000000000        0.0000000000000000        0.0000000000000000     
   8.4167959240669316E-004   1.1099736031853005E-003   0.0000000000000000     
   1.7021306024353794E-003   2.5981226815311636E-003   0.0000000000000000     
   2.5813530300860584E-003   4.4644472350375882E-003   0.0000000000000000     
   3.4793468753587303E-003   6.7089472637045754E-003   0.0000000000000000     
   0.0000000000000000        0.0000000000000000        0.0000000000000000     
   6.3381214415666695E-004   1.0939824151802349E-003   0.0000000000000000     
   1.2780236388038240E-003   2.5620731146619919E-003   0.0000000000000000     
   1.9326344839414710E-003   4.4042720984452718E-003   0.0000000000000000     
   2.5976446795696077E-003   6.6205793665300725E-003   0.0000000000000000     
   0.0000000000000000        0.0000000000000000        0.0000000000000000     
   4.2424306270483041E-004   1.0825601380099134E-003   0.0000000000000000     
   8.5296621726152293E-004   2.5363234239948740E-003   0.0000000000000000     
   1.2861694636700776E-003   4.3612898579548824E-003   0.0000000000000000     
   1.7238528019304948E-003   6.5574594398899386E-003   0.0000000000000000     
   0.0000000000000000        0.0000000000000000        0.0000000000000000     
   2.1297234805118341E-004   1.0757067716743358E-003   0.0000000000000000     
   4.2695833780847641E-004   2.5208736095298102E-003   0.0000000000000000     
   6.4195796927187898E-004   4.3355005135664228E-003   0.0000000000000000     
   8.5797124244139087E-004   6.5195874837841736E-003   0.0000000000000000     
   0.0000000000000000        0.0000000000000000        0.0000000000000000     
   1.9572600376376037E-013   1.0734223161735026E-003   0.0000000000000000     
   4.4468416579221404E-013   2.5157236712667992E-003   0.0000000000000000     
   7.4687456740052394E-013   4.3269040652798903E-003   0.0000000000000000     
   1.1022969104330926E-012   6.5069634982127767E-003   0.0000000000000000     
   3.4793468753587303E-003   6.7089472637045754E-003   0.0000000000000000     
   4.3878769143052146E-003   9.2942680432346637E-003   0.0000000000000000     
   5.2987079229773306E-003   1.2183054849330398E-002   0.0000000000000000     
   6.2118399013750773E-003   1.5375307681991773E-002   0.0000000000000000     
   7.1272728494984573E-003   1.8871026541218791E-002   0.0000000000000000     
   2.5976446795696077E-003   6.6205793665300725E-003   0.0000000000000000     
   3.2700766456835876E-003   9.1780258924902738E-003   0.0000000000000000     
   3.9469528022787618E-003   1.2043642649899752E-002   0.0000000000000000     
   4.6282731493551320E-003   1.5217429638758505E-002   0.0000000000000000     
   5.3140376869126957E-003   1.8699386859066542E-002   0.0000000000000000     
   1.7238528019304948E-003   6.5574594398899386E-003   0.0000000000000000     
   2.1661637373442521E-003   9.0949957847116306E-003   0.0000000000000000     
   2.6132497752128286E-003   1.1944062507331550E-002   0.0000000000000000     
   3.0651109155362239E-003   1.5104659607749696E-002   0.0000000000000000     
   3.5217471583144384E-003   1.8576787085966065E-002   0.0000000000000000     
   8.5797124244139087E-004   6.5195874837841736E-003   0.0000000000000000     
   1.0761381892872097E-003   9.0451777198987376E-003   0.0000000000000000     
   1.2975988417795313E-003   1.1884314421625792E-002   0.0000000000000000     
   1.5223531999183568E-003   1.5036997588965338E-002   0.0000000000000000     
   1.7504012637036851E-003   1.8503227221917370E-002   0.0000000000000000     
   1.1022969104330926E-012   6.5069634982127767E-003   0.0000000000000000     
   1.5124595505048091E-012   9.0285716980515913E-003   0.0000000000000000     
   1.9788702604718947E-012   1.1864398392782480E-002   0.0000000000000000     
   2.5015288133295194E-012   1.5014443582405430E-002   0.0000000000000000     
   3.0804356461466842E-012   1.8478707266920451E-002   0.0000000000000000     
   7.1272728494984573E-003   1.8871026541218791E-002   0.0000000000000000     
   8.0383916263269961E-003   2.2644355540296941E-002   0.0000000000000000     
   8.9385810908402200E-003   2.6669438792511695E-002   0.0000000000000000     
   9.8278412430381334E-003   3.0946276297863062E-002   0.0000000000000000     
   1.0706172082920736E-002   3.5474868056351042E-002   0.0000000000000000     
   5.3140376869126957E-003   1.8699386859066542E-002   0.0000000000000000     
   5.9973437321464819E-003   2.2462156864994851E-002   0.0000000000000000     
   6.6712886022515161E-003   2.6478382210714444E-002   0.0000000000000000     
   7.3358722972277973E-003   3.0748062896225305E-002   0.0000000000000000     
   7.9910948170753265E-003   3.5271198921527455E-002   0.0000000000000000     
   3.5217471583144384E-003   1.8576787085966065E-002   0.0000000000000000     
   3.9772624969849650E-003   2.2332014953922775E-002   0.0000000000000000     
   4.4257609249852966E-003   2.6341913223561927E-002   0.0000000000000000     
   4.8672424423154316E-003   3.0606481894883537E-002   0.0000000000000000     
   5.3017070489753725E-003   3.5125720967887589E-002   0.0000000000000000     
   1.7504012637036851E-003   1.8503227221917370E-002   0.0000000000000000     
   1.9781479208424448E-003   2.2253929807080707E-002   0.0000000000000000     
   2.2019980590415622E-003   2.6260031831054170E-002   0.0000000000000000     
   2.4219516783010380E-003   3.0521533293837742E-002   0.0000000000000000     
   2.6380087786208721E-003   3.5038434195431442E-002   0.0000000000000000     
   3.0804356461466842E-012   1.8478707266920451E-002   0.0000000000000000     
   3.7189208960605735E-012   2.2227901424468652E-002   0.0000000000000000     
   4.4203143207376117E-012   2.6232738033191146E-002   0.0000000000000000     
   5.1846163945162491E-012   3.0493217093087936E-002   0.0000000000000000     
   6.0118266701630896E-012   3.5009338604159015E-002   0.0000000000000000     
   1.0706172082920736E-002   3.5474868056351042E-002   0.0000000000000000     
   1.1567929714384332E-002   4.0234935116646962E-002   0.0000000000000000     
   1.2407470241325236E-002   4.5206198527422158E-002   0.0000000000000000     
   1.3224793663743449E-002   5.0388658288676620E-002   0.0000000000000000     
   1.4019899981638967E-002   5.5782314400410371E-002   0.0000000000000000     
   7.9910948170753265E-003   3.5271198921527455E-002   0.0000000000000000     
   8.6338497661268762E-003   4.0027945961173463E-002   0.0000000000000000     
   9.2610307487152183E-003   4.4998459689715900E-002   0.0000000000000000     
   9.8726377648403526E-003   5.0182740107154782E-002   0.0000000000000000     
   1.0468670814502277E-002   5.5580787213490093E-002   0.0000000000000000     
   5.3017070489753725E-003   3.5125720967887589E-002   0.0000000000000000     
   5.7278348321304490E-003   3.9880096564191996E-002   0.0000000000000000     
   6.1443058789459925E-003   4.4850074805414648E-002   0.0000000000000000     
   6.5511201894220021E-003   5.0035655691555568E-002   0.0000000000000000     
   6.9482777635584796E-003   5.5436839222614741E-002   0.0000000000000000     
   2.6380087786208721E-003   3.5038434195431442E-002   0.0000000000000000     
   2.8498849123950514E-003   3.9791386925702561E-002   0.0000000000000000     
   3.0572956320175609E-003   4.4761043874518423E-002   0.0000000000000000     
   3.2602409374884009E-003   4.9947405041879007E-002   0.0000000000000000     
   3.4587208288075718E-003   5.5350470427784321E-002   0.0000000000000000     
   6.0118266701630896E-012   3.5009338604159015E-002   0.0000000000000000     
   6.9206828852766411E-012   3.9761817045705174E-002   0.0000000000000000     
   7.9299233737666064E-012   4.4731366897027197E-002   0.0000000000000000     
   9.0395480136602410E-012   4.9917988158125079E-002   0.0000000000000000     
   1.0249555327732085E-011   5.5321680828998826E-002   0.0000000000000000     
   1.4019899981638967E-002   5.5782314400410371E-002   0.0000000000000000     
   1.4791770041313306E-002   6.1374061354951562E-002   0.0000000000000000     
   1.5539384689067985E-002   6.7150793644628379E-002   0.0000000000000000     
   1.6262743924903005E-002   7.3112511269440822E-002   0.0000000000000000     
   1.6961847748818364E-002   7.9259214229388877E-002   0.0000000000000000     
   1.0468670814502277E-002   5.5580787213490093E-002   0.0000000000000000     
   1.1047411068173587E-002   6.1178210566212296E-002   0.0000000000000000     
   1.1607139696326867E-002   6.6960619722811865E-002   0.0000000000000000     
   1.2147856698962123E-002   7.2928014683288772E-002   0.0000000000000000     
   1.2669562076079353E-002   7.9080395447643045E-002   0.0000000000000000     
   6.9482777635584796E-003   5.5436839222614741E-002   0.0000000000000000     
   7.3339964055007256E-003   6.1038317145483384E-002   0.0000000000000000     
   7.7064939193940453E-003   6.6824781207052764E-002   0.0000000000000000     
   8.0657703052384368E-003   7.2796231407322859E-002   0.0000000000000000     
   8.4118255630339020E-003   7.8952667746293642E-002   0.0000000000000000     
   3.4587208288075718E-003   5.5350470427784321E-002   0.0000000000000000     
   3.6515260532947263E-003   6.0954381092764839E-002   0.0000000000000000     
   3.8374473582695173E-003   6.6743278097351089E-002   0.0000000000000000     
   4.0164847437319448E-003   7.2717161441543013E-002   0.0000000000000000     
   4.1886382096820076E-003   7.8876031125340654E-002   0.0000000000000000     
   1.0249555327732085E-011   5.5321680828998826E-002   0.0000000000000000     
   1.1555587541532686E-011   6.0926402408056662E-002   0.0000000000000000     
   1.2953283953266725E-011   6.6716110393706826E-002   0.0000000000000000     
   1.4442645999502082E-011   7.2690804785949290E-002   0.0000000000000000     
   1.6023671755779900E-011   7.8850485584784094E-002   0.0000000000000000     
   1.6961847748818364E-002   7.9259214229388877E-002   0.0000000000000000     
   1.7635733914415915E-002   8.5577903347580142E-002   0.0000000000000000     
   1.8283440175297518E-002   9.2055579447122171E-002   0.0000000000000000     
   1.8904966531463167E-002   9.8692242528014937E-002   0.0000000000000000     
   1.9500312982912864E-002  0.10548789259025848        0.0000000000000000     
   1.2669562076079353E-002   7.9080395447643045E-002   0.0000000000000000     
   1.3172274586289093E-002   8.5405067844622859E-002   0.0000000000000000     
   1.3656012988201884E-002   9.1889337702976331E-002   0.0000000000000000     
   1.4120777281817721E-002   9.8533205022703504E-002   0.0000000000000000     
   1.4566567467136606E-002  0.10533666980380435        0.0000000000000000     
   8.4118255630339020E-003   7.8952667746293642E-002   0.0000000000000000     
   8.7451658274221994E-003   8.5281613913923152E-002   0.0000000000000000     
   9.0662972330450928E-003   9.1770593600169384E-002   0.0000000000000000     
   9.3752197799025824E-003   9.8419606805032298E-002   0.0000000000000000     
   9.6719334679946679E-003  0.10522865352851193        0.0000000000000000     
   4.1886382096820076E-003   7.8876031125340654E-002   0.0000000000000000     
   4.3544076378152340E-003   8.5207541555481076E-002   0.0000000000000000     
   4.5142929098271481E-003   9.1699347138701287E-002   0.0000000000000000     
   4.6682940257177525E-003   9.8351447875001358E-002   0.0000000000000000     
   4.8164109854870445E-003  0.10516384376438123        0.0000000000000000     
   1.6023671755779900E-011   7.8850485584784094E-002   0.0000000000000000     
   1.7468195076184023E-011   8.5182850769296561E-002   0.0000000000000000     
   1.8548046399561452E-011   9.1675598318572082E-002   0.0000000000000000     
   1.9263227745238733E-011   9.8328728232610615E-002   0.0000000000000000     
   1.9613737717305568E-011  0.10514224051141222        0.0000000000000000     
   1.9500312982912864E-002  0.10548789259025848        0.0000000000000000     
   2.0069988474416180E-002  0.11243067145136872        0.0000000000000000     
   2.0614501950742683E-002  0.11950872092886158        0.0000000000000000     
   2.1133853411892365E-002  0.12672204102273704        0.0000000000000000     
   2.1628042857865237E-002  0.13407063173299519        0.0000000000000000     
   1.4566567467136606E-002  0.10533666980380435        0.0000000000000000     
   1.4993657091171061E-002  0.11228754691116896        0.0000000000000000     
   1.5402319700933592E-002  0.11937365120968740        0.0000000000000000     
   1.5792555296424204E-002  0.12659498269935970        0.0000000000000000     
   1.6164363877642897E-002  0.13395154138018575        0.0000000000000000     
   9.6719334679946679E-003  0.10522865352851193        0.0000000000000000     
   9.9565485544865443E-003  0.11218531509759827        0.0000000000000000     
   1.0229175296543404E-002  0.11927717283928131        0.0000000000000000     
   1.0489813694165255E-002  0.12650422675356096        0.0000000000000000     
   1.0738463747352088E-002  0.13386647684043734        0.0000000000000000     
   4.8164109854870445E-003  0.10516384376438123        0.0000000000000000     
   4.9586628643626326E-003  0.11212397601065661        0.0000000000000000     
   5.0950687375721235E-003  0.11921928581764318        0.0000000000000000     
   5.2256286051155180E-003  0.12644977318534095        0.0000000000000000     
   5.3503424669928126E-003  0.13381543811374996        0.0000000000000000     
   1.9613737717305568E-011  0.10514224051141222        0.0000000000000000     
   2.0799327104387144E-011  0.11210352965034399        0.0000000000000000     
   2.4019744635124518E-011  0.11919999014477316        0.0000000000000000     
   2.9274992830287741E-011  0.12643162199469968        0.0000000000000000     
   3.6565067380173177E-011  0.13379842520012356        0.0000000000000000     
   2.1628042857865237E-002  0.13407063173299519        0.0000000000000000     
   2.2095035017506579E-002  0.14154306829992722        0.0000000000000000     
   2.2532794619661692E-002  0.14912792596382449        0.0000000000000000     
   2.2941321664330570E-002  0.15682520472468700        0.0000000000000000     
   2.3320616151513218E-002  0.16463490458251478        0.0000000000000000     
   1.6164363877642897E-002  0.13395154138018575        0.0000000000000000     
   1.6516274517509845E-002  0.14143205605690790        0.0000000000000000     
   1.6846816288945222E-002  0.14902525553426832        0.0000000000000000     
   1.7155989191949023E-002  0.15673113981226702        0.0000000000000000     
   1.7443793226521252E-002  0.16454970889090403        0.0000000000000000     
   1.0738463747352088E-002  0.13386647684043734        0.0000000000000000     
   1.0974181854985334E-002  0.14135276159737473        0.0000000000000000     
   1.1196024415946406E-002  0.14895191952183742        0.0000000000000000     
   1.1403991430235313E-002  0.15666395061382546        0.0000000000000000     
   1.1598082897852045E-002  0.16448885487333881        0.0000000000000000     
   5.3503424669928126E-003  0.13381543811374996        0.0000000000000000     
   5.4687570299330468E-003  0.14130518492132771        0.0000000000000000     
   5.5804190006652548E-003  0.14890791792653177        0.0000000000000000     
   5.6853283791894367E-003  0.15662363712936225        0.0000000000000000     
   5.7834851655055907E-003  0.16445234252981905        0.0000000000000000     
   3.6565067380173177E-011  0.13379842520012356        0.0000000000000000     
   4.2352986352398037E-011  0.14128932602876682        0.0000000000000000     
   4.3101763803031490E-011  0.14889325074835144        0.0000000000000000     
   3.8811397753404572E-011  0.15661019935887741        0.0000000000000000     
   2.9481889152194185E-011  0.16444017186034476        0.0000000000000000     
   0.0000000000000000        0.0000000000000000        0.0000000000000000     
   1.9572600376376037E-013   1.0734223161735026E-003   0.0000000000000000     
   4.4468416579221404E-013   2.5157236712667992E-003   0.0000000000000000     
   7.4687456740052394E-013   4.3269040652798903E-003   0.0000000000000000     
   1.1022969104330926E-012   6.5069634982127767E-003   0.0000000000000000     
   0.0000000000000000        0.0000000000000000        0.0000000000000000     
  -2.1297234766722202E-004   1.0757067715109179E-003   0.0000000000000000     
  -4.2695833693609866E-004   2.5208736092135289E-003   0.0000000000000000     
  -6.4195796780662972E-004   4.3355005131078339E-003   0.0000000000000000     
  -8.5797124027881541E-004   6.5195874831938316E-003   0.0000000000000000     
   0.0000000000000000        0.0000000000000000        0.0000000000000000     
  -4.2424306234334108E-004   1.0825601376900861E-003   0.0000000000000000     
  -8.5296621644011705E-004   2.5363234233776863E-003   0.0000000000000000     
  -1.2861694622903282E-003   4.3612898570627983E-003   0.0000000000000000     
  -1.7238527998939739E-003   6.5574594387454253E-003   0.0000000000000000     
   0.0000000000000000        0.0000000000000000        0.0000000000000000     
  -6.3381214383263112E-004   1.0939824147110076E-003   0.0000000000000000     
  -1.2780236380673712E-003   2.5620731137592696E-003   0.0000000000000000     
  -1.9326344827042205E-003   4.4042720971447860E-003   0.0000000000000000     
  -2.5976446777431794E-003   6.6205793648675543E-003   0.0000000000000000     
   0.0000000000000000        0.0000000000000000        0.0000000000000000     
  -8.4167959213509195E-004   1.1099736025736819E-003   0.0000000000000000     
  -1.7021306018178608E-003   2.5981226803582797E-003   0.0000000000000000     
  -2.5813530290483069E-003   4.4644472333537927E-003   0.0000000000000000     
  -3.4793468738264300E-003   6.7089472615602230E-003   0.0000000000000000     
   1.1022969104330926E-012   6.5069634982127767E-003   0.0000000000000000     
   1.5124595505048091E-012   9.0285716980515913E-003   0.0000000000000000     
   1.9788702604718947E-012   1.1864398392782480E-002   0.0000000000000000     
   2.5015288133295194E-012   1.5014443582405430E-002   0.0000000000000000     
   3.0804356461466842E-012   1.8478707266920451E-002   0.0000000000000000     
  -8.5797124027881541E-004   6.5195874831938316E-003   0.0000000000000000     
  -1.0761381863186625E-003   9.0451777191917354E-003   0.0000000000000000     
  -1.2975988378921785E-003   1.1884314420821765E-002   0.0000000000000000     
  -1.5223531949993625E-003   1.5036997588083908E-002   0.0000000000000000     
  -1.7504012576402160E-003   1.8503227220978174E-002   0.0000000000000000     
  -1.7238527998939739E-003   6.5574594387454253E-003   0.0000000000000000     
  -2.1661637345448217E-003   9.0949957833407133E-003   0.0000000000000000     
  -2.6132497715366377E-003   1.1944062505763804E-002   0.0000000000000000     
  -3.0651109108694209E-003   1.5104659606014705E-002   0.0000000000000000     
  -3.5217471525431747E-003   1.8576787084093410E-002   0.0000000000000000     
  -2.5976446777431794E-003   6.6205793648675543E-003   0.0000000000000000     
  -3.2700766431660168E-003   9.1780258904985146E-003   0.0000000000000000     
  -3.9469527989545068E-003   1.2043642647608602E-002   0.0000000000000000     
  -4.6282731451086495E-003   1.5217429636197816E-002   0.0000000000000000     
  -5.3140376816284418E-003   1.8699386856266157E-002   0.0000000000000000     
  -3.4793468738264300E-003   6.7089472615602230E-003   0.0000000000000000     
  -4.3878769121822496E-003   9.2942680406651514E-003   0.0000000000000000     
  -5.2987079201457874E-003   1.2183054846356156E-002   0.0000000000000000     
  -6.2118398977170424E-003   1.5375307678633245E-002   0.0000000000000000     
  -7.1272728448960165E-003   1.8871026537496408E-002   0.0000000000000000     
   3.0804356461466842E-012   1.8478707266920451E-002   0.0000000000000000     
   3.7189208960605735E-012   2.2227901424468652E-002   0.0000000000000000     
   4.4203143207376117E-012   2.6232738033191146E-002   0.0000000000000000     
   5.1846163945162491E-012   3.0493217093087936E-002   0.0000000000000000     
   6.0118266701630896E-012   3.5009338604159015E-002   0.0000000000000000     
  -1.7504012576402160E-003   1.8503227220978174E-002   0.0000000000000000     
  -1.9781479135164621E-003   2.2253929806082273E-002   0.0000000000000000     
  -2.2019980503298281E-003   2.6260031829973898E-002   0.0000000000000000     
  -2.4219516680803114E-003   3.0521533292653051E-002   0.0000000000000000     
  -2.6380087667679142E-003   3.5038434194119741E-002   0.0000000000000000     
  -3.5217471525431747E-003   1.8576787084093410E-002   0.0000000000000000     
  -3.9772624899945611E-003   2.2332014951917219E-002   0.0000000000000000     
  -4.4257609166602424E-003   2.6341913221403432E-002   0.0000000000000000     
  -4.8672424325402223E-003   3.0606481892552041E-002   0.0000000000000000     
  -5.3017070376344989E-003   3.5125720965363059E-002   0.0000000000000000     
  -5.3140376816284418E-003   1.8699386856266157E-002   0.0000000000000000     
  -5.9973437257153737E-003   2.2462156861973514E-002   0.0000000000000000     
  -6.6712885945709307E-003   2.6478382207479757E-002   0.0000000000000000     
  -7.3358722881951173E-003   3.0748062892784912E-002   0.0000000000000000     
  -7.9910948065879273E-003   3.5271198917888956E-002   0.0000000000000000     
  -7.1272728448960165E-003   1.8871026537496408E-002   0.0000000000000000     
  -8.0383916206789013E-003   2.2644355536251128E-002   0.0000000000000000     
  -8.9385810840618939E-003   2.6669438788202882E-002   0.0000000000000000     
  -9.8278412350449942E-003   3.0946276293351643E-002   0.0000000000000000     
  -1.0706172073628202E-002   3.5474868051697445E-002   0.0000000000000000     
   6.0118266701630896E-012   3.5009338604159015E-002   0.0000000000000000     
   6.9206828852766411E-012   3.9761817045705174E-002   0.0000000000000000     
   7.9299233737666064E-012   4.4731366897027197E-002   0.0000000000000000     
   9.0395480136602410E-012   4.9917988158125079E-002   0.0000000000000000     
   1.0249555327732085E-011   5.5321680828998826E-002   0.0000000000000000     
  -2.6380087667679142E-003   3.5038434194119741E-002   0.0000000000000000     
  -2.8498848987465139E-003   3.9791386924279845E-002   0.0000000000000000     
  -3.0572956163699900E-003   4.4761043873039245E-002   0.0000000000000000     
  -3.2602409196383396E-003   4.9947405040397935E-002   0.0000000000000000     
  -3.4587208085515649E-003   5.5350470426355936E-002   0.0000000000000000     
  -5.3017070376344989E-003   3.5125720965363059E-002   0.0000000000000000     
  -5.7278348190603987E-003   3.9880096561506602E-002   0.0000000000000000     
  -6.1443058639352455E-003   4.4850074802652837E-002   0.0000000000000000     
  -6.5511201722590427E-003   5.0035655688801743E-002   0.0000000000000000     
  -6.9482777440317859E-003   5.5436839219953349E-002   0.0000000000000000     
  -7.9910948065879273E-003   3.5271198917888956E-002   0.0000000000000000     
  -8.6338497540209731E-003   4.0027945957385451E-002   0.0000000000000000     
  -9.2610307347658471E-003   4.4998459685867971E-002   0.0000000000000000     
  -9.8726377488225596E-003   5.0182740103336489E-002   0.0000000000000000     
  -1.0468670796191104E-002   5.5580787209791024E-002   0.0000000000000000     
  -1.0706172073628202E-002   3.5474868051697445E-002   0.0000000000000000     
  -1.1567929703628230E-002   4.0234935111916399E-002   0.0000000000000000     
  -1.2407470228861794E-002   4.5206198522684642E-002   0.0000000000000000     
  -1.3224793649328891E-002   5.0388658284002179E-002   0.0000000000000000     
  -1.4019899965029522E-002   5.5782314395868997E-002   0.0000000000000000     
   1.0249555327732085E-011   5.5321680828998826E-002   0.0000000000000000     
   1.1555587541532686E-011   6.0926402408056662E-002   0.0000000000000000     
   1.2953283953266725E-011   6.6716110393706826E-002   0.0000000000000000     
   1.4442645999502082E-011   7.2690804785949290E-002   0.0000000000000000     
   1.6023671755779900E-011   7.8850485584784094E-002   0.0000000000000000     
  -3.4587208085515649E-003   5.5350470426355936E-002   0.0000000000000000     
  -3.6515260304490847E-003   6.0954381091450856E-002   0.0000000000000000     
  -3.8374473326703131E-003   6.6743278096220299E-002   0.0000000000000000     
  -4.0164847152152532E-003   7.2717161440664299E-002   0.0000000000000000     
  -4.1886381780839041E-003   7.8876031124782794E-002   0.0000000000000000     
  -6.9482777440317859E-003   5.5436839219953349E-002   0.0000000000000000     
  -7.3339963834516825E-003   6.1038317143039429E-002   0.0000000000000000     
  -7.7064938947169360E-003   6.6824781204991857E-002   0.0000000000000000     
  -8.0657702778275473E-003   7.2796231405810624E-002   0.0000000000000000     
  -8.4118255327835165E-003   7.8952667745495683E-002   0.0000000000000000     
  -1.0468670796191104E-002   5.5580787209791024E-002   0.0000000000000000     
  -1.1047411047452207E-002   6.1178210562822410E-002   0.0000000000000000     
  -1.1607139673186582E-002   6.6960619720021486E-002   0.0000000000000000     
  -1.2147856673394236E-002   7.2928014681388237E-002   0.0000000000000000     
  -1.2669562048075166E-002   7.9080395446922705E-002   0.0000000000000000     
  -1.4019899965029522E-002   5.5782314395868997E-002   0.0000000000000000     
  -1.4791770022450657E-002   6.1374061350799779E-002   0.0000000000000000     
  -1.5539384668079253E-002   6.7150793641309187E-002   0.0000000000000000     
  -1.6262743901915320E-002   7.3112511267397221E-002   0.0000000000000000     
  -1.6961847723958850E-002   7.9259214229063873E-002   0.0000000000000000     
   1.6023671755779900E-011   7.8850485584784094E-002   0.0000000000000000     
   1.7468195076184023E-011   8.5182850769296561E-002   0.0000000000000000     
   1.8548046399561452E-011   9.1675598318572082E-002   0.0000000000000000     
   1.9263227745238733E-011   9.8328728232610615E-002   0.0000000000000000     
   1.9613737717305568E-011  0.10514224051141222        0.0000000000000000     
  -4.1886381780839041E-003   7.8876031124782794E-002   0.0000000000000000     
  -4.3544076033972638E-003   8.5207541555525346E-002   0.0000000000000000     
  -4.5142928732763337E-003   9.1699347139841320E-002   0.0000000000000000     
  -4.6682939877211145E-003   9.8351447877730785E-002   0.0000000000000000     
  -4.8164109467316047E-003  0.10516384376919370        0.0000000000000000     
  -8.4118255327835165E-003   7.8952667745495683E-002   0.0000000000000000     
  -8.7451657945594903E-003   8.5281613914323040E-002   0.0000000000000000     
  -9.0662971981301192E-003   9.1770593602568604E-002   0.0000000000000000     
  -9.3752197434954030E-003   9.8419606810232457E-002   0.0000000000000000     
  -9.6719334306553401E-003  0.10522865353731453        0.0000000000000000     
  -1.2669562048075166E-002   7.9080395446922705E-002   0.0000000000000000     
  -1.3172274556018484E-002   8.5405067845689686E-002   0.0000000000000000     
  -1.3656012956013307E-002   9.1889337706753990E-002   0.0000000000000000     
  -1.4120777248059633E-002   9.8533205030115659E-002   0.0000000000000000     
  -1.4566567432157467E-002  0.10533666981577465        0.0000000000000000     
  -1.6961847723958850E-002   7.9259214229063873E-002   0.0000000000000000     
  -1.7635733887774240E-002   8.5577903349625256E-002   0.0000000000000000     
  -1.8283440146925893E-002   9.2055579452397410E-002   0.0000000000000000     
  -1.8904966501413809E-002   9.8692242537380348E-002   0.0000000000000000     
  -1.9500312951237983E-002  0.10548789260457411        0.0000000000000000     
   1.9613737717305568E-011  0.10514224051141222        0.0000000000000000     
   2.0799327104387144E-011  0.11210352965034399        0.0000000000000000     
   2.4019744635124518E-011  0.11919999014477316        0.0000000000000000     
   2.9274992830287741E-011  0.12643162199469968        0.0000000000000000     
   3.6565067380173177E-011  0.13379842520012356        0.0000000000000000     
  -4.8164109467316047E-003  0.10516384376919370        0.0000000000000000     
  -4.9586628233220017E-003  0.11212397601632043        0.0000000000000000     
  -5.0950686905064987E-003  0.11921928582120125        0.0000000000000000     
  -5.2256285482850974E-003  0.12644977318383618        0.0000000000000000     
  -5.3503423966577970E-003  0.13381543810422522        0.0000000000000000     
  -9.6719334306553401E-003  0.10522865353731453        0.0000000000000000     
  -9.9565485151199840E-003  0.11218531510824589        0.0000000000000000     
  -1.0229175252399379E-002  0.11927717284745759        0.0000000000000000     
  -1.0489813642493528E-002  0.12650422675494960        0.0000000000000000     
  -1.0738463685402429E-002  0.13386647683072198        0.0000000000000000     
  -1.4566567432157467E-002  0.10533666981577465        0.0000000000000000     
  -1.4993657054594614E-002  0.11228754692612036        0.0000000000000000     
  -1.5402319661658892E-002  0.11937365122354213        0.0000000000000000     
  -1.5792555253350295E-002  0.12659498270803995        0.0000000000000000     
  -1.6164363829668831E-002  0.13395154137961382        0.0000000000000000     
  -1.9500312951237983E-002  0.10548789260457411        0.0000000000000000     
  -2.0069988441745901E-002  0.11243067146994387        0.0000000000000000     
  -2.0614501918285039E-002  0.11950872094945489        0.0000000000000000     
  -2.1133853380855407E-002  0.12672204104310719        0.0000000000000000     
  -2.1628042829457003E-002  0.13407063175090075        0.0000000000000000     
   3.6565067380173177E-011  0.13379842520012356        0.0000000000000000     
   4.2352986352398037E-011  0.14128932602876682        0.0000000000000000     
   4.3101763803031490E-011  0.14889325074835144        0.0000000000000000     
   3.8811397753404572E-011  0.15661019935887741        0.0000000000000000     
   2.9481889152194185E-011  0.16444017186034476        0.0000000000000000     
  -5.3503423966577970E-003  0.13381543810422522        0.0000000000000000     
  -5.4687569491955581E-003  0.14130518492203992        0.0000000000000000     
  -5.5804189194693463E-003  0.14890791797695180        0.0000000000000000     
  -5.6853283074791575E-003  0.15662363726896086        0.0000000000000000     
  -5.7834851132249933E-003  0.16445234279806714        0.0000000000000000     
  -1.0738463685402429E-002  0.13386647683072198        0.0000000000000000     
  -1.0974181786153300E-002  0.14135276160349486        0.0000000000000000     
  -1.1196024349773352E-002  0.14895191960198834        0.0000000000000000     
  -1.1403991376262581E-002  0.15666395082620249        0.0000000000000000     
  -1.1598082865620992E-002  0.16448885527613732        0.0000000000000000     
  -1.6164363829668831E-002  0.13395154137961382        0.0000000000000000     
  -1.6516274468520234E-002  0.14143205607313156        0.0000000000000000     
  -1.6846816247810249E-002  0.14902525562346108        0.0000000000000000     
  -1.7155989167538875E-002  0.15673114003060232        0.0000000000000000     
  -1.7443793227706110E-002  0.16454970929455534        0.0000000000000000     
  -2.1628042829457003E-002  0.13407063175090075        0.0000000000000000     
  -2.2095034996296368E-002  0.14154306833095015        0.0000000000000000     
  -2.2532794613580046E-002  0.14912792604136998        0.0000000000000000     
  -2.2941321681308035E-002  0.15682520488216034        0.0000000000000000     
  -2.3320616199480337E-002  0.16463490485332111        0.0000000000000000     
   0.0000000000000000        0.0000000000000000        0.0000000000000000     
  -8.4167959213509195E-004   1.1099736025736819E-003   0.0000000000000000     
  -1.7021306018178608E-003   2.5981226803582797E-003   0.0000000000000000     
  -2.5813530290483069E-003   4.4644472333537927E-003   0.0000000000000000     
  -3.4793468738264300E-003   6.7089472615602230E-003   0.0000000000000000     
   0.0000000000000000        0.0000000000000000        0.0000000000000000     
  -1.0567335774842464E-003   1.1341122054270630E-003   0.0000000000000000     
  -2.1398068893630781E-003   2.6503403821651170E-003   0.0000000000000000     
  -3.2492199356364943E-003   4.5486845302141615E-003   0.0000000000000000     
  -4.3849727163044958E-003   6.8291446495741970E-003   0.0000000000000000     
   0.0000000000000000        0.0000000000000000        0.0000000000000000     
  -1.2878622701136171E-003   1.1699767274201045E-003   0.0000000000000000     
  -2.6055722823745140E-003   2.7245944781701800E-003   0.0000000000000000     
  -3.9531300367826898E-003   4.6638532522502276E-003   0.0000000000000000     
  -5.3305355333381453E-003   6.9877530496602457E-003   0.0000000000000000     
   0.0000000000000000        0.0000000000000000        0.0000000000000000     
  -1.5350656700232035E-003   1.2175671685528062E-003   0.0000000000000000     
  -3.0994267808521674E-003   2.8208849683734700E-003   0.0000000000000000     
  -4.6930833324868920E-003   4.8099533994619918E-003   0.0000000000000000     
  -6.3160353249273769E-003   7.1847724618183707E-003   0.0000000000000000     
   0.0000000000000000        0.0000000000000000        0.0000000000000000     
  -1.7983437772130062E-003   1.2768835288251680E-003   0.0000000000000000     
  -3.6213703847960401E-003   2.9392118527749858E-003   0.0000000000000000     
  -5.4690798227491023E-003   4.9869849718494532E-003   0.0000000000000000     
  -7.3414720910721940E-003   7.4202028860485703E-003   0.0000000000000000     
  -3.4793468738264300E-003   6.7089472615602230E-003   0.0000000000000000     
  -4.3878769121822496E-003   9.2942680406651514E-003   0.0000000000000000     
  -5.2987079201457874E-003   1.2183054846356156E-002   0.0000000000000000     
  -6.2118398977170424E-003   1.5375307678633245E-002   0.0000000000000000     
  -7.1272728448960165E-003   1.8871026537496408E-002   0.0000000000000000     
  -4.3849727163044958E-003   6.8291446495741970E-003   0.0000000000000000     
  -5.5341223824678862E-003   9.4496691916819784E-003   0.0000000000000000     
  -6.6837260852274667E-003   1.2368206607974256E-002   0.0000000000000000     
  -7.8337838245832406E-003   1.5584756898451032E-002   0.0000000000000000     
  -8.9842956005352047E-003   1.9099320063112303E-002   0.0000000000000000     
  -5.3305355333381453E-003   6.9877530496602457E-003   0.0000000000000000     
  -6.7233708948972884E-003   9.6501763013903587E-003   0.0000000000000000     
  -8.1172182443165347E-003   1.2605005438430687E-002   0.0000000000000000     
  -9.5120775815958764E-003   1.5852240460781226E-002   0.0000000000000000     
  -1.0907948906735314E-002   1.9391881368441988E-002   0.0000000000000000     
  -6.3160353249273769E-003   7.1847724618183707E-003   0.0000000000000000     
  -7.9556224494704616E-003   9.8957893697902925E-003   0.0000000000000000     
  -9.5991843974129847E-003   1.2893451337725447E-002   0.0000000000000000     
  -1.1246721168754947E-002   1.6177758365623830E-002   0.0000000000000000     
  -1.2898232763496349E-002   1.9748710453485432E-002   0.0000000000000000     
  -7.3414720910721940E-003   7.4202028860485703E-003   0.0000000000000000     
  -9.2308770461874030E-003   1.0186508396881781E-002   0.0000000000000000     
  -1.1129624544516827E-002   1.3233544305858536E-002   0.0000000000000000     
  -1.3037714586060459E-002   1.6561310612978830E-002   0.0000000000000000     
  -1.4955147170818302E-002   2.0169807318242666E-002   0.0000000000000000     
  -7.1272728448960165E-003   1.8871026537496408E-002   0.0000000000000000     
  -8.0383916206789013E-003   2.2644355536251128E-002   0.0000000000000000     
  -8.9385810840618939E-003   2.6669438788202882E-002   0.0000000000000000     
  -9.8278412350449942E-003   3.0946276293351643E-002   0.0000000000000000     
  -1.0706172073628202E-002   3.5474868051697445E-002   0.0000000000000000     
  -8.9842956005352047E-003   1.9099320063112303E-002   0.0000000000000000     
  -1.0128179501363306E-002   2.2887150276573922E-002   0.0000000000000000     
  -1.1258353615347482E-002   2.6923501713451720E-002   0.0000000000000000     
  -1.2374817942487737E-002   3.1208374373745691E-002   0.0000000000000000     
  -1.3477572482784066E-002   3.5741768257455835E-002   0.0000000000000000     
  -1.0907948906735314E-002   1.9391881368441988E-002   0.0000000000000000     
  -1.2294480694246743E-002   2.3199080384765723E-002   0.0000000000000000     
  -1.3661321418642047E-002   2.7248989733105210E-002   0.0000000000000000     
  -1.5008471079921223E-002   3.1541609413460459E-002   0.0000000000000000     
  -1.6335929678084275E-002   3.6076939425831449E-002   0.0000000000000000     
  -1.2898232763496349E-002   1.9748710453485432E-002   0.0000000000000000     
  -1.4537295199329217E-002   2.3580145860826528E-002   0.0000000000000000     
  -1.6147484493945586E-002   2.7645902847163371E-002   0.0000000000000000     
  -1.7728800647345458E-002   3.1945981412495952E-002   0.0000000000000000     
  -1.9281243659528831E-002   3.6480381556824273E-002   0.0000000000000000     
  -1.4955147170818302E-002   2.0169807318242666E-002   0.0000000000000000     
  -1.6856623016610724E-002   2.4030346704756348E-002   0.0000000000000000     
  -1.8716842841258106E-002   2.8114241055626182E-002   0.0000000000000000     
  -2.0535806644760440E-002   3.2421490370852173E-002   0.0000000000000000     
  -2.2313514427117719E-002   3.6952094650434322E-002   0.0000000000000000     
  -1.0706172073628202E-002   3.5474868051697445E-002   0.0000000000000000     
  -1.1567929703628230E-002   4.0234935111916399E-002   0.0000000000000000     
  -1.2407470228861794E-002   4.5206198522684642E-002   0.0000000000000000     
  -1.3224793649328891E-002   5.0388658284002179E-002   0.0000000000000000     
  -1.4019899965029522E-002   5.5782314395868997E-002   0.0000000000000000     
  -1.3477572482784066E-002   3.5741768257455835E-002   0.0000000000000000     
  -1.4558964254173242E-002   4.0503765445632618E-002   0.0000000000000000     
  -1.5611340274592029E-002   4.5474448019326458E-002   0.0000000000000000     
  -1.6634700544040423E-002   5.0653815978537388E-002   0.0000000000000000     
  -1.7629045062518424E-002   5.6041869323265388E-002   0.0000000000000000     
  -1.6335929678084275E-002   3.6076939425831449E-002   0.0000000000000000     
  -1.7635842991947079E-002   4.0837138379067280E-002   0.0000000000000000     
  -1.8900356800325497E-002   4.5804364882017043E-002   0.0000000000000000     
  -2.0129471103219540E-002   5.0978618934680718E-002   0.0000000000000000     
  -2.1323185900629194E-002   5.6359900537058319E-002   0.0000000000000000     
  -1.9281243659528831E-002   3.6480381556824273E-002   0.0000000000000000     
  -2.0798565916949729E-002   4.1235053912220397E-002   0.0000000000000000     
  -2.2274519806062199E-002   4.6195949110756349E-002   0.0000000000000000     
  -2.3709105326866233E-002   5.1363067152432162E-002   0.0000000000000000     
  -2.5102322479361842E-002   5.6736408037247790E-002   0.0000000000000000     
  -2.2313514427117719E-002   3.6952094650434322E-002   0.0000000000000000     
  -2.4047133029181204E-002   4.1697512045091964E-002   0.0000000000000000     
  -2.5733829291802141E-002   4.6649200705544423E-002   0.0000000000000000     
  -2.7373603214980523E-002   5.1807160631791714E-002   0.0000000000000000     
  -2.8966454798716349E-002   5.7171391823833836E-002   0.0000000000000000     
  -1.4019899965029522E-002   5.5782314395868997E-002   0.0000000000000000     
  -1.4791770022450657E-002   6.1374061350799779E-002   0.0000000000000000     
  -1.5539384668079253E-002   6.7150793641309187E-002   0.0000000000000000     
  -1.6262743901915320E-002   7.3112511267397221E-002   0.0000000000000000     
  -1.6961847723958850E-002   7.9259214229063873E-002   0.0000000000000000     
  -1.7629045062518424E-002   5.6041869323265388E-002   0.0000000000000000     
  -1.8594119957175227E-002   6.1626649240649395E-002   0.0000000000000000     
  -1.9529671355160011E-002   6.7396196917828360E-002   0.0000000000000000     
  -2.0435699256472782E-002   7.3350512354802277E-002   0.0000000000000000     
  -2.1312203661113530E-002   7.9489595551571132E-002   0.0000000000000000     
  -2.1323185900629194E-002   5.6359900537058319E-002   0.0000000000000000     
  -2.2481507500354114E-002   6.1936753966049120E-002   0.0000000000000000     
  -2.3604442210193914E-002   6.7697723498552409E-002   0.0000000000000000     
  -2.4691990030148603E-002   7.3642809134568166E-002   0.0000000000000000     
  -2.5744150960218173E-002   7.9772010874096397E-002   0.0000000000000000     
  -2.5102322479361842E-002   5.6736408037247790E-002   0.0000000000000000     
  -2.6453932651987307E-002   6.2304375526998967E-002   0.0000000000000000     
  -2.7763697233180958E-002   6.8055373383481332E-002   0.0000000000000000     
  -2.9031616222942778E-002   7.3989401606694899E-002   0.0000000000000000     
  -3.0257689621272774E-002   8.0106460196639681E-002   0.0000000000000000     
  -2.8966454798716349E-002   5.7171391823833836E-002   0.0000000000000000     
  -3.0511395412074829E-002   6.2729513923498917E-002   0.0000000000000000     
  -3.2007436424121155E-002   6.8469146572615130E-002   0.0000000000000000     
  -3.3454577834855316E-002   7.4390289771182491E-002   0.0000000000000000     
  -3.4852819644277333E-002   8.0492943519200985E-002   0.0000000000000000     
  -1.6961847723958850E-002   7.9259214229063873E-002   0.0000000000000000     
  -1.7635733887774240E-002   8.5577903349625256E-002   0.0000000000000000     
  -1.8283440146925893E-002   9.2055579452397410E-002   0.0000000000000000     
  -1.8904966501413809E-002   9.8692242537380348E-002   0.0000000000000000     
  -1.9500312951237983E-002  0.10548789260457411        0.0000000000000000     
  -2.1312203661113530E-002   7.9489595551571132E-002   0.0000000000000000     
  -2.2157279883641374E-002   8.5800258456509002E-002   0.0000000000000000     
  -2.2969023238615403E-002   9.2269313017989879E-002   0.0000000000000000     
  -2.3747433726035619E-002   9.8896759236013779E-002   0.0000000000000000     
  -2.4492511345902024E-002  0.10568259711058070        0.0000000000000000     
  -2.5744150960218173E-002   7.9772010874096397E-002   0.0000000000000000     
  -2.6758648637434473E-002   8.6072271196720146E-002   0.0000000000000000     
  -2.7733206698829328E-002   9.2530532582022373E-002   0.0000000000000000     
  -2.8667825144402751E-002   9.9146795030003107E-002   0.0000000000000000     
  -2.9562503974154723E-002  0.10592105854066235        0.0000000000000000     
  -3.0257689621272774E-002   8.0106460196639681E-002   0.0000000000000000     
  -3.1439840149153540E-002   8.6393941570258689E-002   0.0000000000000000     
  -3.2575990527567676E-002   9.2839238144494893E-002   0.0000000000000000     
  -3.3666140756515188E-002   9.9442349919348347E-002   0.0000000000000000     
  -3.4710290835996083E-002  0.10620327689481901        0.0000000000000000     
  -3.4852819644277333E-002   8.0492943519200985E-002   0.0000000000000000     
  -3.6200854418798577E-002   8.6765269577124618E-002   0.0000000000000000     
  -3.7497374724830460E-002   9.3195429705407451E-002   0.0000000000000000     
  -3.8742380562372961E-002   9.9783423904049470E-002   0.0000000000000000     
  -3.9935871931426087E-002  0.10652925217305070        0.0000000000000000     
  -1.9500312951237983E-002  0.10548789260457411        0.0000000000000000     
  -2.0069988441745901E-002  0.11243067146994387        0.0000000000000000     
  -2.0614501918285039E-002  0.11950872094945489        0.0000000000000000     
  -2.1133853380855407E-002  0.12672204104310719        0.0000000000000000     
  -2.1628042829457003E-002  0.13407063175090075        0.0000000000000000     
  -2.4492511345902024E-002  0.10568259711058070        0.0000000000000000     
  -2.5204986310201096E-002  0.11261528461484886        0.0000000000000000     
  -2.5885588830919314E-002  0.11968327972197636        0.0000000000000000     
  -2.6534318908056676E-002  0.12688658243196327        0.0000000000000000     
  -2.7151176541613180E-002  0.13422519274480949        0.0000000000000000     
  -2.9562503974154723E-002  0.10592105854066235        0.0000000000000000     
  -3.0418094293587467E-002  0.11284198223596775        0.0000000000000000     
  -3.1235447208203190E-002  0.11989822523788693        0.0000000000000000     
  -3.2014562718001904E-002  0.12708978754641995        0.0000000000000000     
  -3.2755440822983588E-002  0.13441666916156675        0.0000000000000000     
  -3.4710290835996083E-002  0.10620327689481901        0.0000000000000000     
  -3.5709312391905022E-002  0.11311076433330056        0.0000000000000000     
  -3.6664077050136690E-002  0.12015355749718669        0.0000000000000000     
  -3.7574584810691099E-002  0.12733165638647734        0.0000000000000000     
  -3.8440835673568249E-002  0.13464506100117254        0.0000000000000000     
  -3.9935871931426087E-002  0.10652925217305070        0.0000000000000000     
  -4.1078640605153746E-002  0.11342163090684733        0.0000000000000000     
  -4.2171478356719798E-002  0.12044927649987555        0.0000000000000000     
  -4.3214385186124270E-002  0.12761218895213539        0.0000000000000000     
  -4.4207361093367134E-002  0.13491036826362687        0.0000000000000000     
  -2.1628042829457003E-002  0.13407063175090075        0.0000000000000000     
  -2.2095034996296368E-002  0.14154306833095015        0.0000000000000000     
  -2.2532794613580046E-002  0.14912792604136998        0.0000000000000000     
  -2.2941321681308035E-002  0.15682520488216034        0.0000000000000000     
  -2.3320616199480337E-002  0.16463490485332111        0.0000000000000000     
  -2.7151176541613180E-002  0.13422519274480949        0.0000000000000000     
  -2.7733775038387518E-002  0.14168743097516853        0.0000000000000000     
  -2.8279727705178379E-002  0.14926161743769373        0.0000000000000000     
  -2.8789034541985760E-002  0.15694775213238513        0.0000000000000000     
  -2.9261695548809658E-002  0.16474583505924267        0.0000000000000000     
  -3.2755440822983588E-002  0.13441666916156675        0.0000000000000000     
  -3.3455806263699504E-002  0.14186677660400462        0.0000000000000000     
  -3.4113383780700890E-002  0.14942801639441078        0.0000000000000000     
  -3.4728173373987724E-002  0.15710038853278527        0.0000000000000000     
  -3.5300175043560041E-002  0.16488389301912804        0.0000000000000000     
  -3.8440835673568249E-002  0.13464506100117254        0.0000000000000000     
  -3.9261128672232332E-002  0.14208110521745845        0.0000000000000000     
  -4.0033762840147570E-002  0.14962712291152119        0.0000000000000000     
  -4.0758738177313965E-002  0.15728311408336076        0.0000000000000000     
  -4.1436054683731495E-002  0.16504907873297717        0.0000000000000000     
  -4.4207361093367134E-002  0.13491036826362687        0.0000000000000000     
  -4.5149742263986006E-002  0.14233041681553002        0.0000000000000000     
  -4.6040864883518433E-002  0.14985893698902494        0.0000000000000000     
  -4.6880728951964448E-002  0.15749592878411162        0.0000000000000000     
  -4.7669334469324018E-002  0.16524139220079007        0.0000000000000000     
   0.0000000000000000        0.0000000000000000        0.0000000000000000     
  -1.7983437772130062E-003   1.2768835288251680E-003   0.0000000000000000     
  -3.6213703847960401E-003   2.9392118527749858E-003   0.0000000000000000     
  -5.4690798227491023E-003   4.9869849718494532E-003   0.0000000000000000     
  -7.3414720910721940E-003   7.4202028860485703E-003   0.0000000000000000     
   0.0000000000000000        0.0000000000000000        0.0000000000000000     
  -2.0694368306339306E-003   1.3550156084743943E-003   0.0000000000000000     
  -4.1640640674959145E-003   3.0940617089710203E-003   0.0000000000000000     
  -6.2838817105859510E-003   5.2171383014898787E-003   0.0000000000000000     
  -8.4288897599040409E-003   7.7242453860309696E-003   0.0000000000000000     
   0.0000000000000000        0.0000000000000000        0.0000000000000000     
  -2.3400850692368836E-003   1.4590532077376887E-003   0.0000000000000000     
  -4.7201688022415721E-003   3.2999211145578666E-003   0.0000000000000000     
  -7.1402511990140685E-003   5.5226037204605333E-003   0.0000000000000000     
  -9.6003322595543724E-003   8.1271010254456884E-003   0.0000000000000000     
   0.0000000000000000        0.0000000000000000        0.0000000000000000     
  -2.6102884930218635E-003   1.5889963266150515E-003   0.0000000000000000     
  -5.2896845890330153E-003   3.5567900695355230E-003   0.0000000000000000     
  -8.0381882880334547E-003   5.9033812287614170E-003   0.0000000000000000     
  -1.0855799590023181E-002   8.6287698042927276E-003   0.0000000000000000     
   0.0000000000000000        0.0000000000000000        0.0000000000000000     
  -2.8800471019888728E-003   1.7448449651064825E-003   0.0000000000000000     
  -5.8726114278702425E-003   3.8646685739039920E-003   0.0000000000000000     
  -8.9776929776441087E-003   6.3594708263925281E-003   0.0000000000000000     
  -1.2195291751310473E-002   9.2292517225720933E-003   0.0000000000000000     
  -7.3414720910721940E-003   7.4202028860485703E-003   0.0000000000000000     
  -9.2308770461874030E-003   1.0186508396881781E-002   0.0000000000000000     
  -1.1129624544516827E-002   1.3233544305858536E-002   0.0000000000000000     
  -1.3037714586060459E-002   1.6561310612978830E-002   0.0000000000000000     
  -1.4955147170818302E-002   2.0169807318242666E-002   0.0000000000000000     
  -8.4288897599040409E-003   7.7242453860309696E-003   0.0000000000000000     
  -1.0590745035072086E-002   1.0558047644930933E-002   0.0000000000000000     
  -1.2761104355711988E-002   1.3661209760526413E-002   0.0000000000000000     
  -1.4939967721823747E-002   1.7033731732817407E-002   0.0000000000000000     
  -1.7127335133407359E-002   2.0675613561803918E-002   0.0000000000000000     
  -9.6003322595543724E-003   8.1271010254456884E-003   0.0000000000000000     
  -1.2076836766148484E-002   1.1046121376203847E-002   0.0000000000000000     
  -1.4546189501082409E-002   1.4212373119425525E-002   0.0000000000000000     
  -1.7008390464356149E-002   1.7625856255110723E-002   0.0000000000000000     
  -1.9463439655969712E-002   2.1286570783259438E-002   0.0000000000000000     
  -1.0855799590023181E-002   8.6287698042927276E-003   0.0000000000000000     
  -1.3689152239416594E-002   1.1650729590700527E-002   0.0000000000000000     
  -1.6484879980628090E-002   1.4887034382555876E-002   0.0000000000000000     
  -1.9242982813657675E-002   1.8337684179858777E-002   0.0000000000000000     
  -2.1963460738505351E-002   2.2002678982609224E-002   0.0000000000000000     
  -1.2195291751310473E-002   9.2292517225720933E-003   0.0000000000000000     
  -1.5427691454876420E-002   1.2371872288420974E-002   0.0000000000000000     
  -1.8577175794349039E-002   1.5685193549917466E-002   0.0000000000000000     
  -2.1643744769728326E-002   1.9169215507061566E-002   0.0000000000000000     
  -2.4627398381014277E-002   2.2823938159853282E-002   0.0000000000000000     
  -1.4955147170818302E-002   2.0169807318242666E-002   0.0000000000000000     
  -1.6856623016610724E-002   2.4030346704756348E-002   0.0000000000000000     
  -1.8716842841258106E-002   2.8114241055626182E-002   0.0000000000000000     
  -2.0535806644760440E-002   3.2421490370852173E-002   0.0000000000000000     
  -2.2313514427117719E-002   3.6952094650434322E-002   0.0000000000000000     
  -1.7127335133407359E-002   2.0675613561803918E-002   0.0000000000000000     
  -1.9292030668501544E-002   2.4559047371734307E-002   0.0000000000000000     
  -2.1402878405145001E-002   2.8656225286856938E-002   0.0000000000000000     
  -2.3459878343337740E-002   3.2967147307171818E-002   0.0000000000000000     
  -2.5463030483079751E-002   3.7491813432678933E-002   0.0000000000000000     
  -1.9463439655969712E-002   2.1286570783259438E-002   0.0000000000000000     
  -2.1883084677411933E-002   2.5175612316939544E-002   0.0000000000000000     
  -2.4239073130171682E-002   2.9274076469218917E-002   0.0000000000000000     
  -2.6531405014248947E-002   3.3581963240097566E-002   0.0000000000000000     
  -2.8760080329643733E-002   3.8099272629575472E-002   0.0000000000000000     
  -2.1963460738505351E-002   2.2002678982609224E-002   0.0000000000000000     
  -2.4629785043341904E-002   2.5880041540372066E-002   0.0000000000000000     
  -2.7225427016338143E-002   2.9967794602712126E-002   0.0000000000000000     
  -2.9750386657494052E-002   3.4265938169629417E-002   0.0000000000000000     
  -3.2204663966809648E-002   3.8774472241123924E-002   0.0000000000000000     
  -2.4627398381014277E-002   2.2823938159853282E-002   0.0000000000000000     
  -2.7532131766291448E-002   2.6672335042031863E-002   0.0000000000000000     
  -3.0361940063644378E-002   3.0737379687336558E-002   0.0000000000000000     
  -3.3116823273073068E-002   3.5019072095767372E-002   0.0000000000000000     
  -3.5796781394577509E-002   3.9517412267324303E-002   0.0000000000000000     
  -2.2313514427117719E-002   3.6952094650434322E-002   0.0000000000000000     
  -2.4047133029181204E-002   4.1697512045091964E-002   0.0000000000000000     
  -2.5733829291802141E-002   4.6649200705544423E-002   0.0000000000000000     
  -2.7373603214980523E-002   5.1807160631791714E-002   0.0000000000000000     
  -2.8966454798716349E-002   5.7171391823833836E-002   0.0000000000000000     
  -2.5463030483079751E-002   3.7491813432678933E-002   0.0000000000000000     
  -2.7412962841327243E-002   4.2226362803555517E-002   0.0000000000000000     
  -2.9310303435036413E-002   4.7166934559978779E-002   0.0000000000000000     
  -3.1155052264207252E-002   5.2313528701948719E-002   0.0000000000000000     
  -3.2947209328839773E-002   5.7666145229465351E-002   0.0000000000000000     
  -2.8760080329643733E-002   3.8099272629575472E-002   0.0000000000000000     
  -3.0927473866073602E-002   4.2823456213484615E-002   0.0000000000000000     
  -3.3035960413256134E-002   4.7751965567656963E-002   0.0000000000000000     
  -3.5085539971191321E-002   5.2884800692092518E-002   0.0000000000000000     
  -3.7076212539879159E-002   5.8221961586791292E-002   0.0000000000000000     
  -3.2204663966809648E-002   3.8774472241123924E-002   0.0000000000000000     
  -3.4590666103420285E-002   4.3488792274879257E-002   0.0000000000000000     
  -3.6910800226461295E-002   4.8404293728578990E-002   0.0000000000000000     
  -3.9165066335932697E-002   5.3520976602223123E-002   0.0000000000000000     
  -4.1353464431834491E-002   5.8838840895811664E-002   0.0000000000000000     
  -3.5796781394577509E-002   3.9517412267324303E-002   0.0000000000000000     
  -3.8402539553367275E-002   4.4222370987739436E-002   0.0000000000000000     
  -4.0934822874651902E-002   4.9123919042744844E-002   0.0000000000000000     
  -4.3393631358431412E-002   5.4222056432340522E-002   0.0000000000000000     
  -4.5778965004705775E-002   5.9516783156526476E-002   0.0000000000000000     
  -2.8966454798716349E-002   5.7171391823833836E-002   0.0000000000000000     
  -3.0511395412074829E-002   6.2729513923498917E-002   0.0000000000000000     
  -3.2007436424121155E-002   6.8469146572615130E-002   0.0000000000000000     
  -3.3454577834855316E-002   7.4390289771182491E-002   0.0000000000000000     
  -3.4852819644277333E-002   8.0492943519200985E-002   0.0000000000000000     
  -3.2947209328839773E-002   5.7666145229465351E-002   0.0000000000000000     
  -3.4685052210526278E-002   6.3211872997574220E-002   0.0000000000000000     
  -3.6366858490859071E-002   6.8937800861320911E-002   0.0000000000000000     
  -3.7992628169838158E-002   7.4843928820705438E-002   0.0000000000000000     
  -3.9562361247463547E-002   8.0930256875727788E-002   0.0000000000000000     
  -3.7076212539879159E-002   5.8221961586791292E-002   0.0000000000000000     
  -3.9006059477251269E-002   6.3751156591250080E-002   0.0000000000000000     
  -4.0873162141239310E-002   6.9460094044965726E-002   0.0000000000000000     
  -4.2677520531843240E-002   7.5348773947938250E-002   0.0000000000000000     
  -4.4419134649063094E-002   8.1417196300167596E-002   0.0000000000000000     
  -4.1353464431834491E-002   5.8838840895811664E-002   0.0000000000000000     
  -4.3474417212249823E-002   6.4347364704526525E-002   0.0000000000000000     
  -4.5526347375261851E-002   7.0036026123549602E-002   0.0000000000000000     
  -4.7509254920870568E-002   7.5904825152880884E-002   0.0000000000000000     
  -4.9423139849075981E-002   8.1953761792520383E-002   0.0000000000000000     
  -4.5778965004705775E-002   5.9516783156526476E-002   0.0000000000000000     
  -4.8090125415521913E-002   6.5000497337403540E-002   0.0000000000000000     
  -5.0326414192926695E-002   7.0665597097072499E-002   0.0000000000000000     
  -5.2487831336920129E-002   7.6512082435533396E-002   0.0000000000000000     
  -5.4574376847502208E-002   8.2539953352786216E-002   0.0000000000000000     
  -3.4852819644277333E-002   8.0492943519200985E-002   0.0000000000000000     
  -3.6200854418798577E-002   8.6765269577124618E-002   0.0000000000000000     
  -3.7497374724830460E-002   9.3195429705407451E-002   0.0000000000000000     
  -3.8742380562372961E-002   9.9783423904049470E-002   0.0000000000000000     
  -3.9935871931426087E-002  0.10652925217305070        0.0000000000000000     
  -3.9562361247463547E-002   8.0930256875727788E-002   0.0000000000000000     
  -4.1075628582641341E-002   8.7185691119046727E-002   0.0000000000000000     
  -4.2532001034277678E-002   9.3599137643321062E-002   0.0000000000000000     
  -4.3931478602372565E-002  0.10017059644855077        0.0000000000000000     
  -4.5274061286925987E-002  0.10690006753473587        0.0000000000000000     
  -4.4419134649063094E-002   8.1417196300167596E-002   0.0000000000000000     
  -4.6098099776953561E-002   8.7654642097753768E-002   0.0000000000000000     
  -4.7714511199569376E-002   9.4050392336796698E-002   0.0000000000000000     
  -4.9268368916910506E-002  0.10060444701729644        0.0000000000000000     
  -5.0759672928976998E-002  0.10731680613925294        0.0000000000000000     
  -4.9423139849075981E-002   8.1953761792520383E-002   0.0000000000000000     
  -5.1268268001735250E-002   8.8172122513245715E-002   0.0000000000000000     
  -5.3044905220705520E-002   9.4549193785834401E-002   0.0000000000000000     
  -5.4753051505986819E-002  0.10108497561028650        0.0000000000000000     
  -5.6392706857579127E-002  0.10777946798660196        0.0000000000000000     
  -5.4574376847502208E-002   8.2539953352786216E-002   0.0000000000000000     
  -5.6586133256986401E-002   8.8738132365522582E-002   0.0000000000000000     
  -5.8523183097686157E-002   9.5095541990434157E-002   0.0000000000000000     
  -6.0385526369601469E-002  0.10161218222752091        0.0000000000000000     
  -6.2173163072732351E-002  0.10828805307678288        0.0000000000000000     
  -3.9935871931426087E-002  0.10652925217305070        0.0000000000000000     
  -4.1078640605153746E-002  0.11342163090684733        0.0000000000000000     
  -4.2171478356719798E-002  0.12044927649987555        0.0000000000000000     
  -4.3214385186124270E-002  0.12761218895213539        0.0000000000000000     
  -4.4207361093367134E-002  0.13491036826362687        0.0000000000000000     
  -4.5274061286925987E-002  0.10690006753473587        0.0000000000000000     
  -4.6560691261127288E-002  0.11377596203855853        0.0000000000000000     
  -4.7792310698165787E-002  0.12078669109670090        0.0000000000000000     
  -4.8968919598041498E-002  0.12793225470916300        0.0000000000000000     
  -5.0090517960754408E-002  0.13521265287594483        0.0000000000000000     
  -5.0759672928976998E-002  0.10731680613925294        0.0000000000000000     
  -5.2190076687619318E-002  0.11417513781038467        0.0000000000000000     
  -5.3561233644687956E-002  0.12116711013841000        0.0000000000000000     
  -5.4873143800182919E-002  0.12829272312332896        0.0000000000000000     
  -5.6125807154104201E-002  0.13555197676514155        0.0000000000000000     
  -5.6392706857579127E-002  0.10777946798660196        0.0000000000000000     
  -5.7966796884629815E-002  0.11461915822232577        0.0000000000000000     
  -5.9478247196286277E-002  0.12159053362500288        0.0000000000000000     
  -6.0927057792548513E-002  0.12869359419463330        0.0000000000000000     
  -6.2313228673416501E-002  0.13592833993121700        0.0000000000000000     
  -6.2173163072732351E-002  0.10828805307678288        0.0000000000000000     
  -6.3890851852158800E-002  0.11510802327438181        0.0000000000000000     
  -6.5543351352960771E-002  0.12205696155647952        0.0000000000000000     
  -6.7130661575138278E-002  0.12913486792307599        0.0000000000000000     
  -6.8652782518691335E-002  0.13634174237417124        0.0000000000000000     
  -4.4207361093367134E-002  0.13491036826362687        0.0000000000000000     
  -4.5149742263986006E-002  0.14233041681553002        0.0000000000000000     
  -4.6040864883518433E-002  0.14985893698902494        0.0000000000000000     
  -4.6880728951964448E-002  0.15749592878411162        0.0000000000000000     
  -4.7669334469324018E-002  0.16524139220079007        0.0000000000000000     
  -5.0090517960754408E-002  0.13521265287594483        0.0000000000000000     
  -5.1156645779811487E-002  0.14261430692856050        0.0000000000000000     
  -5.2166843048719658E-002  0.15012363819852409        0.0000000000000000     
  -5.3121109767478920E-002  0.15774064668583559        0.0000000000000000     
  -5.4019445936089303E-002  0.16546533239049507        0.0000000000000000     
  -5.6125807154104201E-002  0.13555197676514155        0.0000000000000000     
  -5.7316837960559718E-002  0.14293237108689102        0.0000000000000000     
  -5.8443850473657369E-002  0.15042140611162064        0.0000000000000000     
  -5.9506844693397155E-002  0.15801908183933044        0.0000000000000000     
  -6.0505820619779063E-002  0.16572539827002042        0.0000000000000000     
  -6.2313228673416501E-002  0.13592833993121700        0.0000000000000000     
  -6.3630318806230712E-002  0.14328460929052161        0.0000000000000000     
  -6.4871887158331587E-002  0.15075224072831467        0.0000000000000000     
  -6.6037933729719125E-002  0.15833123424459622        0.0000000000000000     
  -6.7128458520393300E-002  0.16602158983936621        0.0000000000000000     
  -6.8652782518691335E-002  0.13634174237417124        0.0000000000000000     
  -7.0097088316824485E-002  0.14367102153945224        0.0000000000000000     
  -7.1450953102742312E-002  0.15111614204860613        0.0000000000000000     
  -7.2714376876444831E-002  0.15867710390163281        0.0000000000000000     
  -7.3887359637932012E-002  0.16635390709853237        0.0000000000000000     
   0.0000000000000000        0.0000000000000000        0.0000000000000000     
  -2.8800471019888728E-003   1.7448449651064825E-003   0.0000000000000000     
  -5.8726114278702425E-003   3.8646685739039920E-003   0.0000000000000000     
  -8.9776929776441087E-003   6.3594708263925281E-003   0.0000000000000000     
  -1.2195291751310473E-002   9.2292517225720933E-003   0.0000000000000000     
   0.0000000000000000        0.0000000000000000        0.0000000000000000     
  -3.2831967448763420E-003   1.9992886697347370E-003   0.0000000000000000     
  -6.6769276680489079E-003   4.3308998860806455E-003   0.0000000000000000     
  -1.0181192769517700E-002   6.9948336490377270E-003   0.0000000000000000     
  -1.3795992049282712E-002   9.9910899586059809E-003   0.0000000000000000     
   0.0000000000000000        0.0000000000000000        0.0000000000000000     
  -3.9535732704227044E-003   2.4250169870225690E-003   0.0000000000000000     
  -7.9106116588646656E-003   5.0628272644828599E-003   0.0000000000000000     
  -1.1871115165325886E-002   7.9134308323808734E-003   0.0000000000000000     
  -1.5835083789806366E-002   1.0976827690716607E-002   0.0000000000000000     
   0.0000000000000000        0.0000000000000000        0.0000000000000000     
  -4.8911766786279599E-003   3.0220299169699790E-003   0.0000000000000000     
  -9.5736634003175183E-003   6.0604507091106341E-003   0.0000000000000000     
  -1.4047460165068673E-002   9.1152623764219672E-003   0.0000000000000000     
  -1.8312566972881427E-002   1.2186464918903971E-002   0.0000000000000000     
   0.0000000000000000        0.0000000000000000        0.0000000000000000     
  -6.0960069694921066E-003   3.7903274595769681E-003   0.0000000000000000     
  -1.1666082892407460E-002   7.3237702199639692E-003   0.0000000000000000     
  -1.6710227768746061E-002   1.0600328281161003E-002   0.0000000000000000     
  -2.1228441598507907E-002   1.3620001643168071E-002   0.0000000000000000     
  -1.2195291751310473E-002   9.2292517225720933E-003   0.0000000000000000     
  -1.5427691454876420E-002   1.2371872288420974E-002   0.0000000000000000     
  -1.8577175794349039E-002   1.5685193549917466E-002   0.0000000000000000     
  -2.1643744769728326E-002   1.9169215507061566E-002   0.0000000000000000     
  -2.4627398381014277E-002   2.2823938159853282E-002   0.0000000000000000     
  -1.3795992049282712E-002   9.9910899586059809E-003   0.0000000000000000     
  -1.7404293929221888E-002   1.3221511050189301E-002   0.0000000000000000     
  -2.0889066831213172E-002   1.6587939159191580E-002   0.0000000000000000     
  -2.4250310755256559E-002   2.0090374285612819E-002   0.0000000000000000     
  -2.7488025701352052E-002   2.3728816429453018E-002   0.0000000000000000     
  -1.5835083789806366E-002   1.0976827690716607E-002   0.0000000000000000     
  -1.9730799179146934E-002   1.4211607456829633E-002   0.0000000000000000     
  -2.3486542980188433E-002   1.7576359748059510E-002   0.0000000000000000     
  -2.7102315192930857E-002   2.1071084564406244E-002   0.0000000000000000     
  -3.0578115817374213E-002   2.4695781905869837E-002   0.0000000000000000     
  -1.8312566972881427E-002   1.2186464918903971E-002   0.0000000000000000     
  -2.2407207204651551E-002   1.5342161508341966E-002   0.0000000000000000     
  -2.6369604241274824E-002   1.8650455316521253E-002   0.0000000000000000     
  -3.0199758082751230E-002   2.2111346343441848E-002   0.0000000000000000     
  -3.3897668729080781E-002   2.5724834589103747E-002   0.0000000000000000     
  -2.1228441598507907E-002   1.3620001643168071E-002   0.0000000000000000     
  -2.5433518005735747E-002   1.6613173204726297E-002   0.0000000000000000     
  -2.9538250614472333E-002   1.9810225864576821E-002   0.0000000000000000     
  -3.3542639424717663E-002   2.3211159622719631E-002   0.0000000000000000     
  -3.7446684436471728E-002   2.6815974479154736E-002   0.0000000000000000     
  -2.4627398381014277E-002   2.2823938159853282E-002   0.0000000000000000     
  -2.7532131766291448E-002   2.6672335042031863E-002   0.0000000000000000     
  -3.0361940063644378E-002   3.0737379687336558E-002   0.0000000000000000     
  -3.3116823273073068E-002   3.5019072095767372E-002   0.0000000000000000     
  -3.5796781394577509E-002   3.9517412267324303E-002   0.0000000000000000     
  -2.7488025701352052E-002   2.3728816429453018E-002   0.0000000000000000     
  -3.0624952008509801E-002   2.7546266151074611E-002   0.0000000000000000     
  -3.3683830015739977E-002   3.1585724010840026E-002   0.0000000000000000     
  -3.6664659723042559E-002   3.5847190008749273E-002   0.0000000000000000     
  -3.9567441130417567E-002   4.0330664144802353E-002   0.0000000000000000     
  -3.0578115817374213E-002   2.4695781905869837E-002   0.0000000000000000     
  -3.3943072932246202E-002   2.8495608196655982E-002   0.0000000000000000     
  -3.7226314616274507E-002   3.2515719860970349E-002   0.0000000000000000     
  -4.0427840869459129E-002   3.6756116898812967E-002   0.0000000000000000     
  -4.3547651691800075E-002   4.1216799310183808E-002   0.0000000000000000     
  -3.3897668729080781E-002   2.5724834589103747E-002   0.0000000000000000     
  -3.7486494537500629E-002   2.9520361178775958E-002   0.0000000000000000     
  -4.0989393865247963E-002   3.3527367237727528E-002   0.0000000000000000     
  -4.4406366712322766E-002   3.7745852765958411E-002   0.0000000000000000     
  -4.7737413078725047E-002   4.2175817763468675E-002   0.0000000000000000     
  -3.7446684436471728E-002   2.6815974479154736E-002   0.0000000000000000     
  -4.1255216824273105E-002   3.0620525097434563E-002   0.0000000000000000     
  -4.4973067762660357E-002   3.4620666141111540E-002   0.0000000000000000     
  -4.8600237251633469E-002   3.8816397610185668E-002   0.0000000000000000     
  -5.2136725291192454E-002   4.3207719504656954E-002   0.0000000000000000     
  -3.5796781394577509E-002   3.9517412267324303E-002   0.0000000000000000     
  -3.8402539553367275E-002   4.4222370987739436E-002   0.0000000000000000     
  -4.0934822874651902E-002   4.9123919042744844E-002   0.0000000000000000     
  -4.3393631358431412E-002   5.4222056432340522E-002   0.0000000000000000     
  -4.5778965004705775E-002   5.9516783156526476E-002   0.0000000000000000     
  -3.9567441130417567E-002   4.0330664144802353E-002   0.0000000000000000     
  -4.2390652802353934E-002   4.5021651110411010E-002   0.0000000000000000     
  -4.5132773303340618E-002   4.9905655596987002E-002   0.0000000000000000     
  -4.7793802633377624E-002   5.4982677604530343E-002   0.0000000000000000     
  -5.0373740792464934E-002   6.0252717133041020E-002   0.0000000000000000     
  -4.3547651691800075E-002   4.1216799310183808E-002   0.0000000000000000     
  -4.6582564436819643E-002   4.5884091401239835E-002   0.0000000000000000     
  -4.9529396458040144E-002   5.0744317478137985E-002   0.0000000000000000     
  -5.2388147755461537E-002   5.5797477540878250E-002   0.0000000000000000     
  -5.5158818329083856E-002   6.1043571589460631E-002   0.0000000000000000     
  -4.7737413078725047E-002   4.2175817763468675E-002   0.0000000000000000     
  -5.0978274456764401E-002   4.6809691860225905E-002   0.0000000000000000     
  -5.4124692338750426E-002   5.1639904686197759E-002   0.0000000000000000     
  -5.7176666724683155E-002   5.6666456241384222E-002   0.0000000000000000     
  -6.0134197614562554E-002   6.1889346525785316E-002   0.0000000000000000     
  -5.2136725291192454E-002   4.3207719504656954E-002   0.0000000000000000     
  -5.5577782862188181E-002   4.7798452487369227E-002   0.0000000000000000     
  -5.8918660945471518E-002   5.2592417221166331E-002   0.0000000000000000     
  -6.2159359541042458E-002   5.7589613706048280E-002   0.0000000000000000     
  -6.5299878648901008E-002   6.2790041942015040E-002   0.0000000000000000     
  -4.5778965004705775E-002   5.9516783156526476E-002   0.0000000000000000     
  -4.8090125415521913E-002   6.5000497337403540E-002   0.0000000000000000     
  -5.0326414192926695E-002   7.0665597097072499E-002   0.0000000000000000     
  -5.2487831336920129E-002   7.6512082435533396E-002   0.0000000000000000     
  -5.4574376847502208E-002   8.2539953352786216E-002   0.0000000000000000     
  -5.0373740792464934E-002   6.0252717133041020E-002   0.0000000000000000     
  -5.2873229546649927E-002   6.5710424508740803E-002   0.0000000000000000     
  -5.5292910661979985E-002   7.1350450057851456E-002   0.0000000000000000     
  -5.7632784138455087E-002   7.7172793780372992E-002   0.0000000000000000     
  -5.9892849976075253E-002   8.3177455676305398E-002   0.0000000000000000     
  -5.5158818329083856E-002   6.1043571589460631E-002   0.0000000000000000     
  -5.7843775065216235E-002   6.6477016237398087E-002   0.0000000000000000     
  -6.0445384850167823E-002   7.2092228098203509E-002   0.0000000000000000     
  -6.2963647683938598E-002   7.7889207171876931E-002   0.0000000000000000     
  -6.5398563566528581E-002   8.3867953458418354E-002   0.0000000000000000     
  -6.0134197614562554E-002   6.1889346525785316E-002   0.0000000000000000     
  -6.3001761971220843E-002   6.7300272523375337E-002   0.0000000000000000     
  -6.5783836757490208E-002   7.2890931218128618E-002   0.0000000000000000     
  -6.8480421973370662E-002   7.8661322610045201E-002   0.0000000000000000     
  -7.1091517618862191E-002   8.4611446699125015E-002   0.0000000000000000     
  -6.5299878648901008E-002   6.2790041942015040E-002   0.0000000000000000     
  -6.8347190264663710E-002   6.8180193366672581E-002   0.0000000000000000     
  -7.1308266383947133E-002   7.3746559417626825E-002   0.0000000000000000     
  -7.4183107006751264E-002   7.9489140094877786E-002   0.0000000000000000     
  -7.6971712133076103E-002   8.5407935398425450E-002   0.0000000000000000     
  -5.4574376847502208E-002   8.2539953352786216E-002   0.0000000000000000     
  -5.6586133256986401E-002   8.8738132365522582E-002   0.0000000000000000     
  -5.8523183097686157E-002   9.5095541990434157E-002   0.0000000000000000     
  -6.0385526369601469E-002  0.10161218222752091        0.0000000000000000     
  -6.2173163072732351E-002  0.10828805307678288        0.0000000000000000     
  -5.9892849976075253E-002   8.3177455676305398E-002   0.0000000000000000     
  -6.2072437540507251E-002   8.9353253734505991E-002   0.0000000000000000     
  -6.4170876197417834E-002   9.5689005943832006E-002   0.0000000000000000     
  -6.6188165946807057E-002  0.10218471230428346        0.0000000000000000     
  -6.8124306788674843E-002  0.10884037281586037        0.0000000000000000     
  -6.5398563566528581E-002   8.3867953458418354E-002   0.0000000000000000     
  -6.7747922850098036E-002   9.0018068700117457E-002   0.0000000000000000     
  -7.0009515886807205E-002   9.6329154639263906E-002   0.0000000000000000     
  -7.2183342676656118E-002  0.10280121127585781        0.0000000000000000     
  -7.4269403219644758E-002  0.10943423860989906        0.0000000000000000     
  -7.1091517618862191E-002   8.4611446699125015E-002   0.0000000000000000     
  -7.3612589185758748E-002   9.0732577262356992E-002   0.0000000000000000     
  -7.6039102165854244E-002   9.7015988076729967E-002   0.0000000000000000     
  -7.8371056559148680E-002  0.10346167914224397        0.0000000000000000     
  -8.0608452365642097E-002  0.11006965045889897        0.0000000000000000     
  -7.6971712133076103E-002   8.5407935398425450E-002   0.0000000000000000     
  -7.9666436547489408E-002   9.1496779421224625E-002   0.0000000000000000     
  -8.2259635034558978E-002   9.7749506256230106E-002   0.0000000000000000     
  -8.4751307594284772E-002  0.10416611590344192        0.0000000000000000     
  -8.7141454226666831E-002  0.11074660836286006        0.0000000000000000     
  -6.2173163072732351E-002  0.10828805307678288        0.0000000000000000     
  -6.3890851852158800E-002  0.11510802327438181        0.0000000000000000     
  -6.5543351352960771E-002  0.12205696155647952        0.0000000000000000     
  -6.7130661575138278E-002  0.12913486792307599        0.0000000000000000     
  -6.8652782518691335E-002  0.13634174237417124        0.0000000000000000     
  -6.8124306788674843E-002  0.10884037281586037        0.0000000000000000     
  -6.9985177117805025E-002  0.11563928753344863        0.0000000000000000     
  -7.1776655328981337E-002  0.12256475651193409        0.0000000000000000     
  -7.3498741422203764E-002  0.12961677975131677        0.0000000000000000     
  -7.5151435397472321E-002  0.13679535725159667        0.0000000000000000     
  -7.4269403219644758E-002  0.10943423860989906        0.0000000000000000     
  -7.6272708209167289E-002  0.11621050556642196        0.0000000000000000     
  -7.8198268338617857E-002  0.12311228107046070        0.0000000000000000     
  -8.0046083607996463E-002  0.13013956512201530        0.0000000000000000     
  -8.1816154017303119E-002  0.13729235772108578        0.0000000000000000     
  -8.0608452365642097E-002  0.11006965045889897        0.0000000000000000     
  -8.2753445126245606E-002  0.11682167737330182        0.0000000000000000     
  -8.4808190381870346E-002  0.12369953523205938        0.0000000000000000     
  -8.6772688132516415E-002  0.13070322403517162        0.0000000000000000     
  -8.8646938378183715E-002  0.13783274378263854        0.0000000000000000     
  -8.7141454226666831E-002  0.11074660836286006        0.0000000000000000     
  -8.9427387869039920E-002  0.11747280295408821        0.0000000000000000     
  -9.1606421458738818E-002  0.12432651899673008        0.0000000000000000     
  -9.3678554995763552E-002  0.13130775649078569        0.0000000000000000     
  -9.5643788480114109E-002  0.13841651543625499        0.0000000000000000     
  -6.8652782518691335E-002  0.13634174237417124        0.0000000000000000     
  -7.0097088316824485E-002  0.14367102153945224        0.0000000000000000     
  -7.1450953102742312E-002  0.15111614204860613        0.0000000000000000     
  -7.2714376876444831E-002  0.15867710390163281        0.0000000000000000     
  -7.3887359637932012E-002  0.16635390709853237        0.0000000000000000     
  -7.5151435397472321E-002  0.13679535725159667        0.0000000000000000     
  -7.6719525182328649E-002  0.14409686835878419        0.0000000000000000     
  -7.8187798704314332E-002  0.15151769241888979        0.0000000000000000     
  -7.9556255963429426E-002  0.15905782943191341        0.0000000000000000     
  -8.0824896959673903E-002  0.16671727939785511        0.0000000000000000     
  -8.1816154017303119E-002  0.13729235772108578        0.0000000000000000     
  -8.3500008092730782E-002  0.14456741027361861        0.0000000000000000     
  -8.5089174360472433E-002  0.15196147418556039        0.0000000000000000     
  -8.6583652820528073E-002  0.15947454945691111        0.0000000000000000     
  -8.7983443472897729E-002  0.16710663608767073        0.0000000000000000     
  -8.8646938378183715E-002  0.13783274378263854        0.0000000000000000     
  -9.0438537048030884E-002  0.14508264728395553        0.0000000000000000     
  -9.2155080071216589E-002  0.15244748734861799        0.0000000000000000     
  -9.3796567447740758E-002  0.15992726397662582        0.0000000000000000     
  -9.5362999177603436E-002  0.16752197716797912        0.0000000000000000     
  -9.5643788480114109E-002  0.13841651543625499        0.0000000000000000     
  -9.7535112048229025E-002  0.14564257938979497        0.0000000000000000     
  -9.9385515836546826E-002  0.15297573190806249        0.0000000000000000     
 -0.10119499984506751       0.16041597299105767        0.0000000000000000     
 -0.10296356407379108       0.16796330263878040        0.0000000000000000     
 </DataArray>
 <DataArray  type="Float64" Name="stress" NumberOfComponents="3" format="ascii">
   13416733172.049757        4025019951.6149273        2893860782.5530968     
   11766560685.467747        1890403695.7689884        1715772094.6074820     
   10313691716.089556        413465830.60244989        810754739.87084937     
   9058126263.9151840       -405793643.88469124        178808718.34319869     
   7999864328.9446344       -567374727.69243097       -180065969.97547087     
   10540001737.931496        3162000521.3794484        2225600846.7480412     
   9667590602.0470600        1589579127.0747941        1446652434.8194065     
   8943824807.9317474        512642205.33388042        863173376.01655126     
   8368704355.5855570       -68810243.843290806        475163670.33947533     
   7942229245.0084858       -154778220.45672274        282623317.78818077     
   8337949632.3590355        2501384889.7077107        1712211945.2024612     
   8021579904.0773134        1424642374.0158820        1275635937.9503257     
   7805197342.1300154        681190412.77213597        956927303.74076664     
   7688801946.5171404        271029005.97647190        756086042.57378721     
   7672393717.2386942        194158153.62889242        673112154.44938445     
   6810576855.3323774        2043173056.5997133        1353694077.9163566     
   6828528591.5585051        1395593436.5922508        1202722604.0002389     
   6897809318.6843586        919110452.91721320        1092016523.0434973     
   7018419036.7099400        613724105.57459950        1021575835.0461323     
   7190357745.6352491        479434394.56441045        991400540.00814188     
   5957883406.8515234        1787365022.0554569        1150047244.8897278     
   6088436664.4906368        1502432314.8039026        1227912432.9691482     
   6221660737.5947790        1226402325.7691140        1268441033.9247429     
   6357555626.1639538        959275054.95109153        1271633047.7565114     
   6496121330.1981564        701050502.34983420        1237488474.4644542     
   7999864328.9446344       -567374727.69243097       -180065969.97547087     
   7917430895.7558308       -199952526.84342003       -78387749.982747540     
   7793466297.5317087        29032457.221192360       -9190685.6966401991     
   7627970534.2722673        119580224.50140429        27525222.882853664     
   7420943605.9775085        71690774.997221470        31759975.755732205     
   7942229245.0084858       -154778220.45672274        282623317.78818077     
   7739675649.4102793        16399577.308874130        281084888.04865742     
   7513731208.6706591        109607891.26977634        264914659.02776214     
   7264395922.7896385        124846721.42599297        234112630.72549668     
   6991669791.7672014        62116067.777510643        188678803.14185894     
   7672393717.2386942        194158153.62889242        673112154.44938445     
   7400718120.4460564        184390996.67556429        589520781.52051270     
   7123791998.4059258        157122088.89725637        509146965.73551422     
   6841615351.1182957        112351430.29396224        431990707.09438717     
   6554188178.5831776        50079020.865691662        358052005.59713054     
   7190357745.6352491        479434394.56441045        991400540.00814188     
   6900558308.8631659        304021731.25665665        846919930.43282115     
   6623648666.7375011        171575050.10362840        723506234.42661452     
   6359628819.2582550        82094351.105327606        621159451.98952329     
   6108498766.4254265        35579634.261751175        539879583.12154698     
   6496121330.1981564        701050502.34983420        1237488474.4644542     
   6239196214.6616106        375291781.05214882        1053282334.7855794     
   6013301213.6653938        152966774.88889742        907992465.10106540     
   5818436327.2095060        34075483.860078335        801618865.41090775     
   5654601555.2939501        18617907.965693712        734161535.71510947     
   7420943605.9775085        71690774.997221470        31759975.755732205     
   7219687059.0789299       -18803104.501171112        15487904.190926118     
   7030729450.1301346       -68300524.166953087        2928025.6507772407     
   6854070779.1311235       -76801484.000119209       -5919659.8647177909     
   6689711046.0818996       -44305984.000669479       -11055152.355549529     
   6991669791.7672014        62116067.777510643        188678803.14185894     
   6808879187.8252792        2743532.2637310028        181066618.19112173     
   6633904127.9328089       -30577189.751864910        176764963.10901198     
   6466744612.0897942       -37846098.269274950        175773837.89552751     
   6307400640.2962360       -19063193.288502932        178093242.55067325     
   6554188178.5831776        50079020.865691662        358052005.59713054     
   6388715908.5806723        21483546.631347179        353869081.04341578     
   6226575788.7272921        3995239.5607597828        352595023.20229691     
   6067767819.0230417       -2385900.3460614681        354229832.07377255     
   5912291999.4679203        2340126.9108753204        358773507.65784329     
   6108498766.4254265        35579634.261751175        539879583.12154698     
   5959197221.3451071        37416938.601675272        533895292.74780494     
   5808744432.5135880        35416763.770933151        530418205.93062609     
   5657140399.9308681        29579109.769525766        529448322.67001367     
   5504385123.5969505        19903976.597453833        530985642.96596301     
   5654601555.2939501        18617907.965693712        734161535.71510947     
   5520323126.1185856        50543708.174716234        721145253.30429018     
   5380410059.2916937        63687382.878648520        710234511.29400420     
   5234862354.8132744        58048932.077488899        701429309.68424821     
   5083680012.6833296        33628355.771236658        694729648.47502959     
   6689711046.0818996       -44305984.000669479       -11055152.355549529     
   6508727445.2051220       -6435929.8919365406       -6689531.5235112095     
   6322276806.0209179        13210663.192037344        1680472.0350241601     
   6130359128.5292645        14633795.251188993        14054858.320055297     
   5932974412.7301826       -2166533.7144324780        30433627.331588607     
   6307400640.2962360       -19063193.288502932        178093242.55067325     
   6132364937.6386328        1922840.1824808121        173120676.18050060     
   5954070161.9751425        12045296.967163086        172615345.86114410     
   5772516313.3057690        11304177.065569878        176577251.59259465     
   5587703391.6305075       -300519.52232646942        185006393.37486041     
   5912291999.4679203        2340126.9108753204        358773507.65784329     
   5744526633.0989609        6838871.1649260521        347038713.60393935     
   5575710159.0256586        7833923.0711858273        340234008.92515689     
   5405842577.2480249        5325282.6296668053        338359393.62150395     
   5234923887.7660561       -687050.15964841843        341414867.69297773     
   5504385123.5969505        19903976.597453833        530985642.96596301     
   5345212531.5860996        8312163.0554199219        515064580.74679887     
   5187196797.1724653        576541.50410103798        504536461.22707283     
   5030337920.3560410       -3302888.0565116405        499401284.40678650     
   4874635901.1368332       -3326125.6264023781        499659050.28594100     
   5083680012.6833296        33628355.771236658        694729648.47502959     
   4934422633.1000614        6342715.8539621830        677198277.60907841     
   4788530076.4155531       -9726847.7341046333        665522702.76688492     
   4646002342.6298094       -14580334.992957354        659702923.94844103     
   4506839431.7428350       -8217745.9225924015        659738941.15375614     
   5932974412.7301826       -2166533.7144324780        30433627.331588607     
   5763624636.1222477       -14758600.726050377        28881046.047738958     
   5596971203.4459143       -18362854.632317066        27363600.859558169     
   5433014114.7011862       -12979295.433238506        25881291.767033752     
   5271753369.8880711        1392076.8712141514        24434118.770173710     
   5587703391.6305075       -300519.52232646942        185006393.37486041     
   5421031381.7262182       -8740628.0387794971        183939505.50861579     
   5256116674.1949415       -11323061.978539228        183939157.81986812     
   5092959269.0366783       -8047821.3415768147        185005350.30860910     
   4931559166.2514305        1085093.8720848560        187138082.97484317     
   5234923887.7660561       -687050.15964841843        341414867.69297773     
   5073876513.3706503       -4091139.5393700600        339738124.75930756     
   4913647399.7896547       -4767692.8710424900        340159326.08496904     
   4754236547.0230808       -2716710.1546592712        342678471.66994536     
   4595643955.0709219        2061808.6097850800        347295561.51424837     
   4874635901.1368332       -3326125.6264023781        499659050.28594100     
   4722160031.0555334       -810135.22781896591        496276903.79982769     
   4569563380.2300482        1303252.6901581287        496024105.65486377     
   4416845948.6603899        3014038.1275424957        498900655.85104650     
   4264007736.3465495        4322221.0843346119        504906554.38838643     
   4506839431.7428350       -8217745.9225924015        659738941.15375614     
   4365881934.7808657        1102384.8958570957        653555842.63016295     
   4223864615.5161223        6889774.7050580978        651533496.52954853     
   4080787473.9486008        9144423.5050041676        653671902.85191596     
   3936650510.0783100        7866331.2957139015        659971061.59726465     
   5271753369.8880711        1392076.8712141514        24434118.770173710     
   5079026120.5950565        8733848.8784613609        16502809.876612645     
   4885191769.8188324        12385282.608339787        13781229.602975838     
   4690250317.5594110        12346378.060889244        16269377.949270977     
   4494201763.8167849        8617135.2360997200        23967254.915505748     
   4931559166.2514305        1085093.8720848560        187138082.97484317     
   4751442269.8891563        5870396.6100859642        179456374.92113203     
   4570403736.3829508        7583575.5349879265        176855164.17942360     
   4388443565.7328281        6224630.6468274593        179334450.74972016     
   4205561757.9387741        1793561.9455671310        186894234.63200468     
   4595643955.0709219        2061808.6097850800        347295561.51424837     
   4427768179.3310146        4179872.3860535622        340079829.36288291     
   4259156230.7864490        3844026.8134698868        337815363.21558619     
   4089808109.4372430        1054271.8920717239        340502163.07235628     
   3919723815.2833762       -4189392.3781852722        348140228.93319249     
   4264007736.3465495        4322221.0843346119        504906554.38838643     
   4108003848.9206281        3662276.2063395977        498373173.20185745     
   3951449253.0293245        1166636.4437553883        496661826.71145952     
   3794343948.6726537       -3164698.2034022808        499772514.91719657     
   3636687935.8506041       -9331727.7351446152        507705237.81907022     
   3936650510.0783100        7866331.2957139015        659971061.59726465     
   3792149278.6579990        4317608.0709552765        654336406.43805242     
   3647282803.1115813       -448595.57413840294        653394554.66704512     
   3502051083.4390697       -6432279.6395525932        657145506.28424251     
   3356454119.6404548       -13633444.125317097        665589261.28963327     
   4494201763.8167849        8617135.2360997200        23967254.915505748     
   4285509341.4654055       -2863946.5346937180        14333289.100025676     
   4075313902.9950213       -19355082.035522461        18528861.040214904     
   3863615448.4055948       -40856271.266480684        36553970.736097127     
   3650413977.6971655       -67367514.227449656        68408618.187657624     
   4205561757.9387741        1793561.9455671310        186894234.63200468     
   4030996520.8690000       -2506541.9786820412        175460348.33304182     
   3855794235.3781562       -8930140.6398375034        174791456.53041965     
   3679954901.4662127       -17477234.037982941        184887559.22415164     
   3503478519.1331978       -28147822.173032045        205748656.41422430     
   3919723815.2833762       -4189392.3781852722        348140228.93319249     
   3770529925.6113939       -3935269.8210206032        335916717.79834300     
   3621564955.2162690       -2918083.0076718330        331393657.90050650     
   3472828904.0980000       -1137831.9381346703        334571049.23967880     
   3324321772.2565875        1405483.3875927925        345448891.81586766     
   3636687935.8506041       -9331727.7351446152        507705237.81907022     
   3504109555.6925941       -7150130.0617225170        495702397.49593264     
   3372626062.5093789       -1318909.1389811039        488335465.15046996     
   3242237456.3009558        8161935.0330581665        485604440.78268373     
   3112943737.0673237        21292402.454414845        487509324.39257449     
   3356454119.6404548       -13633444.125317097        665589261.28963327     
   3231735411.1126008       -12151122.700775504        654817387.42580414     
   3108977557.2574692       -4132619.0338200331        645616878.28030860     
   2988180558.0750833        10422066.875611067        637987733.85315752     
   2869344413.5654235        31512935.027462602        631929954.14434969     
   3650413977.6971655       -67367514.227449656        68408618.187657624     
   3578753059.1655774       -44351001.101897717        76807515.533490360     
   3513253787.8080597       -795664.06280851364        54643120.946945995     
   3453916163.6246166        63298496.889866590        1915434.4280072257     
   3400740186.6152325        147931481.75609386       -81375544.023322746     
   3503478519.1331978       -28147822.173032045        205748656.41422430     
   3360623419.8608479       -23975303.000799894        214020738.94469029     
   3221541669.4859061       -7224954.1705269814        202439972.98077884     
   3086233268.0083818        22103224.317784309        171006358.52252838     
   2954698215.4282570        64009232.464130759        119719895.56990559     
   3324321772.2565875        1405483.3875927925        345448891.81586766     
   3140873759.2092729       -4085611.3037390709        350807811.54150748     
   2958810796.7827139       -4959870.5925720930        347024326.21083295     
   2778132884.9769235       -1217294.4788519144        334098435.82381654     
   2598840023.7918682        7142117.0373567343        312030140.38047552     
   3112943737.0673237        21292402.454414845        487509324.39257449     
   2919504077.2108550        15318073.989260674        487168733.32397079     
   2725061169.6984739        5999586.6710695028        488396180.63707381     
   2529615014.5302000       -6663059.5000873804        491191666.33188540     
   2333165611.7060251       -22669864.524259925        495555190.40838057     
   2869344413.5654235        31512935.027462602        631929954.14434969     
   2696514373.8655791        34235752.878182888        623103504.29207051     
   2520292788.2331920        25653417.620414138        626555536.25952244     
   2340679656.6682396        5765929.2541081905        642286050.04670966     
   2157674979.1707425       -25426712.220708728        670295045.65364003     
   5957883406.8515234        1787365022.0554569        1150047244.8897278     
   6088436664.4906368        1502432314.8039026        1227912432.9691482     
   6221660737.5947790        1226402325.7691140        1268441033.9247429     
   6357555626.1639538        959275054.95109153        1271633047.7565114     
   6496121330.1981564        701050502.34983420        1237488474.4644542     
   5434517150.7524719        1630355145.2257416        1033549011.2666514     
   5489878218.4676132        1372603378.5879970        1113905737.3908632     
   5547402785.0107498        1122063274.7102373        1167486379.7865045     
   5607090850.3818808        878734833.59246230        1194290938.4535754     
   5668942414.5810080        642618055.23467302        1194319413.3920751     
   4895125950.8712273        1468537785.2613683        936476942.19120443     
   4905467695.5059824        1247018819.2905095        1018733336.9503344     
   4917465622.3316984        1031020460.6228542        1084774151.3761494     
   4931119731.3483763        820542709.25840390        1134599385.4686484     
   4946430022.5560150        615585565.19715679        1168209039.2278330     
   4339709807.2077885        1301912942.1623366        858831037.66338718     
   4335205095.6057444        1125678636.9114394        942395231.64756215     
   4331849249.5576267        953273883.50696528        1020304348.6936768     
   4329642269.0634375        784698681.94891489        1092558388.8017316     
   4328584154.1231737        619953032.23728740        1159157351.9717262     
   3768268719.7621570        1130480615.9286470        800611297.68319941     
   3779090418.7669005        1008582831.4507878        884891421.48254561     
   3790553666.6885371        888823543.36257076        974076971.73908734     
   3802658463.5270662        771202751.66399634        1068167948.4528246     
   3815404809.2824874        655720456.35506368        1167164351.6237574     
   6496121330.1981564        701050502.34983420        1237488474.4644542     
   6239196214.6616106        375291781.05214882        1053282334.7855794     
   6013301213.6653938        152966774.88889742        907992465.10106540     
   5818436327.2095060        34075483.860078335        801618865.41090775     
   5654601555.2939501        18617907.965693712        734161535.71510947     
   5668942414.5810080        642618055.23467302        1194319413.3920751     
   5518792210.4732161        382916787.44154692        1073505190.9239821     
   5392862710.4319859        203951199.87028933        980665217.98259926     
   5291153914.4573116        105721292.52089143        915799494.56792426     
   5213665822.5491982        88227065.393360615        878908020.67995763     
   4946430022.5560150        615585565.19715679        1168209039.2278330     
   4871791814.2551222        412562876.22203732        1102842421.7511220     
   4814564899.5470190        267577832.55621338        1054508033.3334711     
   4774749278.4317026        180630434.19968271        1023205873.9748782     
   4752344950.9091759        151720681.15244579        1008935943.6753446     
   4328584154.1231737        619953032.23728740        1159157351.9717262     
   4298195026.0073261        464230047.39361703        1141294027.2669988     
   4278407781.0104952        343846672.94666970        1129520911.1536796     
   4269222419.1326814        258802908.89644837        1123838003.6317720     
   4270638940.3738832        209098755.24295068        1124245304.7012706     
   3815404809.2824874        655720456.35506368        1167164351.6237574     
   3798001845.7298269        537918300.95628512        1188860007.4716120     
   3784391354.8224125        432757721.04165983        1205703851.4432271     
   3774573336.5602455        340238716.61119175        1217695883.5386016     
   3768547790.9433222        260361287.66487336        1224836103.7577348     
   5654601555.2939501        18617907.965693712        734161535.71510947     
   5520323126.1185856        50543708.174716234        721145253.30429018     
   5380410059.2916937        63687382.878648520        710234511.29400420     
   5234862354.8132744        58048932.077488899        701429309.68424821     
   5083680012.6833296        33628355.771236658        694729648.47502959     
   5213665822.5491982        88227065.393360615        878908020.67995763     
   5077397231.6044235        86365353.638255119        855163766.67737222     
   4938842001.4832621        76881511.295184135        835580196.75104547     
   4798000132.1857080        59775538.364148378        820157310.90097725     
   4654871623.7117653        35047434.845146418        808895109.12716746     
   4752344950.9091759        151720681.15244579        1008935943.6753446     
   4619958037.2684956        117833009.15526128        978369716.30198777     
   4488632482.9265633        87483201.487238169        954019316.68061435     
   4358368287.8833780        60671258.148376703        935884744.81122601     
   4229165452.1389427        37397179.138678789        923966000.69382358     
   4270638940.3738832        209098755.24295068        1124245304.7012706     
   4148005543.1107984        144946674.72573709        1090763102.1781359     
   4029781503.6216006        95492453.454813242        1065551871.0827111     
   3915966821.9062901        60736091.430179358        1048611611.4149985     
   3806561497.9648643        40677588.651832342        1039942323.1749967     
   3768547790.9433222        260361287.66487336        1224836103.7577348     
   3661539749.1313362        167706350.34968483        1192343924.3058171     
   3562289063.5683751        100909267.19791055        1170177859.9573355     
   3470795734.2544374        59970038.209552526        1158337910.7122915     
   3387059761.1895270        44888663.384612441        1156824076.5706830     
   5083680012.6833296        33628355.771236658        694729648.47502959     
   4934422633.1000614        6342715.8539621830        677198277.60907841     
   4788530076.4155531       -9726847.7341046333        665522702.76688492     
   4646002342.6298094       -14580334.992957354        659702923.94844103     
   4506839431.7428350       -8217745.9225924015        659738941.15375614     
   4654871623.7117653        35047434.845146418        808895109.12716746     
   4521981706.1595974        13636328.287253380        795602143.65593946     
   4391540242.9604635        386736.23947691917        787688076.02501929     
   4263547234.1143637       -4701341.2981853485        785152906.23441303     
   4138002679.6213017       -1627904.3257317543        787996634.28411686     
   4229165452.1389427        37397179.138678789        923966000.69382358     
   4111280430.3794680        21451836.068647385        913842343.98062861     
   3994927494.4272971        10613445.689633846        908620686.92430270     
   3880106644.2824311        4882008.0016403198        908301029.52484477     
   3766817879.9448700        4257523.0046596527        912883371.78225458     
   3806561497.9648643        40677588.651832342        1039942323.1749967     
   3702318805.7596712        29789239.198141813        1031918878.5831525     
   3598691830.8160539        20953280.616371632        1028320535.4647347     
   3495680573.1340117        14169712.906514406        1029147293.8197448     
   3393285032.7135487        9438536.0685873032        1034399153.6481760     
   3387059761.1895270        44888663.384612441        1156824076.5706830     
   3295096832.3002057        38648537.675736547        1149831747.4635088     
   3202833252.1267319        31406241.019679308        1146787621.6463170     
   3110269020.6691065        23161773.416452527        1147691699.1191046     
   3017404137.9273238        13915134.866037488        1152543979.8818734     
   4506839431.7428350       -8217745.9225924015        659738941.15375614     
   4365881934.7808657        1102384.8958570957        653555842.63016295     
   4223864615.5161223        6889774.7050580978        651533496.52954853     
   4080787473.9486008        9144423.5050041676        653671902.85191596     
   3936650510.0783100        7866331.2957139015        659971061.59726465     
   4138002679.6213017       -1627904.3257317543        787996634.28411686     
   4006766473.0127163        2662824.0683166981        780228663.56857669     
   3875010243.0771999        5220141.3725914955        776938487.41521120     
   3742733989.8147449        6044047.5870783329        778126105.82402313     
   3609937713.2253618        5134542.7117969990        783791518.79501438     
   3766817879.9448700        4257523.0046596527        912883371.78225458     
   3646208798.3730845        3790599.3793361187        904160294.34658420     
   3525619492.4502039        3389594.5837011337        900232053.61228395     
   3405049962.1762347        3054508.6177582741        901098649.57935190     
   3284500207.5511675        2785341.4815046787        906760082.24779642     
   3393285032.7135487        9438536.0685873032        1034399153.6481760     
   3284208910.8619747        4485710.8289115429        1025350734.9641865     
   3175692363.6351476        1398134.3383965492        1021414195.1207616     
   3067735391.0330691        175806.59704029560        1022589534.1179026     
   2960337993.0557404        818727.60484492779        1028876751.9556112     
   3017404137.9273238        13915134.866037488        1152543979.8818734     
   2920766810.4793782        4748158.4170359373        1143799985.4213836     
   2825228856.6320195       -754239.36333298683        1140484911.9406500     
   2730790276.3852482       -2592058.4750790596        1142598759.4396803     
   2637451069.7390685       -765298.91819155216        1150141527.9184682     
   3936650510.0783100        7866331.2957139015        659971061.59726465     
   3792149278.6579990        4317608.0709552765        654336406.43805242     
   3647282803.1115813       -448595.57413840294        653394554.66704512     
   3502051083.4390697       -6432279.6395525932        657145506.28424251     
   3356454119.6404548       -13633444.125317097        665589261.28963327     
   3609937713.2253618        5134542.7117969990        783791518.79501438     
   3477856656.7016401        3206340.1665248871        778116375.02849483     
   3345482482.6105595        301079.06340813637        776928442.25281990     
   3212815190.9521189       -3581240.5975888968        780227720.46796799     
   3079854781.7263198       -8440618.8164391518        788014209.67395520     
   3284500207.5511675        2785341.4815046787        906760082.24779642     
   3164251919.0744143        2301437.5608469248        901128597.52583897     
   3043782639.5890450        1080896.9448000193        899778731.39735138     
   2923092369.0950556       -876280.36664533615        902710483.86232662     
   2802181107.5924478       -3570094.3734890223        909923854.92076325     
   2960337993.0557404        818727.60484492779        1028876751.9556112     
   2851335065.7763286        1602900.2539081573        1023373073.9300843     
   2742183274.0470357        1890858.0700417757        1021945422.1006517     
   2632882617.8678675        1682601.0532505512        1024593796.4673125     
   2523433097.2388201        978129.20353615284        1031318197.0300665     
   2637451069.7390685       -765298.91819155216        1150141527.9184682     
   2539106096.8073697        1110728.2457005978        1144849804.2412276     
   2440684385.9845371        2730962.4391453266        1143428514.3627172     
   2342185937.2705631        4095403.6621211767        1145877658.2829251     
   2243610750.6654534        5204051.9146397114        1152197236.0018597     
   3356454119.6404548       -13633444.125317097        665589261.28963327     
   3231735411.1126008       -12151122.700775504        654817387.42580414     
   3108977557.2574692       -4132619.0338200331        645616878.28030860     
   2988180558.0750833        10422066.875611067        637987733.85315752     
   2869344413.5654235        31512935.027462602        631929954.14434969     
   3079854781.7263198       -8440618.8164391518        788014209.67395520     
   2959832653.9355407       -7620239.8985551596        779184169.09157944     
   2841289318.0239201       -1870554.7167944908        772548274.16706967     
   2724224773.9914608        8808436.7288377285        768106524.90042543     
   2608639021.8381667        24416734.438341975        765858921.29164898     
   2802181107.5924478       -3570094.3734890223        909923854.92076325     
   2688634934.6516676       -2877845.7283753157        902473241.02734613     
   2576085490.7964849        1136833.2020529509        897839553.73132217     
   2464532776.0268941        8473942.4177877903        896022793.03269029     
   2353976790.3428931        19133481.918820858        897022958.93145287     
   2523433097.2388201        978129.20353615284        1031318197.0300665     
   2418142253.2609792        2076059.8097618818        1024684603.2331138     
   2313366075.5751643        4889544.7227343321        1021490716.9730706     
   2209104564.1813703        9418583.9424476624        1021736538.2499551     
   2105357719.0795972        15663177.468894362        1025422067.0637455     
   2243610750.6654534        5204051.9146397114        1152197236.0018597     
   2148354609.7634811        7241476.7158507109        1145818255.7088661     
   2053131072.3599653        9387579.8452569246        1143501763.8923142     
   1957940138.4548960        11642361.302819967        1145247760.5522122     
   1862781808.0482814        14005821.088558316        1151056245.6885467     
   2869344413.5654235        31512935.027462602        631929954.14434969     
   2696514373.8655791        34235752.878182888        623103504.29207051     
   2520292788.2331920        25653417.620414138        626555536.25952244     
   2340679656.6682396        5765929.2541081905        642286050.04670966     
   2157674979.1707425       -25426712.220708728        670295045.65364003     
   2608639021.8381667        24416734.438341975        765858921.29164898     
   2465473337.7012663        30537604.736507297        754578639.16160250     
   2320028786.2019596        29062250.493301511        753054444.31083262     
   2172305367.3402328        19990671.708716750        761286336.73933196     
   2022303081.1160982        3322868.3827600479        779274316.44710851     
   2353976790.3428931        19133481.918820858        897022958.93145287     
   2233268620.2247553        26490352.201159239        884586969.52213824     
   2111394261.3143520        29959926.509273529        879384672.85163951     
   1988353713.6116874        29542204.843170762        881416068.91995347     
   1864146977.1167409        25237187.202828407        890681157.72707713     
   2105357719.0795972        15663177.468894362        1025422067.0637455     
   1999900221.4360540        22093995.272157431        1013128495.3736740     
   1894389213.5703921        28346445.668351173        1005546221.8819498     
   1788824695.4825974        34420528.657451272        1002675246.5885744     
   1683206667.1726878        40316244.239477873        1004515569.4935585     
   1862781808.0482814        14005821.088558316        1151056245.6885467     
   1765368141.3351631        17348533.949511886        1140203216.7162085     
   1669013642.9700527        24221807.970489264        1131539091.4017553     
   1573718312.9529736        34625643.151580095        1125063869.7451959     
   1479482151.2839117        48560039.492717087        1120777551.7465374     
   3768268719.7621570        1130480615.9286470        800611297.68319941     
   3779090418.7669005        1008582831.4507878        884891421.48254561     
   3790553666.6885371        888823543.36257076        974076971.73908734     
   3802658463.5270662        771202751.66399634        1068167948.4528246     
   3815404809.2824874        655720456.35506368        1167164351.6237574     
   3207914794.8695121        962374438.46085358        756695522.86460531     
   3235890715.2698922        868136685.10373569        853072047.95591843     
   3263612255.1490998        773050996.67604208        951355617.40497005     
   3291079414.5071354        677117373.17777300        1051546231.2117598     
   3318292193.3439970        580335814.60892737        1153643889.3762884     
   2685760138.8650360        805728041.65951085        721961513.82156873     
   2722323474.6626048        736580277.62359977        829389189.19377279     
   2757736500.5009341        663598147.05689490        935725526.82425785     
   2791999216.3800244        586781649.95939565        1040970526.7130246     
   2825111622.2998791        506130786.33110327        1145124188.8600724     
   2201804751.7487292        660541425.52461874        696409270.55408967     
   2238388696.9450355        613913609.01037979        813842845.19610810     
   2272926402.7440386        560464994.50512862        927186699.99695039     
   2305417869.1457381        500195582.00886571        1036440834.9566172     
   2335863096.1501336        433105371.52159053        1141605250.0751081     
   1756048633.5205905        526814590.05617720        680038793.06216824     
   1784086382.1171868        500136679.26407546        806433015.96292484     
   1809181961.8784137        463651539.02074361        925739136.92304826     
   1831335372.8042715        417359169.32618147        1037957155.9425389     
   1850546614.8947606        361259570.18038946        1143087073.0213964     
   3815404809.2824874        655720456.35506368        1167164351.6237574     
   3798001845.7298269        537918300.95628512        1188860007.4716120     
   3784391354.8224125        432757721.04165983        1205703851.4432271     
   3774573336.5602455        340238716.61119175        1217695883.5386016     
   3768547790.9433222        260361287.66487336        1224836103.7577348     
   3318292193.3439970        580335814.60892737        1153643889.3762884     
   3293801611.3985581        473261671.17848206        1181971468.4642656     
   3273006128.6818242        378504525.17705286        1207223150.2105763     
   3255905745.1937947        296064376.60463941        1229398934.6152205     
   3242500460.9344687        225941225.46123993        1248498821.6781993     
   2825111622.2998791        506130786.33110327        1145124188.8600724     
   2798607463.4890151        411306867.32719821        1179970088.8688724     
   2775701030.4903164        328475367.69717002        1213516006.0705807     
   2756392323.3037791        257636287.44101882        1245761940.4651964     
   2740681341.9294052        198789626.55874360        1276707892.0527196     
   2335863096.1501336        433105371.52159053        1141605250.0751081     
   2312419402.0012007        352053889.40243202        1182855868.6854336     
   2292476060.2478886        282670248.60201073        1224582419.0232403     
   2276033070.8901987        224954449.12032920        1266784901.0885282     
   2263090433.9281282        178906490.95738339        1309463314.8812981     
   1850546614.8947606        361259570.18038946        1143087073.0213964     
   1835237426.9351115        295502737.40418446        1190628807.9139473     
   1823331217.9545417        241089167.89157647        1240422389.0685544     
   1814827987.9530516        198018861.64256883        1292467816.4852171     
   1809727736.9306412        166291818.65715873        1346765090.1639342     
   3768547790.9433222        260361287.66487336        1224836103.7577348     
   3661539749.1313362        167706350.34968483        1192343924.3058171     
   3562289063.5683751        100909267.19791055        1170177859.9573355     
   3470795734.2544374        59970038.209552526        1158337910.7122915     
   3387059761.1895270        44888663.384612441        1156824076.5706830     
   3242500460.9344687        225941225.46123993        1248498821.6781993     
   3164699957.8960142        151394319.01631093        1231403104.6890972     
   3093025109.6940484        97266262.026341677        1222269833.7599878     
   3027475916.3285694        63557054.491328716        1221099008.8908644     
   2968052377.7995772        50266696.411273241        1227890630.0817297     
   2740681341.9294052        198789626.55874360        1276707892.0527196     
   2685335037.5403466        140324748.94683599        1273104985.8784761     
   2634482686.5752378        96839716.081427455        1275100856.7207742     
   2588124289.0340786        68334527.962518096        1282695504.5796132     
   2546259844.9168687        54809184.590109348        1295888929.4549937     
   2263090433.9281282        178906490.95738339        1309463314.8812981     
   2223444988.0643291        134497640.14125526        1317449567.8739524     
   2186661794.2119422        99629629.363166690        1328670928.8396983     
   2152740852.3709674        74302458.623120666        1343127397.7785394     
   2121682162.5414066        58516127.921120405        1360818974.6904731     
   1809727736.9306412        166291818.65715873        1346765090.1639342     
   1779029809.4679644        133912992.59956902        1364436850.6755247     
   1749562432.6041627        105636001.87156278        1382980050.1167605     
   1721325606.3392355        81460846.473138571        1402394688.4876428     
   1694319330.6731842        61387526.404299974        1422680765.7881696     
   3387059761.1895270        44888663.384612441        1156824076.5706830     
   3295096832.3002057        38648537.675736547        1149831747.4635088     
   3202833252.1267319        31406241.019679308        1146787621.6463170     
   3110269020.6691065        23161773.416452527        1147691699.1191046     
   3017404137.9273238        13915134.866037488        1152543979.8818734     
   2968052377.7995772        50266696.411273241        1227890630.0817297     
   2885447786.8878961        39675615.390256763        1220040931.1552446     
   2803082547.3642383        29882372.329313159        1216445817.0705321     
   2720956659.2286029        20886967.228447914        1217105287.8275926     
   2639070122.4809914        12689400.087660432        1222019343.4264283     
   2546259844.9168687        54809184.590109348        1295888929.4549937     
   2473888967.8450909        40129761.015625715        1287811863.8267372     
   2402297444.8335114        28048184.308473229        1284295764.5920439     
   2331485275.8821311        18564454.468654513        1285340631.7509186     
   2261452460.9909534        11678571.496170402        1290946465.3033586     
   2121682162.5414066        58516127.921120405        1360818974.6904731     
   2060420375.1717925        40010974.551848054        1353144545.4779825     
   2000477944.5345545        25903676.957164645        1350337464.2108507     
   1941854870.6296935        16194235.137070656        1352397730.8890765     
   1884551153.4572098        10882649.091567516        1359325345.5126603     
   1694319330.6731842        61387526.404299974        1422680765.7881696     
   1645042008.8679991        39319255.998921454        1416038976.1089871     
   1597624046.4673679        23448850.275392056        1414570915.9269536     
   1552065443.4712884        13776309.233697534        1418276585.2420695     
   1508366199.8797641        10301632.873855770        1427155984.0543375     
   3017404137.9273238        13915134.866037488        1152543979.8818734     
   2920766810.4793782        4748158.4170359373        1143799985.4213836     
   2825228856.6320195       -754239.36333298683        1140484911.9406500     
   2730790276.3852482       -2592058.4750790596        1142598759.4396803     
   2637451069.7390685       -765298.91819155216        1150141527.9184682     
   2639070122.4809914        12689400.087660432        1222019343.4264283     
   2556708679.6043658        5963043.4188928604        1214428593.3979442     
   2475171851.6984382        1985403.3191192150        1211827152.1106596     
   2394459638.7632055        756479.78832888603        1214215019.5645807     
   2314572040.7986703        2276272.8265280724        1221592195.7597001     
   2261452460.9909534        11678571.496170402        1290946465.3033586     
   2192110867.7183404        7016024.1174434423        1284188407.9720047     
   2123319130.7865338        4186331.2080727816        1281980047.1432981     
   2055077250.1955283        3189492.7680417299        1284321382.8172343     
   1987385225.9453344        4025508.7973697186        1291212414.9938161     
   1884551153.4572098        10882649.091567516        1359325345.5126603     
   1826973374.8213029        7907100.5126966238        1353079429.1435673     
   1769670693.8963063        5848544.3035286665        1350943597.0385635     
   1712643110.6822233        4706980.4640718699        1352917849.1976414     
   1655890625.1790531        4482408.9943244457        1359002185.6208072     
   1508366199.8797641        10301632.873855770        1427155984.0543375     
   1461296200.9132490        8636272.6046341062        1421101656.9126308     
   1414226541.0277569        6972042.6054883003        1418717801.7964535     
   1367157220.2232838        5308942.8764035106        1420004418.7058032     
   1320088238.4998338        3646973.4174011350        1424961507.6406801     
   2637451069.7390685       -765298.91819155216        1150141527.9184682     
   2539106096.8073697        1110728.2457005978        1144849804.2412276     
   2440684385.9845371        2730962.4391453266        1143428514.3627172     
   2342185937.2705631        4095403.6621211767        1145877658.2829251     
   2243610750.6654534        5204051.9146397114        1152197236.0018597     
   2314572040.7986703        2276272.8265280724        1221592195.7597001     
   2226357514.5290022        2628810.0000054836        1214980491.8470993     
   2138195838.7568593        3157515.4985753298        1212642580.0274279     
   2050087013.4822471        3862389.3222432137        1214578460.3006883     
   1962031038.7051642        4743431.4710087776        1220788132.6668811     
   1987385225.9453344        4025508.7973697186        1291212414.9938161     
   1910453598.6068509        3200291.6611652374        1283431917.2992940     
   1833704410.1545627        2983204.1456098557        1280328569.9919126     
   1757137660.5884750        3374246.2507252693        1281902373.0716691     
   1680753349.9085877        4373417.9765000343        1288153326.5385616     
   1655890625.1790531        4482408.9943244457        1359002185.6208072     
   1591394349.0409217        2825173.2291933894        1350204080.5978141     
   1527210100.1776519        2208028.3802700043        1346486484.2561657     
   1463337878.5892506        2630974.4475733042        1347849396.5958645     
   1399777684.2757163        4094011.4311004281        1354292817.6169057     
   1320088238.4998338        3646973.4174011350        1424961507.6406801     
   1269179765.8312149        1503454.7040931582        1415296981.7426598     
   1218712908.8261228        831988.20253723860        1411116322.8201940     
   1168687667.4845726        1632573.9127925634        1412419530.8732800     
   1119104041.8065526        3905211.8348097205        1419206605.9019172     
   2243610750.6654534        5204051.9146397114        1152197236.0018597     
   2148354609.7634811        7241476.7158507109        1145818255.7088661     
   2053131072.3599653        9387579.8452569246        1143501763.8923142     
   1957940138.4548960        11642361.302819967        1145247760.5522122     
   1862781808.0482814        14005821.088558316        1151056245.6885467     
   1962031038.7051642        4743431.4710087776        1220788132.6668811     
   1877687855.1063175        6843643.1851549149        1214671120.2711029     
   1793361270.8199790        8999185.9410011768        1212871712.6521432     
   1709051285.8461611        11210059.738579750        1215389909.8100076     
   1624757900.1848502        13476264.577851534        1222225711.7446887     
   1680753349.9085877        4373417.9765000343        1288153326.5385616     
   1608052027.3282208        6755087.7181681991        1282279610.4897377     
   1535351299.8744287        9138741.2150936723        1280978615.5181100     
   1462651167.5472114        11524378.467262089        1284250341.6236768     
   1389951630.3465722        13911999.474689066        1292094788.8064458     
   1399777684.2757163        4094011.4311004281        1354292817.6169057     
   1339447126.4291909        6975810.3149020672        1348643726.3647766     
   1279101159.5233037        9806245.6674983501        1347822472.4902172     
   1218739783.5580540        12585317.488888502        1351829055.9932339     
   1158362998.5334418        15313025.779065073        1360663476.8738239     
   1119104041.8065526        3905211.8348097205        1419206605.9019172     
   1071873152.4092323        7505810.9753639102        1413763467.8962162     
   1024610849.7666100        11001699.298241615        1413403283.5684643     
   977317133.87868965        14392876.803458631        1418126052.9186659     
   929992004.74546647        17679343.490997672        1427931775.9468133     
   1862781808.0482814        14005821.088558316        1151056245.6885467     
   1765368141.3351631        17348533.949511886        1140203216.7162085     
   1669013642.9700527        24221807.970489264        1131539091.4017553     
   1573718312.9529736        34625643.151580095        1125063869.7451959     
   1479482151.2839117        48560039.492717087        1120777551.7465374     
   1624757900.1848502        13476264.577851534        1222225711.7446887     
   1533716101.8715107        15020254.537220120        1214077269.3039520     
   1443516369.4648032        19371130.852030814        1209056450.3362937     
   1354158702.9647264        26528893.522281229        1207163254.8417053     
   1265643102.3712866        36493542.547977209        1208397682.8201871     
   1389951630.3465722        13911999.474689066        1292094788.8064458     
   1307963757.0478210        14461883.516940653        1286397646.7156973     
   1226600847.2143056        17094979.109984219        1284766847.9132054     
   1145862900.8460369        21811286.253851175        1287202392.3989656     
   1065749917.9430182        28610804.948537648        1293704280.1729786     
   1158362998.5334418        15313025.779065073        1360663476.8738239     
   1088111106.8640831        15673420.888641596        1357164348.9514444     
   1018267076.2185677        17393352.744369030        1358670284.1324973     
   948830906.59691203        20472821.346299827        1365181282.4169867     
   879802597.99911499        24911826.694410980        1376697343.8049052     
   929992004.74546647        17679343.490997672        1427931775.9468133     
   874158151.32029724        18654866.652324885        1426377376.0111783     
   818515056.47758412        20266251.755176097        1430766758.9941659     
   763062720.21734190        22513498.799600422        1441099924.8957610     
   707801142.53957140        25396607.785592198        1457376873.7159722     
   1756048633.5205905        526814590.05617720        680038793.06216824     
   1784086382.1171868        500136679.26407546        806433015.96292484     
   1809181961.8784137        463651539.02074361        925739136.92304826     
   1831335372.8042715        417359169.32618147        1037957155.9425389     
   1850546614.8947606        361259570.18038946        1143087073.0213964     
   1326303231.1098135        397890969.33294404        669731647.77561140     
   1339568808.0012741        375553715.83201039        791865815.98527837     
   1350627758.2669895        345861040.24525917        908723186.98751247     
   1359480081.9069598        308812942.57269043        1020303760.7823135     
   1366125778.9211843        264409422.81430423        1126607537.3696823     
   890379991.44558978        267113997.43367696        662369401.12422609     
   894048553.01248693        250669948.13808301        781101647.22069788     
   896246030.16326272        229322284.12208414        896368400.84293735     
   896972422.89791703        203071005.38568020        1008169661.9909437     
   896227731.21644962        171916111.92887145        1116505430.6647172     
   448278914.52791977        134483674.35837594        657952053.10801232     
   447525617.15082538        125485376.18229343        774140509.66918385     
   446036777.56723309        114035270.65121832        888674778.48932230     
   443812395.77714324        100133357.76515059        1001554859.5684279     
   440852471.78055561        83779637.524090871        1112780752.9065015     
  0.35680341465276771       0.10704102439583031        656479603.72697020     
  0.41628917003105226       -3.5358763764910872E-002   770982403.33073521     
  0.47890092189481082      -0.16733865037691206        885642319.92666769     
  0.54463880463745573      -0.28889823083021959        1000459353.5147675     
  0.61350275249199815      -0.40003742077152166        1115433504.0950348     
   1850546614.8947606        361259570.18038946        1143087073.0213964     
   1835237426.9351115        295502737.40418446        1190628807.9139473     
   1823331217.9545417        241089167.89157647        1240422389.0685544     
   1814827987.9530516        198018861.64256883        1292467816.4852171     
   1809727736.9306412        166291818.65715873        1346765090.1639342     
   1366125778.9211843        264409422.81430423        1126607537.3696823     
   1360379546.5342350        216812495.77815843        1182036962.3662958     
   1357185548.3835320        177723016.19616675        1238379913.2936852     
   1356543784.4690750        147140984.06832677        1295636390.1518531     
   1358454254.7908626        125066399.39463925        1353806392.9407961     
   896227731.21644962        171916111.92887145        1116505430.6647172     
   896220682.02711904        141331958.92026094        1178830010.2320867     
   897915122.33120060        116419437.55635870        1240729795.3989539     
   901311052.12869442        97178547.837163359        1302204786.1653194     
   906408471.41960073        83609289.762675971        1363254982.5311840     
   440852471.78055561        83779637.524090871        1112780752.9065015     
   442760833.41376239        69061126.830492288        1181007951.5113204     
   445519939.79754740        57178431.972154304        1247472035.3843589     
   449129790.93191147        48131552.949079111        1312173004.5256178     
   453590386.81685406        41920489.761266634        1375110858.9350970     
  0.61350275249199815      -0.40003742077152166        1115433504.0950348     
  0.69416528386240550      -0.49115022374238054        1188570786.2039979     
  0.78257293188020027      -0.55644553754107884        1258606633.2499018     
  0.87872500491971095      -0.59592605789930375        1325541045.2327478     
  0.98262256847764418      -0.60958897041884463        1389374022.1525345     
   1809727736.9306412        166291818.65715873        1346765090.1639342     
   1779029809.4679644        133912992.59956902        1364436850.6755247     
   1749562432.6041627        105636001.87156278        1382980050.1167605     
   1721325606.3392355        81460846.473138571        1402394688.4876428     
   1694319330.6731842        61387526.404299974        1422680765.7881696     
   1358454254.7908626        125066399.39463925        1353806392.9407961     
   1332974494.3401179        100045385.38283664        1372750605.1590900     
   1308417646.8357477        78100747.858949423        1393139396.4463511     
   1284783712.2777526        59232486.822978616        1414972766.8025768     
   1262072690.6661325        43440602.274926603        1438250716.2277706     
   906408471.41960073        83609289.762675971        1363254982.5311840     
   887784421.23598850        66437350.773218900        1383112735.8615983     
   869775646.34625185        51316329.430011898        1404988208.4002984     
   852382146.75039017        38246225.733054817        1428881400.1472857     
   835603922.44840312        27227039.682347596        1454792311.1025615     
   453590386.81685406        41920489.761266634        1375110858.9350970     
   443459590.15557706        33088888.770716801        1395523242.7830465     
   433636431.13567495        25282746.584750414        1418526485.9786046     
   424120909.75714779        18502063.203367040        1444120588.5217700     
   414913026.01999581        12746838.626567185        1472305550.4125426     
  0.98262256847764418      -0.60958897041884463        1389374022.1525345     
   1.0988823061204593      -0.62467004440004648        1409982125.9234376     
   1.2040173917395234      -0.67683381221079442        1433754229.1812692     
   1.2980267215931964      -0.76608377951754125        1460690331.9260290     
   1.3809103128380840      -0.89241832788047282        1490790434.1577158     
   1694319330.6731842        61387526.404299974        1422680765.7881696     
   1645042008.8679991        39319255.998921454        1416038976.1089871     
   1597624046.4673679        23448850.275392056        1414570915.9269536     
   1552065443.4712884        13776309.233697534        1418276585.2420695     
   1508366199.8797641        10301632.873855770        1427155984.0543375     
   1262072690.6661325        43440602.274926603        1438250716.2277706     
   1227412078.3156762        27578613.137935519        1435261250.1912224     
   1194145985.5239305        16365022.529980779        1436909458.5607655     
   1162274412.2908940        9799830.4510566592        1443195341.3363991     
   1131797358.6165655        7883036.9011596441        1454118898.5181196     
   835603922.44840312        27227039.682347596        1454792311.1025615     
   814028433.57821620        17111856.021404445        1454912855.5551665     
   793382624.42089808        10095604.736689240        1459135019.3228002     
   773666494.97644436        6178285.8281891644        1467458802.4054646     
   754880045.24485815        5359899.2959149778        1479884204.8031576     
   414913026.01999581        12746838.626567185        1472305550.4125426     
   404891074.65562075        7918984.6493338495        1474993792.2008159     
   395333963.15827072        4640596.8955159634        1481247598.2130589     
   386241691.52794433        2911675.3651115447        1491066968.4492712     
   377614259.76464134        2732220.0581187755        1504451902.9094539     
   1.3809103128380840      -0.89241832788047282        1490790434.1577158     
   1.5478904787961061      -0.97827469568324654        1495504060.1281738     
   1.7360526477921538      -0.99352369280321273        1503247195.2315414     
   1.9453918215350683      -0.93818284757263648        1514019839.4678175     
   2.1759123806781995      -0.81223773128603494        1527821992.8370039     
   1508366199.8797641        10301632.873855770        1427155984.0543375     
   1461296200.9132490        8636272.6046341062        1421101656.9126308     
   1414226541.0277569        6972042.6054883003        1418717801.7964535     
   1367157220.2232838        5308942.8764035106        1420004418.7058032     
   1320088238.4998338        3646973.4174011350        1424961507.6406801     
   1131797358.6165655        7883036.9011596441        1454118898.5181196     
   1094764609.0382123        6114941.6220179200        1448144814.8341649     
   1057732113.7749660        4347694.0598980784        1446244928.2717104     
   1020699872.8268231        2581294.2147905231        1448419238.8307540     
   983667886.19378757        815742.08671039343        1454667746.5113044     
   754880045.24485815        5359899.2959149778        1479884204.8031576     
   729038045.32887673        3835119.0891109407        1473990265.6833839     
   703196214.96208656        2310904.0462792814        1472574248.7810845     
   677354554.14448595        787254.16741281748        1475636154.0962627     
   651513062.87607920       -735830.54747554660        1483175981.6289127     
   377614259.76464134        2732220.0581187755        1504451902.9094539     
   364116509.78524119        1796805.0059119910        1498638009.4602923     
   350618844.58911908        861672.56463341415        1497705763.3245828     
   337121264.17627227       -73177.265728667378        1501655164.5023217     
   323623768.54670298       -1007744.4851635844        1510486212.9935093     
   2.1759123806781995      -0.81223773128603494        1527821992.8370039     
   2.4073079610306660      -0.62757207855332431        1522088046.1648910     
   2.6560652258175690      -0.38503587909596948        1521639471.9022024     
   2.9221813842310302       -8.4636006994029955E-002   1526476270.0489349     
   3.2056630701586282       0.27364930376639407        1536598440.6050928     
   1320088238.4998338        3646973.4174011350        1424961507.6406801     
   1269179765.8312149        1503454.7040931582        1415296981.7426598     
   1218712908.8261228        831988.20253723860        1411116322.8201940     
   1168687667.4845726        1632573.9127925634        1412419530.8732800     
   1119104041.8065526        3905211.8348097205        1419206605.9019172     
   983667886.19378757        815742.08671039343        1454667746.5113044     
   946880789.82903194       -373619.36198878288        1446784308.3099942     
   910424905.25833094       -458941.49717140198        1444059410.1519620     
   874300232.48169017        559775.68117874861        1446493052.0372121     
   838506771.49910331        2682532.1730461121        1454085233.9657338     
   651513062.87607920       -735830.54747554660        1483175981.6289127     
   627917837.29440641       -1249886.3877943158        1476944826.6099226     
   604543419.63731492       -1027915.8128435016        1475546884.7019372     
   581389809.90480101       -69918.822633624077        1478982155.9049585     
   558457008.09686935        1624104.5828504264        1487250640.2189856     
   323623768.54670298       -1007744.4851635844        1510486212.9935093     
   312290908.22733444       -1125346.3733349890        1505778536.6424484     
   301068451.96306878       -874934.74449653924        1505578746.4701173     
   289956399.75390822       -256509.59864217043        1509886842.4765205     
   278954751.59984833        729929.06421695650        1518702824.6616552     
   3.2056630701586282       0.27364930376639407        1536598440.6050928     
   2.6278161423422093       0.68138706673329985        1533285438.4075708     
   2.2356038037280217        1.7079064467629466        1534154995.4565046     
   2.0290054778268343        3.3531400698643328        1539207111.7519011     
   2.0080396137087577        5.6171471777973068        1548441787.2937548     
   1119104041.8065526        3905211.8348097205        1419206605.9019172     
   1071873152.4092323        7505810.9753639102        1413763467.8962162     
   1024610849.7666100        11001699.298241615        1413403283.5684643     
   977317133.87868965        14392876.803458631        1418126052.9186659     
   929992004.74546647        17679343.490997672        1427931775.9468133     
   838506771.49910331        2682532.1730461121        1454085233.9657338     
   804021444.57056248        5664333.7515292764        1448692240.9674129     
   769512557.41086757        8567601.2261626422        1448163372.5506775     
   734980110.02002025        11392334.596955895        1452498628.7155328     
   700424102.39801598        14138533.863893449        1461698009.4619758     
   558457008.09686935        1624104.5828504264        1487250640.2189856     
   536092017.64750534        3799540.8023901582        1481916954.0778744     
   513711319.98113096        5922619.6318958998        1481228563.4219944     
   491314915.09775007        7993341.0713796914        1485185468.2513404     
   468902802.99736089        10011705.120836198        1493787668.5659111     
   278954751.59984833        729929.06421695650        1518702824.6616552     
   268084871.64005286        1911432.1279232204        1513437607.2276001     
   257207137.47739404        3066754.5154172629        1512598856.1824124     
   246321549.11187881        4195896.2267231345        1516186571.5260885     
   235428106.54349822        5298857.2618125230        1524200753.2586291     
   2.0080396137087577        5.6171471777973068        1548441787.2937548     
   6.5482113321434756        7.7281479292901931        1543254200.4165916     
   9.8996650163155451        5.8767559271303123        1542274250.8319318     
   12.062404532180146        6.2984404779609982E-002   1545501938.5397758     
   13.036431275141211       -9.7131658028070973        1552937263.5401218     
   929992004.74546647        17679343.490997672        1427931775.9468133     
   874158151.32029724        18654866.652324885        1426377376.0111783     
   818515056.47758412        20266251.755176097        1430766758.9941659     
   763062720.21734190        22513498.799600422        1441099924.8957610     
   707801142.53957140        25396607.785592198        1457376873.7159722     
   700424102.39801598        14138533.863893449        1461698009.4619758     
   659720862.10452235        15221824.180978328        1459517904.5764861     
   619160694.69157827        16782024.099888355        1463008080.6069634     
   578743600.15919280        18819133.620658636        1472168537.5534005     
   538469578.50735545        21333152.743268579        1486999275.4158030     
   468902802.99736089        10011705.120836198        1493787668.5659111     
   442548741.54225099        10968332.305687860        1490926225.4116731     
   416290067.26577771        12242916.752659261        1493461561.1707404     
   390126780.16794884        13835458.461781785        1501393675.8431137     
   364058880.24875826        15745957.433030605        1514722569.4288092     
   235428106.54349822        5298857.2618125230        1524200753.2586291     
   222641789.63347802        5894391.0264476985        1520602338.5167372     
   209903174.20018238        6648929.7134965062        1522127200.6855032     
   197212260.24361470        7562473.3229711726        1528775339.7649283     
   184569047.76377609        8635021.8548804745        1540546755.7550063     
   13.036431275141211       -9.7131658028070973        1552937263.5401218     
   6.3782048781740572       0.34325749660251326        1548546243.8916826     
   15.494790386658343        62.982386453627534        1549004999.1512463     
   40.386194640360912        178.20424768388244        1554313529.3188138     
   81.052410021748798        346.00880850975204        1564471834.3943789     
  0.35680341465276771       0.10704102439583031        656479603.72697020     
  0.41628917003105226       -3.5358763764910872E-002   770982403.33073521     
  0.47890092189481082      -0.16733865037691206        885642319.92666769     
  0.54463880463745573      -0.28889823083021959        1000459353.5147675     
  0.61350275249199815      -0.40003742077152166        1115433504.0950348     
  -448278913.82799786       -134483674.14839935        657952052.98343730     
  -447525616.33173478       -125485376.24360012        774140509.54133987     
  -446036776.62186390       -114035270.96010837        888674778.35524237     
  -443812394.69838524       -100133358.29792374        1001554859.4251446     
  -440852470.56129897       -83779638.257046849        1112780752.7510469     
  -890379990.78672242       -267113997.23601672        662369400.87975109     
  -894048552.24273252       -250669948.20073363        781101646.97068703     
  -896246029.27465296       -229322284.41848537        896368400.58145463     
  -896972421.88248420       -203071005.88927191        1008169661.7120548     
  -896227730.06622565       -171916112.61309311        1116505430.3624868     
  -1326303230.5193703       -397890969.15581107        669731647.41591179     
  -1339568807.3167040       -375553715.90675938        791865815.61877608     
  -1350627757.4794672       -345861040.54247004        908723186.60530472     
  -1359480081.0076580       -308812943.06294262        1020303760.3754981     
  -1366125777.9012778       -264409423.46817759        1126607536.9293556     
  -1756048633.0259414       -526814589.90778244        680038792.59191918     
  -1784086381.5536494       -500136679.36167717        806433015.48560750     
  -1809181961.2363048       -463651539.33206153        925739136.42679238     
  -1831335372.0739069       -417359169.81893569        1037957155.4154741     
  -1850546614.0664556       -361259570.82229912        1143087072.4516528     
  0.61350275249199815      -0.40003742077152166        1115433504.0950348     
  0.69416528386240550      -0.49115022374238054        1188570786.2039979     
  0.78257293188020027      -0.55644553754107884        1258606633.2499018     
  0.87872500491971095      -0.59592605789930375        1325541045.2327478     
  0.98262256847764418      -0.60958897041884463        1389374022.1525345     
  -440852470.56129897       -83779638.257046849        1112780752.7510469     
  -442760832.02809036       -69061127.730873048        1181007951.3491633     
  -445519938.23609877       -57178433.008755654        1247472035.2159991     
  -449129789.18532377       -48131554.090693280        1312173004.3515551     
  -453590384.87576568       -41920490.976687700        1375110858.7558320     
  -896227730.06622565       -171916112.61309311        1116505430.3624868     
  -896220680.70396101       -141331959.75668037        1178830009.9093018     
  -897915120.83187521       -116419438.53419673        1240729795.0566146     
  -901311050.44996762       -97178548.945639849        1302204785.8044264     
  -906408469.55823851       -83609290.991011381        1363254982.1527371     
  -1366125777.9012778       -264409423.46817759        1126607536.9293556     
  -1360379545.3334472       -216812496.56857300        1182036961.8844132     
  -1357185547.0047562       -177723017.13276774        1238379912.7717476     
  -1356543782.9152055       -147140985.16076338        1295636389.5913594     
  -1358454253.0647953       -125066400.65255964        1353806392.3432488     
  -1850546614.0664556       -361259570.82229912        1143087072.4516528     
  -1835237425.9165485       -295502738.16654927        1190628807.2744980     
  -1823331216.7547431       -241089168.80447292        1240422388.3613992     
  -1814827986.5810394       -198018862.73606813        1292467815.7123563     
  -1809727735.3954372       -166291819.96133548        1346765089.3273683     
  0.98262256847764418      -0.60958897041884463        1389374022.1525345     
   1.0988823061204593      -0.62467004440004648        1409982125.9234376     
   1.2040173917395234      -0.67683381221079442        1433754229.1812692     
   1.2980267215931964      -0.76608377951754125        1460690331.9260290     
   1.3809103128380840      -0.89241832788047282        1490790434.1577158     
  -453590384.87576568       -41920490.976687700        1375110858.7558320     
  -443459587.99652684       -33088890.048331529        1395523242.5657494     
  -433636428.76500738       -25282747.945706382        1418526485.7194669     
  -424120907.18120909       -18502064.668818772        1444120588.2169857     
  -414913023.24513036       -12746840.217662647        1472305550.0583057     
  -906408469.55823851       -83609290.991011381        1363254982.1527371     
  -887784419.18209767       -66437352.099040836        1383112735.4256406     
  -869775644.09027064       -51316330.821449608        1404988207.8992181     
  -852382144.28276002       -38246227.158244997        1428881399.5734701     
  -835603919.75956249       -27227041.109419376        1454792310.4483960     
  -1358454253.0647953       -125066400.65255964        1353806392.3432488     
  -1332974492.4578302       -100045386.77679938        1372750604.5031121     
  -1308417644.7717738       -78100749.304067791        1393139395.7205226     
  -1284783710.0066271       -59232488.234366775        1414972765.9954801     
  -1262072688.1623902       -43440603.567699850        1438250715.3279841     
  -1809727735.3954372       -166291819.96133548        1346765089.3273683     
  -1779029807.8237245       -133912994.08160549        1364436849.7981641     
  -1749562430.8095148       -105636003.39355230        1382980049.1833797     
  -1721325604.3528111       -81460847.897185087        1402394687.4830151     
  -1694319328.4536097       -61387527.592492759        1422680764.6970706     
   1.3809103128380840      -0.89241832788047282        1490790434.1577158     
   1.5478904787961061      -0.97827469568324654        1495504060.1281738     
   1.7360526477921538      -0.99352369280321273        1503247195.2315414     
   1.9453918215350683      -0.93818284757263648        1514019839.4678175     
   2.1759123806781995      -0.81223773128603494        1527821992.8370039     
  -414913023.24513036       -12746840.217662647        1472305550.0583057     
  -404891071.50239557       -7918986.2813454568        1474993791.8541868     
  -395333959.59996408       -4640598.4793716669        1481247597.8780060     
  -386241687.53783715       -2911676.8117468059        1491066968.1297636     
  -377614255.31601423       -2732221.2784673274        1504451902.6094615     
  -835603919.75956249       -27227041.109419376        1454792310.4483960     
  -814028430.45527482       -17111857.355192125        1454912854.8979666     
  -793382620.85277414       -10095605.940254301        1459135018.6705060     
  -773666490.95206130       -6178286.8646109700        1467458801.7660143     
  -754880040.75313568       -5359900.1282570958        1479884204.1844916     
  -1262072688.1623902       -43440603.567699850        1438250715.3279841     
  -1227412075.3107481       -27578614.199819684        1435261249.2595136     
  -1194145982.0223775       -16365023.376174867        1436909457.6090419     
  -1162274408.2972770       -9799831.0967685580        1443195340.3765697     
  -1131797354.1354516       -7883037.3616067767        1454118897.5620949     
  -1694319328.4536097       -61387527.592492759        1422680764.6970706     
  -1645042006.0688148       -39319256.815223157        1416038974.9388282     
  -1597624043.1087742       -23448850.787132382        1414570914.6936152     
  -1552065439.5734901       -13776309.508232296        1418276583.9614301     
  -1508366195.4629602       -10301632.978510976        1427155982.7422748     
   2.1759123806781995      -0.81223773128603494        1527821992.8370039     
   2.4073079610306660      -0.62757207855332431        1522088046.1648910     
   2.6560652258175690      -0.38503587909596948        1521639471.9022024     
   2.9221813842310302       -8.4636006994029955E-002   1526476270.0489349     
   3.2056630701586282       0.27364930376639407        1536598440.6050928     
  -377614255.31601423       -2732221.2784673274        1504451902.6094615     
  -364116504.92193353       -1796805.8931189626        1498638009.1780040     
  -350618839.25871527       -861672.94397705793        1497705763.0313406     
  -337121258.32636219        73177.568947166204        1501655164.1694682     
  -323623762.12487048        1007745.6456660926        1510486212.5923879     
  -754880040.75313568       -5359900.1282570958        1479884204.1844916     
  -729038040.55245697       -3835119.6490416825        1473990265.1207631     
  -703196209.83086860       -2310904.1001280248        1472574248.2171948     
  -677354548.58836937       -787253.48151028156        1475636153.4737854     
  -651513056.82495975        735832.20680952072        1483175980.8905389     
  -1131797354.1354516       -7883037.3616067767        1454118897.5620949     
  -1094764604.4842658       -6114941.8953543901        1448144813.9931631     
  -1057732109.0603962       -4347693.8534922600        1446244927.4597602     
  -1020699867.8638396       -2581293.2360059619        1448419237.9618878     
  -983667880.89460087       -815740.04291093349        1454667745.4995418     
  -1508366195.4629602       -10301632.978510976        1427155982.7422748     
  -1461296196.7173579       -8636272.6320529580        1421101655.7952099     
  -1414226536.9472954       -6972042.2040634155        1418717800.7590435     
  -1367157216.1527750       -5308941.6945440173        1420004417.6337729     
  -1320088234.3337948       -3646971.1034939289        1424961506.4194019     
   3.2056630701586282       0.27364930376639407        1536598440.6050928     
   2.6278161423422093       0.68138706673329985        1533285438.4075708     
   2.2356038037280217        1.7079064467629466        1534154995.4565046     
   2.0290054778268343        3.3531400698643328        1539207111.7519011     
   2.0080396137087577        5.6171471777973068        1548441787.2937548     
  -323623762.12487048        1007745.6456660926        1510486212.5923879     
  -312290902.87594712        1125348.3626228720        1505778536.5036910     
  -301068447.42845213        874938.40814931691        1505578746.6562293     
  -289956395.78238803        256515.78224039078        1509886843.0500045     
  -278954747.93775672       -729919.51511082053        1518702825.6850181     
  -651513056.82495975        735832.20680952072        1483175980.8905389     
  -627917832.04989934        1249888.9427987039        1476944826.2591007     
  -604543415.06332672        1027919.7171632349        1475546884.8636751     
  -581389805.86524272        69924.529899001122        1478982156.7042649     
  -558457004.45564568       -1624096.6189899445        1487250641.7808681     
  -983667880.89460087       -815740.04291093349        1454667745.4995418     
  -946880784.89404178        373622.42191570997        1446784307.6737959     
  -910424900.66902816        458945.63492244482        1444059410.0788426     
  -874300228.21955717       -559770.40388029814        1446493052.7146823     
  -838506767.54563200       -2682525.6945016384        1454085235.5813131     
  -1320088234.3337948       -3646971.1034939289        1424961506.4194019     
  -1269179761.4083695       -1503451.2000162005        1415296980.7477832     
  -1218712904.2455540       -831983.83856731653        1411116322.3017342     
  -1168687662.8453314       -1632569.0190970898        1412419531.0812531     
  -1119104037.2077143       -3905206.7416454554        1419206607.0863442     
   2.0080396137087577        5.6171471777973068        1548441787.2937548     
   6.5482113321434756        7.7281479292901931        1543254200.4165916     
   9.8996650163155451        5.8767559271303123        1542274250.8319318     
   12.062404532180146        6.2984404779609982E-002   1545501938.5397758     
   13.036431275141211       -9.7131658028070973        1552937263.5401218     
  -278954747.93775672       -729919.51511082053        1518702825.6850181     
  -268084859.50347024       -1911418.2652424574        1513437605.9402704     
  -257207118.23236856       -3066740.8926577419        1512598852.0972171     
  -246321524.12446922       -4195887.3974110186        1516186564.1558566     
  -235428077.17975321       -5298857.7794458717        1524200742.1161847     
  -558457004.45564568       -1624096.6189899445        1487250641.7808681     
  -536092007.52955556       -3799528.8509314656        1481916952.1983156     
  -513711303.74113464       -5922604.8751053214        1481228557.1266427     
  -491314893.09038132       -7993324.6915048659        1485185456.5658534     
  -468902775.57729816       -10011688.300137430        1493787650.5159466     
  -838506767.54563200       -2682525.6945016384        1454085235.5813131     
  -804021437.53005576       -5664324.0289579034        1448692239.1907265     
  -769512546.62662446       -8567586.0705629289        1448163365.9202170     
  -734980094.83533859       -11392311.819318831        1452498615.7697749     
  -700424082.15620160       -14138501.275238156        1461697988.7394054     
  -1119104037.2077143       -3905206.7416454554        1419206607.0863442     
  -1071873149.5049657       -7505803.7993005514        1413763466.9175055     
  -1024610846.8888403       -11001684.479033351        1413403278.4779279     
  -977317129.35933900       -14392848.780846119        1418126041.7676117     
  -929991996.91646004       -17679296.704735398        1427931756.7865579     
   13.036431275141211       -9.7131658028070973        1552937263.5401218     
   6.3782048781740572       0.34325749660251326        1548546243.8916826     
   15.494790386658343        62.982386453627534        1549004999.1512463     
   40.386194640360912        178.20424768388244        1554313529.3188138     
   81.052410021748798        346.00880850975204        1564471834.3943789     
  -235428077.17975321       -5298857.7794458717        1524200742.1161847     
  -222641776.23892123       -5894381.1327795833        1520602354.7890270     
  -209903158.35694796       -6648848.0156434327        1522127244.5707808     
  -197212223.53384250       -7562258.4280663803        1528775411.4614415     
  -184568971.76959568       -8634612.3700202778        1540546855.4610035     
  -468902775.57729816       -10011688.300137430        1493787650.5159466     
  -442548732.17767048       -10968314.605290279        1490926246.8707807     
  -416290070.67058438       -12242880.552248538        1493461622.5354288     
  -390126791.05603981       -13835386.141006634        1501393777.5098882     
  -364058893.33403426       -15745831.371572286        1514722711.7941697     
  -700424082.15620160       -14138501.275238156        1461697988.7394054     
  -659720861.43804884       -15221800.074293047        1459517920.1369390     
  -619160721.44611716       -16782034.627416313        1463008133.0451906     
  -578743662.18040371       -18819204.934601158        1472168627.4641695     
  -538469683.64091229       -21333310.995862782        1486999403.3938599     
  -929991996.91646004       -17679296.704735398        1427931756.7865579     
  -874158164.02005684       -18654837.539791375        1426377374.5875030     
  -818515110.68354774       -20266310.241159350        1430766776.1000712     
  -763062836.90693808       -22513714.808859885        1441099961.3242674     
  -707801342.69022310       -25397051.242876470        1457376930.2600904     
  -1756048633.0259414       -526814589.90778244        680038792.59191918     
  -1784086381.5536494       -500136679.36167717        806433015.48560750     
  -1809181961.2363048       -463651539.33206153        925739136.42679238     
  -1831335372.0739069       -417359169.81893569        1037957155.4154741     
  -1850546614.0664556       -361259570.82229912        1143087072.4516528     
  -2201804751.3746719       -660541425.41240168        696409269.98515749     
  -2238388696.5195446       -613913609.10329783        813842844.62274170     
  -2272926402.2597036       -560464994.77848685        927186699.40816474     
  -2305417868.5951519       -500195582.43796897        1036440834.3414266     
  -2335863095.5258870       -433105372.08174425        1141605249.4225283     
  -2685760138.6337981       -805728041.59013939        721961513.17301059     
  -2722323474.3948565       -736580277.71774364        829389188.54075921     
  -2757736500.1915426       -663598147.29744399        935725526.15668917     
  -2791999216.0238581       -586781650.32924080        1040970526.0208005     
  -2825111621.8918033       -506130786.81313407        1145124188.1330926     
  -3207914794.8033190       -962374438.44099569        756695522.15547848     
  -3235890715.1795845       -868136685.20501435        853072047.23966062     
  -3263612255.0318208       -773050996.88893282        951355616.67236650     
  -3291079414.3600268       -677117373.49275088        1051546230.4535953     
  -3318292193.1642022       -580335815.01646864        1153643888.5833485     
  -3768268719.8832355       -1130480615.9649706        800611296.93256116     
  -3779090418.8737321       -1008582831.5651106        884891420.71944547     
  -3790553666.7805390       -888823543.55295396        974076970.95519567     
  -3802658463.6036577       -771202751.92850018        1068167947.6398114     
  -3815404809.3430848       -655720456.69174910        1167164350.7732933     
  -1850546614.0664556       -361259570.82229912        1143087072.4516528     
  -1835237425.9165485       -295502738.16654927        1190628807.2744980     
  -1823331216.7547431       -241089168.80447292        1240422388.3613992     
  -1814827986.5810394       -198018862.73606813        1292467815.7123563     
  -1809727735.3954372       -166291819.96133548        1346765089.3273683     
  -2335863095.5258870       -433105372.08174425        1141605249.4225283     
  -2312419401.1837277       -352053890.05891919        1182855867.9452379     
  -2292476059.2453585       -282670249.38206118        1224582418.1901455     
  -2276033069.7107806       -224954450.05117184        1266784900.1572504     
  -2263090432.5799918       -178906492.06624866        1309463313.8465533     
  -2825111621.8918033       -506130786.81313407        1145124188.1330926     
  -2798607462.9055572       -411306867.88768381        1179970088.0373645     
  -2775701029.7387905       -328475368.36049497        1213516005.1219749     
  -2756392322.3915019       -257636288.23156917        1245761939.3869259     
  -2740681340.8636932       -198789627.50090659        1276707890.8322167     
  -3318292193.1642022       -580335815.01646864        1153643888.5833485     
  -3293801611.0820374       -473261671.65284276        1181971467.5508780     
  -3273006128.2350383       -378504525.73977339        1207223149.1568885     
  -3255905744.6232071       -296064377.27726209        1229398933.4013808     
  -3242500460.2465439       -225941226.26531005        1248498820.2843544     
  -3815404809.3430848       -655720456.69174910        1167164350.7732933     
  -3798001845.7131658       -537918301.35439801        1188860006.4857776     
  -3784391354.7341003       -432757721.51989543        1205703850.2948849     
  -3774573336.4058938       -340238717.18824971        1217695882.2006161     
  -3768547790.7285404       -260361288.35945570        1224836102.2029707     
  -1809727735.3954372       -166291819.96133548        1346765089.3273683     
  -1779029807.8237245       -133912994.08160549        1364436849.7981641     
  -1749562430.8095148       -105636003.39355230        1382980049.1833797     
  -1721325604.3528111       -81460847.897185087        1402394687.4830151     
  -1694319328.4536097       -61387527.592492759        1422680764.6970706     
  -2263090432.5799918       -178906492.06624866        1309463313.8465533     
  -2223444986.6456952       -134497641.41969931        1317449566.8079629     
  -2186661792.6896486       -99629630.700649381        1328670927.7261345     
  -2152740850.7118530       -74302459.909099221        1343127396.6010685     
  -2121682160.7123058       -58516129.045047641        1360818973.4327664     
  -2740681340.8636932       -198789627.50090659        1276707890.8322167     
  -2685335036.4458361       -140324750.05124772        1273104984.6267021     
  -2634482685.4269733       -96839717.264905095        1275100855.4202931     
  -2588124287.8071041       -68334529.141878724        1282695503.2129908     
  -2546259843.5862317       -54809185.682168126        1295888928.0047925     
  -3242500460.2465439       -225941226.26531005        1248498820.2843544     
  -3164699957.2241426       -151394319.97624290        1231403103.2543819     
  -3093025109.0214849       -97266263.086315989        1222269832.2658567     
  -3027475915.6385665       -63557055.595519304        1221099007.3187797     
  -2968052377.0753880       -50266697.503859520        1227890628.4131520     
  -3768547790.7285404       -260361288.35945570        1224836102.2029707     
  -3661539748.9806194       -167706351.19469178        1192343922.6910028     
  -3562289063.4731865       -100909268.16488254        1170177858.2628243     
  -3470795734.2062387       -59970039.270025492        1158337908.9184377     
  -3387059761.1797738       -44888664.510118008        1156824074.6578424     
  -1694319328.4536097       -61387527.592492759        1422680764.6970706     
  -1645042006.0688148       -39319256.815223157        1416038974.9388282     
  -1597624043.1087742       -23448850.787132382        1414570914.6936152     
  -1552065439.5734901       -13776309.508232296        1418276583.9614301     
  -1508366195.4629602       -10301632.978510976        1427155982.7422748     
  -2121682160.7123058       -58516129.045047641        1360818973.4327664     
  -2060420372.7430639       -40010975.358073115        1353144544.0806580     
  -2000477941.5217175       -25903677.497418284        1350337462.6859334     
  -1941854867.0482657       -16194235.463081598        1352397729.2485921     
  -1884551149.3227096       -10882649.255061984        1359325343.7686355     
  -2546259843.5862317       -54809185.682168126        1295888928.0047925     
  -2473888965.9058151       -40129761.847475767        1287811862.1818213     
  -2402297442.2964330       -28048184.916235805        1284295762.7605886     
  -2331485272.7580872       -18564454.888447642        1285340629.7410953     
  -2261452457.2907763       -11678571.764114141        1290946463.1233411     
  -2968052377.0753880       -50266697.503859520        1227890628.4131520     
  -2885447785.5570669       -39675616.283429027        1220040929.2423205     
  -2803082545.4329219       -29882373.043586969        1216445814.9175828     
  -2720956656.7029519       -20886967.784331203        1217105285.4389403     
  -2639070119.3671579       -12689400.505657554        1222019340.8063900     
  -3387059761.1797738       -44888664.510118008        1156824074.6578424     
  -3295096831.6968193       -38648538.665932178        1149831745.2621541     
  -3202833250.9311819       -31406241.879466653        1146787619.1569152     
  -3110269018.8828607       -23161774.150717974        1147691696.3421249     
  -3017404135.5518546       -13915135.479695797        1152543976.8177834     
  -1508366195.4629602       -10301632.978510976        1427155982.7422748     
  -1461296196.7173579       -8636272.6320529580        1421101655.7952099     
  -1414226536.9472954       -6972042.2040634155        1418717800.7590435     
  -1367157216.1527750       -5308941.6945440173        1420004417.6337729     
  -1320088234.3337948       -3646971.1034939289        1424961506.4194019     
  -1884551149.3227096       -10882649.255061984        1359325343.7686355     
  -1826973371.1473732       -7907100.7048395872        1353079427.6896667     
  -1769670690.5929716       -5848544.2244004011        1350943595.8294954     
  -1712643107.6595047       -4706979.8137446642        1352917848.1881247     
  -1655890622.3469708       -4482407.4728639126        1359002184.7655504     
  -2261452457.2907763       -11678571.764114141        1290946463.1233411     
  -2192110864.5202742       -7016024.4604948759        1284188406.1595068     
  -2123319128.0160987       -4186331.3779675961        1281980045.7223735     
  -2055077247.7782538       -3189492.5165444613        1284321381.8119411     
  -1987385223.8067386       -4025507.8762146235        1291212414.4282033     
  -2639070119.3671579       -12689400.505657554        1222019340.8063900     
  -2556708676.8360572       -5963043.8990080357        1214428591.2047319     
  -2475171849.2166805       -1985403.6647719145        1211827150.4376748     
  -2394459636.5090270       -756479.80294966698        1214215018.5052178     
  -2314572038.7130980       -2276272.3135428429        1221592195.4073606     
  -3017404135.5518546       -13915135.479695797        1152543976.8177834     
  -2920766808.0947280       -4748159.0203977823        1143799982.8253422     
  -2825228854.1947165        754238.91518473625        1140484909.9754009     
  -2730790273.8518252        2592058.3270292282        1142598758.2679613     
  -2637451067.0660515        765299.21515393257        1150141527.7030225     
  -1320088234.3337948       -3646971.1034939289        1424961506.4194019     
  -1269179761.4083695       -1503451.2000162005        1415296980.7477832     
  -1218712904.2455540       -831983.83856731653        1411116322.3017342     
  -1168687662.8453314       -1632569.0190970898        1412419531.0812531     
  -1119104037.2077143       -3905206.7416454554        1419206607.0863442     
  -1655890622.3469708       -4482407.4728639126        1359002184.7655504     
  -1591394345.5367756       -2825170.4499418139        1350204080.0339110     
  -1527210096.0071268       -2208024.3621715903        1346486484.0374246     
  -1463337873.7580314       -2630969.2095763087        1347849396.7760901     
  -1399777678.7894776       -4094004.9921221137        1354292818.2499003     
  -1987385223.8067386       -4025507.8762146235        1291212414.4282033     
  -1910453595.9415369       -3200289.5827606916        1283431917.1989410     
  -1833704406.8748322       -2983200.6176323891        1280328570.2144098     
  -1757137656.6066206       -3374240.9808088541        1281902373.4746096     
  -1680753345.1369011       -4373410.6723017693        1288153326.9795442     
  -2314572038.7130980       -2276272.3135428429        1221592195.4073606     
  -2226357512.6226597       -2628808.5984913111        1214980492.2428687     
  -2138195836.8486624       -3157512.6049220562        1212642580.8326912     
  -2050087011.3911045       -3862384.3328117132        1214578461.1768253     
  -1962031036.2499905       -4743423.7821837664        1220788133.2752733     
  -2637451067.0660515        765299.21515393257        1150141527.7030225     
  -2539106095.5801396       -1110727.4971325397        1144849805.1656978     
  -2440684385.9286189       -2730960.3240524530        1143428515.8922641     
  -2342185938.1114850       -4095399.2655923367        1145877659.8827302     
  -2243610752.1287370       -5204044.3217560053        1152197237.1370900     
  -1119104037.2077143       -3905206.7416454554        1419206607.0863442     
  -1071873149.5049657       -7505803.7993005514        1413763466.9175055     
  -1024610846.8888403       -11001684.479033351        1413403278.4779279     
  -977317129.35933900       -14392848.780846119        1418126041.7676117     
  -929991996.91646004       -17679296.704735398        1427931756.7865579     
  -1399777678.7894776       -4094004.9921221137        1354292818.2499003     
  -1339447126.3755171       -6975802.5297291279        1348643726.6045797     
  -1279101163.5966194       -9806232.1842147708        1347822471.5801497     
  -1218739790.4527860       -12585293.955581665        1351829053.1766071     
  -1158363006.9440179       -15312987.843830526        1360663471.3939567     
  -1680753345.1369011       -4373410.6723017693        1288153326.9795442     
  -1608052028.3213599       -6755078.7827500701        1282279611.8845556     
  -1535351305.6893246       -9138727.5048832893        1280978618.3020885     
  -1462651177.2407920       -11524356.838698149        1284250346.2321434     
  -1389951642.9757643       -13911966.784190476        1292094795.6747127     
  -1962031036.2499905       -4743423.7821837664        1220788133.2752733     
  -1877687855.3424957       -6843632.5583548546        1214671122.7574415     
  -1793361273.1669457       -8999170.4410119057        1212871718.6437554     
  -1709051289.7233427       -11210037.430161357        1215389920.9342186     
  -1624757905.0116882       -13476233.525799513        1222225729.6288316     
  -2243610752.1287370       -5204044.3217560053        1152197237.1370900     
  -2148354607.4389234       -7241463.8565518856        1145818259.2232268     
  -2053131066.0294933       -9387560.9926309586        1143501772.6051414     
  -1957940127.9004560       -11642335.730016470        1145247777.2828372     
  -1862781793.0517960       -14005788.068663597        1151056273.2563088     
  -929991996.91646004       -17679296.704735398        1427931756.7865579     
  -874158164.02005684       -18654837.539791375        1426377374.5875030     
  -818515110.68354774       -20266310.241159350        1430766776.1000712     
  -763062836.90693808       -22513714.808859885        1441099961.3242674     
  -707801342.69022310       -25397051.242876470        1457376930.2600904     
  -1158363006.9440179       -15312987.843830526        1360663471.3939567     
  -1088111136.6845102       -15673398.873073161        1357164341.7160976     
  -1018267144.8116145       -17393404.524351358        1358670273.2661252     
  -948831031.32533336       -20473004.797678828        1365181266.0440242     
  -879802796.22566605       -24912199.693060964        1376697320.0498192     
  -1389951642.9757643       -13911966.784190476        1292094795.6747127     
  -1307963799.5924196       -14461867.279395163        1286397636.5535538     
  -1226600933.4224043       -17095025.152360737        1284766816.1765299     
  -1145863044.4657207       -21811440.403103828        1287202334.5436418     
  -1065750132.7223661       -28611113.031609476        1293704191.6548948     
  -1624757905.0116882       -13476233.525799513        1222225729.6288316     
  -1533716152.7437787       -15020242.758753777        1214077259.0998657     
  -1443516476.5159163       -19371172.125193119        1209056404.8312917     
  -1354158876.3281002       -26529021.625125527        1207163166.8231094     
  -1265643352.1803327       -36493791.258547783        1208397545.0753210     
  -1862781793.0517960       -14005788.068663597        1151056273.2563088     
  -1765368196.1385891       -17348525.311141014        1140203209.3550353     
  -1669013774.0921509       -24221845.442840755        1131539039.2304094     
  -1573718526.9124737       -34625748.463736773        1125063762.8824263     
  -1479482454.5995595       -48560234.373857617        1120777380.3110974     
  -3768268719.8832355       -1130480615.9649706        800611296.93256116     
  -3779090418.8737321       -1008582831.5651106        884891420.71944547     
  -3790553666.7805390       -888823543.55295396        974076970.95519567     
  -3802658463.6036577       -771202751.92850018        1068167947.6398114     
  -3815404809.3430848       -655720456.69174910        1167164350.7732933     
  -4339709807.5145226       -1301912942.2543566        858831036.89595938     
  -4335205095.9002981       -1125678637.0140698        942395230.87279117     
  -4331849249.8466702       -953273883.64243555        1020304347.9027517     
  -4329642269.3536386       -784698682.13945496        1092558387.9858398     
  -4328584154.4212017       -619953032.50512719        1159157351.1220560     
  -4895125951.3381548       -1468537785.4014466        936476941.43737423     
  -4905467695.9641762       -1247018819.3742218        1018733336.1858215     
  -4917465622.7950792       -1031020460.6966007        1084774150.5916591     
  -4931119731.8308611       -820542709.36858237        1134599384.6548867     
  -4946430023.0715237       -615585565.39016700        1168209038.3755052     
  -5434517151.3541346       -1630355145.4062405        1033549010.5568060     
  -5489878219.0653648       -1372603378.6455674        1113905736.6585355     
  -5547402785.6257610       -1122063274.7154479        1167486379.0219181     
  -5607090851.0353231       -878734833.61588144        1194290937.6469533     
  -5668942415.2940521       -642618055.34686923        1194319412.5336406     
  -5957883407.5624599       -1787365022.2687380        1150047244.2542541     
  -6088436665.2038651       -1502432314.8281062        1227912432.2909341     
  -6221660738.3387203       -1226402325.6989779        1268441033.1935287     
  -6357555626.9670277       -959275054.88135386        1271633046.9620385     
  -6496121331.0887842       -701050502.37523127        1237488473.5964634     
  -3815404809.3430848       -655720456.69174910        1167164350.7732933     
  -3798001845.7131658       -537918301.35439801        1188860006.4857776     
  -3784391354.7341003       -432757721.51989543        1205703850.2948849     
  -3774573336.4058938       -340238717.18824971        1217695882.2006161     
  -3768547790.7285404       -260361288.35945570        1224836102.2029707     
  -4328584154.4212017       -619953032.50512719        1159157351.1220560     
  -4298195026.2976627       -464230047.74011695        1141294026.2896106     
  -4278407781.2904401       -343846673.36282253        1129520910.0261738     
  -4269222419.3995323       -258802909.37324238        1123838002.3317444     
  -4270638940.6249352       -209098755.77137923        1124245303.2063234     
  -4946430023.0715237       -615585565.39016700        1168209038.3755052     
  -4871791814.8189840       -412562876.50688434        1102842420.7884290     
  -4814564900.1482162       -267577832.89617777        1054508032.2427448     
  -4774749279.0592232       -180630434.55805159        1023205872.7384539     
  -4752344951.5520039       -151720681.49250364        1008935942.2755537     
  -5668942415.2940521       -642618055.34686923        1194319412.5336406     
  -5518792211.2771244       -382916787.65469718        1073505189.9822310     
  -5392862711.3074312       -203951200.11996746        980665216.94459927     
  -5291153915.3849688       -105721292.74267650        915799493.42074263     
  -5213665823.5097399       -88227065.522829771        878908019.41066337     
  -6496121331.0887842       -701050502.37523127        1237488473.5964634     
  -6239196215.6720858       -375291781.18355536        1053282333.8710188     
  -6013301214.7680826       -152966775.03418517        907992464.13173556     
  -5818436328.3767672       -34075483.927116871        801618864.37861228     
  -5654601556.4981461       -18617907.862354994        734161534.61165142     
  -3768547790.7285404       -260361288.35945570        1224836102.2029707     
  -3661539748.9806194       -167706351.19469178        1192343922.6910028     
  -3562289063.4731865       -100909268.16488254        1170177858.2628243     
  -3470795734.2062387       -59970039.270025492        1158337908.9184377     
  -3387059761.1797738       -44888664.510118008        1156824074.6578424     
  -4270638940.6249352       -209098755.77137923        1124245303.2063234     
  -4148005543.4718404       -144946675.34568024        1090763100.6468236     
  -4029781504.0967474       -95492454.179994822        1065551869.4857610     
  -3915966822.4996600       -60736092.274325371        1048611609.7231345     
  -3806561498.6805782       -40677589.628669977        1039942321.3589451     
  -4752344951.5520039       -151720681.49250364        1008935942.2755537     
  -4619958038.0947437       -117833009.53617477        978369714.87475252     
  -4488632483.9530058       -87483201.964923382        954019315.18703318     
  -4358368289.1267910       -60671258.778742313        935884743.21239519     
  -4229165453.6160989       -37397179.977638006        923965998.95084012     
  -5213665823.5097399       -88227065.522829771        878908019.41066337     
  -5077397232.8493280       -86365353.766172886        855163765.37478876     
  -4938842003.0419607       -76881511.519654989        835580195.36664152     
  -4798000134.0876312       -59775538.783270121        820157309.38622212     
  -4654871625.9863434       -35047435.557022572        808895107.43352830     
  -5654601556.4981461       -18617907.862354994        734161534.61165142     
  -5520323127.7355967       -50543708.035676003        721145252.14693236     
  -5380410061.3636112       -63687382.844197512        710234510.02458525     
  -5234862357.3821821       -58048932.287911654        701429308.24461198     
  -5083680015.7913084       -33628356.366822720        694729646.80701029     
  -3387059761.1797738       -44888664.510118008        1156824074.6578424     
  -3295096831.6968193       -38648538.665932178        1149831745.2621541     
  -3202833250.9311819       -31406241.879466653        1146787619.1569152     
  -3110269018.8828607       -23161774.150717974        1147691696.3421249     
  -3017404135.5518546       -13915135.479695797        1152543976.8177834     
  -3806561498.6805782       -40677589.628669977        1039942321.3589451     
  -3702318805.9135256       -29789240.117107153        1031918876.4581338     
  -3598691830.4136229       -20953281.496042013        1028320533.0237080     
  -3495680572.1808691       -14169713.765477419        1029147291.0556686     
  -3393285031.2152667       -9438536.9254128933        1034399150.5540141     
  -4229165453.6160989       -37397179.977638006        923965998.95084012     
  -4111280431.3479877       -21451836.933609247        913842341.90343356     
  -3994927494.8968601       -10613446.612857819        908620684.49834871     
  -3880106644.2627158       -4882009.0153877735        908301026.73558664     
  -3766817879.4455547       -4257524.1411960125        912883368.61514604     
  -4654871625.9863434       -35047435.557022572        808895107.43352830     
  -4521981708.0002136       -13636329.115438938        795602141.59805238     
  -4391540244.3808956       -386737.22991228104        787688073.58083761     
  -4263547235.1284003        4701340.0995502472        785152903.38187945     
  -4138002680.2427220        1627902.8729586601        787996631.00117922     
  -5083680015.7913084       -33628356.366822720        694729646.80701029     
  -4934422635.8701973       -6342716.6626000404        677198275.54199505     
  -4788530078.8657312        9726846.6527922153        665522700.27117336     
  -4646002344.7779217        14580333.579337835        659702920.99454618     
  -4506839433.6067619        8217744.1170516014        659738937.71211553     
  -3017404135.5518546       -13915135.479695797        1152543976.8177834     
  -2920766808.0947280       -4748159.0203977823        1143799982.8253422     
  -2825228854.1947165        754238.91518473625        1140484909.9754009     
  -2730790273.8518252        2592058.3270292282        1142598758.2679613     
  -2637451067.0660515        765299.21515393257        1150141527.7030225     
  -3393285031.2152667       -9438536.9254128933        1034399150.5540141     
  -3284208909.0397687       -4485711.6708106995        1025350732.3122920     
  -3175692361.4312510       -1398134.9728114605        1021414192.9894377     
  -3067735388.3897119       -175806.83140659332        1022589532.5854555     
  -2960337989.9151530       -818727.24660241604        1028876751.1003387     
  -3766817879.4455547       -4257524.1411960125        912883368.61514604     
  -3646208797.4763503       -3790600.5686910152        904160291.61263895     
  -3525619491.0839882       -3389595.5856654644        900232051.30536807     
  -3405049960.2684660       -3054509.1921081543        901098647.69333351     
  -3284500205.0297880       -2785341.3880224228        906760080.77653587     
  -4138002680.2427220        1627902.8729586601        787996631.00117922     
  -4006766473.4044747       -2662825.7140400410        780228660.72638130     
  -3875010243.1529274       -5220142.9233798981        776938484.92318785     
  -3742733989.4880881       -6044048.7550685406        778126103.59159720     
  -3609937712.4099498       -5134543.2091050148        783791516.73160982     
  -4506839433.6067619        8217744.1170516014        659738937.71211553     
  -4365881936.8241320       -1102387.1068422794        653555839.65352094     
  -4223864617.6380730       -6889776.9859600067        651533493.84289956     
  -4080787476.0485783       -9144425.5202932358        653671900.28024781     
  -3936650512.0556431       -7866332.7098338604        659971058.96556985     
  -2637451067.0660515        765299.21515393257        1150141527.7030225     
  -2539106095.5801396       -1110727.4971325397        1144849805.1656978     
  -2440684385.9286189       -2730960.3240524530        1143428515.8922641     
  -2342185938.1114850       -4095399.2655923367        1145877659.8827302     
  -2243610752.1287370       -5204044.3217560053        1152197237.1370900     
  -2960337989.9151530       -818727.24660241604        1028876751.1003387     
  -2851335065.2751465       -1602899.7785813808        1023373074.2541399     
  -2742183275.9361224       -1890856.6471593380        1021945423.2978944     
  -2632882621.8980842       -1682597.8523602486        1024593798.2316049     
  -2523433103.1610227       -978123.39415347576        1031318199.0552638     
  -3284500205.0297880       -2785341.3880224228        906760080.77653587     
  -3164251919.7326612       -2301437.4887741804        901128597.24377000     
  -3043782643.2031116       -1080896.1481158733        899778732.22701550     
  -2923092375.4411383        876282.63394880295        902710485.72627473     
  -2802181116.4467463        3570098.8574194908        909923857.74154079     
  -3609937712.4099498       -5134543.2091050148        783791516.73160982     
  -3477856658.9526806       -3206340.6277225018        778116374.13458490     
  -3345482487.7295828       -301078.82691335678        776928442.67962909     
  -3212815198.7406588        3581242.1933127642        780227722.36674440     
  -3079854791.9859066        8440622.4329639673        788014213.19592416     
  -3936650512.0556431       -7866332.7098338604        659971058.96556985     
  -3792149282.9352074       -4317609.1954212189        654336404.92658901     
  -3647282809.5155392        448595.31644034386        653394554.65573621     
  -3502051091.7966409        6432280.8257298470        657145508.15300858     
  -3356454129.7785072        13633447.332473040        665589265.41841269     
  -2243610752.1287370       -5204044.3217560053        1152197237.1370900     
  -2148354607.4389234       -7241463.8565518856        1145818259.2232268     
  -2053131066.0294933       -9387560.9926309586        1143501772.6051414     
  -1957940127.9004560       -11642335.730016470        1145247777.2828372     
  -1862781793.0517960       -14005788.068663597        1151056273.2563088     
  -2523433103.1610227       -978123.39415347576        1031318199.0552638     
  -2418142248.9796247       -2076047.2980513573        1024684607.8151830     
  -2313366061.0326614       -4889525.3167303801        1021490725.8964895     
  -2209104539.3201513       -9418557.4502456188        1021736553.2991810     
  -2105357683.8420682       -15663143.698528767        1025422090.0232587     
  -2802181116.4467463        3570098.8574194908        909923857.74154079     
  -2688634929.8434601        2877857.4635200500        902473246.39551651     
  -2576085472.4286647       -1136814.5586937666        897839562.39648211     
  -2464532744.2023664       -8473917.2092276812        896022805.74444211     
  -2353976745.1645584       -19133450.488072634        897022976.43939435     
  -3079854791.9859066        8440622.4329639673        788014213.19592416     
  -2959832650.0304298        7620250.4281390905        779184174.96422446     
  -2841289300.2174973        1870571.2814973593        772548282.10512078     
  -2724224742.5471163       -8808415.0069816113        768106534.61861920     
  -2608638977.0192819       -24416708.437283039        765858932.50471520     
  -3356454129.7785072        13633447.332473040        665589265.41841269     
  -3231735409.5405302        12151131.595827222        654817393.52130640     
  -3108977544.3991537        4132632.2038481236        645616885.02240849     
  -2988180534.3543839       -10422050.843482614        637987739.92171085     
  -2869344379.4062104       -31512917.546145201        631929958.21922600     
  -1862781793.0517960       -14005788.068663597        1151056273.2563088     
  -1765368196.1385891       -17348525.311141014        1140203209.3550353     
  -1669013774.0921509       -24221845.442840755        1131539039.2304094     
  -1573718526.9124737       -34625748.463736773        1125063762.8824263     
  -1479482454.5995595       -48560234.373857617        1120777380.3110974     
  -2105357683.8420682       -15663143.698528767        1025422090.0232587     
  -1999900279.4446847       -22093983.326854110        1013128477.2943532     
  -1894389363.5749259       -28346451.380585432        1005546154.0195154     
  -1788824936.2327921       -34420547.859747767        1002675120.1987469     
  -1683206997.4182849       -40316272.764326811        1004515375.8320448     
  -2353976745.1645584       -19133450.488072634        897022976.43939435     
  -2233268688.4903698       -26490339.064437270        884586948.94518399     
  -2111394434.0046639       -29959901.602429748        879384606.58246338     
  -1988353981.7074416       -29542138.102051735        881415949.35123301     
  -1864147331.5987236       -25237048.563316941        890680977.25148499     
  -2608638977.0192819       -24416708.437283039        765858932.50471520     
  -2465473423.2756467       -30537592.523894787        754578624.30753005     
  -2320028985.3813667       -29062196.108351350        753054396.91925275     
  -2172305663.3364406       -19990519.190667152        761286250.33988500     
  -2022303457.1408784       -3322561.7708183527        779274184.56942415     
  -2869344379.4062104       -31512917.546145201        631929958.21922600     
  -2696514483.8005223       -34235743.705248356        623103503.38138616     
  -2520293017.7050371       -25653334.898379326        626555525.02987957     
  -2340679981.1197743       -5765691.1255769730        642286023.16469955     
  -2157675374.0447311        25427187.613170743        670294997.78584826     
  -5957883407.5624599       -1787365022.2687380        1150047244.2542541     
  -6088436665.2038651       -1502432314.8281062        1227912432.2909341     
  -6221660738.3387203       -1226402325.6989779        1268441033.1935287     
  -6357555626.9670277       -959275054.88135386        1271633046.9620385     
  -6496121331.0887842       -701050502.37523127        1237488473.5964634     
  -6810576856.0419788       -2043173056.8125937        1353694077.3630650     
  -6828528592.3243055       -1395593436.6578488        1202722603.4388237     
  -6897809319.5263596       -919110452.90219402        1092016522.4523940     
  -7018419037.6481409       -613724105.54563093        1021575834.4037758     
  -7190357746.6896496       -479434394.58815908        991400539.29296875     
  -8337949632.8715429       -2501384889.8614631        1712211944.7165844     
  -8021579904.7322292       -1424642374.0738356        1275635937.5007668     
  -7805197342.9389219       -681190412.77288771        956927303.29465699     
  -7688801947.4916134       -271029005.95861578        756086042.09825480     
  -7672393718.3903131       -194158153.63102388        673112153.91155982     
  -10540001738.051149       -3162000521.4153447        2225600846.3148122     
  -9667590602.4276390       -1589579127.0760689        1446652434.4767625     
  -8943824808.5764027       -512642205.31105614        863173375.72031701     
  -8368704356.4974499        68810243.879689693        475163670.04547536     
  -7942229246.1907730        154778220.49617004        282623317.45223761     
  -13416733171.580799       -4025019951.4742398        2893860782.1577487     
  -11766560685.410524       -1890403695.6645446        1715772094.3668113     
  -10313691716.438805       -413465830.51670170        810754739.72937441     
  -9058126264.6656418        405793643.96928883        178808718.24543786     
  -7999864330.0910339        567374727.79342651       -180065970.08499703     
  -6496121331.0887842       -701050502.37523127        1237488473.5964634     
  -6239196215.6720858       -375291781.18355536        1053282333.8710188     
  -6013301214.7680826       -152966775.03418517        907992464.13173556     
  -5818436328.3767672       -34075483.927116871        801618864.37861228     
  -5654601556.4981461       -18617907.862354994        734161534.61165142     
  -7190357746.6896496       -479434394.58815908        991400539.29296875     
  -6900558310.0566473       -304021731.34468102        846919929.71633887     
  -6623648668.0531578       -171575050.19958210        723506233.69259882     
  -6359628820.6791830       -82094351.152863503        621159451.22174716     
  -6108498767.9347210       -35579634.204524040        539879582.30378520     
  -7672393718.3903131       -194158153.63102388        673112153.91155982     
  -7400718121.7789230       -184390996.70712137        589520781.01411879     
  -7123791999.9138718       -157122088.93767166        509146965.23629522     
  -6841615352.7951555       -112351430.32267714        431990706.57809031     
  -6554188180.4227734       -50079020.862136126        358052005.03950059     
  -7942229246.1907730        154778220.49617004        282623317.45223761     
  -7739675650.8389206       -16399577.270875454        281084887.76436007     
  -7513731210.3502216       -109607891.24845266        264914658.76282635     
  -7264395924.7246847       -124846721.43655586        234112630.44763893     
  -6991669793.9623060       -62116067.835190773        188678802.81879556     
  -7999864330.0910339        567374727.79342651       -180065970.08499703     
  -7917430897.2366343        199952526.96405029       -78387750.032938167     
  -7793466299.3622122       -29032457.131923199       -9190685.7278096564     
  -7627970536.4677763       -119580224.49450636        27525222.830394205     
  -7420943608.5533161       -71690775.123689175        31759975.641672801     
  -5654601556.4981461       -18617907.862354994        734161534.61165142     
  -5520323127.7355967       -50543708.035676003        721145252.14693236     
  -5380410061.3636112       -63687382.844197512        710234510.02458525     
  -5234862357.3821821       -58048932.287911654        701429308.24461198     
  -5083680015.7913084       -33628356.366822720        694729646.80701029     
  -6108498767.9347210       -35579634.204524040        539879582.30378520     
  -5959197223.3853426       -37416938.576452732        533895291.85191321     
  -5808744435.1043024       -35416763.842851639        530418204.93952328     
  -5657140403.0916042       -29579110.003719568        529448321.56661803     
  -5504385127.3472471       -19903977.059055328        530985641.73319793     
  -6554188180.4227734       -50079020.862136126        358052005.03950059     
  -6388715910.9519625       -21483546.692293406        353869080.40972757     
  -6226575791.6272707       -3995239.6761887074        352595022.51655179     
  -6067767822.4487009        2385900.1861712933        354229831.35997057     
  -5912292003.4162531       -2340127.1052048206        358773506.93998277     
  -6991669793.9623060       -62116067.835190773        188678802.81879556     
  -6808879190.4354534       -2743532.3831930161        181066617.82038230     
  -6633904130.9325075        30577189.655793667        176764962.75567091     
  -6466744615.4534664        37846098.281764269        175773837.62467098     
  -6307400643.9983292        19063193.494719028        178093242.42737046     
  -7420943608.5533161       -71690775.123689175        31759975.641672801     
  -7219687061.8358240        18803104.350841999        15487904.083871048     
  -7030729453.0200214        68300524.153090954        2928025.6568830935     
  -6854070782.1059036        76801484.283049583       -5919659.6392886201     
  -6689711049.0934677        44305984.740731239       -11055151.804640211     
  -5083680015.7913084       -33628356.366822720        694729646.80701029     
  -4934422635.8701973       -6342716.6626000404        677198275.54199505     
  -4788530078.8657312        9726846.6527922153        665522700.27117336     
  -4646002344.7779217        14580333.579337835        659702920.99454618     
  -4506839433.6067619        8217744.1170516014        659738937.71211553     
  -5504385127.3472471       -19903977.059055328        530985641.73319793     
  -5345212535.0747452       -8312163.5620424747        515064579.22422695     
  -5187196800.4280357       -576542.15100073814        504536459.34687096     
  -5030337923.4071121        3302887.1740856171        499401282.10112494     
  -4874635904.0119801        3326124.4132015705        499659047.48699975     
  -5912292003.4162531       -2340127.1052048206        358773506.93998277     
  -5744526636.9711695       -6838871.2690517902        347038712.69306314     
  -5575710162.8610115       -7833923.2159886360        340234007.71517962     
  -5405842581.0857763       -5325282.9460084438        338359392.00632679     
  -5234923891.6454773        687049.54086780548        341414865.56650603     
  -6307400643.9983292        19063193.494719028        178093242.42737046     
  -6132364941.5594578       -1922839.7836165428        173120675.94850615     
  -5954070166.1646576       -12045296.542179585        172615345.37609848     
  -5772516317.8139219       -11304176.780954123        176577250.71014312     
  -5587703396.5072498        300519.50005125999        185006391.95063716     
  -6689711049.0934677        44305984.740731239       -11055151.804640211     
  -6508727448.8396187        6435930.8942532539       -6689531.0094384504     
  -6322276810.3389759       -13210662.129574537        1680472.3296314473     
  -6130359133.5915308       -14633794.330726624        14054858.212575888     
  -5932974418.5972939        2166534.2907567024        30433626.639393590     
  -4506839433.6067619        8217744.1170516014        659738937.71211553     
  -4365881936.8241320       -1102387.1068422794        653555839.65352094     
  -4223864617.6380730       -6889776.9859600067        651533493.84289956     
  -4080787476.0485783       -9144425.5202932358        653671900.28024781     
  -3936650512.0556431       -7866332.7098338604        659971058.96556985     
  -4874635904.0119801        3326124.4132015705        499659047.48699975     
  -4722160034.6549597        810133.59828329086        496276901.58133894     
  -4569563384.4035416       -1303254.2352931499        496024103.77516562     
  -4416845953.2577143       -3014039.0875179768        498900654.06847930     
  -4264007741.2174854       -4322220.9584000111        504906552.46128660     
  -5234923891.6454773        687049.54086780548        341414865.56650603     
  -5073876518.7097349        4091138.4362225533        339738123.38657486     
  -4913647406.3886194        4767691.9494907856        340159325.15765041     
  -4754236554.6821356        2716710.0806632042        342678470.87972939     
  -4595643963.5902739       -2061807.1702501774        347295560.55280912     
  -5587703396.5072498        300519.50005125999        185006391.95063716     
  -5421031388.9884548        8740627.4069828987        183939505.06923985     
  -5256116683.5933180        11323061.568382978        183939157.99034992     
  -5092959280.3218355        8047821.9842667580        185005350.71399286     
  -4931559179.1740160       -1085091.3453960419        187138083.24014795     
  -5932974418.5972939        2166534.2907567024        30433626.639393590     
  -5763624645.4911137        14758600.510552883        28881046.629316051     
  -5596971216.0176220        18362854.621403217        27363602.273272507     
  -5433014130.1768198        12979296.623280764        25881293.571267836     
  -5271753387.9687033       -1392073.4837994576        24434120.523299560     
  -3936650512.0556431       -7866332.7098338604        659971058.96556985     
  -3792149282.9352074       -4317609.1954212189        654336404.92658901     
  -3647282809.5155392        448595.31644034386        653394554.65573621     
  -3502051091.7966409        6432280.8257298470        657145508.15300858     
  -3356454129.7785072        13633447.332473040        665589265.41841269     
  -4264007741.2174854       -4322220.9584000111        504906552.46128660     
  -4108003855.0830460       -3662275.3138604164        498373172.09167427     
  -3951449260.6426787       -1166635.3162298203        496661826.70390850     
  -3794343957.8963857        3164699.0344893932        499772516.29799229     
  -3636687946.8441696        9331727.7382860184        507705240.87392229     
  -4595643963.5902739       -2061807.1702501774        347295560.55280912     
  -4427768188.4026251       -4179869.7838094234        340079828.52704161     
  -4259156240.9023633       -3844024.6886534691        337815362.69684345     
  -4089808121.0894804       -1054271.8847627640        340502163.06221056     
  -3919723828.9639840        4189388.6278512478        348140229.62314570     
  -4931559179.1740160       -1085091.3453960419        187138083.24014795     
  -4751442282.8939638       -5870392.6053040028        179456374.23269704     
  -4570403750.2946033       -7583572.8008534908        176855162.63453645     
  -4388443581.3759260       -6224631.9320104122        179334448.44566444     
  -4205561776.1379442       -1793569.9988260269        186894231.66608104     
  -5271753387.9687033       -1392073.4837994576        24434120.523299560     
  -5079026138.5570459       -8733843.7782983780        16502809.208648242     
  -4885191788.8193913       -12385279.652806282        13781226.516996929     
  -4690250338.7557220       -12346381.107279301        16269372.448359393     
  -4494201788.3660622       -8617148.1417572498        23967247.002725061     
  -3356454129.7785072        13633447.332473040        665589265.41841269     
  -3231735409.5405302        12151131.595827222        654817393.52130640     
  -3108977544.3991537        4132632.2038481236        645616885.02240849     
  -2988180534.3543839       -10422050.843482614        637987739.92171085     
  -2869344379.4062104       -31512917.546145201        631929958.21922600     
  -3636687946.8441696        9331727.7382860184        507705240.87392229     
  -3504109558.8864412        7150132.6925890446        495702402.11639017     
  -3372626057.3584642        1318916.2143945694        488335470.35485345     
  -3242237442.2602496       -8161921.6963393688        485604445.58931577     
  -3112943713.5917811       -21292381.039568663        487509327.81977564     
  -3919723828.9639840        4189388.6278512478        348140229.62314570     
  -3770529934.4356613        3935265.9283676147        335916720.78316945     
  -3621564957.6702485        2918084.0191924572        331393662.53698140     
  -3472828898.6677451        1137842.9003250599        334571054.88459265     
  -3324321757.4281473       -1405457.4282393456        345448897.82599497     
  -4205561776.1379442       -1793569.9988260269        186894231.66608104     
  -4030996536.1881919        2506531.3031518459        175460349.52164698     
  -3855794245.3345017        8930135.6182465553        174791461.56880060     
  -3679954903.5768704        17477242.946485281        184887567.80754247     
  -3503478510.9152985        28147853.287862301        205748668.23787525     
  -4494201788.3660622       -8617148.1417572498        23967247.002725061     
  -4285509364.1440315        2863928.8169431686        14333288.331826070     
  -4075313920.3512244        19355071.011572838        18528867.450303387     
  -3863615456.9876218        40856278.442184448        36553984.358168706     
  -3650413974.0532398        67367551.108726501        68408639.055411294     
  -2869344379.4062104       -31512917.546145201        631929958.21922600     
  -2696514483.8005223       -34235743.705248356        623103503.38138616     
  -2520293017.7050371       -25653334.898379326        626555525.02987957     
  -2340679981.1197743       -5765691.1255769730        642286023.16469955     
  -2157675374.0447311        25427187.613170743        670294997.78584826     
  -3112943713.5917811       -21292381.039568663        487509327.81977564     
  -2919504196.8444238       -15318074.253618956        487168759.89667636     
  -2725061422.4328904       -5999575.2537714243        488396239.53198200     
  -2529615390.3571935        6663115.9599819183        491191766.72569287     
  -2333166100.6173177        22669999.387632847        495555341.47780806     
  -3324321757.4281473       -1405457.4282393456        345448897.82599497     
  -3140873845.0474672        4085614.6502597332        350807851.85440952     
  -2958810987.8282380        4959836.1905810833        347024424.51331085     
  -2778133185.7704411        1217207.1927937269        334098615.80270064     
  -2598840438.8741050       -7142272.3431721926        312030425.72256649     
  -3503478510.9152985        28147853.287862301        205748668.23787525     
  -3360623428.4096475        23975323.006384850        214020779.25459123     
  -3221541713.8910589        7224899.4347052574        202440079.97387186     
  -3086233367.3595314       -22103417.427161455        171006570.39571732     
  -2954698388.8150473       -64009627.579206944        119720250.52012160     
  -3650413974.0532398        67367551.108726501        68408639.055411294     
  -3578752946.9309683        44351050.814801216        76807542.097217217     
  -3513253600.6213799        795614.47855091095        54643205.913666189     
  -3453915935.1244373       -63298757.899840117        1915630.5047535717     
  -3400739950.4401913       -147932066.32052875       -81375184.129520804     
 </DataArray>
 <DataArray  type="Float64" Name="VM" NumberOfComponents="1" format="ascii">
   12935616978.106647     
   11340795753.974903     
   10210328174.956409     
   9272861890.0054607     
   8303971066.2420921     
   10130266054.218910     
   9322021209.0194683     
   8826382440.3431778     
   8443526607.3511095     
   8035662611.5131521     
   7982287795.6491508     
   7734934295.2611456     
   7669121848.2122402     
   7669565962.7815008     
   7666348861.1133432     
   6491593724.2440548     
   6586824657.4923429     
   6757380338.1456881     
   6961202602.0662460     
   7171640128.2142792     
   5657734705.8030539     
   5890857893.0266094     
   6116346439.6059093     
   6331763535.7471189     
   6536902033.4510612     
   8303971066.2420921     
   8020426250.1326361     
   7779006989.5557833     
   7569039066.2569323     
   7385564058.3624344     
   8035662611.5131521     
   7746802362.1311140     
   7473630019.0960178     
   7214189142.5432243     
   6968486845.8358955     
   7666348861.1133432     
   7381233447.2731142     
   7101512980.0533123     
   6827261976.7645569     
   6558678752.4770403     
   7171640128.2142792     
   6911152914.6077852     
   6658535170.7481251     
   6409917768.1483231     
   6162150179.1673231     
   6536902033.4510612     
   6328910277.1767092     
   6143020916.2463913     
   5965305928.0627708     
   5786757987.4970884     
   7385564058.3624344     
   7229156724.2339506     
   7065129141.7249565     
   6892800058.5887890     
   6712001026.5230198     
   6968486845.8358955     
   6814728043.1655798     
   6656290456.7785616     
   6492892158.6211185     
   6324480773.0934210     
   6558678752.4770403     
   6407384037.7135773     
   6254466812.1228323     
   6099895524.4515762     
   5943695983.0516872     
   6162150179.1673231     
   6012120190.4561100     
   5863537304.3572893     
   5716443459.9257469     
   5570900274.0656099     
   5786757987.4970884     
   5635393146.1051569     
   5488488265.1303930     
   5345959653.0968428     
   5207871483.7239342     
   6712001026.5230198     
   6511958103.3801994     
   6315682507.5394373     
   6123103738.2629385     
   5934292096.1214161     
   6324480773.0934210     
   6138731479.1854105     
   5955565985.9091225     
   5774976831.3492689     
   5597034089.0398312     
   5943695983.0516872     
   5772491189.8775969     
   5602874530.6179609     
   5434872208.8751144     
   5268559345.1796560     
   5570900274.0656099     
   5415054052.2483196     
   5260008691.3307943     
   5105793775.0833864     
   4952502133.5433960     
   5207871483.7239342     
   5068832393.4629698     
   4930056146.8325167     
   4791546145.8721399     
   4653436543.8510227     
   5934292096.1214161     
   5771234888.7922153     
   5606375523.9173193     
   5439700088.3992224     
   5271227364.0346336     
   5597034089.0398312     
   5434753176.0139265     
   5271423610.4385929     
   5107050719.2234278     
   4941658402.7363319     
   5268559345.1796560     
   5109918152.7127895     
   4951212514.4656715     
   4792491420.2434530     
   4633822924.5087767     
   4952502133.5433960     
   4800155611.9719152     
   4648986516.3077240     
   4499103273.9598904     
   4350648521.6654291     
   4653436543.8510227     
   4509713862.2871008     
   4368691563.2622919     
   4230538316.6750154     
   4095485017.3084040     
   5271227364.0346336     
   5074745333.0603237     
   4879069307.6993599     
   4684174094.6268377     
   4490091301.1275177     
   4941658402.7363319     
   4758671981.3989182     
   4576878966.0085697     
   4396321390.7782631     
   4217107817.6860499     
   4633822924.5087767     
   4464706472.5806208     
   4297256325.0181751     
   4131591083.7043118     
   3967906054.4813147     
   4350648521.6654291     
   4195925624.8847070     
   4043434377.5977693     
   3893376641.1202674     
   3746040126.7345829     
   4095485017.3084040     
   3955819785.7593098     
   3819041965.4987044     
   3685437556.9811954     
   3555384276.2747383     
   4490091301.1275177     
   4287013916.1348858     
   4085151896.5801544     
   3884720719.3335423     
   3686464311.9452076     
   4217107817.6860499     
   4043686696.2609272     
   3872120591.8224635     
   3702598978.0510340     
   3535642353.6767974     
   3967906054.4813147     
   3817102249.4549942     
   3668211353.8761759     
   3521406927.4099541     
   3377047490.4015260     
   3746040126.7345829     
   3611239723.7485385     
   3477710606.6989274     
   3345615403.4000812     
   3215211664.8504624     
   3555384276.2747383     
   3430727045.8846412     
   3305914428.7868028     
   3181080586.0846214     
   3056421987.4702659     
   3686464311.9452076     
   3603589867.6158299     
   3514926143.2371421     
   3422707535.0052910     
   3332222522.9981489     
   3535642353.6767974     
   3392985585.0164237     
   3244164645.4979219     
   3089472148.2532492     
   2930564676.1927433     
   3377047490.4015260     
   3201114714.4016852     
   3021678159.4141440     
   2838357079.1354308     
   2650952222.3164611     
   3215211664.8504624     
   3031669118.6474042     
   2850480243.8799167     
   2672014081.6759062     
   2496756512.5492706     
   3056421987.4702659     
   2888739965.2246060     
   2732324144.9150858     
   2588998342.6081300     
   2461494822.0295858     
   5657734705.8030539     
   5890857893.0266094     
   6116346439.6059093     
   6331763535.7471189     
   6536902033.4510612     
   5151360231.9106750     
   5311283787.6720409     
   5467836871.8784599     
   5618139300.8605442     
   5760737617.5859032     
   4643398654.9652166     
   4755513804.9470272     
   4868744041.7919998     
   4980460329.6371851     
   5088742645.5834961     
   4134114948.8463097     
   4224385655.8922262     
   4320563985.5077457     
   4420988703.5019522     
   4524201694.1946583     
   3625026368.7262874     
   3719722636.1228619     
   3825656661.3545694     
   3942751919.9162707     
   4070904329.9935617     
   6536902033.4510612     
   6328910277.1767092     
   6143020916.2463913     
   5965305928.0627708     
   5786757987.4970884     
   5760737617.5859032     
   5652229182.3239775     
   5559657929.6077728     
   5473953347.4590750     
   5389577610.0977554     
   5088742645.5834961     
   5054050592.0179882     
   5029843318.1360769     
   5010912468.9916077     
   4994059260.7435236     
   4524201694.1946583     
   4538975094.4340706     
   4558436120.0194912     
   4580107793.9391384     
   4602268622.9061232     
   4070904329.9935617     
   4112337993.2689443     
   4151185123.0086298     
   4186557065.6480079     
   4217727698.7101684     
   5786757987.4970884     
   5635393146.1051569     
   5488488265.1303930     
   5345959653.0968428     
   5207871483.7239342     
   5389577610.0977554     
   5248125914.8249674     
   5110082997.4550915     
   4975494888.5855675     
   4844465991.0759239     
   4994059260.7435236     
   4866737637.4524717     
   4742705294.1564007     
   4621933384.8081417     
   4504466630.3422413     
   4602268622.9061232     
   4493886107.7239075     
   4389720540.4027185     
   4289452580.3327508     
   4192989800.5846319     
   4217727698.7101684     
   4133519975.5071044     
   4055683264.9353232     
   3983354845.8279252     
   3916232126.0220203     
   5207871483.7239342     
   5068832393.4629698     
   4930056146.8325167     
   4791546145.8721399     
   4653436543.8510227     
   4844465991.0759239     
   4720782730.2479038     
   4598400265.6014061     
   4477420771.9766283     
   4358052453.3347349     
   4504466630.3422413     
   4395476758.3987055     
   4288814876.2898145     
   4184655418.7925520     
   4083254327.7177682     
   4192989800.5846319     
   4097844847.4399443     
   4005988879.7078924     
   3917637440.7473836     
   3833065298.5871282     
   3916232126.0220203     
   3833816024.8055625     
   3755516447.4843135     
   3681556628.7973213     
   3612202465.7707829     
   4653436543.8510227     
   4509713862.2871008     
   4368691563.2622919     
   4230538316.6750154     
   4095485017.3084040     
   4358052453.3347349     
   4227266924.1547003     
   4099561412.1782804     
   3975162096.8685284     
   3854364890.9158974     
   4083254327.7177682     
   3966553814.9365392     
   3853479872.1692381     
   3744317047.1138129     
   3639428864.1393752     
   3833065298.5871282     
   3731668349.3292608     
   3634617555.2141681     
   3542249172.2135344     
   3454987714.1827550     
   3612202465.7707829     
   3527303256.4043498     
   3447632095.0951538     
   3373558417.4082737     
   3305547423.9720917     
   4095485017.3084040     
   3955819785.7593098     
   3819041965.4987044     
   3685437556.9811954     
   3555384276.2747383     
   3854364890.9158974     
   3728369790.2638130     
   3605842382.9272380     
   3487114283.7669129     
   3372606082.0580907     
   3639428864.1393752     
   3527224322.8350363     
   3419083094.4086714     
   3315371754.0581813     
   3216538515.4835582     
   3454987714.1827550     
   3356697955.7668495     
   3263051477.0214295     
   3174432384.3529968     
   3091294062.3543897     
   3305547423.9720917     
   3221223986.3931489     
   3142064387.4901452     
   3068446897.6128874     
   3000802530.6217995     
   3555384276.2747383     
   3430727045.8846412     
   3305914428.7868028     
   3181080586.0846214     
   3056421987.4702659     
   3372606082.0580907     
   3256471395.5953288     
   3141454405.6189871     
   3027778880.1386108     
   2915736431.6586857     
   3216538515.4835582     
   3111250138.2400079     
   3008593817.9651322     
   2908896670.5406423     
   2812558197.4064884     
   3091294062.3543897     
   2998721672.2118688     
   2910447569.5276704     
   2826881976.5282140     
   2748503431.9954686     
   3000802530.6217995     
   2922091910.5565720     
   2849377168.2852511     
   2783100318.5292959     
   2723757309.4725747     
   3056421987.4702659     
   2888739965.2246060     
   2732324144.9150858     
   2588998342.6081300     
   2461494822.0295858     
   2915736431.6586857     
   2777115129.4068947     
   2649004702.4801774     
   2532697189.1639438     
   2429980725.6848106     
   2812558197.4064884     
   2697501198.6050816     
   2591443288.1206746     
   2495268670.7533321     
   2410098300.0422306     
   2748503431.9954686     
   2652393503.7441640     
   2563042025.7147331     
   2481043978.3751969     
   2407094535.1044726     
   2723757309.4725747     
   2643177864.4593697     
   2566497390.3264170     
   2494113748.0034671     
   2426480736.2113914     
   3625026368.7262874     
   3719722636.1228619     
   3825656661.3545694     
   3942751919.9162707     
   4070904329.9935617     
   3138061668.3826900     
   3255556840.7403903     
   3382464577.9546657     
   3518308262.6040959     
   3662623595.9318204     
   2694846605.2628117     
   2830555618.0349865     
   2973582193.2175512     
   3122841227.8850336     
   3277419153.5712266     
   2298876574.8842263     
   2449513650.6377273     
   2604888728.6189013     
   2763080916.6405859     
   2922661364.8714790     
   1955373789.0252807     
   2119390597.7507114     
   2284789042.4986997     
   2448615626.5674953     
   2608916967.9726472     
   4070904329.9935617     
   4112337993.2689443     
   4151185123.0086298     
   4186557065.6480079     
   4217727698.7101684     
   3662623595.9318204     
   3702086609.7794428     
   3740207262.5114017     
   3776093729.4041185     
   3809001453.4017386     
   3277419153.5712266     
   3320734683.3187976     
   3364301733.2292829     
   3407300522.2026310     
   3449055180.4860654     
   2922661364.8714790     
   2975663489.9869838     
   3030864642.5289941     
   3087581454.0187855     
   3145280082.1946111     
   2608916967.9726472     
   2676918278.9720349     
   2749366912.7678232     
   2825749651.5301208     
   2905710439.5264015     
   4217727698.7101684     
   4133519975.5071044     
   4055683264.9353232     
   3983354845.8279252     
   3916232126.0220203     
   3809001453.4017386     
   3756086964.7859159     
   3709076529.7728629     
   3667489719.1243219     
   3631227570.4849095     
   3449055180.4860654     
   3422905965.5844650     
   3401823185.5162883     
   3385575573.5187464     
   3374147176.8654532     
   3145280082.1946111     
   3141618884.8979101     
   3141601322.9950962     
   3145128568.8672214     
   3152188375.8549266     
   2905710439.5264015     
   2920566435.6930714     
   2936871183.2712526     
   2954574361.6456895     
   2973640535.4502230     
   3916232126.0220203     
   3833816024.8055625     
   3755516447.4843135     
   3681556628.7973213     
   3612202465.7707829     
   3631227570.4849095     
   3560674204.3851876     
   3494799457.0173926     
   3433838190.5970478     
   3378070121.0495830     
   3374147176.8654532     
   3316298937.0267401     
   3263845349.4991674     
   3217015246.6635895     
   3176085864.2267632     
   3152188375.8549266     
   3107650890.3319564     
   3069364278.5384912     
   3037524420.4787335     
   3012380911.8385587     
   2973640535.4502230     
   2942537430.9490910     
   2918650822.5423756     
   2902109682.7568989     
   2893105371.4331608     
   3612202465.7707829     
   3527303256.4043498     
   3447632095.0951538     
   3373558417.4082737     
   3305547423.9720917     
   3378070121.0495830     
   3308482959.1177740     
   3244555526.2061334     
   3186625254.8449497     
   3135098530.2293782     
   3176085864.2267632     
   3120486977.9821653     
   3070835596.9038386     
   3027415112.9623408     
   2990552541.9591861     
   3012380911.8385587     
   2969161497.3170748     
   2931989832.8589873     
   2901080371.6204038     
   2876670349.0460529     
   2893105371.4331608     
   2860320048.0890713     
   2833461818.0646181     
   2812672490.2714696     
   2798102540.2760115     
   3305547423.9720917     
   3221223986.3931489     
   3142064387.4901452     
   3068446897.6128874     
   3000802530.6217995     
   3135098530.2293782     
   3062573233.2388477     
   2996105156.5270767     
   2936078329.2324586     
   2882924302.1261187     
   2990552541.9591861     
   2930071952.1205521     
   2876583770.7498937     
   2830448058.3280768     
   2792063267.7495451     
   2876670349.0460529     
   2827932313.3413429     
   2787127732.8252687     
   2754561426.4498453     
   2730566008.7299981     
   2798102540.2760115     
   2760092031.7394843     
   2730933122.7934041     
   2710850854.2534876     
   2700089061.3877368     
   3000802530.6217995     
   2922091910.5565720     
   2849377168.2852511     
   2783100318.5292959     
   2723757309.4725747     
   2882924302.1261187     
   2817656132.7163987     
   2759213695.1574411     
   2708014271.5069027     
   2664513322.9037609     
   2792063267.7495451     
   2740025076.4797101     
   2695565727.7568593     
   2659045303.0152516     
   2630845662.8741212     
   2730566008.7299981     
   2690974403.3225894     
   2659610687.7874084     
   2636754105.5270367     
   2622692619.1543927     
   2700089061.3877368     
   2671535989.6988769     
   2651754607.1208034     
   2640934311.1614370     
   2639265714.2199321     
   2723757309.4725747     
   2643177864.4593697     
   2566497390.3264170     
   2494113748.0034671     
   2426480736.2113914     
   2664513322.9037609     
   2598350386.3932562     
   2538031659.6612377     
   2483999721.1117930     
   2436733740.1440415     
   2630845662.8741212     
   2580023145.7786875     
   2536878144.7536469     
   2501830284.6112847     
   2475310444.4377923     
   2622692619.1543927     
   2587056671.9432802     
   2560744835.3437710     
   2544097832.5673432     
   2537448019.1773472     
   2639265714.2199321     
   2617603948.3109770     
   2606735495.2830830     
   2606894578.1488285     
   2618299782.9099874     
   1955373789.0252807     
   2119390597.7507114     
   2284789042.4986997     
   2448615626.5674953     
   2608916967.9726472     
   1653872681.3663888     
   1820318530.6329608     
   1988471566.5074840     
   2155640455.8597207     
   2320070923.0073667     
   1393733521.4016523     
   1571116317.6223986     
   1749498613.8591716     
   1926879983.5546069     
   2102012473.5357726     
   1207251573.1542068     
   1399195634.4110875     
   1590697177.6595066     
   1780980661.5320702     
   1969588404.0501459     
   1137056027.7877953     
   1335380694.3103938     
   1533977495.4461589     
   1732846431.1950898     
   1931987501.5571876     
   2608916967.9726472     
   2676918278.9720349     
   2749366912.7678232     
   2825749651.5301208     
   2905710439.5264015     
   2320070923.0073667     
   2407140840.3882432     
   2496615589.7490964     
   2588103415.1387572     
   2681327625.0637527     
   2102012473.5357726     
   2205774736.4499831     
   2309437497.4025683     
   2412763788.4776907     
   2515586433.4293637     
   1969588404.0501459     
   2086760258.7195492     
   2201100337.4376278     
   2312533433.8331079     
   2421007323.0768600     
   1931987501.5571876     
   2058664990.0974097     
   2179970635.5320382     
   2295904437.8610744     
   2406466397.0845165     
   2905710439.5264015     
   2920566435.6930714     
   2936871183.2712526     
   2954574361.6456895     
   2973640535.4502230     
   2681327625.0637527     
   2703110209.8508468     
   2727339399.9336267     
   2754000822.9665408     
   2783089063.0454264     
   2515586433.4293637     
   2544129630.2409778     
   2576137601.9686418     
   2611613268.6419692     
   2650563376.1665063     
   2421007323.0768600     
   2454696123.9736371     
   2492863499.2620554     
   2535513080.8448229     
   2582649293.4574070     
   2406466397.0845165     
   2442160679.8633728     
   2483335170.5087104     
   2529989869.0205297     
   2582124775.3988290     
   2973640535.4502230     
   2942537430.9490910     
   2918650822.5423756     
   2902109682.7568989     
   2893105371.4331608     
   2783089063.0454264     
   2766473429.4640417     
   2756961479.4284520     
   2754637205.4646721     
   2759617856.8747993     
   2650563376.1665063     
   2645622766.1396942     
   2647408779.6238279     
   2655960107.7943726     
   2671328940.6368427     
   2582649293.4574070     
   2586042000.3436990     
   2595526773.8244801     
   2611112526.2828293     
   2632811207.3319869     
   2582124775.3988290     
   2590289015.0675383     
   2603700518.4764409     
   2622359285.6255355     
   2646265316.5148239     
   2893105371.4331608     
   2860320048.0890713     
   2833461818.0646181     
   2812672490.2714696     
   2798102540.2760115     
   2759617856.8747993     
   2735547976.9568553     
   2718288176.2207270     
   2707942953.8003445     
   2704621140.6943526     
   2671328940.6368427     
   2654554038.2405415     
   2645428130.2948980     
   2644008838.7563801     
   2650355107.0000362     
   2632811207.3319869     
   2621006956.3120618     
   2617632491.1088276     
   2622704733.8494925     
   2636240749.2707791     
   2646265316.5148239     
   2636333829.5508342     
   2635556876.1368899     
   2643934456.2729855     
   2661466569.9591284     
   2798102540.2760115     
   2760092031.7394843     
   2730933122.7934041     
   2710850854.2534876     
   2700089061.3877368     
   2704621140.6943526     
   2678897468.5589108     
   2661806584.0057421     
   2653476633.8963575     
   2654042780.9943824     
   2650355107.0000362     
   2634229538.4258747     
   2626368414.6438918     
   2626826872.5777531     
   2635661828.7476439     
   2636240749.2707791     
   2626782312.5348878     
   2625111136.5035443     
   2631240009.4644156     
   2645181936.6466360     
   2661466569.9591284     
   2655728281.8274331     
   2657234398.8162661     
   2665984920.9256396     
   2681979848.1555438     
   2700089061.3877368     
   2671535989.6988769     
   2651754607.1208034     
   2640934311.1614370     
   2639265714.2199321     
   2654042780.9943824     
   2634018972.8470640     
   2622434282.0870500     
   2619390999.3238244     
   2624990297.8990898     
   2635661828.7476439     
   2621756235.9516053     
   2615913999.3972988     
   2618177728.2919545     
   2628589042.1636863     
   2645181936.6466360     
   2634927114.5234342     
   2632345346.7536025     
   2637446403.3363113     
   2650239758.9670000     
   2681979848.1555438     
   2672994684.1156197     
   2671297361.6461325     
   2676887880.7470841     
   2689766241.4184704     
   2639265714.2199321     
   2617603948.3109770     
   2606735495.2830830     
   2606894578.1488285     
   2618299782.9099874     
   2624990297.8990898     
   2610746771.7482409     
   2606612507.4985046     
   2612708837.6354365     
   2629147746.3009424     
   2628589042.1636863     
   2619102651.7027535     
   2619090110.8132763     
   2628600702.1299958     
   2647679688.8677807     
   2650239758.9670000     
   2642912444.3078990     
   2644488904.2221012     
   2654980333.7418938     
   2674397027.2260461     
   2689766241.4184704     
   2682160772.2903404     
   2682955359.7081447     
   2692150003.6718884     
   2709744704.1815653     
   1137056027.7877953     
   1335380694.3103938     
   1533977495.4461589     
   1732846431.1950898     
   1931987501.5571876     
   1207251572.7452085     
   1399195633.9693303     
   1590697177.1824260     
   1780980661.0154154     
   1969588403.4888334     
   1393733520.7205710     
   1571116316.8650553     
   1749498613.0232000     
   1926879982.6335306     
   2102012472.5208890     
   1653872680.5553463     
   1820318529.7094204     
   1988471565.4678197     
   2155640454.6949630     
   2320070921.7054858     
   1955373788.1837132     
   2119390596.7799132     
   2284789041.3921132     
   2448615625.3129559     
   2608916966.5548000     
   1931987501.5571876     
   2058664990.0974097     
   2179970635.5320382     
   2295904437.8610744     
   2406466397.0845165     
   1969588403.4888334     
   2086760258.1074305     
   2201100336.7776256     
   2312533433.1286721     
   2421007322.3317146     
   2102012472.5208890     
   2205774735.3209190     
   2309437496.1648588     
   2412763787.1376600     
   2515586431.9938788     
   2320070921.7054858     
   2407140838.9016566     
   2496615588.0840740     
   2588103413.3025141     
   2681327623.0644345     
   2608916966.5548000     
   2676918277.2995400     
   2749366910.8449507     
   2825749649.3620090     
   2905710437.1194663     
   2406466397.0845165     
   2442160679.8633728     
   2483335170.5087104     
   2529989869.0205297     
   2582124775.3988290     
   2421007322.3317146     
   2454696123.1293488     
   2492863498.3147545     
   2535513079.7906909     
   2582649292.2926812     
   2515586431.9938788     
   2544129628.6433554     
   2576137600.2024069     
   2611613266.7010946     
   2650563374.0452199     
   2681327623.0644345     
   2703110207.6659689     
   2727339397.5554752     
   2754000820.3885584     
   2783089060.2616472     
   2905710437.1194663     
   2920566433.1161060     
   2936871180.5172229     
   2954574358.7096829     
   2973640532.3284445     
   2582124775.3988290     
   2590289015.0675383     
   2603700518.4764409     
   2622359285.6255355     
   2646265316.5148239     
   2582649292.2926812     
   2586041999.1389527     
   2595526772.5942569     
   2611112525.0420852     
   2632811206.0957279     
   2650563374.0452199     
   2645622763.9080853     
   2647408777.3070245     
   2655960105.4183130     
   2671328938.2279167     
   2783089060.2616472     
   2766473426.4707050     
   2756961476.2558551     
   2754637202.1442008     
   2759617853.4389944     
   2973640532.3284445     
   2942537427.4962730     
   2918650818.7882061     
   2902109678.7319102     
   2893105367.1696405     
   2646265316.5148239     
   2636333829.5508342     
   2635556876.1368899     
   2643934456.2729855     
   2661466569.9591284     
   2632811206.0957279     
   2621006955.0928683     
   2617632489.8670983     
   2622704732.5452266     
   2636240747.8633938     
   2671328938.2279167     
   2654554035.9189148     
   2645428127.9844055     
   2644008836.3792453     
   2650355104.4765010     
   2759617853.4389944     
   2735547973.7497458     
   2718288173.1338301     
   2707942950.7213421     
   2704621137.5063753     
   2893105367.1696405     
   2860320044.2793493     
   2833461814.5739079     
   2812672486.9580855     
   2798102536.9902406     
   2661466569.9591284     
   2655728281.8274331     
   2657234398.8162661     
   2665984920.9256396     
   2681979848.1555438     
   2636240747.8633938     
   2626782311.7780085     
   2625111136.5142546     
   2631240010.3551302     
   2645181938.5244823     
   2650355104.4765010     
   2634229536.8901424     
   2626368414.3136292     
   2626826873.6654730     
   2635661831.4600649     
   2704621137.5063753     
   2678897466.3246865     
   2661806583.0249872     
   2653476634.4686995     
   2654042783.4196005     
   2798102536.9902406     
   2760092028.9802232     
   2730933120.9186850     
   2710850853.6318417     
   2700089062.4007559     
   2681979848.1555438     
   2672994684.1156197     
   2671297361.6461325     
   2676887880.7470841     
   2689766241.4184704     
   2645181938.5244823     
   2634927111.7699523     
   2632345338.4917402     
   2637446388.7100139     
   2650239737.1412730     
   2635661831.4600649     
   2621756231.9074273     
   2615913986.9480448     
   2618177705.7965260     
   2628589007.9882059     
   2654042783.4196005     
   2634018969.2370338     
   2622434270.1298318     
   2619390976.6567364     
   2624990262.1073403     
   2700089062.4007559     
   2671535988.4033489     
   2651754600.6764731     
   2640934296.5700283     
   2639265688.3180141     
   2689766241.4184704     
   2682160772.2903404     
   2682955359.7081447     
   2692150003.6718884     
   2709744704.1815653     
   2650239737.1412730     
   2642912471.6759596     
   2644488981.8004823     
   2654980462.2880859     
   2674397207.2144518     
   2628589007.9882059     
   2619102688.2081628     
   2619090219.0286031     
   2628600882.9123101     
   2647679942.8844633     
   2624990262.1073403     
   2610746800.5838833     
   2606612600.8806505     
   2612708995.7502713     
   2629147969.6313252     
   2639265688.3180141     
   2617603954.8331389     
   2606735531.5323563     
   2606894642.4660149     
   2618299874.8269472     
   1955373788.1837132     
   2119390596.7799132     
   2284789041.3921132     
   2448615625.3129559     
   2608916966.5548000     
   2298876574.0841513     
   2449513649.7115650     
   2604888727.5592289     
   2763080915.4374170     
   2922661363.5132809     
   2694846604.5594950     
   2830555617.2175159     
   2973582192.2770677     
   3122841226.8119855     
   3277419152.3556476     
   3138061667.8162479     
   3255556840.0762877     
   3382464577.1827011     
   3518308261.7141485     
   3662623594.9138584     
   3625026368.3283682     
   3719722635.6452336     
   3825656660.7861772     
   3942751919.2460513     
   4070904329.2104230     
   2608916966.5548000     
   2676918277.2995400     
   2749366910.8449507     
   2825749649.3620090     
   2905710437.1194663     
   2922661363.5132809     
   2975663488.3399577     
   3030864640.5853934     
   3087581451.7707996     
   3145280079.6347151     
   3277419152.3556476     
   3320734681.8100643     
   3364301731.4105587     
   3407300520.0564332     
   3449055177.9945660     
   3662623594.9138584     
   3702086608.4928222     
   3740207260.9334712     
   3776093727.5116730     
   3809001451.1713772     
   4070904329.2104230     
   4112337992.2678790     
   4151185121.7639890     
   4186557064.1343856     
   4217727696.9029422     
   2905710437.1194663     
   2920566433.1161060     
   2936871180.5172229     
   2954574358.7096829     
   2973640532.3284445     
   3145280079.6347151     
   3141618882.1855054     
   3141601320.1237435     
   3145128565.8329663     
   3152188372.6545062     
   3449055177.9945660     
   3422905962.9635534     
   3401823182.7564344     
   3385575570.6128607     
   3374147173.8068848     
   3809001451.1713772     
   3756086962.4565845     
   3709076527.3295584     
   3667489716.5538092     
   3631227567.7739177     
   4217727696.9029422     
   4133519973.6392627     
   4055683262.9855490     
   3983354843.7753205     
   3916232123.8447151     
   2973640532.3284445     
   2942537427.4962730     
   2918650818.7882061     
   2902109678.7319102     
   2893105367.1696405     
   3152188372.6545062     
   3107650886.6551323     
   3069364274.4034529     
   3037524415.9050651     
   3012380906.8479719     
   3374147173.8068848     
   3316298933.3753090     
   3263845345.2622652     
   3217015241.8497596     
   3176085858.8462825     
   3631227567.7739177     
   3560674200.9958467     
   3494799452.9480996     
   3433838185.8466229     
   3378070115.6176829     
   3916232123.8447151     
   3833816021.8937788     
   3755516443.8297710     
   3681556624.3912392     
   3612202460.6041269     
   2893105367.1696405     
   2860320044.2793493     
   2833461814.5739079     
   2812672486.9580855     
   2798102536.9902406     
   3012380906.8479719     
   2969161493.0150599     
   2931989829.2209291     
   2901080368.6169443     
   2876670346.6414351     
   3176085858.8462825     
   3120486973.3817101     
   3070835593.1520357     
   3027415110.1283827     
   2990552540.1116176     
   3378070115.6176829     
   3308482954.3811927     
   3244555522.3074460     
   3186625251.9349551     
   3135098528.4675274     
   3612202460.6041269     
   3527303251.6569052     
   3447632090.9635448     
   3373558414.1059813     
   3305547421.7326698     
   2798102536.9902406     
   2760092028.9802232     
   2730933120.9186850     
   2710850853.6318417     
   2700089062.4007559     
   2876670346.6414351     
   2827932311.3426776     
   2787127731.3223267     
   2754561425.5364871     
   2730566008.5042958     
   2990552540.1116176     
   2930071950.9276171     
   2876583770.0788040     
   2830448058.0354891     
   2792063267.6782360     
   3135098528.4675274     
   3062573232.8330822     
   2996105157.1735382     
   2936078330.5963659     
   2882924303.8338413     
   3305547421.7326698     
   3221223986.7064672     
   3142064389.9362254     
   3068446901.7185984     
   3000802535.8475628     
   2700089062.4007559     
   2671535988.4033489     
   2651754600.6764731     
   2640934296.5700283     
   2639265688.3180141     
   2730566008.5042958     
   2690974405.5738659     
   2659610691.5478849     
   2636754109.6916342     
   2622692622.4715266     
   2792063267.6782360     
   2740025081.6195364     
   2695565738.8861332     
   2659045320.8585024     
   2630845688.0955892     
   2882924303.8338413     
   2817656139.6040711     
   2759213709.5668445     
   2708014295.8710175     
   2664513359.7558436     
   3000802535.8475628     
   2922091917.6798749     
   2849377180.9540901     
   2783100340.6685953     
   2723757345.3266993     
   2639265688.3180141     
   2617603954.8331389     
   2606735531.5323563     
   2606894642.4660149     
   2618299874.8269472     
   2622692622.4715266     
   2587056677.5048952     
   2560744835.1468606     
   2544097819.4927034     
   2537447987.2673297     
   2630845688.0955892     
   2580023156.0521302     
   2536878127.1070237     
   2501830226.5069923     
   2475310334.1181707     
   2664513359.7558436     
   2598350405.3789210     
   2538031643.6839380     
   2483999652.8211918     
   2436733602.2324314     
   2723757345.3266993     
   2643177894.1842833     
   2566497394.1415534     
   2494113705.1450038     
   2426480625.0481448     
   3625026368.3283682     
   3719722635.6452336     
   3825656660.7861772     
   3942751919.2460513     
   4070904329.2104230     
   4134114948.6223984     
   4224385655.6114302     
   4320563985.1673021     
   4420988703.0960274     
   4524201693.7148647     
   4643398654.8979912     
   4755513804.8470440     
   4868744041.6649666     
   4980460329.4826040     
   5088742645.3959503     
   5151360231.9848528     
   5311283787.7370176     
   5467836871.9479818     
   5618139300.9391651     
   5760737617.6712141     
   5657734706.0069714     
   5890857893.2423630     
   6116346439.8547554     
   6331763536.0384045     
   6536902033.7855263     
   4070904329.2104230     
   4112337992.2678790     
   4151185121.7639890     
   4186557064.1343856     
   4217727696.9029422     
   4524201693.7148647     
   4538975093.8282652     
   4558436119.2696342     
   4580107793.0280857     
   4602268621.8166542     
   5088742645.3959503     
   5054050591.7942610     
   5029843317.8649168     
   5010912468.6630049     
   4994059260.3456173     
   5760737617.6712141     
   5652229182.4554672     
   5559657929.7796860     
   5473953347.6681147     
   5389577610.3376093     
   6536902033.7855263     
   6328910277.6293068     
   6143020916.8147469     
   5965305928.7494879     
   5786757988.3020182     
   4217727696.9029422     
   4133519973.6392627     
   4055683262.9855490     
   3983354843.7753205     
   3916232123.8447151     
   4602268621.8166542     
   4493886106.6701727     
   4389720539.3537312     
   4289452579.2560916     
   4192989799.4457369     
   4994059260.3456173     
   4866737637.1944847     
   4742705293.9998293     
   4621933384.7123222     
   4504466630.2635355     
   5389577610.3376093     
   5248125915.3226032     
   5110082998.1656179     
   4975494889.4620934     
   4844465992.0680218     
   5786757988.3020182     
   5635393147.3044405     
   5488488266.6731710     
   5345959654.9310055     
   5207871485.7933760     
   3916232123.8447151     
   3833816021.8937788     
   3755516443.8297710     
   3681556624.3912392     
   3612202460.6041269     
   4192989799.4457369     
   4097844845.5645704     
   4005988877.0771103     
   3917637437.3401737     
   3833065294.3804526     
   4504466630.2635355     
   4395476757.6063652     
   4288814874.7570491     
   4184655416.4892125     
   4083254324.6101756     
   4844465992.0680218     
   4720782730.5736294     
   4598400265.2289867     
   4477420770.8701649     
   4358052451.4538393     
   5207871485.7933760     
   5068832394.9368420     
   4930056147.6767950     
   4791546146.0485477     
   4653436543.3165464     
   3612202460.6041269     
   3527303251.6569052     
   3447632090.9635448     
   3373558414.1059813     
   3305547421.7326698     
   3833065294.3804526     
   3731668345.1712027     
   3634617551.2152009     
   3542249168.4956908     
   3454987710.8814816     
   4083254324.6101756     
   3966553811.6975651     
   3853479868.8455930     
   3744317043.7573423     
   3639428860.8072748     
   4358052451.4538393     
   4227266922.1732407     
   4099561410.1020179     
   3975162094.7021747     
   3854364888.6617250     
   4653436543.3165464     
   4509713861.9011154     
   4368691563.0111418     
   4230538316.5387030     
   4095485017.2579679     
   3305547421.7326698     
   3221223986.7064672     
   3142064389.9362254     
   3068446901.7185984     
   3000802535.8475628     
   3454987710.8814816     
   3356697955.8392859     
   3263051480.3303566     
   3174432390.7286701     
   3091294071.5839763     
   3639428860.8072748     
   3527224323.2414241     
   3419083098.6348414     
   3315371762.1768904     
   3216538527.5541840     
   3854364888.6617250     
   3728369791.5882468     
   3605842388.0620041     
   3487114292.9580708     
   3372606095.5690465     
   4095485017.2579679     
   3955819788.5694337     
   3819041971.4861360     
   3685437566.4954877     
   3555384289.7099361     
   3000802535.8475628     
   2922091917.6798749     
   2849377180.9540901     
   2783100340.6685953     
   2723757345.3266993     
   3091294071.5839763     
   2998721678.4940863     
   2910447575.0562696     
   2826881983.7225657     
   2748503443.5429664     
   3216538527.5541840     
   3111250143.8355045     
   3008593817.9735694     
   2908896665.9761467     
   2812558189.4389310     
   3372606095.5690465     
   3256471401.0667124     
   3141454402.8658905     
   3027778868.9974813     
   2915736411.9973001     
   3555384289.7099361     
   3430727052.1123495     
   3305914426.8456588     
   3181080574.9699154     
   3056421966.1308899     
   2723757345.3266993     
   2643177894.1842833     
   2566497394.1415534     
   2494113705.1450038     
   2426480625.0481448     
   2748503443.5429664     
   2652393530.9276938     
   2563042053.8359346     
   2481043990.3938870     
   2407094511.3205938     
   2812558189.4389310     
   2697501239.8528371     
   2591443370.2177992     
   2495268781.8919063     
   2410098424.4430923     
   2915736411.9973001     
   2777115198.0864501     
   2649004858.6328378     
   2532697428.1662326     
   2429981038.6572986     
   3056421966.1308899     
   2888740070.7759495     
   2732324385.1518326     
   2588998722.6864829     
   2461495344.3675919     
   5657734706.0069714     
   5890857893.2423630     
   6116346439.8547554     
   6331763536.0384045     
   6536902033.7855263     
   6491593724.4860516     
   6586824657.8774776     
   6757380338.6669741     
   6961202602.7000484     
   7171640128.9292746     
   7982287795.7594080     
   7734934295.6382208     
   7669121848.8322678     
   7669565963.6088820     
   7666348862.1086102     
   10130266054.031721     
   9322021209.2217426     
   8826382440.9010162     
   8443526608.2273378     
   8035662612.6778860     
   12935616977.457058     
   11340795753.847839     
   10210328175.308256     
   9272861890.7943268     
   8303971067.4483461     
   6536902033.7855263     
   6328910277.6293068     
   6143020916.8147469     
   5965305928.7494879     
   5786757988.3020182     
   7171640128.9292746     
   6911152915.4697123     
   6658535171.7554131     
   6409917769.3028250     
   6162150180.4722147     
   7666348862.1086102     
   7381233448.4564848     
   7101512981.4225550     
   6827261978.3192244     
   6558678754.2187757     
   8035662612.6778860     
   7746802363.5448837     
   7473630020.7545080     
   7214189144.4428072     
   6968486847.9738560     
   8303971067.4483461     
   8020426251.6769018     
   7779006991.4307690     
   7569039068.4549885     
   7385564060.8742981     
   5786757988.3020182     
   5635393147.3044405     
   5488488266.6731710     
   5345959654.9310055     
   5207871485.7933760     
   6162150180.4722147     
   6012120192.2457066     
   5863537306.6118145     
   5716443462.6242609     
   5570900277.1855335     
   6558678754.2187757     
   6407384039.9388113     
   6254466814.8355923     
   6099895527.6559219     
   5943695986.7518120     
   6968486847.9738560     
   6814728045.6838055     
   6656290459.6985960     
   6492892161.9653435     
   6324480776.8841295     
   7385564060.8742981     
   7229156726.9146738     
   7065129144.6077175     
   6892800061.7066698     
   6712001029.9054909     
   5207871485.7933760     
   5068832394.9368420     
   4930056147.6767950     
   4791546146.0485477     
   4653436543.3165464     
   5570900277.1855335     
   5415054055.0055580     
   5260008693.6811762     
   5105793776.9785357     
   4952502134.9292679     
   5943695986.7518120     
   5772491193.5127821     
   5602874534.1397629     
   5434872212.2318010     
   5268559348.3136663     
   6324480776.8841295     
   6138731483.2810268     
   5955565990.2627516     
   5774976835.9118319     
   5597034093.7562246     
   6712001029.9054909     
   6511958107.5150042     
   6315682512.3872881     
   6123103743.7829905     
   5934292102.2659540     
   4653436543.3165464     
   4509713861.9011154     
   4368691563.0111418     
   4230538316.5387030     
   4095485017.2579679     
   4952502134.9292679     
   4800155614.0232620     
   4648986519.0487328     
   4499103277.4080515     
   4350648525.8275938     
   5268559348.3136663     
   5109918157.1939840     
   4951212520.3684530     
   4792491427.6372881     
   4633822933.4530630     
   5597034093.7562246     
   5434753182.9029379     
   5271423619.6322556     
   5107050730.8518658     
   4941658416.9214363     
   5934292102.2659540     
   5771234898.0612803     
   5606375536.5037441     
   5439700104.4971790     
   5271227383.8320427     
   4095485017.2579679     
   3955819788.5694337     
   3819041971.4861360     
   3685437566.4954877     
   3555384289.7099361     
   4350648525.8275938     
   4195925630.9558301     
   4043434385.5846562     
   3893376651.0505171     
   3746040138.6645393     
   4633822933.4530630     
   4464706482.6698523     
   4297256335.9686260     
   4131591095.2383304     
   3967906066.3282714     
   4941658416.9214363     
   4758671996.2924690     
   4576878981.0705299     
   4396321405.4606743     
   4217107831.4250102     
   5271227383.8320427     
   5074745353.5589466     
   4879069328.1456146     
   4684174114.2482500     
   4490091319.1150331     
   3555384289.7099361     
   3430727052.1123495     
   3305914426.8456588     
   3181080574.9699154     
   3056421966.1308899     
   3746040138.6645393     
   3611239730.0351214     
   3477710607.3285494     
   3345615398.3331251     
   3215211653.9833374     
   3967906066.3282714     
   3817102257.0375748     
   3668211358.0566649     
   3521406929.0717382     
   3377047490.4182940     
   4217107831.4250102     
   4043686706.3638849     
   3872120599.9188328     
   3702598985.9086485     
   3535642363.2286949     
   4490091319.1150331     
   4287013929.9378200     
   4085151908.4719667     
   3884720731.9424391     
   3686464328.3996167     
   3056421966.1308899     
   2888740070.7759495     
   2732324385.1518326     
   2588998722.6864829     
   2461495344.3675919     
   3215211653.9833374     
   3031669246.2367702     
   2850480520.9345150     
   2672014520.1745629     
   2496757125.8366032     
   3377047490.4182940     
   3201114813.5789180     
   3021678363.6107025     
   2838357394.4118576     
   2650952653.7304482     
   3535642363.2286949     
   3392985611.1905699     
   3244164682.3734202     
   3089472187.2553644     
   2930564702.0610094     
   3686464328.3996167     
   3603589782.4596338     
   3514925935.2894669     
   3422707179.9958334     
   3332221988.5017815     
 </DataArray>
 <DataArray  type="Float64" Name="strain" NumberOfComponents="3" format="ascii">
  0.20348711977608799        0.0000000000000000       0.12540063391063419     
  0.18665732627895085       -2.7326075164522262E-002   7.4350124099657550E-002
  0.16982753278181367       -4.4677361403740283E-002   3.5132705394403475E-002
  0.15299773928467653       -5.2053858717654111E-002   7.7483777948719433E-003
  0.13616794578753938       -4.9455567106263684E-002  -7.8028586989370707E-003
  0.15985669302529434        0.0000000000000000        9.6442703359081783E-002
  0.15317861439874370       -2.1844967558988730E-002   6.2688272175507612E-002
  0.14650053577219305       -3.6175087284094062E-002   3.7404179627383891E-002
  0.13982245714564240       -4.2990359175315969E-002   2.0590425714710599E-002
  0.13314437851909172       -4.2290783232654477E-002   1.2247010437487833E-002
  0.12645890275744537        0.0000000000000000        7.4195850958773318E-002
  0.12656978653120915       -1.6363859953455202E-002   5.5277557311180781E-002
  0.12668067030497290       -2.7672813164447811E-002   4.1466849828766555E-002
  0.12679155407873666       -3.3926859632977840E-002   3.2763728511530782E-002
  0.12690243785250044       -3.5125999359045264E-002   2.9168193359473325E-002
  0.10329374897254107        0.0000000000000000        5.8660076709708783E-002
  0.10683084267634715       -1.0882752347921673E-002   5.2117979506677022E-002
  0.11036793638015324       -1.9170539044801573E-002   4.7320715998551553E-002
  0.11390503008395933       -2.4863360090639709E-002   4.4268286185332399E-002
  0.11744212378776543       -2.7961215485436074E-002   4.2960690067019483E-002
   9.0361231670581438E-002   0.0000000000000000        4.9835380611888205E-002
   9.3961782834157764E-002  -5.4016447423881403E-003   5.3209538761996425E-002
   9.7562333997734091E-002  -1.0668264925155335E-002   5.4965778136738863E-002
  0.10116288516131045       -1.5799860548301580E-002   5.5104098736115499E-002
  0.10476343632488677       -2.0796431611826878E-002   5.3624500560126347E-002
  0.13616794578753938       -4.9455567106263684E-002  -7.8028586989370707E-003
  0.13295694423014762       -4.2919696592836155E-002  -3.3968024992523937E-003
  0.12974594267275585       -3.8483457200638671E-002  -3.9826304685440864E-004
  0.12653494111536409       -3.6146848929671266E-002   1.1927596582569922E-003
  0.12332393955797236       -3.5909871779933850E-002   1.3762656160817288E-003
  0.13314437851909172       -4.2290783232654477E-002   1.2247010437487833E-002
  0.12891259627029361       -3.8425051958570156E-002   1.2180345148775154E-002
  0.12468081402149545       -3.5741857855523695E-002   1.1479635224536360E-002
  0.12044903177269735       -3.4241200923514979E-002   1.0144880664771523E-002
  0.11621724952389914       -3.3923081162544166E-002   8.1760814694805534E-003
  0.12690243785250044       -3.5125999359045264E-002   2.9168193359473325E-002
  0.12242334702405644       -3.3930407324304204E-002   2.5545900532555548E-002
  0.11794425619561248       -3.3000258510408692E-002   2.2063035181872283E-002
  0.11346516536716846       -3.2335552917358776E-002   1.8719597307423445E-002
  0.10898607453872450       -3.1936290545154358E-002   1.5515586909208991E-002
  0.11744212378776543       -2.7961215485436074E-002   4.2960690067019483E-002
  0.11348919649143616       -2.9435762690038218E-002   3.6699863652088917E-002
  0.10953626919510688       -3.0258659165293703E-002   3.1351936825153297E-002
  0.10558334189877762       -3.0429904911202482E-002   2.6916909586212678E-002
  0.10163041460244836       -2.9949499927764613E-002   2.3394781935267034E-002
  0.10476343632488677       -2.0796431611826878E-002   5.3624500560126347E-002
  0.10211014467243276       -2.4941118055772239E-002   4.5642234507375111E-002
   9.9456853019978739E-002  -2.7517059820178678E-002   3.9346340154379503E-002
   9.6803561367524715E-002  -2.8524256905046227E-002   3.4736817501139335E-002
   9.4150269715070692E-002  -2.7962709310374853E-002   3.1813666547654745E-002
  0.12332393955797236       -3.5909871779933850E-002   1.3762656160817288E-003
  0.12042213317382136       -3.6411820370414169E-002   6.7114251494013177E-004
  0.11752032678967035       -3.6291989320099895E-002   1.2688111153368042E-004
  0.11461852040551931       -3.5550378628990929E-002  -2.5651859413777095E-004
  0.11171671402136835       -3.4186988297087328E-002  -4.7905660207381295E-004
  0.11621724952389914       -3.3923081162544166E-002   8.1760814694805534E-003
  0.11346760213576934       -3.3998670401397549E-002   7.8462201216152744E-003
  0.11071795474763947       -3.3679140468861793E-002   7.6598150680571853E-003
  0.10796830735950960       -3.2964491364936885E-002   7.6168663088061923E-003
  0.10521865997137977       -3.1854723089622894E-002   7.7173738438625072E-003
  0.10898607453872450       -3.1936290545154358E-002   1.5515586909208991E-002
  0.10637118074318780       -3.1585520432380908E-002   1.5334326845214685E-002
  0.10375628694765107       -3.1066291617623799E-002   1.5279117672099534E-002
  0.10114139315211433       -3.0378604100882899E-002   1.5349959389863476E-002
   9.8526499356577632E-002  -2.9522457882158348E-002   1.5546851998506542E-002
  0.10163041460244836       -2.9949499927764613E-002   2.3394781935267034E-002
   9.9132868996076734E-002  -2.9172370463364277E-002   2.3135462685738215E-002
   9.6635323389705138E-002  -2.8453442766385721E-002   2.2984788923660463E-002
   9.4137777783333515E-002  -2.7792716836828914E-002   2.2942760649033927E-002
   9.1640232176961919E-002  -2.7190192674693858E-002   2.3009377861858398E-002
   9.4150269715070692E-002  -2.7962709310374853E-002   3.1813666547654745E-002
   9.1752666894436175E-002  -2.6759220494347653E-002   3.1249627643185909E-002
   8.9355064073801643E-002  -2.5840593915147658E-002   3.0776828822740181E-002
   8.6957461253167126E-002  -2.5206829572774887E-002   3.0395270086317424E-002
   8.4559858432532636E-002  -2.4857927467229368E-002   3.0104951433917948E-002
  0.11171671402136835       -3.4186988297087328E-002  -4.7905660207381295E-004
  0.10851097040287838       -3.2650902724224551E-002  -2.8987969935215241E-004
  0.10530522678438844       -3.1391206310237299E-002   7.2820454851046934E-005
  0.10209948316589847       -3.0407899055126506E-002   6.0904386053572956E-004
   9.8893739547408543E-002  -2.9700980958891454E-002   1.3187905177021730E-003
  0.10521865997137977       -3.1854723089622894E-002   7.7173738438625072E-003
  0.10219646809306482       -3.0629777351818488E-002   7.5018959678216923E-003
   9.9174276214749904E-002  -2.9569595860423001E-002   7.4799983206495779E-003
   9.6152084336434962E-002  -2.8674178615436013E-002   7.6516809023457685E-003
   9.3129892458120089E-002  -2.7943525616857978E-002   8.0169437129106180E-003
   9.8526499356577632E-002  -2.9522457882158348E-002   1.5546851998506542E-002
   9.5707916195824722E-002  -2.8608651979412703E-002   1.5038344256170705E-002
   9.2889333035071714E-002  -2.7747985410608529E-002   1.4743473720090133E-002
   9.0070749874318762E-002  -2.6940458175745682E-002   1.4662240390265171E-002
   8.7252166713565837E-002  -2.6186070274824419E-002   1.4794644266695703E-002
   9.1640232176961919E-002  -2.7190192674693858E-002   2.3009377861858398E-002
   8.9045314711157897E-002  -2.6587526607006834E-002   2.2319465165694618E-002
   8.6450397245353916E-002  -2.5926374960793978E-002   2.1863246653173157E-002
   8.3855479779549907E-002  -2.5206737736055397E-002   2.1640722324294082E-002
   8.1260562313745899E-002  -2.4428614932790874E-002   2.1651892179057445E-002
   8.4559858432532636E-002  -2.4857927467229368E-002   3.0104951433917948E-002
   8.2208663639064539E-002  -2.4566401234600937E-002   2.9345258696393400E-002
   7.9857468845596413E-002  -2.4104764510979509E-002   2.8839317119898344E-002
   7.7506274052128288E-002  -2.3473017296365008E-002   2.8587126704432447E-002
   7.5155079258660218E-002  -2.2671159590757384E-002   2.8588687449996097E-002
   9.8893739547408543E-002  -2.9700980958891454E-002   1.3187905177021730E-003
   9.6134203605667712E-002  -2.9064099859378745E-002   1.2515119954020215E-003
   9.3374667663926825E-002  -2.8290903594434855E-002   1.1857560372475207E-003
   9.0615131722185965E-002  -2.7381392164059905E-002   1.1215226432381292E-003
   8.7855595780445106E-002  -2.6335565568253450E-002   1.0588118133741942E-003
   9.3129892458120089E-002  -2.7943525616857978E-002   8.0169437129106180E-003
   9.0394226168964198E-002  -2.7250834042610750E-002   7.9707119053733511E-003
   8.7658559879808390E-002  -2.6469301070617027E-002   7.9706968388609523E-003
   8.4922893590652526E-002  -2.5598926700876341E-002   8.0168985133730608E-003
   8.2187227301496746E-002  -2.4639710933389070E-002   8.1093169289098710E-003
   8.7252166713565837E-002  -2.6186070274824419E-002   1.4794644266695703E-002
   8.4585064253874354E-002  -2.5437568225842755E-002   1.4721985406236662E-002
   8.1917961794182800E-002  -2.4647698546798984E-002   1.4740237463681992E-002
   7.9250859334491303E-002  -2.3816461237693057E-002   1.4849400439030967E-002
   7.6583756874799763E-002  -2.2943856298524856E-002   1.5049474332284096E-002
   8.1260562313745899E-002  -2.4428614932790874E-002   2.1651892179057445E-002
   7.8706717860397984E-002  -2.3624302409074649E-002   2.1505332497992535E-002
   7.6152873407050015E-002  -2.2826096022980937E-002   2.1494377911710764E-002
   7.3599028953702114E-002  -2.2033995774509575E-002   2.1619028420212016E-002
   7.1045184500354158E-002  -2.1248001663660504E-002   2.1879284023496745E-002
   7.5155079258660218E-002  -2.2671159590757384E-002   2.8588687449996097E-002
   7.2759186988535146E-002  -2.1811036592306710E-002   2.8320753180640396E-002
   7.0363294718410074E-002  -2.1004493499162974E-002   2.8233118182947103E-002
   6.7967402448284989E-002  -2.0251530311326267E-002   2.8325782456916360E-002
   6.5571510178159931E-002  -1.9552147028796318E-002   2.8598746002548137E-002
   8.7855595780445106E-002  -2.6335565568253450E-002   1.0588118133741942E-003
   8.4606766098858643E-002  -2.5249566455000927E-002   7.1512176131988126E-004
   8.1357936417272181E-002  -2.4219537472288499E-002   5.9718661612895296E-004
   7.8109106735685746E-002  -2.3245478620115570E-002   7.0500637780174236E-004
   7.4860277054099256E-002  -2.2327389898482264E-002   1.0385810463385825E-003
   8.2187227301496746E-002  -2.4639710933389070E-002   8.1093169289098710E-003
   7.9161352515102174E-002  -2.3659371405944346E-002   7.7764429132490542E-003
   7.6135477728707573E-002  -2.2725625756331622E-002   7.6637237811083558E-003
   7.3109602942313001E-002  -2.1838473984550352E-002   7.7711595324878729E-003
   7.0083728155918401E-002  -2.0997916090601088E-002   8.0987501673868700E-003
   7.6583756874799763E-002  -2.2943856298524856E-002   1.5049474332284096E-002
   7.3775236960253315E-002  -2.2069176356887515E-002   1.4736792605724927E-002
   7.0966717045706798E-002  -2.1231714040374411E-002   1.4638665739342069E-002
   6.8158197131160364E-002  -2.0431469348985022E-002   1.4755093733135438E-002
   6.5349677216613861E-002  -1.9668442282719967E-002   1.5086076587105007E-002
   7.1045184500354158E-002  -2.1248001663660504E-002   2.1879284023496745E-002
   6.8448419434312097E-002  -2.0478981307830810E-002   2.1596170838747156E-002
   6.5851654368269966E-002  -1.9737802324417367E-002   2.1522012490829912E-002
   6.3254889302227904E-002  -1.9024464713419970E-002   2.1656808979745184E-002
   6.0658124236185787E-002  -1.8338968474838763E-002   2.2000560305493043E-002
   6.5571510178159931E-002  -1.9552147028796318E-002   2.8598746002548137E-002
   6.3180899937278545E-002  -1.8888786258774076E-002   2.8354577612315607E-002
   6.0790289696397048E-002  -1.8243890608460211E-002   2.8313764035571953E-002
   5.8399679455515593E-002  -1.7617460077854558E-002   2.8476305272317176E-002
   5.6009069214634166E-002  -1.7009494666957559E-002   2.8842201322550776E-002
   7.4860277054099256E-002  -2.2327389898482264E-002   1.0385810463385825E-003
   7.1439475423763554E-002  -2.1475279149571924E-002   6.2110919433444600E-004
   6.8018673793427964E-002  -2.0699154215567145E-002   8.0291731174264580E-004
   6.4597872163092318E-002  -1.9999015096469321E-002   1.5840053985642089E-003
   6.1177070532756672E-002  -1.9374861792276654E-002   2.9643734547984968E-003
   7.0083728155918401E-002  -2.0997916090601088E-002   8.0987501673868700E-003
   6.7195808057710082E-002  -2.0196758303989704E-002   7.6032817610984793E-003
   6.4307887959501792E-002  -1.9427806854221408E-002   7.5742964496515186E-003
   6.1419967861293459E-002  -1.8691061741297449E-002   8.0117942330465708E-003
   5.8532047763085127E-002  -1.7986522965216523E-002   8.9157751112830530E-003
   6.5349677216613861E-002  -1.9668442282719967E-002   1.5086076587105007E-002
   6.2861841775961672E-002  -1.8918237458407317E-002   1.4556391104594862E-002
   6.0374006335309510E-002  -1.8156459492875879E-002   1.4360391842355283E-002
   5.7886170894657335E-002  -1.7383108386125574E-002   1.4498078800386081E-002
   5.5398335454005160E-002  -1.6598184138156391E-002   1.4969451978687598E-002
   6.0658124236185787E-002  -1.8338968474838763E-002   2.2000560305493043E-002
   5.8437576578518516E-002  -1.7639716612825013E-002   2.1480437224823748E-002
   5.6217028920851224E-002  -1.6885112131529913E-002   2.1161203489853699E-002
   5.3996481263183974E-002  -1.6075155030953810E-002   2.1042859100582963E-002
   5.1775933605516654E-002  -1.5209845311096371E-002   2.1125404057011563E-002
   5.6009069214634166E-002  -1.7009494666957559E-002   2.8842201322550776E-002
   5.3923012465380560E-002  -1.6361195767242598E-002   2.8375420121784845E-002
   5.1836955716126926E-002  -1.5613764770184349E-002   2.7976731392146709E-002
   4.9750898966873333E-002  -1.4767201675781900E-002   2.7646135133636826E-002
   4.7664842217619741E-002  -1.3821506484036072E-002   2.7383631346255155E-002
   6.1177070532756672E-002  -1.9374861792276654E-002   2.9643734547984968E-003
   5.9867639324935773E-002  -1.8632948647526182E-002   3.3283256731179156E-003
   5.8558208117115040E-002  -1.7579530006753774E-002   2.3678685743676597E-003
   5.7248776909294280E-002  -1.6214605869958640E-002   8.3002158546979787E-005
   5.5939345701473409E-002  -1.4538176237141265E-002  -3.5262735743439855E-003
   5.8532047763085127E-002  -1.7986522965216523E-002   8.9157751112830530E-003
   5.6130266846018129E-002  -1.7202705482650904E-002   9.2742320209365792E-003
   5.3728485928951075E-002  -1.6228124250271647E-002   8.7723988291670829E-003
   5.1326705011884105E-002  -1.5062779268078835E-002   7.4102755359762296E-003
   4.8924924094816968E-002  -1.3706670536072441E-002   5.1878621413625758E-003
   5.5398335454005160E-002  -1.6598184138156391E-002   1.4969451978687598E-002
   5.2368324043339909E-002  -1.5772462317775349E-002   1.5201671833465324E-002
   4.9338312632674755E-002  -1.4876718493789770E-002   1.5037720802469429E-002
   4.6308301222009650E-002  -1.3910952666198816E-002   1.4477598885698717E-002
   4.3278289811344350E-002  -1.2875164835003394E-002   1.3521306083153939E-002
   5.1775933605516654E-002  -1.5209845311096371E-002   2.1125404057011563E-002
   4.8581810916901280E-002  -1.4342219152899932E-002   2.1110645110705401E-002
   4.5387688228285886E-002  -1.3525312737307879E-002   2.1163834494273198E-002
   4.2193565539670443E-002  -1.2759126064319126E-002   2.1284972207715035E-002
   3.8999442851055055E-002  -1.2043659133934459E-002   2.1474058251029826E-002
   4.7664842217619741E-002  -1.3821506484036072E-002   2.7383631346255155E-002
   4.4770727466702076E-002  -1.2911975988024849E-002   2.7001151852656391E-002
   4.1876612715784467E-002  -1.2173906980825724E-002   2.7150739904579307E-002
   3.8982497964866789E-002  -1.1607299462439397E-002   2.7832395502024085E-002
   3.6088383213949249E-002  -1.1212153432865524E-002   2.9046118644991070E-002
   9.0361231670581438E-002   0.0000000000000000        4.9835380611888205E-002
   9.3961782834157764E-002  -5.4016447423881403E-003   5.3209538761996425E-002
   9.7562333997734091E-002  -1.0668264925155335E-002   5.4965778136738863E-002
  0.10116288516131045       -1.5799860548301580E-002   5.5104098736115499E-002
  0.10476343632488677       -2.0796431611826878E-002   5.3624500560126347E-002
   8.2423510119745830E-002   0.0000000000000000        4.4787123821554892E-002
   8.4634953414853567E-002  -4.5726681158714481E-003   4.8269248620270738E-002
   8.6846396709961304E-002  -9.0359593465497937E-003   5.0591076457415195E-002
   8.9057840005069042E-002  -1.3389873692035033E-002   5.1752607332988268E-002
   9.1269283300176779E-002  -1.7634411152327160E-002   5.1753841246989916E-002
   7.4242743588213617E-002   0.0000000000000000        4.0580667494952191E-002
   7.5522700828647163E-002  -3.7436914893547581E-003   4.4145111267847828E-002
   7.6802658069080709E-002  -7.4036537679442547E-003   4.7006879892966473E-002
   7.8082615309514256E-002  -1.0979886835768485E-002   4.9165973370308098E-002
   7.9362572549947788E-002  -1.4472390692827460E-002   5.0622391699872767E-002
   6.5818932075984798E-002   0.0000000000000000        3.7216011632080111E-002
   6.6625025075538552E-002  -2.9147148628380672E-003   4.0837126704727694E-002
   6.7431118075092292E-002  -5.7713481893387122E-003   4.4213188443392663E-002
   6.8237211074646045E-002  -8.5698999795019368E-003   4.7344196848075039E-002
   6.9043304074199799E-002  -1.1310370233327748E-002   5.0230151918774807E-002
   5.7152075583059382E-002   0.0000000000000000        3.4693156232938643E-002
   5.7941926155527741E-002  -2.0857382363213750E-003   3.8345294930910309E-002
   5.8731776727996093E-002  -4.1390426107331731E-003   4.2210002108693787E-002
   5.9521627300464452E-002  -6.1599131232353901E-003   4.6287277766289069E-002
   6.0311477872932805E-002  -8.1483497738280408E-003   5.0577121903696155E-002
  0.10476343632488677       -2.0796431611826878E-002   5.3624500560126347E-002
  0.10211014467243276       -2.4941118055772239E-002   4.5642234507375111E-002
   9.9456853019978739E-002  -2.7517059820178678E-002   3.9346340154379503E-002
   9.6803561367524715E-002  -2.8524256905046227E-002   3.4736817501139335E-002
   9.4150269715070692E-002  -2.7962709310374853E-002   3.1813666547654745E-002
   9.1269283300176779E-002  -1.7634411152327160E-002   5.1753841246989916E-002
   9.0065286237345860E-002  -2.1212014595006962E-002   4.6518558273372562E-002
   8.8861289174514982E-002  -2.3565126887655108E-002   4.2495492779245969E-002
   8.7657292111684063E-002  -2.4693748030271696E-002   3.9684644764610054E-002
   8.6453295048853171E-002  -2.4597878022856651E-002   3.8086014229464830E-002
   7.9362572549947788E-002  -1.4472390692827460E-002   5.0622391699872767E-002
   7.9133715856475176E-002  -1.7482911134241653E-002   4.7789838275881950E-002
   7.8904859163002591E-002  -1.9613193955131541E-002   4.5695348111117078E-002
   7.8676002469529965E-002  -2.0863239155497135E-002   4.4338921205578058E-002
   7.8447145776057381E-002  -2.1233046735338455E-002   4.3720557559264933E-002
   6.9043304074199799E-002  -1.1310370233327748E-002   5.0230151918774807E-002
   6.9315433529820683E-002  -1.3753807673476347E-002   4.9456074514903282E-002
   6.9587562985441567E-002  -1.5661261022607981E-002   4.8945906149992786E-002
   6.9859692441062438E-002  -1.7032730280722597E-002   4.8699646824043451E-002
   7.0131821896683308E-002  -1.7868215447820242E-002   4.8717296537055060E-002
   6.0311477872932805E-002  -8.1483497738280408E-003   5.0577121903696155E-002
   6.0610439257382361E-002  -1.0024704212711051E-002   5.1517266990436524E-002
   6.0909400641831909E-002  -1.1709328090084400E-002   5.2247166895873172E-002
   6.1208362026281465E-002  -1.3202221405948030E-002   5.2766821620006073E-002
   6.1507323410731007E-002  -1.4503384160302057E-002   5.3076231162835177E-002
   9.4150269715070692E-002  -2.7962709310374853E-002   3.1813666547654745E-002
   9.1752666894436175E-002  -2.6759220494347653E-002   3.1249627643185909E-002
   8.9355064073801643E-002  -2.5840593915147658E-002   3.0776828822740181E-002
   8.6957461253167126E-002  -2.5206829572774887E-002   3.0395270086317424E-002
   8.4559858432532636E-002  -2.4857927467229368E-002   3.0104951433917948E-002
   8.6453295048853171E-002  -2.4597878022856651E-002   3.8086014229464830E-002
   8.4191460425215789E-002  -2.3947563597384536E-002   3.7057096556019464E-002
   8.1929625801578448E-002  -2.3412851485829909E-002   3.6208475192545303E-002
   7.9667791177941066E-002  -2.2993741688192737E-002   3.5540150139042347E-002
   7.7405956554303684E-002  -2.2690234204473053E-002   3.5052121395510588E-002
   7.8447145776057381E-002  -2.1233046735338455E-002   4.3720557559264933E-002
   7.6410135575365287E-002  -2.1135906700421456E-002   4.2396021039752804E-002
   7.4373125374673194E-002  -2.0985109056512179E-002   4.1340837056159957E-002
   7.2336115173981086E-002  -2.0780653803610612E-002   4.0555005608486461E-002
   7.0299104973288992E-002  -2.0522540941716738E-002   4.0038526696732357E-002
   7.0131821896683308E-002  -1.7868215447820242E-002   4.8717296537055060E-002
   6.8408692344884628E-002  -1.8324249803458377E-002   4.7266401094385888E-002
   6.6685562793085948E-002  -1.8557366627194451E-002   4.6173914413584149E-002
   6.4962433241287268E-002  -1.8567565919028462E-002   4.5439836494649936E-002
   6.3239303689488574E-002  -1.8354847678960451E-002   4.5064167337583193E-002
   6.1507323410731007E-002  -1.4503384160302057E-002   5.3076231162835177E-002
   6.0187130733773846E-002  -1.5512592906495266E-002   5.1668236719918742E-002
   5.8866938056816698E-002  -1.6129624197876700E-002   5.0707707264817874E-002
   5.7546745379859536E-002  -1.6354478034446313E-002   5.0194642797532635E-002
   5.6226552702902388E-002  -1.6187154416204094E-002   5.0129043318062935E-002
   8.4559858432532636E-002  -2.4857927467229368E-002   3.0104951433917948E-002
   8.2208663639064539E-002  -2.4566401234600937E-002   2.9345258696393400E-002
   7.9857468845596413E-002  -2.4104764510979509E-002   2.8839317119898344E-002
   7.7506274052128288E-002  -2.3473017296365008E-002   2.8587126704432447E-002
   7.5155079258660218E-002  -2.2671159590757384E-002   2.8588687449996097E-002
   7.7405956554303684E-002  -2.2690234204473053E-002   3.5052121395510588E-002
   7.5298180127890357E-002  -2.2382636392677097E-002   3.4476092891757376E-002
   7.3190403701477016E-002  -2.1951255610811037E-002   3.4133149961084172E-002
   7.1082627275063648E-002  -2.1396091858874908E-002   3.4023292603491233E-002
   6.8974850848650349E-002  -2.0717145136868703E-002   3.4146520818978399E-002
   7.0299104973288992E-002  -2.0522540941716738E-002   4.0038526696732357E-002
   6.8414081325981230E-002  -2.0198871550753214E-002   3.9599834905827240E-002
   6.6529057678673453E-002  -1.9797746710642591E-002   3.9373563100053119E-002
   6.4644034031365649E-002  -1.9319166421384818E-002   3.9359711279409938E-002
   6.2759010384057873E-002  -1.8763130682980023E-002   3.9558279443897698E-002
   6.3239303689488574E-002  -1.8354847678960451E-002   4.5064167337583193E-002
   6.1556367233337142E-002  -1.8015106708829325E-002   4.4716484738603277E-002
   5.9873430777185710E-002  -1.7644237810474077E-002   4.4560556536805171E-002
   5.8190494321034292E-002  -1.7242240983894819E-002   4.4596382732188945E-002
   5.6507557864882874E-002  -1.6809116229091287E-002   4.4823963324754294E-002
   5.6226552702902388E-002  -1.6187154416204094E-002   5.0129043318062935E-002
   5.4725037849958080E-002  -1.5831341866905421E-002   4.9826042390085382E-002
   5.3223522997013800E-002  -1.5490728910305670E-002   4.9694130271340405E-002
   5.1722008144069513E-002  -1.5165315546404656E-002   4.9733306961827872E-002
   5.0220493291125212E-002  -1.4855101775202662E-002   4.9943572461547847E-002
   7.5155079258660218E-002  -2.2671159590757384E-002   2.8588687449996097E-002
   7.2759186988535146E-002  -2.1811036592306710E-002   2.8320753180640396E-002
   7.0363294718410074E-002  -2.1004493499162974E-002   2.8233118182947103E-002
   6.7967402448284989E-002  -2.0251530311326267E-002   2.8325782456916360E-002
   6.5571510178159931E-002  -1.9552147028796318E-002   2.8598746002548137E-002
   6.8974850848650349E-002  -2.0717145136868703E-002   3.4146520818978399E-002
   6.6766127096537023E-002  -1.9989451963924973E-002   3.3809908754638324E-002
   6.4557403344423711E-002  -1.9288048859176142E-002   3.3667334454659151E-002
   6.2348679592310358E-002  -1.8612935822622419E-002   3.3718797919041005E-002
   6.0139955840197046E-002  -1.7964112854263525E-002   3.3964299147783955E-002
   6.2759010384057873E-002  -1.8763130682980023E-002   3.9558279443897698E-002
   6.0751193642654730E-002  -1.8167867335543153E-002   3.9180279421685317E-002
   5.8743376901251566E-002  -1.7571604219189338E-002   3.9010055656532303E-002
   5.6735560159848458E-002  -1.6974341333918539E-002   3.9047608148438585E-002
   5.4727743418445274E-002  -1.6376078679730760E-002   3.9292936897404512E-002
   5.6507557864882874E-002  -1.6809116229091287E-002   4.4823963324754294E-002
   5.4714386626888351E-002  -1.6346282707161347E-002   4.4431865181781417E-002
   5.2921215388893814E-002  -1.5855159579202464E-002   4.4261281788566337E-002
   5.1128044150899284E-002  -1.5335746845214675E-002   4.4312213145109115E-002
   4.9334872912904781E-002  -1.4788044505197953E-002   4.4584659251409822E-002
   5.0220493291125212E-002  -1.4855101775202662E-002   4.9943572461547847E-002
   4.8655706049237787E-002  -1.4524698078779624E-002   4.9564666034926624E-002
   4.7090918807350321E-002  -1.4138714939215646E-002   4.9421012850761503E-002
   4.5526131565462868E-002  -1.3697152356510894E-002   4.9512612909052817E-002
   4.3961344323575430E-002  -1.3200010330665202E-002   4.9839466209800287E-002
   6.5571510178159931E-002  -1.9552147028796318E-002   2.8598746002548137E-002
   6.3180899937278545E-002  -1.8888786258774076E-002   2.8354577612315607E-002
   6.0790289696397048E-002  -1.8243890608460211E-002   2.8313764035571953E-002
   5.8399679455515593E-002  -1.7617460077854558E-002   2.8476305272317176E-002
   5.6009069214634166E-002  -1.7009494666957559E-002   2.8842201322550776E-002
   6.0139955840197046E-002  -1.7964112854263525E-002   3.3964299147783955E-002
   5.7948245910861382E-002  -1.7335844280732787E-002   3.3718376251234777E-002
   5.5756535981525621E-002  -1.6722394428662662E-002   3.3666899164288860E-002
   5.3564826052189922E-002  -1.6123763298053741E-002   3.3809867886945282E-002
   5.1373116122854195E-002  -1.5539950888905585E-002   3.4147282419204728E-002
   5.4727743418445274E-002  -1.6376078679730760E-002   3.9292936897404512E-002
   5.2726024796769341E-002  -1.5782902302691290E-002   3.9048905892786354E-002
   5.0724306175093416E-002  -1.5200898248865224E-002   3.8990411693885230E-002
   4.8722587553417490E-002  -1.4630066518252702E-002   3.9117454300700821E-002
   4.6720868931741572E-002  -1.4070407110853722E-002   3.9430033713233073E-002
   4.9334872912904781E-002  -1.4788044505197953E-002   4.4584659251409822E-002
   4.7514236595002604E-002  -1.4229960324649842E-002   4.4346166536970322E-002
   4.5693600277100385E-002  -1.3679402069067814E-002   4.4284301624361574E-002
   4.3872963959198208E-002  -1.3136369738451829E-002   4.4399064513583539E-002
   4.2052327641295989E-002  -1.2600863332801832E-002   4.4690455204636215E-002
   4.3961344323575430E-002  -1.3200010330665202E-002   4.9839466209800287E-002
   4.2312881305560990E-002  -1.2677018346608504E-002   4.9610158183786529E-002
   4.0664418287546564E-002  -1.2157905889270265E-002   4.9548568955717742E-002
   3.9015955269532117E-002  -1.1642672958650797E-002   4.9654698525593427E-002
   3.7367492251517698E-002  -1.1131319554749941E-002   4.9928546893413916E-002
   5.6009069214634166E-002  -1.7009494666957559E-002   2.8842201322550776E-002
   5.3923012465380560E-002  -1.6361195767242598E-002   2.8375420121784845E-002
   5.1836955716126926E-002  -1.5613764770184349E-002   2.7976731392146709E-002
   4.9750898966873333E-002  -1.4767201675781900E-002   2.7646135133636826E-002
   4.7664842217619741E-002  -1.3821506484036072E-002   2.7383631346255155E-002
   5.1373116122854195E-002  -1.5539950888905585E-002   3.4147282419204728E-002
   4.9368645431751790E-002  -1.4926167267986956E-002   3.3764647327301778E-002
   4.7364174740649301E-002  -1.4237622502066172E-002   3.3477091880573018E-002
   4.5359704049546826E-002  -1.3474316591143343E-002   3.3284616079018434E-002
   4.3355233358444406E-002  -1.2636249535218469E-002   3.3187219922638123E-002
   4.6720868931741572E-002  -1.4070407110853722E-002   3.9430033713233073E-002
   4.4824971472836331E-002  -1.3491138768731259E-002   3.9107173777851667E-002
   4.2929074013931152E-002  -1.2861480233948210E-002   3.8906380661690630E-002
   4.1033176555025960E-002  -1.2181431506504673E-002   3.8827654364749914E-002
   3.9137279096120775E-002  -1.1450992586400782E-002   3.8870994887029622E-002
   4.2052327641295989E-002  -1.2600863332801832E-002   4.4690455204636215E-002
   4.0291990588634183E-002  -1.2056110269475534E-002   4.4402999473434929E-002
   3.8531653535972404E-002  -1.1485337965830251E-002   4.4264597735499726E-002
   3.6771316483310605E-002  -1.0888546421866058E-002   4.4275249990831385E-002
   3.5010979430648820E-002  -1.0265735637583082E-002   4.4434956239428974E-002
   3.7367492251517698E-002  -1.1131319554749941E-002   4.9928546893413916E-002
   3.5769702779145429E-002  -1.0621081770219892E-002   4.9652124414050869E-002
   3.4171913306773133E-002  -1.0109195697712209E-002   4.9551743102000279E-002
   3.2574123834400837E-002  -9.5956613372274804E-003   4.9627402957262534E-002
   3.0976334362028568E-002  -9.0804786887654365E-003   4.9879103979837025E-002
   4.7664842217619741E-002  -1.3821506484036072E-002   2.7383631346255155E-002
   4.4770727466702076E-002  -1.2911975988024849E-002   2.7001151852656391E-002
   4.1876612715784467E-002  -1.2173906980825724E-002   2.7150739904579307E-002
   3.8982497964866789E-002  -1.1607299462439397E-002   2.7832395502024085E-002
   3.6088383213949249E-002  -1.1212153432865524E-002   2.9046118644991070E-002
   4.3355233358444406E-002  -1.2636249535218469E-002   3.3187219922638123E-002
   4.0938534271338561E-002  -1.1818406609564541E-002   3.2698407697002774E-002
   3.8521835184232814E-002  -1.1115773089454772E-002   3.2632359253469412E-002
   3.6105136097126962E-002  -1.0528348974889218E-002   3.2989074592037718E-002
   3.3688437010021166E-002  -1.0056134265867822E-002   3.3768553712708038E-002
   3.9137279096120775E-002  -1.1450992586400782E-002   3.8870994887029622E-002
   3.7088691909406793E-002  -1.0724837231104456E-002   3.8332102012625990E-002
   3.5040104722692832E-002  -1.0057639198083869E-002   3.8106669156904381E-002
   3.2991517535978940E-002  -9.4493984873389256E-003   3.8194696319864649E-002
   3.0942930349264874E-002  -8.9001150988698985E-003   3.8596183501506676E-002
   3.5010979430648820E-002  -1.0265735637583082E-002   4.4434956239428974E-002
   3.3221200380906785E-002  -9.6312678526443152E-003   4.3902234799525874E-002
   3.1431421331164777E-002  -8.9995053067127746E-003   4.3573669614884493E-002
   2.9641642281422700E-002  -8.3704479997888000E-003   4.3449260685504892E-002
   2.7851863231680742E-002  -7.7440959318721414E-003   4.3529008011387538E-002
   3.0976334362028568E-002  -9.0804786887654365E-003   4.9879103979837025E-002
   2.9336059685838495E-002  -8.5376984741839523E-003   4.9408806057702370E-002
   2.7695785009648435E-002  -7.9413714153421106E-003   4.9033360627409400E-002
   2.6055510333458327E-002  -7.2914975122385338E-003   4.8752767688958490E-002
   2.4415235657268275E-002  -6.5880767648742733E-003   4.8567027242349958E-002
   5.7152075583059382E-002   0.0000000000000000        3.4693156232938643E-002
   5.7941926155527741E-002  -2.0857382363213750E-003   3.8345294930910309E-002
   5.8731776727996093E-002  -4.1390426107331731E-003   4.2210002108693787E-002
   5.9521627300464452E-002  -6.1599131232353901E-003   4.6287277766289069E-002
   6.0311477872932805E-002  -8.1483497738280408E-003   5.0577121903696155E-002
   4.8653374388854267E-002   0.0000000000000000        3.2790139324132897E-002
   4.9590828495646194E-002  -1.7105088246205337E-003   3.6966455411423134E-002
   5.0528282602438121E-002  -3.4338779978114638E-003   4.1225410087548701E-002
   5.1465736709230062E-002  -5.1701075195727947E-003   4.5567003352509593E-002
   5.2403190816021981E-002  -6.9191973899045290E-003   4.9991235206305835E-002
   4.0734028772786382E-002   0.0000000000000000        3.1284998932267979E-002
   4.1689156522925409E-002  -1.3352794129196928E-003   3.5940198198396819E-002
   4.2644284273064430E-002  -2.7287133848897570E-003   4.0548106162384509E-002
   4.3599412023203436E-002  -4.1803019159101958E-003   4.5108722824231069E-002
   4.4554539773342471E-002  -5.6900450059810077E-003   4.9622048183936472E-002
   3.3394038734855726E-002   0.0000000000000000        3.0177735057343887E-002
   3.4236910237365366E-002  -9.6005000121885038E-004   3.5266523291831352E-002
   3.5079781739874999E-002  -2.0235487719680481E-003   4.0178090333201182E-002
   3.5922653242384646E-002  -3.1904963122475977E-003   4.4912436181453415E-002
   3.6765524744894272E-002  -4.4608926220574916E-003   4.9469560836588017E-002
   2.6633404275062292E-002   0.0000000000000000        2.9468347699360624E-002
   2.7234089638966071E-002  -5.8482058951801058E-004   3.4945430691726745E-002
   2.7834775002869842E-002  -1.3183841590463409E-003   4.0115362599998761E-002
   2.8435460366773618E-002  -2.2006907085849996E-003   4.4978143424176685E-002
   2.9036145730677396E-002  -3.2317402381339781E-003   4.9533773164260511E-002
   6.0311477872932805E-002  -8.1483497738280408E-003   5.0577121903696155E-002
   6.0610439257382361E-002  -1.0024704212711051E-002   5.1517266990436524E-002
   6.0909400641831909E-002  -1.1709328090084400E-002   5.2247166895873172E-002
   6.1208362026281465E-002  -1.3202221405948030E-002   5.2766821620006073E-002
   6.1507323410731007E-002  -1.4503384160302057E-002   5.3076231162835177E-002
   5.2403190816021981E-002  -6.9191973899045290E-003   4.9991235206305835E-002
   5.2530385167416892E-002  -8.5813135373514222E-003   5.1218763633451507E-002
   5.2657579518811809E-002  -1.0056621890458240E-002   5.2313003175791635E-002
   5.2784773870206719E-002  -1.1345122449224984E-002   5.3273953833326226E-002
   5.2911968221601616E-002  -1.2446815213651680E-002   5.4101615606055302E-002
   4.4554539773342471E-002  -5.6900450059810077E-003   4.9622048183936472E-002
   4.4586923388180932E-002  -7.1379228619917736E-003   5.1132037184317809E-002
   4.4619307003019422E-002  -8.4039156908320822E-003   5.2585693596391828E-002
   4.4651690617857891E-002  -9.4880234925019159E-003   5.3983017420158513E-002
   4.4684074232696373E-002  -1.0390246267001302E-002   5.5324008655617846E-002
   3.6765524744894272E-002  -4.4608926220574916E-003   4.9469560836588017E-002
   3.6780053919674517E-002  -5.6945321866321355E-003   5.1257087643035458E-002
   3.6794583094454755E-002  -6.7512094912059303E-003   5.3065238157673750E-002
   3.6809112269235000E-002  -7.6309245357788404E-003   5.4894012380502892E-002
   3.6823641444015218E-002  -8.3336773203509171E-003   5.6743410311522920E-002
   2.9036145730677396E-002  -3.2317402381339781E-003   4.9533773164260511E-002
   2.9109776761897604E-002  -4.2511415112724844E-003   5.1593915009604384E-002
   2.9183407793117809E-002  -5.0985032915797654E-003   5.3751636859637360E-002
   2.9257038824338017E-002  -5.7738255790557788E-003   5.6006938714359404E-002
   2.9330669855558225E-002  -6.2771083737005601E-003   5.8359820573770482E-002
   6.1507323410731007E-002  -1.4503384160302057E-002   5.3076231162835177E-002
   6.0187130733773846E-002  -1.5512592906495266E-002   5.1668236719918742E-002
   5.8866938056816698E-002  -1.6129624197876700E-002   5.0707707264817874E-002
   5.7546745379859536E-002  -1.6354478034446313E-002   5.0194642797532635E-002
   5.6226552702902388E-002  -1.6187154416204094E-002   5.0129043318062935E-002
   5.2911968221601616E-002  -1.2446815213651680E-002   5.4101615606055302E-002
   5.1988027703185349E-002  -1.3300261139208222E-002   5.3360801203194211E-002
   5.1064087184769104E-002  -1.3844021181364550E-002   5.2965026129599468E-002
   5.0140146666352844E-002  -1.4078095340120701E-002   5.2914290385270790E-002
   4.9216206147936585E-002  -1.4002483615476666E-002   5.3208593970208287E-002
   4.4684074232696373E-002  -1.0390246267001302E-002   5.5324008655617846E-002
   4.4053960214271597E-002  -1.1087929371921133E-002   5.5167882721400635E-002
   4.3423846195846827E-002  -1.1558418164852398E-002   5.5254370457900215E-002
   4.2793732177422050E-002  -1.1801712645795090E-002   5.5583471865116571E-002
   4.2163618158997267E-002  -1.1817812814749189E-002   5.6155186943049731E-002
   3.6823641444015218E-002  -8.3336773203509171E-003   5.6743410311522920E-002
   3.6384928267032546E-002  -8.8755976046340588E-003   5.7089481274537938E-002
   3.5946215090049874E-002  -9.2728151483402674E-003   5.7575740249720259E-002
   3.5507501913067181E-002  -9.5253299514694925E-003   5.8202187237070047E-002
   3.5068788736084509E-002  -9.6331420140216943E-003   5.8968822236587171E-002
   2.9330669855558225E-002  -6.2771083737005601E-003   5.8359820573770482E-002
   2.8980931861468228E-002  -6.6632658373470058E-003   5.9125596862606072E-002
   2.8631193867378231E-002  -6.9872121318281001E-003   5.9929135505059621E-002
   2.8281455873288234E-002  -7.2489472571438682E-003   6.0770436501131189E-002
   2.7931717879198237E-002  -7.4484712132942554E-003   6.1649499850820688E-002
   5.6226552702902388E-002  -1.6187154416204094E-002   5.0129043318062935E-002
   5.4725037849958080E-002  -1.5831341866905421E-002   4.9826042390085382E-002
   5.3223522997013800E-002  -1.5490728910305670E-002   4.9694130271340405E-002
   5.1722008144069513E-002  -1.5165315546404656E-002   4.9733306961827872E-002
   5.0220493291125212E-002  -1.4855101775202662E-002   4.9943572461547847E-002
   4.9216206147936585E-002  -1.4002483615476666E-002   5.3208593970208287E-002
   4.7892418371180315E-002  -1.3765978677935199E-002   5.2868440350060601E-002
   4.6568630594424079E-002  -1.3517373197999307E-002   5.2712652073056386E-002
   4.5244842817667809E-002  -1.3256667175668882E-002   5.2741229139195683E-002
   4.3921055040911552E-002  -1.2983860610943948E-002   5.2954171548478562E-002
   4.2163618158997267E-002  -1.1817812814749189E-002   5.6155186943049731E-002
   4.1030833992340053E-002  -1.1700615488965026E-002   5.5805180765825274E-002
   3.9898049825682819E-002  -1.1544017485693002E-002   5.5652816465655230E-002
   3.8765265659025577E-002  -1.1348018804933080E-002   5.5698094042539809E-002
   3.7632481492368378E-002  -1.1112619446685262E-002   5.5941013496478870E-002
   3.5068788736084509E-002  -9.6331420140216943E-003   5.8968822236587171E-002
   3.4140284713437302E-002  -9.6352522999948280E-003   5.8636263637379241E-002
   3.3211780690790088E-002  -9.5706617733866961E-003   5.8514623449136861E-002
   3.2283276668142874E-002  -9.4393704341972917E-003   5.8603901671859977E-002
   3.1354772645495660E-002  -9.2413782824265905E-003   5.8904098305548616E-002
   2.7931717879198237E-002  -7.4484712132942554E-003   6.1649499850820688E-002
   2.7220770534472041E-002  -7.5698891110246372E-003   6.1361688964722771E-002
   2.6509823189745839E-002  -7.5973060610803056E-003   6.1298073023501320E-002
   2.5798875845019654E-002  -7.5307220634614827E-003   6.1458652027156349E-002
   2.5087928500293455E-002  -7.3701371181678910E-003   6.1843425975687955E-002
   5.0220493291125212E-002  -1.4855101775202662E-002   4.9943572461547847E-002
   4.8655706049237787E-002  -1.4524698078779624E-002   4.9564666034926624E-002
   4.7090918807350321E-002  -1.4138714939215646E-002   4.9421012850761503E-002
   4.5526131565462868E-002  -1.3697152356510894E-002   4.9512612909052817E-002
   4.3961344323575430E-002  -1.3200010330665202E-002   4.9839466209800287E-002
   4.3921055040911552E-002  -1.2983860610943948E-002   5.2954171548478562E-002
   4.2581996109644964E-002  -1.2684159341040280E-002   5.2625239047244254E-002
   4.1242937178378375E-002  -1.2342769203173537E-002   5.2512509924795253E-002
   3.9903878247111779E-002  -1.1959690197343879E-002   5.2615984181131829E-002
   3.8564819315845197E-002  -1.1534922323551217E-002   5.2935661816253671E-002
   3.7632481492368378E-002  -1.1112619446685262E-002   5.5941013496478870E-002
   3.6500101008051788E-002  -1.0843620603300977E-002   5.5648164345453541E-002
   3.5367720523735199E-002  -1.0546823467131455E-002   5.5552468709542918E-002
   3.4235340039418596E-002  -1.0222228038176948E-002   5.5653926588746822E-002
   3.3102959555102056E-002  -9.8698343164371760E-003   5.5952537983065362E-002
   3.1354772645495660E-002  -9.2413782824265905E-003   5.8904098305548616E-002
   3.0410020744458231E-002  -9.0030818655615699E-003   5.8633441929554588E-002
   2.9465268843420794E-002  -8.7508777310893876E-003   5.8540889205004415E-002
   2.8520516942383362E-002  -8.4847658790099187E-003   5.8626440131897793E-002
   2.7575765041345929E-002  -8.2047463093231909E-003   5.8890094710234979E-002
   2.5087928500293455E-002  -7.3701371181678910E-003   6.1843425975687955E-002
   2.4311755318864314E-002  -7.1625431278223434E-003   6.1581071799547332E-002
   2.3535582137435174E-002  -6.9549319950473129E-003   6.1477771411179646E-002
   2.2759408956006043E-002  -6.7473037198430268E-003   6.1533524810584807E-002
   2.1983235774576892E-002  -6.5396583022091503E-003   6.1748331997762806E-002
   4.3961344323575430E-002  -1.3200010330665202E-002   4.9839466209800287E-002
   4.2312881305560990E-002  -1.2677018346608504E-002   4.9610158183786529E-002
   4.0664418287546564E-002  -1.2157905889270265E-002   4.9548568955717742E-002
   3.9015955269532117E-002  -1.1642672958650797E-002   4.9654698525593427E-002
   3.7367492251517698E-002  -1.1131319554749941E-002   4.9928546893413916E-002
   3.8564819315845197E-002  -1.1534922323551217E-002   5.2935661816253671E-002
   3.7092814525483339E-002  -1.1087974072644918E-002   5.2649154646707635E-002
   3.5620809735121446E-002  -1.0638353935474708E-002   5.2547845134521876E-002
   3.4148804944759567E-002  -1.0186061912040514E-002   5.2631733279696488E-002
   3.2676800154397695E-002  -9.7310980023423421E-003   5.2900819082231515E-002
   3.3102959555102056E-002  -9.8698343164371760E-003   5.5952537983065362E-002
   3.1824891851808354E-002  -9.4989297986814991E-003   5.5615383082969407E-002
   3.0546824148514663E-002  -9.1188019816793170E-003   5.5480904699649544E-002
   2.9268756445220957E-002  -8.7294508654302862E-003   5.5549102833105664E-002
   2.7990688741927297E-002  -8.3308764499346044E-003   5.5819977483337668E-002
   2.7575765041345929E-002  -8.2047463093231909E-003   5.8890094710234979E-002
   2.6509113284536062E-002  -7.9098855247180522E-003   5.8508843492571939E-002
   2.5442461527726182E-002  -7.5992500278837596E-003   5.8347747651100512E-002
   2.4375809770916308E-002  -7.2728398188200306E-003   5.8406807185820794E-002
   2.3309158014106438E-002  -6.9306548975269083E-003   5.8686022096732578E-002
   2.1983235774576892E-002  -6.5396583022091503E-003   6.1748331997762806E-002
   2.1145478823666450E-002  -6.3208412507545220E-003   6.1329535875515262E-002
   2.0307721872756028E-002  -6.0796980740883272E-003   6.1148373988875071E-002
   1.9469964921845582E-002  -5.8162287722096535E-003   6.1204846337842136E-002
   1.8632207970935163E-002  -5.5304333451192678E-003   6.1498952922416417E-002
   3.7367492251517698E-002  -1.1131319554749941E-002   4.9928546893413916E-002
   3.5769702779145429E-002  -1.0621081770219892E-002   4.9652124414050869E-002
   3.4171913306773133E-002  -1.0109195697712209E-002   4.9551743102000279E-002
   3.2574123834400837E-002  -9.5956613372274804E-003   4.9627402957262534E-002
   3.0976334362028568E-002  -9.0804786887654365E-003   4.9879103979837025E-002
   3.2676800154397695E-002  -9.7310980023423421E-003   5.2900819082231515E-002
   3.1260579369179517E-002  -9.2743785557790059E-003   5.2635748545081129E-002
   2.9844358583961311E-002  -8.8168199217498744E-003   5.2557774214926203E-002
   2.8428137798743119E-002  -8.3584221002544756E-003   5.2666896091766995E-002
   2.7011917013524914E-002  -7.8991850912933925E-003   5.2963114175603176E-002
   2.7990688741927297E-002  -8.3308764499346044E-003   5.5819977483337668E-002
   2.6767091683546171E-002  -7.9276753413383000E-003   5.5565449787888632E-002
   2.5543494625165010E-002  -7.5244441457872485E-003   5.5509073339118101E-002
   2.4319897566783880E-002  -7.1211828632816894E-003   5.5650848137025997E-002
   2.3096300508402758E-002  -6.7178914938213763E-003   5.5990774181612649E-002
   2.3309158014106438E-002  -6.9306548975269083E-003   5.8686022096732578E-002
   2.2289239722245339E-002  -6.5809721268975871E-003   5.8441228142473656E-002
   2.1269321430384236E-002  -6.2320683698248794E-003   5.8405640474576082E-002
   2.0249403138523123E-002  -5.8839436263087939E-003   5.8579259093040133E-002
   1.9229484846662037E-002  -5.5365978963494572E-003   5.8962083997865705E-002
   1.8632207970935163E-002  -5.5304333451192678E-003   6.1498952922416417E-002
   1.7827023485277052E-002  -5.2342689124567632E-003   6.1263083608836033E-002
   1.7021838999618961E-002  -4.9396925938623576E-003   6.1247475621300118E-002
   1.6216654513960867E-002  -4.6467043893358047E-003   6.1452128959808852E-002
   1.5411470028302787E-002  -4.3553042988773716E-003   6.1877043624361916E-002
   3.0976334362028568E-002  -9.0804786887654365E-003   4.9879103979837025E-002
   2.9336059685838495E-002  -8.5376984741839523E-003   4.9408806057702370E-002
   2.7695785009648435E-002  -7.9413714153421106E-003   4.9033360627409400E-002
   2.6055510333458327E-002  -7.2914975122385338E-003   4.8752767688958490E-002
   2.4415235657268275E-002  -6.5880767648742733E-003   4.8567027242349958E-002
   2.7011917013524914E-002  -7.8991850912933925E-003   5.2963114175603176E-002
   2.5486833758505745E-002  -7.4182429337372180E-003   5.2610015003171251E-002
   2.3961750503486569E-002  -6.8947296664568364E-003   5.2392446181239394E-002
   2.2436667248467369E-002  -6.3286452894522789E-003   5.2310407709807230E-002
   2.0911583993448224E-002  -5.7199898027234797E-003   5.2363899588874774E-002
   2.3096300508402758E-002  -6.7178914938213763E-003   5.5990774181612649E-002
   2.1727086533212314E-002  -6.2987873932900951E-003   5.5743898024346886E-002
   2.0357872558021840E-002  -5.8480879175717912E-003   5.5673230076238901E-002
   1.8988658582831358E-002  -5.3657930666659980E-003   5.5778770337288508E-002
   1.7619444607640949E-002  -4.8519028405727971E-003   5.6060518807495741E-002
   1.9229484846662037E-002  -5.5365978963494572E-003   5.8962083997865705E-002
   1.8056818009958175E-002  -5.1793318528430554E-003   5.8810455121229260E-002
   1.6884151173254282E-002  -4.8014461686866870E-003   5.8875712312408221E-002
   1.5711484336550369E-002  -4.4029408438795636E-003   5.9157855571402761E-002
   1.4538817499846528E-002  -3.9838158784220590E-003   5.9656884898212553E-002
   1.5411470028302787E-002  -4.3553042988773716E-003   6.1877043624361916E-002
   1.4476028188743328E-002  -4.0598763123960713E-003   6.1809686293817723E-002
   1.3540586349183856E-002  -3.7548044198016522E-003   6.1999892889747193E-002
   1.2605144509624362E-002  -3.4400886210933686E-003   6.2447663412149648E-002
   1.1669702670064896E-002  -3.1157289162713209E-003   6.3152997861025462E-002
   2.6633404275062292E-002   0.0000000000000000        2.9468347699360624E-002
   2.7234089638966071E-002  -5.8482058951801058E-004   3.4945430691726745E-002
   2.7834775002869842E-002  -1.3183841590463409E-003   4.0115362599998761E-002
   2.8435460366773618E-002  -2.2006907085849996E-003   4.4978143424176685E-002
   2.9036145730677396E-002  -3.2317402381339781E-003   4.9533773164260511E-002
   2.0115599005165505E-002   0.0000000000000000        2.9021704736943162E-002
   2.0448378220861183E-002  -4.3861544280619693E-004   3.4314185359362065E-002
   2.0781157436556862E-002  -9.8878812058062794E-004   3.9378004769458873E-002
   2.1113936652252543E-002  -1.6505180333232922E-003   4.4213162967233585E-002
   2.1446715867948218E-002  -2.4238051810341844E-003   4.8819659952686237E-002
   1.3504096536924779E-002   0.0000000000000000        2.8702674048716466E-002
   1.3647459476184367E-002  -2.9241029609438415E-004   3.3847738046230244E-002
   1.3790822415443958E-002  -6.5919208211491151E-004   3.8842630703193951E-002
   1.3934185354703549E-002  -1.1003453580615821E-003   4.3687352019607557E-002
   1.4077548293963137E-002  -1.6158701239343907E-003   4.8381901995471079E-002
   6.7988968703401164E-003   0.0000000000000000        2.8511255634680537E-002
   6.8313334049356226E-003  -1.4620514938256963E-004   3.3546088752331303E-002
   6.8637699395311270E-003  -3.2959604364919334E-004   3.8509240401203966E-002
   6.8962064741266349E-003  -5.5017268279987331E-004   4.3400710581298546E-002
   6.9286430087221393E-003  -8.0793506683459696E-004   4.8220499292615071E-002
   5.4115184555669771E-012   0.0000000000000000        2.8447449494835374E-002
   7.1149466526754246E-012  -2.6707585795704425E-012   3.3409237477665193E-002
   8.8183752834647411E-012  -5.1834821157559219E-012   3.8377833863488933E-002
   1.0521804564775361E-011  -7.5381645370242722E-012   4.3353238652306593E-002
   1.2225232978724243E-011  -9.7348041086520176E-012   4.8335451844118180E-002
   2.9036145730677396E-002  -3.2317402381339781E-003   4.9533773164260511E-002
   2.9109776761897604E-002  -4.2511415112724844E-003   5.1593915009604384E-002
   2.9183407793117809E-002  -5.0985032915797654E-003   5.3751636859637360E-002
   2.9257038824338017E-002  -5.7738255790557788E-003   5.6006938714359404E-002
   2.9330669855558225E-002  -6.2771083737005601E-003   5.8359820573770482E-002
   2.1446715867948218E-002  -2.4238051810341844E-003   4.8819659952686237E-002
   2.1588929963346461E-002  -3.1883561363685357E-003   5.1221601702539483E-002
   2.1731144058744701E-002  -3.8238774719815483E-003   5.3663129576059697E-002
   2.1873358154142951E-002  -4.3303691878732627E-003   5.6144243573246967E-002
   2.2015572249541183E-002  -4.7078312840436592E-003   5.8664943694101170E-002
   1.4077548293963137E-002  -1.6158701239343907E-003   4.8381901995471079E-002
   1.4230351572517346E-002  -2.1255707614645800E-003   5.1082633776723757E-002
   1.4383154851071550E-002  -2.5492516523833585E-003   5.3764957800621335E-002
   1.4535958129625758E-002  -2.8869127966907500E-003   5.6428874067163848E-002
   1.4688761408179967E-002  -3.1385541943867376E-003   5.9074382576351309E-002
   6.9286430087221393E-003  -8.0793506683459696E-004   4.8220499292615071E-002
   7.0340415894102450E-003  -1.0627853865606070E-003   5.1177011232157218E-002
   7.1394401700983524E-003  -1.2746258327851654E-003   5.4057121533322219E-002
   7.2448387507864625E-003  -1.4434564055082390E-003   5.6860830196110108E-002
   7.3502373314745682E-003  -1.5692771047298264E-003   5.9588137220520865E-002
   1.2225232978724243E-011  -9.7348041086520176E-012   4.8335451844118180E-002
   1.4025172516418660E-011  -1.1656663481685037E-011   5.1504734068839909E-002
   1.5825109885708732E-011  -1.3186956951752316E-011   5.4539620774162412E-002
   1.7625047038158370E-011  -1.4325725989586952E-011   5.7440111960085735E-002
   1.9424987660054960E-011  -1.5072929016035630E-011   6.0206207626609831E-002
   2.9330669855558225E-002  -6.2771083737005601E-003   5.8359820573770482E-002
   2.8980931861468228E-002  -6.6632658373470058E-003   5.9125596862606072E-002
   2.8631193867378231E-002  -6.9872121318281001E-003   5.9929135505059621E-002
   2.8281455873288234E-002  -7.2489472571438682E-003   6.0770436501131189E-002
   2.7931717879198237E-002  -7.4484712132942554E-003   6.1649499850820688E-002
   2.2015572249541183E-002  -4.7078312840436592E-003   5.8664943694101170E-002
   2.1716014645421115E-002  -4.9974493819866447E-003   5.9485859556893901E-002
   2.1416457041301049E-002  -5.2404091031962481E-003   6.0369373846008545E-002
   2.1116899437180984E-002  -5.4367104476724529E-003   6.1315486561444990E-002
   2.0817341833060908E-002  -5.5863534154152183E-003   6.2324197703203389E-002
   1.4688761408179967E-002  -3.1385541943867376E-003   5.9074382576351309E-002
   1.4464220266733715E-002  -3.3316329266262941E-003   5.9934885220669254E-002
   1.4239679125287471E-002  -3.4936060745643944E-003   6.0882822364012934E-002
   1.4015137983841228E-002  -3.6244736382010372E-003   6.1918194006382377E-002
   1.3790596842394982E-002  -3.7242356175362229E-003   6.3041000147777665E-002
   7.3502373314745682E-003  -1.5692771047298264E-003   5.9588137220520865E-002
   7.2255487254060330E-003  -1.6658164712659383E-003   6.0472673853932013E-002
   7.1008601193374970E-003  -1.7468030459325346E-003   6.1469481059072864E-002
   6.9761715132689618E-003  -1.8122368287296217E-003   6.2578558835943363E-002
   6.8514829072004275E-003  -1.8621178196571928E-003   6.3799907184543508E-002
   1.9424987660054960E-011  -1.5072929016035630E-011   6.0206207626609831E-002
   2.1438055324007887E-011  -1.5905578937269738E-011   6.1099225456682296E-002
   2.3451125590046029E-011  -1.7300650495544190E-011   6.2129349931188328E-002
   2.5464197590807647E-011  -1.9258196599925004E-011   6.3296581050127920E-002
   2.7477263520037098E-011  -2.1778190362198302E-011   6.4600918813501024E-002
   2.7931717879198237E-002  -7.4484712132942554E-003   6.1649499850820688E-002
   2.7220770534472041E-002  -7.5698891110246372E-003   6.1361688964722771E-002
   2.6509823189745839E-002  -7.5973060610803056E-003   6.1298073023501320E-002
   2.5798875845019654E-002  -7.5307220634614827E-003   6.1458652027156349E-002
   2.5087928500293455E-002  -7.3701371181678910E-003   6.1843425975687955E-002
   2.0817341833060908E-002  -5.5863534154152183E-003   6.2324197703203389E-002
   2.0318974906238262E-002  -5.6774168392794561E-003   6.2194654174952971E-002
   1.9820607979415608E-002  -5.6979795521199736E-003   6.2266076537633178E-002
   1.9322241052592951E-002  -5.6480415539368594E-003   6.2538464791243961E-002
   1.8823874125770294E-002  -5.5276028447301673E-003   6.3011818935785183E-002
   1.3790596842394982E-002  -3.7242356175362229E-003   6.3041000147777665E-002
   1.3481581279529916E-002  -3.7849445675343409E-003   6.3046223740723883E-002
   1.3172565716664855E-002  -3.7986530431596693E-003   6.3229184170654679E-002
   1.2863550153799794E-002  -3.7653610444124026E-003   6.3589881437570134E-002
   1.2554534590934727E-002  -3.6850685712923742E-003   6.4128315541470166E-002
   6.8514829072004275E-003  -1.8621178196571928E-003   6.3799907184543508E-002
   6.7085896543470106E-003  -1.8924722957892066E-003   6.3916397662035357E-002
   6.5656964014935981E-003  -1.8993265341994206E-003   6.4187395922565893E-002
   6.4228031486401813E-003  -1.8826805348878626E-003   6.4612901966135089E-002
   6.2799098957867618E-003  -1.8425342978545603E-003   6.5192915792743000E-002
   2.7477263520037098E-011  -2.1778190362198302E-011   6.4600918813501024E-002
   3.0689548125018007E-011  -2.4044030655367976E-011   6.4805175938887530E-002
   3.3901829260551963E-011  -2.5238991452347648E-011   6.5140711793366793E-002
   3.7114111263447658E-011  -2.5363339900552617E-011   6.5607526376938757E-002
   4.0326395001066828E-011  -2.4416857424824912E-011   6.6205619689603507E-002
   2.5087928500293455E-002  -7.3701371181678910E-003   6.1843425975687955E-002
   2.4311755318864314E-002  -7.1625431278223434E-003   6.1581071799547332E-002
   2.3535582137435174E-002  -6.9549319950473129E-003   6.1477771411179646E-002
   2.2759408956006043E-002  -6.7473037198430268E-003   6.1533524810584807E-002
   2.1983235774576892E-002  -6.5396583022091503E-003   6.1748331997762806E-002
   1.8823874125770294E-002  -5.5276028447301673E-003   6.3011818935785183E-002
   1.8215502109193447E-002  -5.3719073514907623E-003   6.2752941976147142E-002
   1.7607130092616611E-002  -5.2161990012098633E-003   6.2670613558440780E-002
   1.6998758076039767E-002  -5.0604777938876074E-003   6.2764833682666013E-002
   1.6390386059462907E-002  -4.9047437295237639E-003   6.3035602348823189E-002
   1.2554534590934727E-002  -3.6850685712923742E-003   6.4128315541470166E-002
   1.2131458493369059E-002  -3.5812715751592020E-003   6.3872911512946634E-002
   1.1708382395803381E-002  -3.4774660073724449E-003   6.3811550780513662E-002
   1.1285306298237704E-002  -3.3736518679322166E-003   6.3944233344171389E-002
   1.0862230200672032E-002  -3.2698291568383220E-003   6.4270959203919550E-002
   6.2799098957867618E-003  -1.8425342978545603E-003   6.5192915792743000E-002
   6.0596244713911271E-003  -1.7906357988276729E-003   6.4940980409946003E-002
   5.8393390469954846E-003  -1.7387330135350387E-003   6.4900583077398585E-002
   5.6190536225998481E-003  -1.6868259419768393E-003   6.5071723795100608E-002
   5.3987681982042004E-003  -1.6349145841529078E-003   6.5454402563052072E-002
   4.0326395001066828E-011  -2.4416857424824912E-011   6.6205619689603507E-002
   4.3259659743277723E-011  -2.2496074447708736E-011   6.5957148667145277E-002
   4.6192933159105998E-011  -1.9697590780687335E-011   6.5937710449095438E-002
   4.9126203105487320E-011  -1.6021507037722316E-011   6.6147305035453852E-002
   5.2059471317145167E-011  -1.1467493621353242E-011   6.6585932426220684E-002
   2.1983235774576892E-002  -6.5396583022091503E-003   6.1748331997762806E-002
   2.1145478823666450E-002  -6.3208412507545220E-003   6.1329535875515262E-002
   2.0307721872756028E-002  -6.0796980740883272E-003   6.1148373988875071E-002
   1.9469964921845582E-002  -5.8162287722096535E-003   6.1204846337842136E-002
   1.8632207970935163E-002  -5.5304333451192678E-003   6.1498952922416417E-002
   1.6390386059462907E-002  -4.9047437295237639E-003   6.3035602348823189E-002
   1.5783214593960475E-002  -4.7406309385116391E-003   6.2693986693433082E-002
   1.5176043128458040E-002  -4.5597735512445114E-003   6.2575907773251685E-002
   1.4568871662955609E-002  -4.3621715677221382E-003   6.2681365588279192E-002
   1.3961700197453158E-002  -4.1478249879447482E-003   6.3010360138515131E-002
   1.0862230200672032E-002  -3.2698291568383220E-003   6.4270959203919550E-002
   1.0471546720179078E-002  -3.1604206262686035E-003   6.4000942486429985E-002
   1.0080863239686133E-002  -3.0398490284006333E-003   6.3940365003750610E-002
   9.6901797591931842E-003  -2.9081143632345655E-003   6.4089226755881537E-002
   9.2994962787002373E-003  -2.7652166307701731E-003   6.4447527742822711E-002
   5.3987681982042004E-003  -1.6349145841529078E-003   6.5454402563052072E-002
   5.2104752023222492E-003  -1.5802103140255888E-003   6.5250403254506095E-002
   5.0221822064402954E-003  -1.5199245055569528E-003   6.5241745680371749E-002
   4.8338892105583477E-003  -1.4540571587469105E-003   6.5428429840649227E-002
   4.6455962146763870E-003  -1.3826082735956258E-003   6.5810455735338391E-002
   5.2059471317145167E-011  -1.1467493621353242E-011   6.6585932426220684E-002
   4.0390000372036994E-011  -1.7826295994893826E-012   6.6442368997661400E-002
   2.8720531161652296E-011   1.7287088427409003E-011   6.6480049803115199E-002
   1.7051057614458909E-011   4.5740640441938041E-011   6.6698974842582387E-002
   5.3815910061594252E-012   8.3578921561411335E-011   6.7099144116062714E-002
   1.8632207970935163E-002  -5.5304333451192678E-003   6.1498952922416417E-002
   1.7827023485277052E-002  -5.2342689124567632E-003   6.1263083608836033E-002
   1.7021838999618961E-002  -4.9396925938623576E-003   6.1247475621300118E-002
   1.6216654513960867E-002  -4.6467043893358047E-003   6.1452128959808852E-002
   1.5411470028302787E-002  -4.3553042988773716E-003   6.1877043624361916E-002
   1.3961700197453158E-002  -4.1478249879447482E-003   6.3010360138515131E-002
   1.3372035740751728E-002  -3.9257016603273243E-003   6.2776663775254565E-002
   1.2782371284050312E-002  -3.7047694332849601E-003   6.2753746143862699E-002
   1.2192706827348892E-002  -3.4850283068175031E-003   6.2941607244339753E-002
   1.1603042370647465E-002  -3.2664782809251891E-003   6.3340247076685618E-002
   9.2994962787002373E-003  -2.7652166307701731E-003   6.4447527742822711E-002
   8.9158692567798056E-003  -2.6171344081976911E-003   6.4216401343374557E-002
   8.5322422348593687E-003  -2.4698462727073892E-003   6.4186571081619764E-002
   8.1486152129389353E-003  -2.3233522242990887E-003   6.4358036957558082E-002
   7.7649881910185001E-003  -2.1776522629728678E-003   6.4730798971189482E-002
   4.6455962146763870E-003  -1.3826082735956258E-003   6.5810455735338391E-002
   4.4585240333612644E-003  -1.3085671560682105E-003   6.5582296313196009E-002
   4.2714518520461479E-003  -1.2349231121300160E-003   6.5545950434571204E-002
   4.0843796707310314E-003  -1.1616761417806752E-003   6.5701418099463837E-002
   3.8973074894159080E-003  -1.0888262450206160E-003   6.6048699307873923E-002
   5.3815910061594252E-012   8.3578921561411335E-011   6.7099144116062714E-002
   7.0496115889273625E-011   9.6061408827452510E-011   6.6874348684718976E-002
   1.3561063730294087E-010   4.8447607037260809E-011   6.6831884202717046E-002
   2.0072515351243769E-010  -5.9262282581240555E-011   6.6971750670056951E-002
   2.6583968359972232E-010  -2.2706825308915768E-010   6.7293948086738609E-002
   1.5411470028302787E-002  -4.3553042988773716E-003   6.1877043624361916E-002
   1.4476028188743328E-002  -4.0598763123960713E-003   6.1809686293817723E-002
   1.3540586349183856E-002  -3.7548044198016522E-003   6.1999892889747193E-002
   1.2605144509624362E-002  -3.4400886210933686E-003   6.2447663412149648E-002
   1.1669702670064896E-002  -3.1157289162713209E-003   6.3152997861025462E-002
   1.1603042370647465E-002  -3.2664782809251891E-003   6.3340247076685618E-002
   1.0919238580837147E-002  -3.0449072408396394E-003   6.3245775864981063E-002
   1.0235434791026864E-002  -2.8161030717930857E-003   6.3397016826301750E-002
   9.5516310012165873E-003  -2.5800657737849869E-003   6.3793969960647359E-002
   8.8678272114062484E-003  -2.3367953468156344E-003   6.4436635268018128E-002
   7.7649881910185001E-003  -2.1776522629728678E-003   6.4730798971189482E-002
   7.3209706975090778E-003  -2.0299381692831242E-003   6.4606803101172505E-002
   6.8769532039996660E-003  -1.8774017237845678E-003   6.4716667650732085E-002
   6.4329357104902386E-003  -1.7200429264767145E-003   6.5060392619868262E-002
   5.9889182169808181E-003  -1.5578617773599479E-003   6.5637978008581732E-002
   3.8973074894159080E-003  -1.0888262450206160E-003   6.6048699307873923E-002
   3.6812245387590620E-003  -1.0149690977265952E-003   6.5892768002391952E-002
   3.4651415881022237E-003  -9.3870037577597001E-004   6.5958845363038476E-002
   3.2490586374453894E-003  -8.6002007916855406E-004   6.6246931389813565E-002
   3.0329756867885325E-003  -7.7892820790420592E-004   6.6757026082716941E-002
   2.6583968359972232E-010  -2.2706825308915768E-010   6.7293948086738609E-002
   1.0458712715322172E-010  -2.6170066114161727E-011   6.7103670568639584E-002
  -5.6665425823831939E-011   9.7223248896050052E-010   6.7123549963220674E-002
  -2.1791799441339688E-010   2.7681398215295694E-009   6.7353586270481935E-002
  -3.7917054218628010E-010   5.3615514250537899E-009   6.7793779490423089E-002
   5.4115184555669771E-012   0.0000000000000000        2.8447449494835374E-002
   7.1149466526754246E-012  -2.6707585795704425E-012   3.3409237477665193E-002
   8.8183752834647411E-012  -5.1834821157559219E-012   3.8377833863488933E-002
   1.0521804564775361E-011  -7.5381645370242722E-012   4.3353238652306593E-002
   1.2225232978724243E-011  -9.7348041086520176E-012   4.8335451844118180E-002
  -6.7988968597246340E-003   0.0000000000000000        2.8511255629282282E-002
  -6.8313333909775786E-003   1.4620514426533834E-004   3.3546088746791394E-002
  -6.8637699222305233E-003   3.2959603377418021E-004   3.8509240395393836E-002
  -6.8962064534834689E-003   5.5017266852653082E-004   4.3400710575089596E-002
  -6.9286429847364144E-003   8.0793504852238063E-004   4.8220499285878696E-002
  -1.3504096526931957E-002   0.0000000000000000        2.8702674038122548E-002
  -1.3647459463041873E-002   2.9241029120143482E-004   3.3847738035396438E-002
  -1.3790822399151791E-002   6.5919207273184253E-004   3.8842630691863035E-002
  -1.3934185335261711E-002   1.1003453445912227E-003   4.3687352007522377E-002
  -1.4077548271371629E-002   1.6158701067795762E-003   4.8381901982374430E-002
  -2.0115598996210449E-002   0.0000000000000000        2.9021704721356179E-002
  -2.0448378209077939E-002   4.3861543813753109E-004   3.4314185343480297E-002
  -2.0781157421945435E-002   9.8878811168950139E-004   3.9378004752896538E-002
  -2.1113936634812921E-002   1.6505180206559129E-003   4.4213162949604916E-002
  -2.1446715847680410E-002   2.4238051650367631E-003   4.8819659933605410E-002
  -2.6633404267560112E-002   0.0000000000000000        2.9468347678983167E-002
  -2.7234089629085773E-002   5.8482058507362822E-004   3.4945430671042992E-002
  -2.7834774990611440E-002   1.3183841506471655E-003   4.0115362578494337E-002
  -2.8435460352137103E-002   2.2006906967206065E-003   4.4978143401337212E-002
  -2.9036145713662764E-002   3.2317402232939600E-003   4.9533773139571621E-002
   1.2225232978724243E-011  -9.7348041086520176E-012   4.8335451844118180E-002
   1.4025172516418660E-011  -1.1656663481685037E-011   5.1504734068839909E-002
   1.5825109885708732E-011  -1.3186956951752316E-011   5.4539620774162412E-002
   1.7625047038158370E-011  -1.4325725989586952E-011   5.7440111960085735E-002
   1.9424987660054960E-011  -1.5072929016035630E-011   6.0206207626609831E-002
  -6.9286429847364144E-003   8.0793504852238063E-004   4.8220499285878696E-002
  -7.0340415618138077E-003   1.0627853646259012E-003   5.1177011225130409E-002
  -7.1394401388912019E-003   1.2746258077012331E-003   5.4057121526026632E-002
  -7.2448387159685960E-003   1.4434563777483975E-003   5.6860830188567392E-002
  -7.3502372930459893E-003   1.5692770747673668E-003   5.9588137212752718E-002
  -1.4077548271371629E-002   1.6158701067795762E-003   4.8381901982374430E-002
  -1.4230351546282617E-002   2.1255707409084659E-003   5.1082633762736411E-002
  -1.4383154821193603E-002   2.5492516285894303E-003   5.3764957785786639E-002
  -1.4535958096104595E-002   2.8869127698225071E-003   5.6428874051525142E-002
  -1.4688761371015584E-002   3.1385541646076695E-003   5.9074382559951941E-002
  -2.1446715847680410E-002   2.4238051650367631E-003   4.8819659933605410E-002
  -2.1588929939381257E-002   3.1883561171910202E-003   5.1221601681657909E-002
  -2.1731144031082096E-002   3.8238774494776515E-003   5.3663129553442400E-002
  -2.1873358122782943E-002   4.3303691618966382E-003   5.6144243548958910E-002
  -2.2015572214483789E-002   4.7078312544479826E-003   5.8664943668207452E-002
  -2.9036145713662764E-002   3.2317402232939600E-003   4.9533773139571621E-002
  -2.9109776741109726E-002   4.2511414934735875E-003   5.1593914981894910E-002
  -2.9183407768556685E-002   5.0985032703658338E-003   5.3751636828993962E-002
  -2.9257038796003651E-002   5.7738255539707276E-003   5.6006938680868777E-002
  -2.9330669823450610E-002   6.2771083442882611E-003   5.8359820537519293E-002
   1.9424987660054960E-011  -1.5072929016035630E-011   6.0206207626609831E-002
   2.1438055324007887E-011  -1.5905578937269738E-011   6.1099225456682296E-002
   2.3451125590046029E-011  -1.7300650495544190E-011   6.2129349931188328E-002
   2.5464197590807647E-011  -1.9258196599925004E-011   6.3296581050127920E-002
   2.7477263520037098E-011  -2.1778190362198302E-011   6.4600918813501024E-002
  -7.3502372930459893E-003   1.5692770747673668E-003   5.9588137212752718E-002
  -7.2255486830337893E-003   1.6658164391771084E-003   6.0472673844515809E-002
  -7.1008600730215910E-003   1.7468030113965971E-003   6.1469481047843569E-002
  -6.9761714630093910E-003   1.8122367914257323E-003   6.2578558822736052E-002
  -6.8514828529971927E-003   1.8621177792646076E-003   6.3799907169193246E-002
  -1.4688761371015584E-002   3.1385541646076695E-003   5.9074382559951941E-002
  -1.4464220225873091E-002   3.3316328942598079E-003   5.9934885201777754E-002
  -1.4239679080730597E-002   3.4936060400938603E-003   6.0882822342299449E-002
  -1.4015137935588109E-002   3.6244736021097171E-003   6.1918193981517038E-002
  -1.3790596790445610E-002   3.7242355803074889E-003   6.3041000119430493E-002
  -2.2015572214483789E-002   4.7078312544479826E-003   5.8664943668207452E-002
  -2.1716014607079840E-002   4.9974493493424943E-003   5.9485859528468195E-002
  -2.1416456999675895E-002   5.2404090687910741E-003   6.0369373814555982E-002
  -2.1116899392271949E-002   5.4367104127936881E-003   6.1315486526470800E-002
  -2.0817341784868004E-002   5.5863533813502869E-003   6.2324197664212641E-002
  -2.9330669823450610E-002   6.2771083442882611E-003   5.8359820537519293E-002
  -2.8980931826654049E-002   6.6632658044251981E-003   5.9125596824587116E-002
  -2.8631193829857484E-002   6.9872120974883694E-003   5.9929135464613120E-002
  -2.8281455833060926E-002   7.2489472234776378E-003   6.0770436457597318E-002
  -2.7931717836264365E-002   7.4484711823931682E-003   6.1649499803539731E-002
   2.7477263520037098E-011  -2.1778190362198302E-011   6.4600918813501024E-002
   3.0689548125018007E-011  -2.4044030655367976E-011   6.4805175938887530E-002
   3.3901829260551963E-011  -2.5238991452347648E-011   6.5140711793366793E-002
   3.7114111263447658E-011  -2.5363339900552617E-011   6.5607526376938757E-002
   4.0326395001066828E-011  -2.4416857424824912E-011   6.6205619689603507E-002
  -6.8514828529971927E-003   1.8621177792646076E-003   6.3799907169193246E-002
  -6.7085895936331991E-003   1.8924722528228868E-003   6.3916397647014761E-002
  -6.5656963342692097E-003   1.8993264900102926E-003   6.4187395908046924E-002
  -6.4228030749052187E-003   1.8826804908267389E-003   6.4612901952289761E-002
  -6.2799098155412337E-003   1.8425342552722823E-003   6.5192915779743330E-002
  -1.3790596790445610E-002   3.7242355803074889E-003   6.3041000119430493E-002
  -1.3481581220811953E-002   3.7849445296898390E-003   6.3046223712245220E-002
  -1.3172565651178296E-002   3.7986530052596321E-003   6.3229184142388595E-002
  -1.2863550081544634E-002   3.7653610070167900E-003   6.3589881409860619E-002
  -1.2554534511910978E-002   3.6850685349613943E-003   6.4128315514661305E-002
  -2.0817341784868004E-002   5.5863533813502869E-003   6.2324197664212641E-002
  -2.0318974850846706E-002   5.6774168065567461E-003   6.2194654134578919E-002
  -1.9820607916825415E-002   5.6979795205089716E-003   6.2266076496391813E-002
  -1.9322240982804110E-002   5.6480415232069104E-003   6.2538464749651357E-002
  -1.8823874048782826E-002   5.5276028146504785E-003   6.3011818894357446E-002
  -2.7931717836264365E-002   7.4484711823931682E-003   6.1649499803539731E-002
  -2.7220770483737465E-002   7.5698890834236879E-003   6.1361688914015888E-002
  -2.6509823131210575E-002   7.5973060357583319E-003   6.1298072970056655E-002
  -2.5798875778683672E-002   7.5307220393969112E-003   6.1458651971661969E-002
  -2.5087928426156782E-002   7.3701370943396183E-003   6.1843425918831907E-002
   4.0326395001066828E-011  -2.4416857424824912E-011   6.6205619689603507E-002
   4.3259659743277723E-011  -2.2496074447708736E-011   6.5957148667145277E-002
   4.6192933159105998E-011  -1.9697590780687335E-011   6.5937710449095438E-002
   4.9126203105487320E-011  -1.6021507037722316E-011   6.6147305035453852E-002
   5.2059471317145167E-011  -1.1467493621353242E-011   6.6585932426220684E-002
  -6.2799098155412337E-003   1.8425342552722823E-003   6.5192915779743330E-002
  -6.0596243858999643E-003   1.7906357597243516E-003   6.4940980397713510E-002
  -5.8393389562587028E-003   1.7387329805606255E-003   6.4900583064691431E-002
  -5.6190535266174395E-003   1.6868259177809306E-003   6.5071723780676952E-002
  -5.3987680969761719E-003   1.6349145713854540E-003   6.5454402545670143E-002
  -1.2554534511910978E-002   3.6850685349613943E-003   6.4128315514661305E-002
  -1.2131458410962408E-002   3.5812715419449234E-003   6.3872911488566400E-002
  -1.1708382310013837E-002   3.4774659808188765E-003   6.3811550756078445E-002
  -1.1285306209065272E-002   3.3736518515833421E-003   6.3944233317197369E-002
  -1.0862230108116711E-002   3.2698291542382907E-003   6.4270959171923353E-002
  -1.8823874048782826E-002   5.5276028146504785E-003   6.3011818894357446E-002
  -1.8215502031927656E-002   5.3719073241654224E-003   6.2752941939703738E-002
  -1.7607130015072477E-002   5.2161989810771102E-003   6.2670613523256272E-002
  -1.6998757998217300E-002   5.0604777853857667E-003   6.2764833645015145E-002
  -1.6390385981362127E-002   4.9047437370911551E-003   6.3035602304980148E-002
  -2.5087928426156782E-002   7.3701370943396183E-003   6.1843425918831907E-002
  -2.4311755248795700E-002   7.1625431063859074E-003   6.1581071751125760E-002
  -2.3535582071434608E-002   6.9549319813354202E-003   6.1477771366225217E-002
  -2.2759408894073529E-002   6.7473037191881410E-003   6.1533524764130161E-002
  -2.1983235716712443E-002   6.5396583199440750E-003   6.1748331944840751E-002
   5.2059471317145167E-011  -1.1467493621353242E-011   6.6585932426220684E-002
   4.0390000372036994E-011  -1.7826295994893826E-012   6.6442368997661400E-002
   2.8720531161652296E-011   1.7287088427409003E-011   6.6480049803115199E-002
   1.7051057614458909E-011   4.5740640441938041E-011   6.6698974842582387E-002
   5.3815910061594252E-012   8.3578921561411335E-011   6.7099144116062714E-002
  -5.3987680969761719E-003   1.6349145713854540E-003   6.5454402545670143E-002
  -5.2104751230788995E-003   1.5802103204234502E-003   6.5250403248493280E-002
  -5.0221821491816150E-003   1.5199245439447492E-003   6.5241745688436603E-002
  -4.8338891752843357E-003   1.4540572419492800E-003   6.5428429865500196E-002
  -4.6455962013870582E-003   1.3826084144369366E-003   6.5810455779684113E-002
  -1.0862230108116711E-002   3.2698291542382907E-003   6.4270959171923353E-002
  -1.0471546645545648E-002   3.1604206426294745E-003   6.4000942471227701E-002
  -1.0080863182974594E-002   3.0398490706026876E-003   6.3940365010759254E-002
  -9.6901797204035408E-003   2.9081144381578640E-003   6.4089226790518150E-002
  -9.2994962578324784E-003   2.7652167452950627E-003   6.4447527810504279E-002
  -1.6390385981362127E-002   4.9047437370911551E-003   6.3035602304980148E-002
  -1.5783214527010276E-002   4.7406309648354711E-003   6.2693986665864496E-002
  -1.5176043072658414E-002   4.5597735972605150E-003   6.2575907770083178E-002
  -1.4568871618306552E-002   4.3621716343664480E-003   6.2681365617636237E-002
  -1.3961700163954692E-002   4.1478250761531332E-003   6.3010360208523575E-002
  -2.1983235716712443E-002   6.5396583199440750E-003   6.1748331944840751E-002
  -2.1145478767472747E-002   6.3208412870415787E-003   6.1329535832403942E-002
  -2.0307721818233062E-002   6.0796981239183145E-003   6.1148373966408487E-002
  -1.9469964868993370E-002   5.8162288305750390E-003   6.1204846346854302E-002
  -1.8632207919753681E-002   5.5304334070111483E-003   6.1498952973741583E-002
   5.3815910061594252E-012   8.3578921561411335E-011   6.7099144116062714E-002
   7.0496115889273625E-011   9.6061408827452510E-011   6.6874348684718976E-002
   1.3561063730294087E-010   4.8447607037260809E-011   6.6831884202717046E-002
   2.0072515351243769E-010  -5.9262282581240555E-011   6.6971750670056951E-002
   2.6583968359972232E-010  -2.2706825308915768E-010   6.7293948086738609E-002
  -4.6455962013870582E-003   1.3826084144369366E-003   6.5810455779684113E-002
  -4.4585239003982913E-003   1.3085673264299769E-003   6.5582296257411715E-002
  -4.2714515994095210E-003   1.2349232429508805E-003   6.5545950257546073E-002
  -4.0843792984207646E-003   1.1616761639988288E-003   6.5701417780087118E-002
  -3.8973069974319909E-003   1.0888260895746682E-003   6.6048698825034668E-002
  -9.2994962578324784E-003   2.7652167452950627E-003   6.4447527810504279E-002
  -8.9158691479046016E-003   2.6171345567989196E-003   6.4216401261927014E-002
  -8.5322420379767179E-003   2.4698464374539181E-003   6.4186570808821189E-002
  -8.1486149280488307E-003   2.3233523872601587E-003   6.4358036451186984E-002
  -7.7649878181209487E-003   2.1776524062175340E-003   6.4730798189024358E-002
  -1.3961700163954692E-002   4.1478250761531332E-003   6.3010360208523575E-002
  -1.3372035672022806E-002   3.9257017871676472E-003   6.2776663698264817E-002
  -1.2782371180090927E-002   3.7047696319570736E-003   6.2753745856542739E-002
  -1.2192706688159050E-002   3.4850286105213794E-003   6.2941606683356910E-002
  -1.1603042196227169E-002   3.2664787228603720E-003   6.3340246178707565E-002
  -1.8632207919753681E-002   5.5304334070111483E-003   6.1498952973741583E-002
  -1.7827023472752924E-002   5.2342690175364859E-003   6.1263083566425236E-002
  -1.7021839025752172E-002   4.9396928264603124E-003   6.1247475400710211E-002
  -1.6216654578751419E-002   4.6467048337825931E-003   6.1452128476596507E-002
  -1.5411470131750656E-002   4.3553050395033766E-003   6.1877042794084181E-002
   2.6583968359972232E-010  -2.2706825308915768E-010   6.7293948086738609E-002
   1.0458712715322172E-010  -2.6170066114161727E-011   6.7103670568639584E-002
  -5.6665425823831939E-011   9.7223248896050052E-010   6.7123549963220674E-002
  -2.1791799441339688E-010   2.7681398215295694E-009   6.7353586270481935E-002
  -3.7917054218628010E-010   5.3615514250537899E-009   6.7793779490423089E-002
  -3.8973069974319909E-003   1.0888260895746682E-003   6.6048698825034668E-002
  -3.6812243649847892E-003   1.0149691956482798E-003   6.5892768707524502E-002
  -3.4651417325375824E-003   9.3870165819068263E-004   6.5958847264733833E-002
  -3.2490591000903764E-003   8.6002347720143951E-004   6.6246934496662468E-002
  -3.0329764676431600E-003   7.7893465268097373E-004   6.6757030403310158E-002
  -7.7649878181209487E-003   2.1776524062175340E-003   6.4730798189024358E-002
  -7.3209706299347237E-003   2.0299384174668478E-003   6.4606804031067167E-002
  -6.8769534417484962E-003   1.8774023441487792E-003   6.4716670309868579E-002
  -6.4329362535622964E-003   1.7200441862634218E-003   6.5060397025428485E-002
  -5.9889190653760437E-003   1.5578639438106334E-003   6.5637984177747355E-002
  -1.1603042196227169E-002   3.2664787228603720E-003   6.3340246178707565E-002
  -1.0919238690262682E-002   3.0449076392853602E-003   6.3245776539267357E-002
  -1.0235435184298203E-002   2.8161030301069798E-003   6.3397019098624927E-002
  -9.5516316783337239E-003   2.5800648953253329E-003   6.3793973856780678E-002
  -8.8678281723692243E-003   2.3367932349401821E-003   6.4436640813733931E-002
  -1.5411470131750656E-002   4.3553050395033766E-003   6.1877042794084181E-002
  -1.4476028545968658E-002   4.0598768611037617E-003   6.1809686232125127E-002
  -1.3540586960186667E-002   3.7548037160650832E-003   6.1999893631003083E-002
  -1.2605145374404669E-002   3.4400856043870255E-003   6.2447664990718257E-002
  -1.1669703788622671E-002   3.1157225260698418E-003   6.3153000311270580E-002
  -2.6633404267560112E-002   0.0000000000000000        2.9468347678983167E-002
  -2.7234089629085773E-002   5.8482058507362822E-004   3.4945430671042992E-002
  -2.7834774990611440E-002   1.3183841506471655E-003   4.0115362578494337E-002
  -2.8435460352137103E-002   2.2006906967206065E-003   4.4978143401337212E-002
  -2.9036145713662764E-002   3.2317402232939600E-003   4.9533773139571621E-002
  -3.3394038729182528E-002   0.0000000000000000        3.0177735032690160E-002
  -3.4236910229809250E-002   9.6004999754275861E-004   3.5266523266985476E-002
  -3.5079781730435966E-002   2.0235487649904052E-003   4.0178090307687139E-002
  -3.5922653231062682E-002   3.1904963023429416E-003   4.4912436154795156E-002
  -3.6765524731689397E-002   4.4608926096003651E-003   4.9469560808309554E-002
  -4.0734028769279271E-002   0.0000000000000000        3.1284998904163794E-002
  -4.1689156517992224E-002   1.3352794100118881E-003   3.5940198170099566E-002
  -4.2644284266705162E-002   2.7287133793336476E-003   4.0548106133456531E-002
  -4.3599412015418101E-002   4.1803019079652785E-003   4.5108722794234689E-002
  -4.4554539764131047E-002   5.6900449959067807E-003   4.9622048152434019E-002
  -4.8653374387850341E-002   0.0000000000000000        3.2790139293404068E-002
  -4.9590828493634678E-002   1.7105088224810194E-003   3.6966455380385295E-002
  -5.0528282599419015E-002   3.4338779936768891E-003   4.1225410055802547E-002
  -5.1465736705203359E-002   5.1701075135876197E-003   4.5567003319655797E-002
  -5.2403190810987689E-002   6.9191973822131979E-003   4.9991235171945099E-002
  -5.7152075584895740E-002   0.0000000000000000        3.4693156200410982E-002
  -5.7941926156736642E-002   2.0857382349501472E-003   3.8345294897842636E-002
  -5.8731776728577552E-002   4.1390426080201315E-003   4.2210002074725146E-002
  -5.9521627300418455E-002   6.1599131192099487E-003   4.6287277731058493E-002
  -6.0311477872259336E-002   8.1483497685196048E-003   5.0577121866842704E-002
  -2.9036145713662764E-002   3.2317402232939600E-003   4.9533773139571621E-002
  -2.9109776741109726E-002   4.2511414934735875E-003   5.1593914981894910E-002
  -2.9183407768556685E-002   5.0985032703658338E-003   5.3751636828993962E-002
  -2.9257038796003651E-002   5.7738255539707276E-003   5.6006938680868777E-002
  -2.9330669823450610E-002   6.2771083442882611E-003   5.8359820537519293E-002
  -3.6765524731689397E-002   4.4608926096003651E-003   4.9469560808309554E-002
  -3.6780053902767534E-002   5.6945321716033196E-003   5.1257087610960310E-002
  -3.6794583073845671E-002   6.7512094731924394E-003   5.3065238121572968E-002
  -3.6809112244923815E-002   7.6309245143677045E-003   5.4894012340147520E-002
  -3.6823641416001952E-002   8.3336772951291480E-003   5.6743410266683975E-002
  -4.4554539764131047E-002   5.6900449959067807E-003   4.9622048152434019E-002
  -4.4586923375654203E-002   7.1379228497330562E-003   5.1132037148285792E-002
  -4.4619306987177372E-002   8.4039156760190390E-003   5.2585693555285584E-002
  -4.4651690598700521E-002   9.4880234747646910E-003   5.3983017373433459E-002
  -4.4684074210223690E-002   1.0390246245970024E-002   5.5324008602729388E-002
  -5.2403190810987689E-002   6.9191973822131979E-003   4.9991235171945099E-002
  -5.2530385159769738E-002   8.5813135278628074E-003   5.1218763593871383E-002
  -5.2657579508551766E-002   1.0056621878845633E-002   5.2313003130131833E-002
  -5.2784773857333801E-002   1.1345122435161666E-002   5.3273953780726496E-002
  -5.2911968206115843E-002   1.2446815196810885E-002   5.4101615545655360E-002
  -6.0311477872259336E-002   8.1483497685196048E-003   5.0577121866842704E-002
  -6.0610439255114106E-002   1.0024704205992529E-002   5.1517266947717029E-002
  -6.0909400637968868E-002   1.1709328081672245E-002   5.2247166846111685E-002
  -6.1208362020823651E-002   1.3202221395558641E-002   5.2766821562026694E-002
  -6.1507323403678392E-002   1.4503384147651774E-002   5.3076231095462070E-002
  -2.9330669823450610E-002   6.2771083442882611E-003   5.8359820537519293E-002
  -2.8980931826654049E-002   6.6632658044251981E-003   5.9125596824587116E-002
  -2.8631193829857484E-002   6.9872120974883694E-003   5.9929135464613120E-002
  -2.8281455833060926E-002   7.2489472234776378E-003   6.0770436457597318E-002
  -2.7931717836264365E-002   7.4484711823931682E-003   6.1649499803539731E-002
  -3.6823641416001952E-002   8.3336772951291480E-003   5.6743410266683975E-002
  -3.6384928236996419E-002   8.8755975762334870E-003   5.7089481228345063E-002
  -3.5946215057990900E-002   9.2728151184374216E-003   5.7575740201465830E-002
  -3.5507501878985388E-002   9.5253299217409448E-003   5.8202187186046299E-002
  -3.5068788699979855E-002   9.6331419861440670E-003   5.8968822182086551E-002
  -4.4684074210223690E-002   1.0390246245970024E-002   5.5324008602729388E-002
  -4.4053960190507696E-002   1.1087929348041719E-002   5.5167882667157088E-002
  -4.3423846170791695E-002   1.1558418139386448E-002   5.5254370401546037E-002
  -4.2793732151075681E-002   1.1801712620004210E-002   5.5583471805896269E-002
  -4.2163618131359687E-002   1.1817812789895021E-002   5.6155186880207673E-002
  -5.2911968206115843E-002   1.2446815196810885E-002   5.4101615545655360E-002
  -5.1988027687187834E-002   1.3300261119849999E-002   5.3360801141023220E-002
  -5.1064087168259838E-002   1.3844021160335493E-002   5.2965026064853794E-002
  -5.0140146649331842E-002   1.4078095318267510E-002   5.2914290317147124E-002
  -4.9216206130403839E-002   1.4002483593645948E-002   5.3208593897903250E-002
  -6.1507323403678392E-002   1.4503384147651774E-002   5.3076231095462070E-002
  -6.0187130727036860E-002   1.5512592891658232E-002   5.1668236649943453E-002
  -5.8866938050395362E-002   1.6129624181284555E-002   5.0707707191389055E-002
  -5.7546745373753858E-002   1.6354478016530768E-002   5.0194642719798968E-002
  -5.6226552697112311E-002   1.6187154397396902E-002   5.0129043235173171E-002
  -2.7931717836264365E-002   7.4484711823931682E-003   6.1649499803539731E-002
  -2.7220770483737465E-002   7.5698890834236879E-003   6.1361688914015888E-002
  -2.6509823131210575E-002   7.5973060357583319E-003   6.1298072970056655E-002
  -2.5798875778683672E-002   7.5307220393969112E-003   6.1458651971661969E-002
  -2.5087928426156782E-002   7.3701370943396183E-003   6.1843425918831907E-002
  -3.5068788699979855E-002   9.6331419861440670E-003   5.8968822182086551E-002
  -3.4140284668927365E-002   9.6352522744140995E-003   5.8636263576828510E-002
  -3.3211780637874867E-002   9.5706617493182822E-003   5.8514623383057116E-002
  -3.2283276606822356E-002   9.4393704108566359E-003   5.8603901600772328E-002
  -3.1354772575769851E-002   9.2413782590291815E-003   5.8904098229974208E-002
  -4.2163618131359687E-002   1.1817812789895021E-002   5.6155186880207673E-002
  -4.1030833955859540E-002   1.1700615465404480E-002   5.5805180694545597E-002
  -3.9898049780359372E-002   1.1544017462878236E-002   5.5652816386292173E-002
  -3.8765265604859211E-002   1.1348018782316307E-002   5.5698093955447461E-002
  -3.7632481429359037E-002   1.1112619423718648E-002   5.5941013402011443E-002
  -4.9216206130403839E-002   1.4002483593645948E-002   5.3208593897903250E-002
  -4.7892418344533963E-002   1.3765978656394848E-002   5.2868440267167228E-002
  -4.6568630558664094E-002   1.3517373176438160E-002   5.2712651979761917E-002
  -4.5244842772794211E-002   1.3256667153775907E-002   5.2741229035687412E-002
  -4.3921054986924342E-002   1.2983860588408162E-002   5.2954171434943569E-002
  -5.6226552697112311E-002   1.6187154397396902E-002   5.0129043235173171E-002
  -5.4725037834950668E-002   1.5831341847385230E-002   4.9826042294693340E-002
  -5.3223522972789032E-002   1.5490728889998133E-002   4.9694130163466327E-002
  -5.1722008110627424E-002   1.5165315525235671E-002   4.9733306841492082E-002
  -5.0220493248465767E-002   1.4855101753097677E-002   4.9943572328770613E-002
  -2.5087928426156782E-002   7.3701370943396183E-003   6.1843425918831907E-002
  -2.4311755248795700E-002   7.1625431063859074E-003   6.1581071751125760E-002
  -2.3535582071434608E-002   6.9549319813354202E-003   6.1477771366225217E-002
  -2.2759408894073529E-002   6.7473037191881410E-003   6.1533524764130161E-002
  -2.1983235716712443E-002   6.5396583199440750E-003   6.1748331944840751E-002
  -3.1354772575769851E-002   9.2413782590291815E-003   5.8904098229974208E-002
  -3.0410020682265358E-002   9.0030818439895410E-003   5.8633441866552227E-002
  -2.9465268788760858E-002   8.7508777158915169E-003   5.8540889152611471E-002
  -2.8520516895256354E-002   8.4847658747351125E-003   5.8626440088152071E-002
  -2.7575765001751861E-002   8.2047463205204563E-003   5.8890094673173854E-002
  -3.7632481429359037E-002   1.1112619423718648E-002   5.5941013402011443E-002
  -3.6500100953035436E-002   1.0843620581593126E-002   5.5648164266911965E-002
  -3.5367720476711807E-002   1.0546823450447700E-002   5.5552468647969519E-002
  -3.4235340000388179E-002   1.0222228030282197E-002   5.5653926545184119E-002
  -3.3102959524064571E-002   9.8698343210967820E-003   5.5952537958555482E-002
  -4.3921054986924342E-002   1.2983860588408162E-002   5.2954171434943569E-002
  -4.2581996061105916E-002   1.2684159319196819E-002   5.2625238952205056E-002
  -4.1242937135287476E-002   1.2342769185003868E-002   5.2512509852299237E-002
  -3.9903878209469036E-002   1.1959690185829307E-002   5.2615984135226106E-002
  -3.8564819283650582E-002   1.1534922321673108E-002   5.2935661800985627E-002
  -5.0220493248465767E-002   1.4855101753097677E-002   4.9943572328770613E-002
  -4.8655706006476812E-002   1.4524698056800345E-002   4.9564665922431500E-002
  -4.7090918764487864E-002   1.4138714919559994E-002   4.9421012765600708E-002
  -4.5526131522498903E-002   1.3697152341376282E-002   4.9512612858278321E-002
  -4.3961344280509962E-002   1.3200010322249489E-002   4.9839466200464311E-002
  -2.1983235716712443E-002   6.5396583199440750E-003   6.1748331944840751E-002
  -2.1145478767472747E-002   6.3208412870415787E-003   6.1329535832403942E-002
  -2.0307721818233062E-002   6.0796981239183145E-003   6.1148373966408487E-002
  -1.9469964868993370E-002   5.8162288305750390E-003   6.1204846346854302E-002
  -1.8632207919753681E-002   5.5304334070111483E-003   6.1498952973741583E-002
  -2.7575765001751861E-002   8.2047463205204563E-003   5.8890094673173854E-002
  -2.6509113240029882E-002   7.9098855535181811E-003   5.8508843468136146E-002
  -2.5442461478307921E-002   7.5992500739994404E-003   5.8347747641621733E-002
  -2.4375809716585973E-002   7.2728398819638853E-003   5.8406807193630575E-002
  -2.3309157954864018E-002   6.9306549774120207E-003   5.8686022124162351E-002
  -3.3102959524064571E-002   9.8698343210967820E-003   5.5952537958555482E-002
  -3.1824891817778478E-002   9.4989298199950056E-003   5.5615383078620774E-002
  -3.0546824111492375E-002   9.1188020240802886E-003   5.5480904709291096E-002
  -2.9268756405206296E-002   8.7294509333529537E-003   5.5549102850566419E-002
  -2.7990688698920178E-002   8.3308765478128100E-003   5.5819977502446910E-002
  -3.8564819283650582E-002   1.1534922321673108E-002   5.2935661800985627E-002
  -3.7092814500718531E-002   1.1087974086471775E-002   5.2649154663857646E-002
  -3.5620809717786424E-002   1.0638353974161276E-002   5.2547845169416615E-002
  -3.4148804934854352E-002   1.0186061984741994E-002   5.2631733317662431E-002
  -3.2676800151922258E-002   9.7310981182135575E-003   5.2900819108595183E-002
  -4.3961344280509962E-002   1.3200010322249489E-002   4.9839466200464311E-002
  -4.2312881288849996E-002   1.2677018352948488E-002   4.9610158223846901E-002
  -4.0664418297190058E-002   1.2157905924242221E-002   4.9548569021998112E-002
  -3.9015955305530120E-002   1.1642673036130886E-002   4.9654698594918306E-002
  -3.7367492313870168E-002   1.1131319688614416E-002   4.9928546942607233E-002
  -1.8632207919753681E-002   5.5304334070111483E-003   6.1498952973741583E-002
  -1.7827023472752924E-002   5.2342690175364859E-003   6.1263083566425236E-002
  -1.7021839025752172E-002   4.9396928264603124E-003   6.1247475400710211E-002
  -1.6216654578751419E-002   4.6467048337825931E-003   6.1452128476596507E-002
  -1.5411470131750656E-002   4.3553050395033766E-003   6.1877042794084181E-002
  -2.3309157954864018E-002   6.9306549774120207E-003   5.8686022124162351E-002
  -2.2289239760276639E-002   6.5809722563821005E-003   5.8441228152865121E-002
  -2.1269321565689250E-002   6.2320686149128501E-003   5.8405640435139822E-002
  -2.0249403371101857E-002   5.8839440530042350E-003   5.8579258970986314E-002
  -1.9229485176514481E-002   5.5365985706562482E-003   5.8962083760404793E-002
  -2.7990688698920178E-002   8.3308765478128100E-003   5.5819977502446910E-002
  -2.6767091744775581E-002   7.9276754952276318E-003   5.5565449848330742E-002
  -2.5543494790630995E-002   7.5244444033652352E-003   5.5509073459757169E-002
  -2.4319897836486377E-002   7.1211832722256584E-003   5.5650848336726212E-002
  -2.3096300882341787E-002   6.7178921018089810E-003   5.5990774479237546E-002
  -3.2676800151922258E-002   9.7310981182135575E-003   5.2900819108595183E-002
  -3.1260579426249824E-002   9.2743787340732325E-003   5.2635748652822466E-002
  -2.9844358700577368E-002   8.8168201918178632E-003   5.2557774474562738E-002
  -2.8428137974904906E-002   8.3584224914473575E-003   5.2666896573816145E-002
  -2.7011917249232475E-002   7.8991856329617832E-003   5.2963114950582701E-002
  -3.7367492313870168E-002   1.1131319688614416E-002   4.9928546942607233E-002
  -3.5769702804699294E-002   1.0621081972918750E-002   4.9652124566339828E-002
  -3.4171913295528399E-002   1.0109195980270283E-002   4.9551743479556126E-002
  -3.2574123786357517E-002   9.5956617106686716E-003   4.9627403682256280E-002
  -3.0976334277186615E-002   9.0804791641145854E-003   4.9879105174440053E-002
  -1.5411470131750656E-002   4.3553050395033766E-003   6.1877042794084181E-002
  -1.4476028545968658E-002   4.0598768611037617E-003   6.1809686232125127E-002
  -1.3540586960186667E-002   3.7548037160650832E-003   6.1999893631003083E-002
  -1.2605145374404669E-002   3.4400856043870255E-003   6.2447664990718257E-002
  -1.1669703788622671E-002   3.1157225260698418E-003   6.3153000311270580E-002
  -1.9229485176514481E-002   5.5365985706562482E-003   5.8962083760404793E-002
  -1.8056818617043138E-002   5.1793323688713311E-003   5.8810454807697560E-002
  -1.6884152057571818E-002   4.8014456486522167E-003   5.8875711841532091E-002
  -1.5711485498100496E-002   4.4029384099986864E-003   5.9157854861907722E-002
  -1.4538818938629128E-002   3.9838106529106465E-003   5.9656883868825505E-002
  -2.3096300882341787E-002   6.7178921018089810E-003   5.5990774479237546E-002
  -2.1727087323476682E-002   6.2987878766388450E-003   5.5743897583987331E-002
  -2.0357873764611602E-002   5.8480875812393432E-003   5.5673228700982964E-002
  -1.8988660205746494E-002   5.3657912156102067E-003   5.5778767830224479E-002
  -1.7619446646881389E-002   4.8518987797516733E-003   5.6060514971712105E-002
  -2.7011917249232475E-002   7.8991856329617832E-003   5.2963114950582701E-002
  -2.5486834665269211E-002   7.4182433844063311E-003   5.2610014560994178E-002
  -2.3961752081305972E-002   6.8947295138263621E-003   5.2392444209355973E-002
  -2.2436669497342708E-002   6.3286440212217418E-003   5.2310403895668073E-002
  -2.0911586913379472E-002   5.7199869065925335E-003   5.2363893619930574E-002
  -3.0976334277186615E-002   9.0804791641145854E-003   4.9879105174440053E-002
  -2.9336060642420780E-002   8.5376988921739283E-003   4.9408805738718198E-002
  -2.7695787007654980E-002   7.9413714464134089E-003   4.9033358366651070E-002
  -2.6055513372889211E-002   7.2914968268334227E-003   4.8752763058238474E-002
  -2.4415239738123373E-002   6.5880750334335048E-003   4.8567019813480883E-002
  -5.7152075584895740E-002   0.0000000000000000        3.4693156200410982E-002
  -5.7941926156736642E-002   2.0857382349501472E-003   3.8345294897842636E-002
  -5.8731776728577552E-002   4.1390426080201315E-003   4.2210002074725146E-002
  -5.9521627300418455E-002   6.1599131192099487E-003   4.6287277731058493E-002
  -6.0311477872259336E-002   8.1483497685196048E-003   5.0577121866842704E-002
  -6.5818932080636924E-002   0.0000000000000000        3.7216011598824907E-002
  -6.6625025079934633E-002   2.9147148626003337E-003   4.0837126671154286E-002
  -6.7431118079232327E-002   5.7713481885260914E-003   4.4213188409119239E-002
  -6.8237211078530036E-002   8.5698999777772782E-003   4.7344196812719723E-002
  -6.9043304077827730E-002   1.1310370230353889E-002   5.0230151881955759E-002
  -7.4242743595295355E-002   0.0000000000000000        4.0580667462286217E-002
  -7.5522700835865153E-002   3.7436914902505163E-003   4.4145111234718933E-002
  -7.6802658076434979E-002   7.4036537690320503E-003   4.7006879858971895E-002
  -7.8082615317004764E-002   1.0979886836344595E-002   4.9165973335045091E-002
  -7.9362572557574562E-002   1.4472390692188168E-002   5.0622391662938561E-002
  -8.2423510128871044E-002   0.0000000000000000        4.4787123790794928E-002
  -8.4634953424528245E-002   4.5726681179006998E-003   4.8269248588536540E-002
  -8.6846396720185445E-002   9.0359593495380093E-003   5.0591076424283114E-002
  -8.9057840015842646E-002   1.3389873694911923E-002   5.1752607298034645E-002
  -9.1269283311499860E-002   1.7634411154022443E-002   5.1753841209791096E-002
  -9.0361231681363979E-002   0.0000000000000000        4.9835380584351011E-002
  -9.3961782845923880E-002   5.4016447455508855E-003   5.3209538732607142E-002
  -9.7562334010483781E-002   1.0668264930043967E-002   5.4965778105052911E-002
 -0.10116288517504370        1.5799860553479241E-002   5.5104098701688337E-002
 -0.10476343633960358        2.0796431615856731E-002   5.3624500522513413E-002
  -6.0311477872259336E-002   8.1483497685196048E-003   5.0577121866842704E-002
  -6.0610439255114106E-002   1.0024704205992529E-002   5.1517266947717029E-002
  -6.0909400637968868E-002   1.1709328081672245E-002   5.2247166846111685E-002
  -6.1208362020823651E-002   1.3202221395558641E-002   5.2766821562026694E-002
  -6.1507323403678392E-002   1.4503384147651774E-002   5.3076231095462070E-002
  -6.9043304077827730E-002   1.1310370230353889E-002   5.0230151881955759E-002
  -6.9315433532927129E-002   1.3753807669153031E-002   4.9456074472549794E-002
  -6.9587562988026555E-002   1.5661261017071826E-002   4.8945906101134196E-002
  -6.9859692443125981E-002   1.7032730274110282E-002   4.8699646767708930E-002
  -7.0131821898225366E-002   1.7868215440268356E-002   4.8717296472274012E-002
  -7.9362572557574562E-002   1.4472390692188168E-002   5.0622391662938561E-002
  -7.9133715864448659E-002   1.7482911132313522E-002   4.7789838234165258E-002
  -7.8904859171322714E-002   1.9613193952471450E-002   4.5695348063852274E-002
  -7.8676002478196796E-002   2.0863239152661923E-002   4.4338921151999666E-002
  -7.8447145785070879E-002   2.1233046732884960E-002   4.3720557498607329E-002
  -9.1269283311499860E-002   1.7634411154022443E-002   5.1753841209791096E-002
  -9.0065286249678592E-002   2.1212014595474005E-002   4.6518558232563345E-002
  -8.8861289187857351E-002   2.3565126887871032E-002   4.2495492734265970E-002
  -8.7657292126036096E-002   2.4693748031213568E-002   3.9684644714898847E-002
  -8.6453295064214841E-002   2.4597878025501532E-002   3.8086014174462078E-002
 -0.10476343633960358        2.0796431615856731E-002   5.3624500522513413E-002
 -0.10211014468861700        2.4941118058634509E-002   4.5642234467744146E-002
  -9.9456853037630452E-002   2.7517059823270660E-002   3.9346340112375207E-002
  -9.6803561386643880E-002   2.8524256909765223E-002   3.4736817456406534E-002
  -9.4150269735657321E-002   2.7962709318118145E-002   3.1813666499838231E-002
  -6.1507323403678392E-002   1.4503384147651774E-002   5.3076231095462070E-002
  -6.0187130727036860E-002   1.5512592891658232E-002   5.1668236649943453E-002
  -5.8866938050395362E-002   1.6129624181284555E-002   5.0707707191389055E-002
  -5.7546745373753858E-002   1.6354478016530768E-002   5.0194642719798968E-002
  -5.6226552697112311E-002   1.6187154397396902E-002   5.0129043235173171E-002
  -7.0131821898225366E-002   1.7868215440268356E-002   4.8717296472274012E-002
  -6.8408692347802266E-002   1.8324249794931195E-002   4.7266401028029023E-002
  -6.6685562797379153E-002   1.8557366617483823E-002   4.6173914344382977E-002
  -6.4962433246956039E-002   1.8567565907926211E-002   4.5439836421335832E-002
  -6.3239303696532953E-002   1.8354847666258389E-002   4.5064167258887622E-002
  -7.8447145785070879E-002   2.1233046732884960E-002   4.3720557498607329E-002
  -7.6410135587231531E-002   2.1135906698204140E-002   4.2396020977905943E-002
  -7.4373125389392156E-002   2.0985109053682977E-002   4.1340836991438104E-002
  -7.2336115191552808E-002   2.0780653799321584E-002   4.0555005539203791E-002
  -7.0299104993713460E-002   2.0522540935119862E-002   4.0038526621203073E-002
  -8.6453295064214841E-002   2.4597878025501532E-002   3.8086014174462078E-002
  -8.4191460445324606E-002   2.3947563601477095E-002   3.7057096499574178E-002
  -8.1929625826434399E-002   2.3412851489882217E-002   3.6208475132554464E-002
  -7.9667791207544178E-002   2.2993741690716992E-002   3.5540150073402957E-002
  -7.7405956588653957E-002   2.2690234203981342E-002   3.5052121322119559E-002
  -9.4150269735657321E-002   2.7962709318118145E-002   3.1813666499838231E-002
  -9.1752666922081560E-002   2.6759220504750048E-002   3.1249627593033735E-002
  -8.9355064108505855E-002   2.5840593926081425E-002   3.0776828767732030E-002
  -8.6957461294930136E-002   2.5206829582112379E-002   3.0395270023933187E-002
  -8.4559858481354375E-002   2.4857927472842836E-002   3.0104951361637114E-002
  -5.6226552697112311E-002   1.6187154397396902E-002   5.0129043235173171E-002
  -5.4725037834950668E-002   1.5831341847385230E-002   4.9826042294693340E-002
  -5.3223522972789032E-002   1.5490728889998133E-002   4.9694130163466327E-002
  -5.1722008110627424E-002   1.5165315525235671E-002   4.9733306841492082E-002
  -5.0220493248465767E-002   1.4855101753097677E-002   4.9943572328770613E-002
  -6.3239303696532953E-002   1.8354847666258389E-002   4.5064167258887622E-002
  -6.1556367231306558E-002   1.8015106694282509E-002   4.4716484646519131E-002
  -5.9873430766080170E-002   1.7644237793800747E-002   4.4560556431027347E-002
  -5.8190494300853761E-002   1.7242240964813055E-002   4.4596382612412305E-002
  -5.6507557835627380E-002   1.6809116207319452E-002   4.4823963190673943E-002
  -7.0299104993713460E-002   2.0522540935119862E-002   4.0038526621203073E-002
  -6.8414081337798416E-002   2.0198871541179782E-002   3.9599834815815457E-002
  -6.6529057681883386E-002   1.9797746697603338E-002   3.9373562994928446E-002
  -6.4644034025968328E-002   1.9319166404390450E-002   3.9359711158542088E-002
  -6.2759010370053270E-002   1.8763130661541172E-002   3.9558279306656327E-002
  -7.7405956588653957E-002   2.2690234203981342E-002   3.5052121322119559E-002
  -7.5298180154426367E-002   2.2382636388077085E-002   3.4476092802582271E-002
  -7.3190403720198707E-002   2.1951255601405942E-002   3.4133149855169631E-002
  -7.1082627285971089E-002   2.1396091843967839E-002   3.4023292479881444E-002
  -6.8974850851743486E-002   2.0717145115762919E-002   3.4146520676717765E-002
  -8.4559858481354375E-002   2.4857927472842836E-002   3.0104951361637114E-002
  -8.2208663681190286E-002   2.4566401234974319E-002   2.9345258606819788E-002
  -7.9857468881026156E-002   2.4104764505208532E-002   2.8839317011750847E-002
  -7.7506274080862053E-002   2.3473017283545238E-002   2.8587126576430335E-002
  -7.5155079280697951E-002   2.2671159569984667E-002   2.8588687300858340E-002
  -5.0220493248465767E-002   1.4855101753097677E-002   4.9943572328770613E-002
  -4.8655706006476812E-002   1.4524698056800345E-002   4.9564665922431500E-002
  -4.7090918764487864E-002   1.4138714919559994E-002   4.9421012765600708E-002
  -4.5526131522498903E-002   1.3697152341376282E-002   4.9512612858278321E-002
  -4.3961344280509962E-002   1.3200010322249489E-002   4.9839466200464311E-002
  -5.6507557835627380E-002   1.6809116207319452E-002   4.4823963190673943E-002
  -5.4714386592308761E-002   1.6346282684018665E-002   4.4431865066865986E-002
  -5.2921215348990122E-002   1.5855159557609397E-002   4.4261281696208965E-002
  -5.1128044105671497E-002   1.5335746828091783E-002   4.4312213078703075E-002
  -4.9334872862352872E-002   1.4788044495465724E-002   4.4584659214348010E-002
  -6.2759010370053270E-002   1.8763130661541172E-002   3.9558279306656327E-002
  -6.0751193621762387E-002   1.8167867311236902E-002   3.9180279303214355E-002
  -5.8743376873471476E-002   1.7571604195658848E-002   3.9010055556565948E-002
  -5.6735560125180565E-002   1.6974341314807198E-002   3.9047608066711120E-002
  -5.4727743376889695E-002   1.6376078668681904E-002   3.9292936833649886E-002
  -6.8974850851743486E-002   2.0717145115762919E-002   3.4146520676717765E-002
  -6.6766127094837716E-002   1.9989451938455041E-002   3.3809908631476523E-002
  -6.4557403337931890E-002   1.9288048833708302E-002   3.3667334346671476E-002
  -6.2348679581026127E-002   1.8612935801522630E-002   3.3718797822302547E-002
  -6.0139955824120309E-002   1.7964112841898000E-002   3.3964299058369757E-002
  -7.5155079280697951E-002   2.2671159569984667E-002   2.8588687300858340E-002
  -7.2759187011534665E-002   2.1811036565673292E-002   2.8320753051652575E-002
  -7.0363294742371421E-002   2.1004493471757701E-002   2.8233118066525648E-002
  -6.7967402473208177E-002   2.0251530288238007E-002   2.8325782345477404E-002
  -6.5571510204044892E-002   1.9552147015114318E-002   2.8598745888508026E-002
  -4.3961344280509962E-002   1.3200010322249489E-002   4.9839466200464311E-002
  -4.2312881288849996E-002   1.2677018352948488E-002   4.9610158223846901E-002
  -4.0664418297190058E-002   1.2157905924242221E-002   4.9548569021998112E-002
  -3.9015955305530120E-002   1.1642673036130886E-002   4.9654698594918306E-002
  -3.7367492313870168E-002   1.1131319688614416E-002   4.9928546942607233E-002
  -4.9334872862352872E-002   1.4788044495465724E-002   4.4584659214348010E-002
  -4.7514236589026204E-002   1.4229960330066044E-002   4.4346166551012728E-002
  -4.5693600315699572E-002   1.3679402102227955E-002   4.4284301676242088E-002
  -4.3872964042372939E-002   1.3136369811951085E-002   4.4399064590036216E-002
  -4.2052327769046279E-002   1.2600863459235889E-002   4.4690455292394765E-002
  -5.4727743376889695E-002   1.6376078668681904E-002   3.9292936833649886E-002
  -5.2726024808100486E-002   1.5782902307183738E-002   3.9048905880563367E-002
  -5.0724306239311283E-002   1.5200898280213627E-002   3.8990411729837339E-002
  -4.8722587670522045E-002   1.4630066587771504E-002   3.9117454381471906E-002
  -4.6720869101732870E-002   1.4070407229857390E-002   3.9430033835466768E-002
  -6.0139955824120309E-002   1.7964112841898000E-002   3.3964299058369757E-002
  -5.7948245946072729E-002   1.7335844284301363E-002   3.3718376212498680E-002
  -5.5756536068025150E-002   1.6722394458199358E-002   3.3666899182783927E-002
  -5.3564826189977544E-002   1.6123763363591840E-002   3.3809867969225589E-002
  -5.1373116311929930E-002   1.5539951000478933E-002   3.4147282571823381E-002
  -6.5571510204044892E-002   1.9552147015114318E-002   2.8598745888508026E-002
  -6.3180900002943019E-002   1.8888786261419016E-002   2.8354577546818860E-002
  -6.0790289801841188E-002   1.8243890636185034E-002   2.8313764035081901E-002
  -5.8399679600739336E-002   1.7617460139412039E-002   2.8476305353297038E-002
  -5.6009069399637484E-002   1.7009494771100420E-002   2.8842201501464548E-002
  -3.7367492313870168E-002   1.1131319688614416E-002   4.9928546942607233E-002
  -3.5769702804699294E-002   1.0621081972918750E-002   4.9652124566339828E-002
  -3.4171913295528399E-002   1.0109195980270283E-002   4.9551743479556126E-002
  -3.2574123786357517E-002   9.5956617106686716E-003   4.9627403682256280E-002
  -3.0976334277186615E-002   9.0804791641145854E-003   4.9879105174440053E-002
  -4.2052327769046279E-002   1.2600863459235889E-002   4.4690455292394765E-002
  -4.0291990579836824E-002   1.2056110456597269E-002   4.4402999671991267E-002
  -3.8531653390627377E-002   1.1485338216551136E-002   4.4264598122181212E-002
  -3.6771316201417957E-002   1.0888546739096661E-002   4.4275250642964510E-002
  -3.5010979012208496E-002   1.0265736024234862E-002   4.4434957234341210E-002
  -4.6720869101732870E-002   1.4070407229857390E-002   3.9430033835466768E-002
  -4.4824971451375269E-002   1.3491138940275968E-002   3.9107174010472381E-002
  -4.2929073801017605E-002   1.2861480452831760E-002   3.8906381037180894E-002
  -4.1033176150659968E-002   1.2181431767524705E-002   3.8827654915592494E-002
  -3.9137278500302283E-002   1.1450992884354916E-002   3.8870995645707090E-002
  -5.1373116311929930E-002   1.5539951000478933E-002   3.4147282571823381E-002
  -4.9368645419314523E-002   1.4926167423954466E-002   3.3764647581783061E-002
  -4.7364174526699110E-002   1.4237622689112443E-002   3.3477092224555235E-002
  -4.5359703634083696E-002   1.3474316795952554E-002   3.3284616500140168E-002
  -4.3355232741468283E-002   1.2636249744475025E-002   3.3187220408537658E-002
  -5.6009069399637484E-002   1.7009494771100420E-002   2.8842201501464548E-002
  -5.3923012483654637E-002   1.6361195907633103E-002   2.8375420385923278E-002
  -5.1836955567671802E-002   1.5613764925393236E-002   2.7976731684304368E-002
  -4.9750898651688989E-002   1.4767201824380544E-002   2.7646135396607471E-002
  -4.7664841735706120E-002   1.3821506604595302E-002   2.7383631522833130E-002
  -3.0976334277186615E-002   9.0804791641145854E-003   4.9879105174440053E-002
  -2.9336060642420780E-002   8.5376988921739283E-003   4.9408805738718198E-002
  -2.7695787007654980E-002   7.9413714464134089E-003   4.9033358366651070E-002
  -2.6055513372889211E-002   7.2914968268334227E-003   4.8752763058238474E-002
  -2.4415239738123373E-002   6.5880750334335048E-003   4.8567019813480883E-002
  -3.5010979012208496E-002   1.0265736024234862E-002   4.4434957234341210E-002
  -3.3221201407443814E-002   9.6312683417758560E-003   4.3902234016088643E-002
  -3.1431423802679173E-002   8.9995059615315398E-003   4.3573666674179001E-002
  -2.9641646197914463E-002   8.3704488835014967E-003   4.3449255208612370E-002
  -2.7851868593149781E-002   7.7440971076859766E-003   4.3528999619388609E-002
  -3.9137278500302283E-002   1.1450992884354916E-002   3.8870995645707090E-002
  -3.7088693112850644E-002   1.0724837791377895E-002   3.8332101120957973E-002
  -3.5040107725398915E-002   1.0057640476649490E-002   3.8106666285240079E-002
  -3.2991522337947103E-002   9.4494009401696784E-003   3.8194691138553429E-002
  -3.0942936950495478E-002   8.9001191819383374E-003   3.8596175680897682E-002
  -4.3355232741468283E-002   1.2636249744475025E-002   3.3187220408537658E-002
  -4.0938535758641308E-002   1.1818407240979989E-002   3.2698407053326300E-002
  -3.8521838775814353E-002   1.1115774991767642E-002   3.2632357199834289E-002
  -3.6105141792987343E-002   1.0528352996837751E-002   3.2989070848061686E-002
  -3.3688444810160548E-002   1.0056141256190754E-002   3.3768547998008380E-002
  -4.7664841735706120E-002   1.3821506604595302E-002   2.7383631522833130E-002
  -4.4770729344815796E-002   1.2911976690581806E-002   2.7001151813193403E-002
  -4.1876616953925389E-002   1.2173909506885530E-002   2.7150739417961450E-002
  -3.8982504563035023E-002   1.1607305053505924E-002   2.7832394337136981E-002
  -3.6088392172144712E-002   1.1212163330443170E-002   2.9046116570720093E-002
  -9.0361231681363979E-002   0.0000000000000000        4.9835380584351011E-002
  -9.3961782845923880E-002   5.4016447455508855E-003   5.3209538732607142E-002
  -9.7562334010483781E-002   1.0668264930043967E-002   5.4965778105052911E-002
 -0.10116288517504370        1.5799860553479241E-002   5.5104098701688337E-002
 -0.10476343633960358        2.0796431615856731E-002   5.3624500522513413E-002
 -0.10329374898330335        0.0000000000000000        5.8660076685732816E-002
 -0.10683084268878253        1.0882752350657384E-002   5.2117979482349031E-002
 -0.11036793639426169        1.9170539049261900E-002   4.7320715972937070E-002
 -0.11390503009974087        2.4863360095813521E-002   4.4268286157496950E-002
 -0.11744212380522004        2.7961215490312268E-002   4.2960690036028648E-002
 -0.12645890276521840        0.0000000000000000        7.4195850937718660E-002
 -0.12656978654183465        1.6363859955763886E-002   5.5277557291699891E-002
 -0.12668067031845093        2.7672813168479818E-002   4.1466849809435137E-002
 -0.12679155409506715        3.3926859638147802E-002   3.2763728490924376E-002
 -0.12690243787168343        3.5125999364767832E-002   2.9168193336167592E-002
 -0.15985669302710909        0.0000000000000000        9.6442703340308536E-002
 -0.15317861440508029        2.1844967560870378E-002   6.2688272160659711E-002
 -0.14650053578305142        3.6175087287697742E-002   3.7404179614547069E-002
 -0.13982245716102262        4.2990359180482079E-002   2.0590425701970599E-002
 -0.13314437853899375        4.2290783239223376E-002   1.2247010422930298E-002
 -0.20348711976897546        0.0000000000000000       0.12540063389350245     
 -0.18665732627851936        2.7326075165976883E-002   7.4350124089228489E-002
 -0.16982753278806326        4.4677361406915667E-002   3.5132705388272893E-002
 -0.15299773929760715        5.2053858722816364E-002   7.7483777906356410E-003
 -0.13616794580715103        4.9455567113678947E-002  -7.8028587036832048E-003
 -0.10476343633960358        2.0796431615856731E-002   5.3624500522513413E-002
 -0.10211014468861700        2.4941118058634509E-002   4.5642234467744146E-002
  -9.9456853037630452E-002   2.7517059823270660E-002   3.9346340112375207E-002
  -9.6803561386643880E-002   2.8524256909765223E-002   3.4736817456406534E-002
  -9.4150269735657321E-002   2.7962709318118145E-002   3.1813666499838231E-002
 -0.11744212380522004        2.7961215490312268E-002   4.2960690036028648E-002
 -0.11348919651088737        2.9435762694538549E-002   3.6699863621041350E-002
 -0.10953626921655471        3.0258659170272748E-002   3.1351936793345948E-002
 -0.10558334192222207        3.0429904917514860E-002   2.6916909552942375E-002
 -0.10163041462788941        2.9949499936264876E-002   2.3394781899830693E-002
 -0.12690243787168343        3.5125999364767832E-002   2.9168193336167592E-002
 -0.12242334704611312        3.3930407330442593E-002   2.5545900510611813E-002
 -0.11794425622054283        3.3000258517274832E-002   2.2063035160239459E-002
 -0.11346516539497253        3.2335552925264494E-002   1.8719597285050581E-002
 -0.10898607456940222        3.1936290554411606E-002   1.5515586885045025E-002
 -0.13314437853899375        4.2290783239223376E-002   1.2247010422930298E-002
 -0.12891259629429430        3.8425051966346678E-002   1.2180345136455602E-002
 -0.12468081404959477        3.5741857864276902E-002   1.1479635213055809E-002
 -0.12044903180489530        3.4241200933014165E-002   1.0144880652731020E-002
 -0.11621724956019581        3.3923081172558350E-002   8.1760814554811406E-003
 -0.13616794580715103        4.9455567113678947E-002  -7.8028587036832048E-003
 -0.13295694425543081        4.2919696602250673E-002  -3.3968025014273207E-003
 -0.12974594270371059        3.8483457211279007E-002  -3.9826304820508515E-004
 -0.12653494115199040        3.6146848940763775E-002   1.1927596559837489E-003
 -0.12332393960027016        3.5909871790705095E-002   1.3762656111391547E-003
  -9.4150269735657321E-002   2.7962709318118145E-002   3.1813666499838231E-002
  -9.1752666922081560E-002   2.6759220504750048E-002   3.1249627593033735E-002
  -8.9355064108505855E-002   2.5840593926081425E-002   3.0776828767732030E-002
  -8.6957461294930136E-002   2.5206829582112379E-002   3.0395270023933187E-002
  -8.4559858481354375E-002   2.4857927472842836E-002   3.0104951361637114E-002
 -0.10163041462788941        2.9949499936264876E-002   2.3394781899830693E-002
  -9.9132869030206794E-002   2.9172370473985840E-002   2.3135462646916238E-002
  -9.6635323432524109E-002   2.8453442778140648E-002   2.2984788880712675E-002
  -9.4137777834841480E-002   2.7792716848729363E-002   2.2942760601220115E-002
  -9.1640232237158850E-002   2.7190192685751985E-002   2.3009377808438577E-002
 -0.10898607456940222        3.1936290554411606E-002   1.5515586885045025E-002
 -0.10637118078240457        3.1585520443221590E-002   1.5334326817754863E-002
 -0.10375628699540690        3.1066291630199874E-002   1.5279117642383910E-002
 -0.10114139320840922        3.0378604115346364E-002   1.5349959358932058E-002
  -9.8526499421411520E-002   2.9522457898661182E-002   1.5546851967399255E-002
 -0.11621724956019581        3.3923081172558350E-002   8.1760814554811406E-003
 -0.11346760217867494        3.3998670412457389E-002   7.8462201055498997E-003
 -0.11071795479715409        3.3679140482259097E-002   7.6598150527457387E-003
 -0.10796830741563325        3.2964491381963397E-002   7.6168662970690759E-003
 -0.10521866003411241        3.1854723111570296E-002   7.7173738385193863E-003
 -0.12332393960027016        3.5909871790705095E-002   1.3762656111391547E-003
 -0.12042213321901796        3.6411820381693161E-002   6.7114251030107874E-004
 -0.11752032683776581        3.6291989334318292E-002   1.2688111179826739E-004
 -0.11461852045651363        3.5550378648580343E-002  -2.5651858436917356E-004
 -0.11171671407526146        3.4186988324479528E-002  -4.7905657820107583E-004
  -8.4559858481354375E-002   2.4857927472842836E-002   3.0104951361637114E-002
  -8.2208663681190286E-002   2.4566401234974319E-002   2.9345258606819788E-002
  -7.9857468881026156E-002   2.4104764505208532E-002   2.8839317011750847E-002
  -7.7506274080862053E-002   2.3473017283545238E-002   2.8587126576430335E-002
  -7.5155079280697951E-002   2.2671159569984667E-002   2.8588687300858340E-002
  -9.1640232237158850E-002   2.7190192685751985E-002   2.3009377808438577E-002
  -8.9045314766768871E-002   2.6587526616006350E-002   2.2319465099716503E-002
  -8.6450397296378934E-002   2.5926374966290168E-002   2.1863246571697741E-002
  -8.3855479825988968E-002   2.5206737736603653E-002   2.1640722224382080E-002
  -8.1260562355599003E-002   2.4428614926946590E-002   2.1651892057769989E-002
  -9.8526499421411520E-002   2.9522457898661182E-002   1.5546851967399255E-002
  -9.5707916259840903E-002   2.8608651997038319E-002   1.5038344216699404E-002
  -9.2889333098270244E-002   2.7747985427371911E-002   1.4743473667657785E-002
  -9.0070749936699557E-002   2.6940458189662071E-002   1.4662240320274161E-002
  -8.7252166775128953E-002   2.6186070283908514E-002   1.4794644174548593E-002
 -0.10521866003411241        3.1854723111570296E-002   7.7173738385193863E-003
 -0.10219646816040621        3.0629777378070346E-002   7.5018959577686003E-003
  -9.9174276286700072E-002   2.9569595888453631E-002   7.4799982996309345E-003
  -9.6152084412993929E-002   2.8674178642720375E-002   7.6516808641062016E-003
  -9.3129892539287759E-002   2.7943525640870437E-002   8.0169436511942777E-003
 -0.11171671407526146        3.4186988324479528E-002  -4.7905657820107583E-004
 -0.10851097046846492        3.2650902759102318E-002  -2.8987967707566620E-004
 -0.10530522686166841        3.1391206349535308E-002   7.2820467617362716E-005
 -0.10209948325487188        3.0407899095778877E-002   6.0904385587828846E-004
  -9.8893739648075352E-002   2.9700980997832416E-002   1.3187904877070555E-003
  -7.5155079280697951E-002   2.2671159569984667E-002   2.8588687300858340E-002
  -7.2759187011534665E-002   2.1811036565673292E-002   2.8320753051652575E-002
  -7.0363294742371421E-002   2.1004493471757701E-002   2.8233118066525648E-002
  -6.7967402473208177E-002   2.0251530288238007E-002   2.8325782345477404E-002
  -6.5571510204044892E-002   1.9552147015114318E-002   2.8598745888508026E-002
  -8.1260562355599003E-002   2.4428614926946590E-002   2.1651892057769989E-002
  -7.8706717912240751E-002   2.3624302399912853E-002   2.1505332401858021E-002
  -7.6152873468882554E-002   2.2826096018096154E-002   2.1494377830257178E-002
  -7.3599029025524315E-002   2.2033995781496604E-002   2.1619028342967438E-002
  -7.1045184582166090E-002   2.1248001690114093E-002   2.1879283939989086E-002
  -8.7252166775128953E-002   2.6186070283908514E-002   1.4794644174548593E-002
  -8.4585064337343363E-002   2.5437568234152386E-002   1.4721985346751579E-002
  -8.1917961899557773E-002   2.4647698564434606E-002   1.4740237423498184E-002
  -7.9250859461772238E-002   2.3816461274755063E-002   1.4849400404788275E-002
  -7.6583757023986648E-002   2.2943856365113868E-002   1.5049474290621728E-002
  -9.3129892539287759E-002   2.7943525640870437E-002   8.0169436511942777E-003
  -9.0394226286842488E-002   2.7250834068391988E-002   7.9707118863337270E-003
  -8.7658560034397218E-002   2.6469301110772975E-002   7.9706968462484960E-003
  -8.4922893781951919E-002   2.5598926768013619E-002   8.0168985309396913E-003
  -8.2187227529506621E-002   2.4639711040113477E-002   8.1093169404064108E-003
  -9.8893739648075352E-002   2.9700980997832416E-002   1.3187904877070555E-003
  -9.6134203760738002E-002   2.9064099902631452E-002   1.2515120206036956E-003
  -9.3374667873400707E-002   2.8290903657111496E-002   1.1857560985084753E-003
  -9.0615131986063413E-002   2.7381392261272116E-002   1.1215227214216063E-003
  -8.7855596098726063E-002   2.6335565715113529E-002   1.0588118893429810E-003
  -6.5571510204044892E-002   1.9552147015114318E-002   2.8598745888508026E-002
  -6.3180900002943019E-002   1.8888786261419016E-002   2.8354577546818860E-002
  -6.0790289801841188E-002   1.8243890636185034E-002   2.8313764035081901E-002
  -5.8399679600739336E-002   1.7617460139412039E-002   2.8476305353297038E-002
  -5.6009069399637484E-002   1.7009494771100420E-002   2.8842201501464548E-002
  -7.1045184582166090E-002   2.1248001690114093E-002   2.1879283939989086E-002
  -6.8448419541481467E-002   2.0478981353517556E-002   2.1596170790639219E-002
  -6.5851654500796830E-002   1.9737802381276232E-002   2.1522012490502701E-002
  -6.3254889460112207E-002   1.9024464773390086E-002   2.1656809039579665E-002
  -6.0658124419427584E-002   1.8338968529858946E-002   2.2000560437869965E-002
  -7.6583757023986648E-002   2.2943856365113868E-002   1.5049474290621728E-002
  -7.3775237124458035E-002   2.2069176445616304E-002   1.4736792569505136E-002
  -7.0966717224929463E-002   2.1231714126367596E-002   1.4638665716863217E-002
  -6.8158197325400863E-002   2.0431469407368022E-002   1.4755093732695790E-002
  -6.5349677425872332E-002   1.9668442288617444E-002   1.5086076617002980E-002
  -8.2187227529506621E-002   2.4639711040113477E-002   8.1093169404064108E-003
  -7.9161352751872874E-002   2.3659371537714753E-002   7.7764428834168724E-003
  -7.6135477974239127E-002   2.2725625871458793E-002   7.6637237141632467E-003
  -7.3109603196605380E-002   2.1838474041346125E-002   7.7711594326454591E-003
  -7.0083728418971605E-002   2.0997916047375956E-002   8.0987500388635114E-003
  -8.7855596098726063E-002   2.6335565715113529E-002   1.0588118893429810E-003
  -8.4606766423725943E-002   2.5249566629813591E-002   7.1512173237475718E-004
  -8.1357936748725823E-002   2.4219537616550185E-002   5.9718648240320027E-004
  -7.8109107073725648E-002   2.3245478675323956E-002   7.0500613942890700E-004
  -7.4860277398725583E-002   2.2327389806134357E-002   1.0385807034514194E-003
  -5.6009069399637484E-002   1.7009494771100420E-002   2.8842201501464548E-002
  -5.3923012483654637E-002   1.6361195907633103E-002   2.8375420385923278E-002
  -5.1836955567671802E-002   1.5613764925393236E-002   2.7976731684304368E-002
  -4.9750898651688989E-002   1.4767201824380544E-002   2.7646135396607471E-002
  -4.7664841735706120E-002   1.3821506604595302E-002   2.7383631522833130E-002
  -6.0658124419427584E-002   1.8338968529858946E-002   2.2000560437869965E-002
  -5.8437576644903635E-002   1.7639716672642025E-002   2.1480437425043575E-002
  -5.6217028870379715E-002   1.6885112223698900E-002   2.1161203715376983E-002
  -5.3996481095855801E-002   1.6075155183028926E-002   2.1042859308870350E-002
  -5.1775933321331846E-002   1.5209845550632761E-002   2.1125404205523612E-002
  -6.5349677425872332E-002   1.9668442288617444E-002   1.5086076617002980E-002
  -6.2861841903569526E-002   1.8918237437651100E-002   1.4556391233937344E-002
  -6.0374006381266776E-002   1.8156459522004453E-002   1.4360392043269193E-002
  -5.7886170858964039E-002   1.7383108541677475E-002   1.4498079044999015E-002
  -5.5398335336661261E-002   1.6598184496670082E-002   1.4969452239126449E-002
  -7.0083728418971605E-002   2.0997916047375956E-002   8.0987500388635114E-003
  -6.7195808259652282E-002   2.0196758202660155E-002   7.6032818126047022E-003
  -6.4307888100332930E-002   1.9427806820309951E-002   7.5742966679813589E-003
  -6.1419967941013599E-002   1.8691061900325774E-002   8.0117946049935076E-003
  -5.8532047781694282E-002   1.7986523442707528E-002   8.9157756236412609E-003
  -7.4860277398725583E-002   2.2327389806134357E-002   1.0385807034514194E-003
  -7.1439475713151901E-002   2.1475278967669209E-002   6.2110916104579639E-004
  -6.8018674027578274E-002   2.0699154118615670E-002   8.0291758951314685E-004
  -6.4597872342004620E-002   1.9999015258974517E-002   1.5840059888539773E-003
  -6.1177070656430965E-002   1.9374862388744973E-002   2.9643743590678229E-003
  -4.7664841735706120E-002   1.3821506604595302E-002   2.7383631522833130E-002
  -4.4770729344815796E-002   1.2911976690581806E-002   2.7001151813193403E-002
  -4.1876616953925389E-002   1.2173909506885530E-002   2.7150739417961450E-002
  -3.8982504563035023E-002   1.1607305053505924E-002   2.7832394337136981E-002
  -3.6088392172144712E-002   1.1212163330443170E-002   2.9046116570720093E-002
  -5.1775933321331846E-002   1.5209845550632761E-002   2.1125404205523612E-002
  -4.8581812909472305E-002   1.4342219746661805E-002   2.1110646262189309E-002
  -4.5387692497612653E-002   1.3525314191268262E-002   2.1163837046385886E-002
  -4.2193572085753132E-002   1.2759128884452332E-002   2.1284976558113358E-002
  -3.8999451673893459E-002   1.2043663826213802E-002   2.1474064797371684E-002
  -5.5398335336661261E-002   1.6598184496670082E-002   1.4969452239126449E-002
  -5.2368325490709092E-002   1.5772462802741666E-002   1.5201673580357747E-002
  -4.9338315644756874E-002   1.4876718875650875E-002   1.5037725062243469E-002
  -4.6308305798804655E-002   1.3910952715398767E-002   1.4477606684783696E-002
  -4.3278295952852555E-002   1.2875164321984323E-002   1.3521318447977881E-002
  -5.8532047781694282E-002   1.7986523442707528E-002   8.9157756236412609E-003
  -5.6130267088526045E-002   1.7202705858821318E-002   9.2742337676989528E-003
  -5.3728486395357843E-002   1.6228123560033714E-002   8.7724034655344476E-003
  -5.1326705702189716E-002   1.5062776546344966E-002   7.4102847171477514E-003
  -4.8924925009021417E-002   1.3706664817755121E-002   5.1878775225386031E-003
  -6.1177070656430965E-002   1.9374862388744973E-002   2.9643743590678229E-003
  -5.9867637702923471E-002   1.8632948914901526E-002   3.3283268242127462E-003
  -5.8558204749415754E-002   1.7579528244416082E-002   2.3678722562588683E-003
  -5.7248771795908093E-002   1.6214600377291520E-002   8.3010655205988104E-005
  -5.5939338842400543E-002   1.4538165313525475E-002  -3.5262579789459014E-003
 </DataArray>
 </PointData>
 </Piece>
 <Piece  NumberOfPoints="          1600 "  NumberOfCells="         1024 ">
 <Points>
 <DataArray  type="Float64" NumberOfComponents="3"  format="ascii" >
  0.50000000000000000        0.0000000000000000        0.0000000000000000     
  0.53125000000000000        0.0000000000000000        0.0000000000000000     
  0.56250000000000000        0.0000000000000000        0.0000000000000000     
  0.59375000000000000        0.0000000000000000        0.0000000000000000     
  0.62500000000000000        0.0000000000000000        0.0000000000000000     
  0.50000000000000000        3.1250000000000000E-002   0.0000000000000000     
  0.53125000000000000        3.1250000000000000E-002   0.0000000000000000     
  0.56250000000000000        3.1250000000000000E-002   0.0000000000000000     
  0.59375000000000000        3.1250000000000000E-002   0.0000000000000000     
  0.62500000000000000        3.1250000000000000E-002   0.0000000000000000     
  0.50000000000000000        6.2500000000000000E-002   0.0000000000000000     
  0.53125000000000000        6.2500000000000000E-002   0.0000000000000000     
  0.56250000000000000        6.2500000000000000E-002   0.0000000000000000     
  0.59375000000000000        6.2500000000000000E-002   0.0000000000000000     
  0.62500000000000000        6.2500000000000000E-002   0.0000000000000000     
  0.50000000000000000        9.3750000000000000E-002   0.0000000000000000     
  0.53125000000000000        9.3750000000000000E-002   0.0000000000000000     
  0.56250000000000000        9.3750000000000000E-002   0.0000000000000000     
  0.59375000000000000        9.3750000000000000E-002   0.0000000000000000     
  0.62500000000000000        9.3750000000000000E-002   0.0000000000000000     
  0.50000000000000000       0.12500000000000000        0.0000000000000000     
  0.53125000000000000       0.12500000000000000        0.0000000000000000     
  0.56250000000000000       0.12500000000000000        0.0000000000000000     
  0.59375000000000000       0.12500000000000000        0.0000000000000000     
  0.62500000000000000       0.12500000000000000        0.0000000000000000     
  0.62500000000000000        0.0000000000000000        0.0000000000000000     
  0.65625000000000000        0.0000000000000000        0.0000000000000000     
  0.68750000000000000        0.0000000000000000        0.0000000000000000     
  0.71875000000000000        0.0000000000000000        0.0000000000000000     
  0.75000000000000000        0.0000000000000000        0.0000000000000000     
  0.62500000000000000        3.1250000000000000E-002   0.0000000000000000     
  0.65625000000000000        3.1250000000000000E-002   0.0000000000000000     
  0.68750000000000000        3.1250000000000000E-002   0.0000000000000000     
  0.71875000000000000        3.1250000000000000E-002   0.0000000000000000     
  0.75000000000000000        3.1250000000000000E-002   0.0000000000000000     
  0.62500000000000000        6.2500000000000000E-002   0.0000000000000000     
  0.65625000000000000        6.2500000000000000E-002   0.0000000000000000     
  0.68750000000000000        6.2500000000000000E-002   0.0000000000000000     
  0.71875000000000000        6.2500000000000000E-002   0.0000000000000000     
  0.75000000000000000        6.2500000000000000E-002   0.0000000000000000     
  0.62500000000000000        9.3750000000000000E-002   0.0000000000000000     
  0.65625000000000000        9.3750000000000000E-002   0.0000000000000000     
  0.68750000000000000        9.3750000000000000E-002   0.0000000000000000     
  0.71875000000000000        9.3750000000000000E-002   0.0000000000000000     
  0.75000000000000000        9.3750000000000000E-002   0.0000000000000000     
  0.62500000000000000       0.12500000000000000        0.0000000000000000     
  0.65625000000000000       0.12500000000000000        0.0000000000000000     
  0.68750000000000000       0.12500000000000000        0.0000000000000000     
  0.71875000000000000       0.12500000000000000        0.0000000000000000     
  0.75000000000000000       0.12500000000000000        0.0000000000000000     
  0.75000000000000000        0.0000000000000000        0.0000000000000000     
  0.78125000000000000        0.0000000000000000        0.0000000000000000     
  0.81250000000000000        0.0000000000000000        0.0000000000000000     
  0.84375000000000000        0.0000000000000000        0.0000000000000000     
  0.87500000000000000        0.0000000000000000        0.0000000000000000     
  0.75000000000000000        3.1250000000000000E-002   0.0000000000000000     
  0.78125000000000000        3.1250000000000000E-002   0.0000000000000000     
  0.81250000000000000        3.1250000000000000E-002   0.0000000000000000     
  0.84375000000000000        3.1250000000000000E-002   0.0000000000000000     
  0.87500000000000000        3.1250000000000000E-002   0.0000000000000000     
  0.75000000000000000        6.2500000000000000E-002   0.0000000000000000     
  0.78125000000000000        6.2500000000000000E-002   0.0000000000000000     
  0.81250000000000000        6.2500000000000000E-002   0.0000000000000000     
  0.84375000000000000        6.2500000000000000E-002   0.0000000000000000     
  0.87500000000000000        6.2500000000000000E-002   0.0000000000000000     
  0.75000000000000000        9.3750000000000000E-002   0.0000000000000000     
  0.78125000000000000        9.3750000000000000E-002   0.0000000000000000     
  0.81250000000000000        9.3750000000000000E-002   0.0000000000000000     
  0.84375000000000000        9.3750000000000000E-002   0.0000000000000000     
  0.87500000000000000        9.3750000000000000E-002   0.0000000000000000     
  0.75000000000000000       0.12500000000000000        0.0000000000000000     
  0.78125000000000000       0.12500000000000000        0.0000000000000000     
  0.81250000000000000       0.12500000000000000        0.0000000000000000     
  0.84375000000000000       0.12500000000000000        0.0000000000000000     
  0.87500000000000000       0.12500000000000000        0.0000000000000000     
  0.87500000000000000        0.0000000000000000        0.0000000000000000     
  0.90625000000000000        0.0000000000000000        0.0000000000000000     
  0.93750000000000000        0.0000000000000000        0.0000000000000000     
  0.96875000000000000        0.0000000000000000        0.0000000000000000     
   1.0000000000000000        0.0000000000000000        0.0000000000000000     
  0.87500000000000000        3.1250000000000000E-002   0.0000000000000000     
  0.90625000000000000        3.1250000000000000E-002   0.0000000000000000     
  0.93750000000000000        3.1250000000000000E-002   0.0000000000000000     
  0.96875000000000000        3.1250000000000000E-002   0.0000000000000000     
   1.0000000000000000        3.1250000000000000E-002   0.0000000000000000     
  0.87500000000000000        6.2500000000000000E-002   0.0000000000000000     
  0.90625000000000000        6.2500000000000000E-002   0.0000000000000000     
  0.93750000000000000        6.2500000000000000E-002   0.0000000000000000     
  0.96875000000000000        6.2500000000000000E-002   0.0000000000000000     
   1.0000000000000000        6.2500000000000000E-002   0.0000000000000000     
  0.87500000000000000        9.3750000000000000E-002   0.0000000000000000     
  0.90625000000000000        9.3750000000000000E-002   0.0000000000000000     
  0.93750000000000000        9.3750000000000000E-002   0.0000000000000000     
  0.96875000000000000        9.3750000000000000E-002   0.0000000000000000     
   1.0000000000000000        9.3750000000000000E-002   0.0000000000000000     
  0.87500000000000000       0.12500000000000000        0.0000000000000000     
  0.90625000000000000       0.12500000000000000        0.0000000000000000     
  0.93750000000000000       0.12500000000000000        0.0000000000000000     
  0.96875000000000000       0.12500000000000000        0.0000000000000000     
   1.0000000000000000       0.12500000000000000        0.0000000000000000     
   1.0000000000000000        0.0000000000000000        0.0000000000000000     
   1.0312500000000000        0.0000000000000000        0.0000000000000000     
   1.0625000000000000        0.0000000000000000        0.0000000000000000     
   1.0937500000000000        0.0000000000000000        0.0000000000000000     
   1.1250000000000000        0.0000000000000000        0.0000000000000000     
   1.0000000000000000        3.1250000000000000E-002   0.0000000000000000     
   1.0312500000000000        3.1250000000000000E-002   0.0000000000000000     
   1.0625000000000000        3.1250000000000000E-002   0.0000000000000000     
   1.0937500000000000        3.1250000000000000E-002   0.0000000000000000     
   1.1250000000000000        3.1250000000000000E-002   0.0000000000000000     
   1.0000000000000000        6.2500000000000000E-002   0.0000000000000000     
   1.0312500000000000        6.2500000000000000E-002   0.0000000000000000     
   1.0625000000000000        6.2500000000000000E-002   0.0000000000000000     
   1.0937500000000000        6.2500000000000000E-002   0.0000000000000000     
   1.1250000000000000        6.2500000000000000E-002   0.0000000000000000     
   1.0000000000000000        9.3750000000000000E-002   0.0000000000000000     
   1.0312500000000000        9.3750000000000000E-002   0.0000000000000000     
   1.0625000000000000        9.3750000000000000E-002   0.0000000000000000     
   1.0937500000000000        9.3750000000000000E-002   0.0000000000000000     
   1.1250000000000000        9.3750000000000000E-002   0.0000000000000000     
   1.0000000000000000       0.12500000000000000        0.0000000000000000     
   1.0312500000000000       0.12500000000000000        0.0000000000000000     
   1.0625000000000000       0.12500000000000000        0.0000000000000000     
   1.0937500000000000       0.12500000000000000        0.0000000000000000     
   1.1250000000000000       0.12500000000000000        0.0000000000000000     
   1.1250000000000000        0.0000000000000000        0.0000000000000000     
   1.1562500000000000        0.0000000000000000        0.0000000000000000     
   1.1875000000000000        0.0000000000000000        0.0000000000000000     
   1.2187500000000000        0.0000000000000000        0.0000000000000000     
   1.2500000000000000        0.0000000000000000        0.0000000000000000     
   1.1250000000000000        3.1250000000000000E-002   0.0000000000000000     
   1.1562500000000000        3.1250000000000000E-002   0.0000000000000000     
   1.1875000000000000        3.1250000000000000E-002   0.0000000000000000     
   1.2187500000000000        3.1250000000000000E-002   0.0000000000000000     
   1.2500000000000000        3.1250000000000000E-002   0.0000000000000000     
   1.1250000000000000        6.2500000000000000E-002   0.0000000000000000     
   1.1562500000000000        6.2500000000000000E-002   0.0000000000000000     
   1.1875000000000000        6.2500000000000000E-002   0.0000000000000000     
   1.2187500000000000        6.2500000000000000E-002   0.0000000000000000     
   1.2500000000000000        6.2500000000000000E-002   0.0000000000000000     
   1.1250000000000000        9.3750000000000000E-002   0.0000000000000000     
   1.1562500000000000        9.3750000000000000E-002   0.0000000000000000     
   1.1875000000000000        9.3750000000000000E-002   0.0000000000000000     
   1.2187500000000000        9.3750000000000000E-002   0.0000000000000000     
   1.2500000000000000        9.3750000000000000E-002   0.0000000000000000     
   1.1250000000000000       0.12500000000000000        0.0000000000000000     
   1.1562500000000000       0.12500000000000000        0.0000000000000000     
   1.1875000000000000       0.12500000000000000        0.0000000000000000     
   1.2187500000000000       0.12500000000000000        0.0000000000000000     
   1.2500000000000000       0.12500000000000000        0.0000000000000000     
   1.2500000000000000        0.0000000000000000        0.0000000000000000     
   1.2812500000000000        0.0000000000000000        0.0000000000000000     
   1.3125000000000000        0.0000000000000000        0.0000000000000000     
   1.3437500000000000        0.0000000000000000        0.0000000000000000     
   1.3750000000000000        0.0000000000000000        0.0000000000000000     
   1.2500000000000000        3.1250000000000000E-002   0.0000000000000000     
   1.2812500000000000        3.1250000000000000E-002   0.0000000000000000     
   1.3125000000000000        3.1250000000000000E-002   0.0000000000000000     
   1.3437500000000000        3.1250000000000000E-002   0.0000000000000000     
   1.3750000000000000        3.1250000000000000E-002   0.0000000000000000     
   1.2500000000000000        6.2500000000000000E-002   0.0000000000000000     
   1.2812500000000000        6.2500000000000000E-002   0.0000000000000000     
   1.3125000000000000        6.2500000000000000E-002   0.0000000000000000     
   1.3437500000000000        6.2500000000000000E-002   0.0000000000000000     
   1.3750000000000000        6.2500000000000000E-002   0.0000000000000000     
   1.2500000000000000        9.3750000000000000E-002   0.0000000000000000     
   1.2812500000000000        9.3750000000000000E-002   0.0000000000000000     
   1.3125000000000000        9.3750000000000000E-002   0.0000000000000000     
   1.3437500000000000        9.3750000000000000E-002   0.0000000000000000     
   1.3750000000000000        9.3750000000000000E-002   0.0000000000000000     
   1.2500000000000000       0.12500000000000000        0.0000000000000000     
   1.2812500000000000       0.12500000000000000        0.0000000000000000     
   1.3125000000000000       0.12500000000000000        0.0000000000000000     
   1.3437500000000000       0.12500000000000000        0.0000000000000000     
   1.3750000000000000       0.12500000000000000        0.0000000000000000     
   1.3750000000000000        0.0000000000000000        0.0000000000000000     
   1.4062500000000000        0.0000000000000000        0.0000000000000000     
   1.4375000000000000        0.0000000000000000        0.0000000000000000     
   1.4687500000000000        0.0000000000000000        0.0000000000000000     
   1.5000000000000000        0.0000000000000000        0.0000000000000000     
   1.3750000000000000        3.1250000000000000E-002   0.0000000000000000     
   1.4062500000000000        3.1250000000000000E-002   0.0000000000000000     
   1.4375000000000000        3.1250000000000000E-002   0.0000000000000000     
   1.4687500000000000        3.1250000000000000E-002   0.0000000000000000     
   1.5000000000000000        3.1250000000000000E-002   0.0000000000000000     
   1.3750000000000000        6.2500000000000000E-002   0.0000000000000000     
   1.4062500000000000        6.2500000000000000E-002   0.0000000000000000     
   1.4375000000000000        6.2500000000000000E-002   0.0000000000000000     
   1.4687500000000000        6.2500000000000000E-002   0.0000000000000000     
   1.5000000000000000        6.2500000000000000E-002   0.0000000000000000     
   1.3750000000000000        9.3750000000000000E-002   0.0000000000000000     
   1.4062500000000000        9.3750000000000000E-002   0.0000000000000000     
   1.4375000000000000        9.3750000000000000E-002   0.0000000000000000     
   1.4687500000000000        9.3750000000000000E-002   0.0000000000000000     
   1.5000000000000000        9.3750000000000000E-002   0.0000000000000000     
   1.3750000000000000       0.12500000000000000        0.0000000000000000     
   1.4062500000000000       0.12500000000000000        0.0000000000000000     
   1.4375000000000000       0.12500000000000000        0.0000000000000000     
   1.4687500000000000       0.12500000000000000        0.0000000000000000     
   1.5000000000000000       0.12500000000000000        0.0000000000000000     
  0.50000000000000000       0.12500000000000000        0.0000000000000000     
  0.53125000000000000       0.12500000000000000        0.0000000000000000     
  0.56250000000000000       0.12500000000000000        0.0000000000000000     
  0.59375000000000000       0.12500000000000000        0.0000000000000000     
  0.62500000000000000       0.12500000000000000        0.0000000000000000     
  0.50000000000000000       0.15625000000000000        0.0000000000000000     
  0.53125000000000000       0.15625000000000000        0.0000000000000000     
  0.56250000000000000       0.15625000000000000        0.0000000000000000     
  0.59375000000000000       0.15625000000000000        0.0000000000000000     
  0.62500000000000000       0.15625000000000000        0.0000000000000000     
  0.50000000000000000       0.18750000000000000        0.0000000000000000     
  0.53125000000000000       0.18750000000000000        0.0000000000000000     
  0.56250000000000000       0.18750000000000000        0.0000000000000000     
  0.59375000000000000       0.18750000000000000        0.0000000000000000     
  0.62500000000000000       0.18750000000000000        0.0000000000000000     
  0.50000000000000000       0.21875000000000000        0.0000000000000000     
  0.53125000000000000       0.21875000000000000        0.0000000000000000     
  0.56250000000000000       0.21875000000000000        0.0000000000000000     
  0.59375000000000000       0.21875000000000000        0.0000000000000000     
  0.62500000000000000       0.21875000000000000        0.0000000000000000     
  0.50000000000000000       0.25000000000000000        0.0000000000000000     
  0.53125000000000000       0.25000000000000000        0.0000000000000000     
  0.56250000000000000       0.25000000000000000        0.0000000000000000     
  0.59375000000000000       0.25000000000000000        0.0000000000000000     
  0.62500000000000000       0.25000000000000000        0.0000000000000000     
  0.62500000000000000       0.12500000000000000        0.0000000000000000     
  0.65625000000000000       0.12500000000000000        0.0000000000000000     
  0.68750000000000000       0.12500000000000000        0.0000000000000000     
  0.71875000000000000       0.12500000000000000        0.0000000000000000     
  0.75000000000000000       0.12500000000000000        0.0000000000000000     
  0.62500000000000000       0.15625000000000000        0.0000000000000000     
  0.65625000000000000       0.15625000000000000        0.0000000000000000     
  0.68750000000000000       0.15625000000000000        0.0000000000000000     
  0.71875000000000000       0.15625000000000000        0.0000000000000000     
  0.75000000000000000       0.15625000000000000        0.0000000000000000     
  0.62500000000000000       0.18750000000000000        0.0000000000000000     
  0.65625000000000000       0.18750000000000000        0.0000000000000000     
  0.68750000000000000       0.18750000000000000        0.0000000000000000     
  0.71875000000000000       0.18750000000000000        0.0000000000000000     
  0.75000000000000000       0.18750000000000000        0.0000000000000000     
  0.62500000000000000       0.21875000000000000        0.0000000000000000     
  0.65625000000000000       0.21875000000000000        0.0000000000000000     
  0.68750000000000000       0.21875000000000000        0.0000000000000000     
  0.71875000000000000       0.21875000000000000        0.0000000000000000     
  0.75000000000000000       0.21875000000000000        0.0000000000000000     
  0.62500000000000000       0.25000000000000000        0.0000000000000000     
  0.65625000000000000       0.25000000000000000        0.0000000000000000     
  0.68750000000000000       0.25000000000000000        0.0000000000000000     
  0.71875000000000000       0.25000000000000000        0.0000000000000000     
  0.75000000000000000       0.25000000000000000        0.0000000000000000     
  0.75000000000000000       0.12500000000000000        0.0000000000000000     
  0.78125000000000000       0.12500000000000000        0.0000000000000000     
  0.81250000000000000       0.12500000000000000        0.0000000000000000     
  0.84375000000000000       0.12500000000000000        0.0000000000000000     
  0.87500000000000000       0.12500000000000000        0.0000000000000000     
  0.75000000000000000       0.15625000000000000        0.0000000000000000     
  0.78125000000000000       0.15625000000000000        0.0000000000000000     
  0.81250000000000000       0.15625000000000000        0.0000000000000000     
  0.84375000000000000       0.15625000000000000        0.0000000000000000     
  0.87500000000000000       0.15625000000000000        0.0000000000000000     
  0.75000000000000000       0.18750000000000000        0.0000000000000000     
  0.78125000000000000       0.18750000000000000        0.0000000000000000     
  0.81250000000000000       0.18750000000000000        0.0000000000000000     
  0.84375000000000000       0.18750000000000000        0.0000000000000000     
  0.87500000000000000       0.18750000000000000        0.0000000000000000     
  0.75000000000000000       0.21875000000000000        0.0000000000000000     
  0.78125000000000000       0.21875000000000000        0.0000000000000000     
  0.81250000000000000       0.21875000000000000        0.0000000000000000     
  0.84375000000000000       0.21875000000000000        0.0000000000000000     
  0.87500000000000000       0.21875000000000000        0.0000000000000000     
  0.75000000000000000       0.25000000000000000        0.0000000000000000     
  0.78125000000000000       0.25000000000000000        0.0000000000000000     
  0.81250000000000000       0.25000000000000000        0.0000000000000000     
  0.84375000000000000       0.25000000000000000        0.0000000000000000     
  0.87500000000000000       0.25000000000000000        0.0000000000000000     
  0.87500000000000000       0.12500000000000000        0.0000000000000000     
  0.90625000000000000       0.12500000000000000        0.0000000000000000     
  0.93750000000000000       0.12500000000000000        0.0000000000000000     
  0.96875000000000000       0.12500000000000000        0.0000000000000000     
   1.0000000000000000       0.12500000000000000        0.0000000000000000     
  0.87500000000000000       0.15625000000000000        0.0000000000000000     
  0.90625000000000000       0.15625000000000000        0.0000000000000000     
  0.93750000000000000       0.15625000000000000        0.0000000000000000     
  0.96875000000000000       0.15625000000000000        0.0000000000000000     
   1.0000000000000000       0.15625000000000000        0.0000000000000000     
  0.87500000000000000       0.18750000000000000        0.0000000000000000     
  0.90625000000000000       0.18750000000000000        0.0000000000000000     
  0.93750000000000000       0.18750000000000000        0.0000000000000000     
  0.96875000000000000       0.18750000000000000        0.0000000000000000     
   1.0000000000000000       0.18750000000000000        0.0000000000000000     
  0.87500000000000000       0.21875000000000000        0.0000000000000000     
  0.90625000000000000       0.21875000000000000        0.0000000000000000     
  0.93750000000000000       0.21875000000000000        0.0000000000000000     
  0.96875000000000000       0.21875000000000000        0.0000000000000000     
   1.0000000000000000       0.21875000000000000        0.0000000000000000     
  0.87500000000000000       0.25000000000000000        0.0000000000000000     
  0.90625000000000000       0.25000000000000000        0.0000000000000000     
  0.93750000000000000       0.25000000000000000        0.0000000000000000     
  0.96875000000000000       0.25000000000000000        0.0000000000000000     
   1.0000000000000000       0.25000000000000000        0.0000000000000000     
   1.0000000000000000       0.12500000000000000        0.0000000000000000     
   1.0312500000000000       0.12500000000000000        0.0000000000000000     
   1.0625000000000000       0.12500000000000000        0.0000000000000000     
   1.0937500000000000       0.12500000000000000        0.0000000000000000     
   1.1250000000000000       0.12500000000000000        0.0000000000000000     
   1.0000000000000000       0.15625000000000000        0.0000000000000000     
   1.0312500000000000       0.15625000000000000        0.0000000000000000     
   1.0625000000000000       0.15625000000000000        0.0000000000000000     
   1.0937500000000000       0.15625000000000000        0.0000000000000000     
   1.1250000000000000       0.15625000000000000        0.0000000000000000     
   1.0000000000000000       0.18750000000000000        0.0000000000000000     
   1.0312500000000000       0.18750000000000000        0.0000000000000000     
   1.0625000000000000       0.18750000000000000        0.0000000000000000     
   1.0937500000000000       0.18750000000000000        0.0000000000000000     
   1.1250000000000000       0.18750000000000000        0.0000000000000000     
   1.0000000000000000       0.21875000000000000        0.0000000000000000     
   1.0312500000000000       0.21875000000000000        0.0000000000000000     
   1.0625000000000000       0.21875000000000000        0.0000000000000000     
   1.0937500000000000       0.21875000000000000        0.0000000000000000     
   1.1250000000000000       0.21875000000000000        0.0000000000000000     
   1.0000000000000000       0.25000000000000000        0.0000000000000000     
   1.0312500000000000       0.25000000000000000        0.0000000000000000     
   1.0625000000000000       0.25000000000000000        0.0000000000000000     
   1.0937500000000000       0.25000000000000000        0.0000000000000000     
   1.1250000000000000       0.25000000000000000        0.0000000000000000     
   1.1250000000000000       0.12500000000000000        0.0000000000000000     
   1.1562500000000000       0.12500000000000000        0.0000000000000000     
   1.1875000000000000       0.12500000000000000        0.0000000000000000     
   1.2187500000000000       0.12500000000000000        0.0000000000000000     
   1.2500000000000000       0.12500000000000000        0.0000000000000000     
   1.1250000000000000       0.15625000000000000        0.0000000000000000     
   1.1562500000000000       0.15625000000000000        0.0000000000000000     
   1.1875000000000000       0.15625000000000000        0.0000000000000000     
   1.2187500000000000       0.15625000000000000        0.0000000000000000     
   1.2500000000000000       0.15625000000000000        0.0000000000000000     
   1.1250000000000000       0.18750000000000000        0.0000000000000000     
   1.1562500000000000       0.18750000000000000        0.0000000000000000     
   1.1875000000000000       0.18750000000000000        0.0000000000000000     
   1.2187500000000000       0.18750000000000000        0.0000000000000000     
   1.2500000000000000       0.18750000000000000        0.0000000000000000     
   1.1250000000000000       0.21875000000000000        0.0000000000000000     
   1.1562500000000000       0.21875000000000000        0.0000000000000000     
   1.1875000000000000       0.21875000000000000        0.0000000000000000     
   1.2187500000000000       0.21875000000000000        0.0000000000000000     
   1.2500000000000000       0.21875000000000000        0.0000000000000000     
   1.1250000000000000       0.25000000000000000        0.0000000000000000     
   1.1562500000000000       0.25000000000000000        0.0000000000000000     
   1.1875000000000000       0.25000000000000000        0.0000000000000000     
   1.2187500000000000       0.25000000000000000        0.0000000000000000     
   1.2500000000000000       0.25000000000000000        0.0000000000000000     
   1.2500000000000000       0.12500000000000000        0.0000000000000000     
   1.2812500000000000       0.12500000000000000        0.0000000000000000     
   1.3125000000000000       0.12500000000000000        0.0000000000000000     
   1.3437500000000000       0.12500000000000000        0.0000000000000000     
   1.3750000000000000       0.12500000000000000        0.0000000000000000     
   1.2500000000000000       0.15625000000000000        0.0000000000000000     
   1.2812500000000000       0.15625000000000000        0.0000000000000000     
   1.3125000000000000       0.15625000000000000        0.0000000000000000     
   1.3437500000000000       0.15625000000000000        0.0000000000000000     
   1.3750000000000000       0.15625000000000000        0.0000000000000000     
   1.2500000000000000       0.18750000000000000        0.0000000000000000     
   1.2812500000000000       0.18750000000000000        0.0000000000000000     
   1.3125000000000000       0.18750000000000000        0.0000000000000000     
   1.3437500000000000       0.18750000000000000        0.0000000000000000     
   1.3750000000000000       0.18750000000000000        0.0000000000000000     
   1.2500000000000000       0.21875000000000000        0.0000000000000000     
   1.2812500000000000       0.21875000000000000        0.0000000000000000     
   1.3125000000000000       0.21875000000000000        0.0000000000000000     
   1.3437500000000000       0.21875000000000000        0.0000000000000000     
   1.3750000000000000       0.21875000000000000        0.0000000000000000     
   1.2500000000000000       0.25000000000000000        0.0000000000000000     
   1.2812500000000000       0.25000000000000000        0.0000000000000000     
   1.3125000000000000       0.25000000000000000        0.0000000000000000     
   1.3437500000000000       0.25000000000000000        0.0000000000000000     
   1.3750000000000000       0.25000000000000000        0.0000000000000000     
   1.3750000000000000       0.12500000000000000        0.0000000000000000     
   1.4062500000000000       0.12500000000000000        0.0000000000000000     
   1.4375000000000000       0.12500000000000000        0.0000000000000000     
   1.4687500000000000       0.12500000000000000        0.0000000000000000     
   1.5000000000000000       0.12500000000000000        0.0000000000000000     
   1.3750000000000000       0.15625000000000000        0.0000000000000000     
   1.4062500000000000       0.15625000000000000        0.0000000000000000     
   1.4375000000000000       0.15625000000000000        0.0000000000000000     
   1.4687500000000000       0.15625000000000000        0.0000000000000000     
   1.5000000000000000       0.15625000000000000        0.0000000000000000     
   1.3750000000000000       0.18750000000000000        0.0000000000000000     
   1.4062500000000000       0.18750000000000000        0.0000000000000000     
   1.4375000000000000       0.18750000000000000        0.0000000000000000     
   1.4687500000000000       0.18750000000000000        0.0000000000000000     
   1.5000000000000000       0.18750000000000000        0.0000000000000000     
   1.3750000000000000       0.21875000000000000        0.0000000000000000     
   1.4062500000000000       0.21875000000000000        0.0000000000000000     
   1.4375000000000000       0.21875000000000000        0.0000000000000000     
   1.4687500000000000       0.21875000000000000        0.0000000000000000     
   1.5000000000000000       0.21875000000000000        0.0000000000000000     
   1.3750000000000000       0.25000000000000000        0.0000000000000000     
   1.4062500000000000       0.25000000000000000        0.0000000000000000     
   1.4375000000000000       0.25000000000000000        0.0000000000000000     
   1.4687500000000000       0.25000000000000000        0.0000000000000000     
   1.5000000000000000       0.25000000000000000        0.0000000000000000     
  0.50000000000000000       0.25000000000000000        0.0000000000000000     
  0.53125000000000000       0.25000000000000000        0.0000000000000000     
  0.56250000000000000       0.25000000000000000        0.0000000000000000     
  0.59375000000000000       0.25000000000000000        0.0000000000000000     
  0.62500000000000000       0.25000000000000000        0.0000000000000000     
  0.50000000000000000       0.28125000000000000        0.0000000000000000     
  0.53125000000000000       0.28125000000000000        0.0000000000000000     
  0.56250000000000000       0.28125000000000000        0.0000000000000000     
  0.59375000000000000       0.28125000000000000        0.0000000000000000     
  0.62500000000000000       0.28125000000000000        0.0000000000000000     
  0.50000000000000000       0.31250000000000000        0.0000000000000000     
  0.53125000000000000       0.31250000000000000        0.0000000000000000     
  0.56250000000000000       0.31250000000000000        0.0000000000000000     
  0.59375000000000000       0.31250000000000000        0.0000000000000000     
  0.62500000000000000       0.31250000000000000        0.0000000000000000     
  0.50000000000000000       0.34375000000000000        0.0000000000000000     
  0.53125000000000000       0.34375000000000000        0.0000000000000000     
  0.56250000000000000       0.34375000000000000        0.0000000000000000     
  0.59375000000000000       0.34375000000000000        0.0000000000000000     
  0.62500000000000000       0.34375000000000000        0.0000000000000000     
  0.50000000000000000       0.37500000000000000        0.0000000000000000     
  0.53125000000000000       0.37500000000000000        0.0000000000000000     
  0.56250000000000000       0.37500000000000000        0.0000000000000000     
  0.59375000000000000       0.37500000000000000        0.0000000000000000     
  0.62500000000000000       0.37500000000000000        0.0000000000000000     
  0.62500000000000000       0.25000000000000000        0.0000000000000000     
  0.65625000000000000       0.25000000000000000        0.0000000000000000     
  0.68750000000000000       0.25000000000000000        0.0000000000000000     
  0.71875000000000000       0.25000000000000000        0.0000000000000000     
  0.75000000000000000       0.25000000000000000        0.0000000000000000     
  0.62500000000000000       0.28125000000000000        0.0000000000000000     
  0.65625000000000000       0.28125000000000000        0.0000000000000000     
  0.68750000000000000       0.28125000000000000        0.0000000000000000     
  0.71875000000000000       0.28125000000000000        0.0000000000000000     
  0.75000000000000000       0.28125000000000000        0.0000000000000000     
  0.62500000000000000       0.31250000000000000        0.0000000000000000     
  0.65625000000000000       0.31250000000000000        0.0000000000000000     
  0.68750000000000000       0.31250000000000000        0.0000000000000000     
  0.71875000000000000       0.31250000000000000        0.0000000000000000     
  0.75000000000000000       0.31250000000000000        0.0000000000000000     
  0.62500000000000000       0.34375000000000000        0.0000000000000000     
  0.65625000000000000       0.34375000000000000        0.0000000000000000     
  0.68750000000000000       0.34375000000000000        0.0000000000000000     
  0.71875000000000000       0.34375000000000000        0.0000000000000000     
  0.75000000000000000       0.34375000000000000        0.0000000000000000     
  0.62500000000000000       0.37500000000000000        0.0000000000000000     
  0.65625000000000000       0.37500000000000000        0.0000000000000000     
  0.68750000000000000       0.37500000000000000        0.0000000000000000     
  0.71875000000000000       0.37500000000000000        0.0000000000000000     
  0.75000000000000000       0.37500000000000000        0.0000000000000000     
  0.75000000000000000       0.25000000000000000        0.0000000000000000     
  0.78125000000000000       0.25000000000000000        0.0000000000000000     
  0.81250000000000000       0.25000000000000000        0.0000000000000000     
  0.84375000000000000       0.25000000000000000        0.0000000000000000     
  0.87500000000000000       0.25000000000000000        0.0000000000000000     
  0.75000000000000000       0.28125000000000000        0.0000000000000000     
  0.78125000000000000       0.28125000000000000        0.0000000000000000     
  0.81250000000000000       0.28125000000000000        0.0000000000000000     
  0.84375000000000000       0.28125000000000000        0.0000000000000000     
  0.87500000000000000       0.28125000000000000        0.0000000000000000     
  0.75000000000000000       0.31250000000000000        0.0000000000000000     
  0.78125000000000000       0.31250000000000000        0.0000000000000000     
  0.81250000000000000       0.31250000000000000        0.0000000000000000     
  0.84375000000000000       0.31250000000000000        0.0000000000000000     
  0.87500000000000000       0.31250000000000000        0.0000000000000000     
  0.75000000000000000       0.34375000000000000        0.0000000000000000     
  0.78125000000000000       0.34375000000000000        0.0000000000000000     
  0.81250000000000000       0.34375000000000000        0.0000000000000000     
  0.84375000000000000       0.34375000000000000        0.0000000000000000     
  0.87500000000000000       0.34375000000000000        0.0000000000000000     
  0.75000000000000000       0.37500000000000000        0.0000000000000000     
  0.78125000000000000       0.37500000000000000        0.0000000000000000     
  0.81250000000000000       0.37500000000000000        0.0000000000000000     
  0.84375000000000000       0.37500000000000000        0.0000000000000000     
  0.87500000000000000       0.37500000000000000        0.0000000000000000     
  0.87500000000000000       0.25000000000000000        0.0000000000000000     
  0.90625000000000000       0.25000000000000000        0.0000000000000000     
  0.93750000000000000       0.25000000000000000        0.0000000000000000     
  0.96875000000000000       0.25000000000000000        0.0000000000000000     
   1.0000000000000000       0.25000000000000000        0.0000000000000000     
  0.87500000000000000       0.28125000000000000        0.0000000000000000     
  0.90625000000000000       0.28125000000000000        0.0000000000000000     
  0.93750000000000000       0.28125000000000000        0.0000000000000000     
  0.96875000000000000       0.28125000000000000        0.0000000000000000     
   1.0000000000000000       0.28125000000000000        0.0000000000000000     
  0.87500000000000000       0.31250000000000000        0.0000000000000000     
  0.90625000000000000       0.31250000000000000        0.0000000000000000     
  0.93750000000000000       0.31250000000000000        0.0000000000000000     
  0.96875000000000000       0.31250000000000000        0.0000000000000000     
   1.0000000000000000       0.31250000000000000        0.0000000000000000     
  0.87500000000000000       0.34375000000000000        0.0000000000000000     
  0.90625000000000000       0.34375000000000000        0.0000000000000000     
  0.93750000000000000       0.34375000000000000        0.0000000000000000     
  0.96875000000000000       0.34375000000000000        0.0000000000000000     
   1.0000000000000000       0.34375000000000000        0.0000000000000000     
  0.87500000000000000       0.37500000000000000        0.0000000000000000     
  0.90625000000000000       0.37500000000000000        0.0000000000000000     
  0.93750000000000000       0.37500000000000000        0.0000000000000000     
  0.96875000000000000       0.37500000000000000        0.0000000000000000     
   1.0000000000000000       0.37500000000000000        0.0000000000000000     
   1.0000000000000000       0.25000000000000000        0.0000000000000000     
   1.0312500000000000       0.25000000000000000        0.0000000000000000     
   1.0625000000000000       0.25000000000000000        0.0000000000000000     
   1.0937500000000000       0.25000000000000000        0.0000000000000000     
   1.1250000000000000       0.25000000000000000        0.0000000000000000     
   1.0000000000000000       0.28125000000000000        0.0000000000000000     
   1.0312500000000000       0.28125000000000000        0.0000000000000000     
   1.0625000000000000       0.28125000000000000        0.0000000000000000     
   1.0937500000000000       0.28125000000000000        0.0000000000000000     
   1.1250000000000000       0.28125000000000000        0.0000000000000000     
   1.0000000000000000       0.31250000000000000        0.0000000000000000     
   1.0312500000000000       0.31250000000000000        0.0000000000000000     
   1.0625000000000000       0.31250000000000000        0.0000000000000000     
   1.0937500000000000       0.31250000000000000        0.0000000000000000     
   1.1250000000000000       0.31250000000000000        0.0000000000000000     
   1.0000000000000000       0.34375000000000000        0.0000000000000000     
   1.0312500000000000       0.34375000000000000        0.0000000000000000     
   1.0625000000000000       0.34375000000000000        0.0000000000000000     
   1.0937500000000000       0.34375000000000000        0.0000000000000000     
   1.1250000000000000       0.34375000000000000        0.0000000000000000     
   1.0000000000000000       0.37500000000000000        0.0000000000000000     
   1.0312500000000000       0.37500000000000000        0.0000000000000000     
   1.0625000000000000       0.37500000000000000        0.0000000000000000     
   1.0937500000000000       0.37500000000000000        0.0000000000000000     
   1.1250000000000000       0.37500000000000000        0.0000000000000000     
   1.1250000000000000       0.25000000000000000        0.0000000000000000     
   1.1562500000000000       0.25000000000000000        0.0000000000000000     
   1.1875000000000000       0.25000000000000000        0.0000000000000000     
   1.2187500000000000       0.25000000000000000        0.0000000000000000     
   1.2500000000000000       0.25000000000000000        0.0000000000000000     
   1.1250000000000000       0.28125000000000000        0.0000000000000000     
   1.1562500000000000       0.28125000000000000        0.0000000000000000     
   1.1875000000000000       0.28125000000000000        0.0000000000000000     
   1.2187500000000000       0.28125000000000000        0.0000000000000000     
   1.2500000000000000       0.28125000000000000        0.0000000000000000     
   1.1250000000000000       0.31250000000000000        0.0000000000000000     
   1.1562500000000000       0.31250000000000000        0.0000000000000000     
   1.1875000000000000       0.31250000000000000        0.0000000000000000     
   1.2187500000000000       0.31250000000000000        0.0000000000000000     
   1.2500000000000000       0.31250000000000000        0.0000000000000000     
   1.1250000000000000       0.34375000000000000        0.0000000000000000     
   1.1562500000000000       0.34375000000000000        0.0000000000000000     
   1.1875000000000000       0.34375000000000000        0.0000000000000000     
   1.2187500000000000       0.34375000000000000        0.0000000000000000     
   1.2500000000000000       0.34375000000000000        0.0000000000000000     
   1.1250000000000000       0.37500000000000000        0.0000000000000000     
   1.1562500000000000       0.37500000000000000        0.0000000000000000     
   1.1875000000000000       0.37500000000000000        0.0000000000000000     
   1.2187500000000000       0.37500000000000000        0.0000000000000000     
   1.2500000000000000       0.37500000000000000        0.0000000000000000     
   1.2500000000000000       0.25000000000000000        0.0000000000000000     
   1.2812500000000000       0.25000000000000000        0.0000000000000000     
   1.3125000000000000       0.25000000000000000        0.0000000000000000     
   1.3437500000000000       0.25000000000000000        0.0000000000000000     
   1.3750000000000000       0.25000000000000000        0.0000000000000000     
   1.2500000000000000       0.28125000000000000        0.0000000000000000     
   1.2812500000000000       0.28125000000000000        0.0000000000000000     
   1.3125000000000000       0.28125000000000000        0.0000000000000000     
   1.3437500000000000       0.28125000000000000        0.0000000000000000     
   1.3750000000000000       0.28125000000000000        0.0000000000000000     
   1.2500000000000000       0.31250000000000000        0.0000000000000000     
   1.2812500000000000       0.31250000000000000        0.0000000000000000     
   1.3125000000000000       0.31250000000000000        0.0000000000000000     
   1.3437500000000000       0.31250000000000000        0.0000000000000000     
   1.3750000000000000       0.31250000000000000        0.0000000000000000     
   1.2500000000000000       0.34375000000000000        0.0000000000000000     
   1.2812500000000000       0.34375000000000000        0.0000000000000000     
   1.3125000000000000       0.34375000000000000        0.0000000000000000     
   1.3437500000000000       0.34375000000000000        0.0000000000000000     
   1.3750000000000000       0.34375000000000000        0.0000000000000000     
   1.2500000000000000       0.37500000000000000        0.0000000000000000     
   1.2812500000000000       0.37500000000000000        0.0000000000000000     
   1.3125000000000000       0.37500000000000000        0.0000000000000000     
   1.3437500000000000       0.37500000000000000        0.0000000000000000     
   1.3750000000000000       0.37500000000000000        0.0000000000000000     
   1.3750000000000000       0.25000000000000000        0.0000000000000000     
   1.4062500000000000       0.25000000000000000        0.0000000000000000     
   1.4375000000000000       0.25000000000000000        0.0000000000000000     
   1.4687500000000000       0.25000000000000000        0.0000000000000000     
   1.5000000000000000       0.25000000000000000        0.0000000000000000     
   1.3750000000000000       0.28125000000000000        0.0000000000000000     
   1.4062500000000000       0.28125000000000000        0.0000000000000000     
   1.4375000000000000       0.28125000000000000        0.0000000000000000     
   1.4687500000000000       0.28125000000000000        0.0000000000000000     
   1.5000000000000000       0.28125000000000000        0.0000000000000000     
   1.3750000000000000       0.31250000000000000        0.0000000000000000     
   1.4062500000000000       0.31250000000000000        0.0000000000000000     
   1.4375000000000000       0.31250000000000000        0.0000000000000000     
   1.4687500000000000       0.31250000000000000        0.0000000000000000     
   1.5000000000000000       0.31250000000000000        0.0000000000000000     
   1.3750000000000000       0.34375000000000000        0.0000000000000000     
   1.4062500000000000       0.34375000000000000        0.0000000000000000     
   1.4375000000000000       0.34375000000000000        0.0000000000000000     
   1.4687500000000000       0.34375000000000000        0.0000000000000000     
   1.5000000000000000       0.34375000000000000        0.0000000000000000     
   1.3750000000000000       0.37500000000000000        0.0000000000000000     
   1.4062500000000000       0.37500000000000000        0.0000000000000000     
   1.4375000000000000       0.37500000000000000        0.0000000000000000     
   1.4687500000000000       0.37500000000000000        0.0000000000000000     
   1.5000000000000000       0.37500000000000000        0.0000000000000000     
  0.50000000000000000       0.37500000000000000        0.0000000000000000     
  0.53125000000000000       0.37500000000000000        0.0000000000000000     
  0.56250000000000000       0.37500000000000000        0.0000000000000000     
  0.59375000000000000       0.37500000000000000        0.0000000000000000     
  0.62500000000000000       0.37500000000000000        0.0000000000000000     
  0.50000000000000000       0.40625000000000000        0.0000000000000000     
  0.53125000000000000       0.40625000000000000        0.0000000000000000     
  0.56250000000000000       0.40625000000000000        0.0000000000000000     
  0.59375000000000000       0.40625000000000000        0.0000000000000000     
  0.62500000000000000       0.40625000000000000        0.0000000000000000     
  0.50000000000000000       0.43750000000000000        0.0000000000000000     
  0.53125000000000000       0.43750000000000000        0.0000000000000000     
  0.56250000000000000       0.43750000000000000        0.0000000000000000     
  0.59375000000000000       0.43750000000000000        0.0000000000000000     
  0.62500000000000000       0.43750000000000000        0.0000000000000000     
  0.50000000000000000       0.46875000000000000        0.0000000000000000     
  0.53125000000000000       0.46875000000000000        0.0000000000000000     
  0.56250000000000000       0.46875000000000000        0.0000000000000000     
  0.59375000000000000       0.46875000000000000        0.0000000000000000     
  0.62500000000000000       0.46875000000000000        0.0000000000000000     
  0.50000000000000000       0.50000000000000000        0.0000000000000000     
  0.53125000000000000       0.50000000000000000        0.0000000000000000     
  0.56250000000000000       0.50000000000000000        0.0000000000000000     
  0.59375000000000000       0.50000000000000000        0.0000000000000000     
  0.62500000000000000       0.50000000000000000        0.0000000000000000     
  0.62500000000000000       0.37500000000000000        0.0000000000000000     
  0.65625000000000000       0.37500000000000000        0.0000000000000000     
  0.68750000000000000       0.37500000000000000        0.0000000000000000     
  0.71875000000000000       0.37500000000000000        0.0000000000000000     
  0.75000000000000000       0.37500000000000000        0.0000000000000000     
  0.62500000000000000       0.40625000000000000        0.0000000000000000     
  0.65625000000000000       0.40625000000000000        0.0000000000000000     
  0.68750000000000000       0.40625000000000000        0.0000000000000000     
  0.71875000000000000       0.40625000000000000        0.0000000000000000     
  0.75000000000000000       0.40625000000000000        0.0000000000000000     
  0.62500000000000000       0.43750000000000000        0.0000000000000000     
  0.65625000000000000       0.43750000000000000        0.0000000000000000     
  0.68750000000000000       0.43750000000000000        0.0000000000000000     
  0.71875000000000000       0.43750000000000000        0.0000000000000000     
  0.75000000000000000       0.43750000000000000        0.0000000000000000     
  0.62500000000000000       0.46875000000000000        0.0000000000000000     
  0.65625000000000000       0.46875000000000000        0.0000000000000000     
  0.68750000000000000       0.46875000000000000        0.0000000000000000     
  0.71875000000000000       0.46875000000000000        0.0000000000000000     
  0.75000000000000000       0.46875000000000000        0.0000000000000000     
  0.62500000000000000       0.50000000000000000        0.0000000000000000     
  0.65625000000000000       0.50000000000000000        0.0000000000000000     
  0.68750000000000000       0.50000000000000000        0.0000000000000000     
  0.71875000000000000       0.50000000000000000        0.0000000000000000     
  0.75000000000000000       0.50000000000000000        0.0000000000000000     
  0.75000000000000000       0.37500000000000000        0.0000000000000000     
  0.78125000000000000       0.37500000000000000        0.0000000000000000     
  0.81250000000000000       0.37500000000000000        0.0000000000000000     
  0.84375000000000000       0.37500000000000000        0.0000000000000000     
  0.87500000000000000       0.37500000000000000        0.0000000000000000     
  0.75000000000000000       0.40625000000000000        0.0000000000000000     
  0.78125000000000000       0.40625000000000000        0.0000000000000000     
  0.81250000000000000       0.40625000000000000        0.0000000000000000     
  0.84375000000000000       0.40625000000000000        0.0000000000000000     
  0.87500000000000000       0.40625000000000000        0.0000000000000000     
  0.75000000000000000       0.43750000000000000        0.0000000000000000     
  0.78125000000000000       0.43750000000000000        0.0000000000000000     
  0.81250000000000000       0.43750000000000000        0.0000000000000000     
  0.84375000000000000       0.43750000000000000        0.0000000000000000     
  0.87500000000000000       0.43750000000000000        0.0000000000000000     
  0.75000000000000000       0.46875000000000000        0.0000000000000000     
  0.78125000000000000       0.46875000000000000        0.0000000000000000     
  0.81250000000000000       0.46875000000000000        0.0000000000000000     
  0.84375000000000000       0.46875000000000000        0.0000000000000000     
  0.87500000000000000       0.46875000000000000        0.0000000000000000     
  0.75000000000000000       0.50000000000000000        0.0000000000000000     
  0.78125000000000000       0.50000000000000000        0.0000000000000000     
  0.81250000000000000       0.50000000000000000        0.0000000000000000     
  0.84375000000000000       0.50000000000000000        0.0000000000000000     
  0.87500000000000000       0.50000000000000000        0.0000000000000000     
  0.87500000000000000       0.37500000000000000        0.0000000000000000     
  0.90625000000000000       0.37500000000000000        0.0000000000000000     
  0.93750000000000000       0.37500000000000000        0.0000000000000000     
  0.96875000000000000       0.37500000000000000        0.0000000000000000     
   1.0000000000000000       0.37500000000000000        0.0000000000000000     
  0.87500000000000000       0.40625000000000000        0.0000000000000000     
  0.90625000000000000       0.40625000000000000        0.0000000000000000     
  0.93750000000000000       0.40625000000000000        0.0000000000000000     
  0.96875000000000000       0.40625000000000000        0.0000000000000000     
   1.0000000000000000       0.40625000000000000        0.0000000000000000     
  0.87500000000000000       0.43750000000000000        0.0000000000000000     
  0.90625000000000000       0.43750000000000000        0.0000000000000000     
  0.93750000000000000       0.43750000000000000        0.0000000000000000     
  0.96875000000000000       0.43750000000000000        0.0000000000000000     
   1.0000000000000000       0.43750000000000000        0.0000000000000000     
  0.87500000000000000       0.46875000000000000        0.0000000000000000     
  0.90625000000000000       0.46875000000000000        0.0000000000000000     
  0.93750000000000000       0.46875000000000000        0.0000000000000000     
  0.96875000000000000       0.46875000000000000        0.0000000000000000     
   1.0000000000000000       0.46875000000000000        0.0000000000000000     
  0.87500000000000000       0.50000000000000000        0.0000000000000000     
  0.90625000000000000       0.50000000000000000        0.0000000000000000     
  0.93750000000000000       0.50000000000000000        0.0000000000000000     
  0.96875000000000000       0.50000000000000000        0.0000000000000000     
   1.0000000000000000       0.50000000000000000        0.0000000000000000     
   1.0000000000000000       0.37500000000000000        0.0000000000000000     
   1.0312500000000000       0.37500000000000000        0.0000000000000000     
   1.0625000000000000       0.37500000000000000        0.0000000000000000     
   1.0937500000000000       0.37500000000000000        0.0000000000000000     
   1.1250000000000000       0.37500000000000000        0.0000000000000000     
   1.0000000000000000       0.40625000000000000        0.0000000000000000     
   1.0312500000000000       0.40625000000000000        0.0000000000000000     
   1.0625000000000000       0.40625000000000000        0.0000000000000000     
   1.0937500000000000       0.40625000000000000        0.0000000000000000     
   1.1250000000000000       0.40625000000000000        0.0000000000000000     
   1.0000000000000000       0.43750000000000000        0.0000000000000000     
   1.0312500000000000       0.43750000000000000        0.0000000000000000     
   1.0625000000000000       0.43750000000000000        0.0000000000000000     
   1.0937500000000000       0.43750000000000000        0.0000000000000000     
   1.1250000000000000       0.43750000000000000        0.0000000000000000     
   1.0000000000000000       0.46875000000000000        0.0000000000000000     
   1.0312500000000000       0.46875000000000000        0.0000000000000000     
   1.0625000000000000       0.46875000000000000        0.0000000000000000     
   1.0937500000000000       0.46875000000000000        0.0000000000000000     
   1.1250000000000000       0.46875000000000000        0.0000000000000000     
   1.0000000000000000       0.50000000000000000        0.0000000000000000     
   1.0312500000000000       0.50000000000000000        0.0000000000000000     
   1.0625000000000000       0.50000000000000000        0.0000000000000000     
   1.0937500000000000       0.50000000000000000        0.0000000000000000     
   1.1250000000000000       0.50000000000000000        0.0000000000000000     
   1.1250000000000000       0.37500000000000000        0.0000000000000000     
   1.1562500000000000       0.37500000000000000        0.0000000000000000     
   1.1875000000000000       0.37500000000000000        0.0000000000000000     
   1.2187500000000000       0.37500000000000000        0.0000000000000000     
   1.2500000000000000       0.37500000000000000        0.0000000000000000     
   1.1250000000000000       0.40625000000000000        0.0000000000000000     
   1.1562500000000000       0.40625000000000000        0.0000000000000000     
   1.1875000000000000       0.40625000000000000        0.0000000000000000     
   1.2187500000000000       0.40625000000000000        0.0000000000000000     
   1.2500000000000000       0.40625000000000000        0.0000000000000000     
   1.1250000000000000       0.43750000000000000        0.0000000000000000     
   1.1562500000000000       0.43750000000000000        0.0000000000000000     
   1.1875000000000000       0.43750000000000000        0.0000000000000000     
   1.2187500000000000       0.43750000000000000        0.0000000000000000     
   1.2500000000000000       0.43750000000000000        0.0000000000000000     
   1.1250000000000000       0.46875000000000000        0.0000000000000000     
   1.1562500000000000       0.46875000000000000        0.0000000000000000     
   1.1875000000000000       0.46875000000000000        0.0000000000000000     
   1.2187500000000000       0.46875000000000000        0.0000000000000000     
   1.2500000000000000       0.46875000000000000        0.0000000000000000     
   1.1250000000000000       0.50000000000000000        0.0000000000000000     
   1.1562500000000000       0.50000000000000000        0.0000000000000000     
   1.1875000000000000       0.50000000000000000        0.0000000000000000     
   1.2187500000000000       0.50000000000000000        0.0000000000000000     
   1.2500000000000000       0.50000000000000000        0.0000000000000000     
   1.2500000000000000       0.37500000000000000        0.0000000000000000     
   1.2812500000000000       0.37500000000000000        0.0000000000000000     
   1.3125000000000000       0.37500000000000000        0.0000000000000000     
   1.3437500000000000       0.37500000000000000        0.0000000000000000     
   1.3750000000000000       0.37500000000000000        0.0000000000000000     
   1.2500000000000000       0.40625000000000000        0.0000000000000000     
   1.2812500000000000       0.40625000000000000        0.0000000000000000     
   1.3125000000000000       0.40625000000000000        0.0000000000000000     
   1.3437500000000000       0.40625000000000000        0.0000000000000000     
   1.3750000000000000       0.40625000000000000        0.0000000000000000     
   1.2500000000000000       0.43750000000000000        0.0000000000000000     
   1.2812500000000000       0.43750000000000000        0.0000000000000000     
   1.3125000000000000       0.43750000000000000        0.0000000000000000     
   1.3437500000000000       0.43750000000000000        0.0000000000000000     
   1.3750000000000000       0.43750000000000000        0.0000000000000000     
   1.2500000000000000       0.46875000000000000        0.0000000000000000     
   1.2812500000000000       0.46875000000000000        0.0000000000000000     
   1.3125000000000000       0.46875000000000000        0.0000000000000000     
   1.3437500000000000       0.46875000000000000        0.0000000000000000     
   1.3750000000000000       0.46875000000000000        0.0000000000000000     
   1.2500000000000000       0.50000000000000000        0.0000000000000000     
   1.2812500000000000       0.50000000000000000        0.0000000000000000     
   1.3125000000000000       0.50000000000000000        0.0000000000000000     
   1.3437500000000000       0.50000000000000000        0.0000000000000000     
   1.3750000000000000       0.50000000000000000        0.0000000000000000     
   1.3750000000000000       0.37500000000000000        0.0000000000000000     
   1.4062500000000000       0.37500000000000000        0.0000000000000000     
   1.4375000000000000       0.37500000000000000        0.0000000000000000     
   1.4687500000000000       0.37500000000000000        0.0000000000000000     
   1.5000000000000000       0.37500000000000000        0.0000000000000000     
   1.3750000000000000       0.40625000000000000        0.0000000000000000     
   1.4062500000000000       0.40625000000000000        0.0000000000000000     
   1.4375000000000000       0.40625000000000000        0.0000000000000000     
   1.4687500000000000       0.40625000000000000        0.0000000000000000     
   1.5000000000000000       0.40625000000000000        0.0000000000000000     
   1.3750000000000000       0.43750000000000000        0.0000000000000000     
   1.4062500000000000       0.43750000000000000        0.0000000000000000     
   1.4375000000000000       0.43750000000000000        0.0000000000000000     
   1.4687500000000000       0.43750000000000000        0.0000000000000000     
   1.5000000000000000       0.43750000000000000        0.0000000000000000     
   1.3750000000000000       0.46875000000000000        0.0000000000000000     
   1.4062500000000000       0.46875000000000000        0.0000000000000000     
   1.4375000000000000       0.46875000000000000        0.0000000000000000     
   1.4687500000000000       0.46875000000000000        0.0000000000000000     
   1.5000000000000000       0.46875000000000000        0.0000000000000000     
   1.3750000000000000       0.50000000000000000        0.0000000000000000     
   1.4062500000000000       0.50000000000000000        0.0000000000000000     
   1.4375000000000000       0.50000000000000000        0.0000000000000000     
   1.4687500000000000       0.50000000000000000        0.0000000000000000     
   1.5000000000000000       0.50000000000000000        0.0000000000000000     
  0.50000000000000000       0.50000000000000000        0.0000000000000000     
  0.53125000000000000       0.50000000000000000        0.0000000000000000     
  0.56250000000000000       0.50000000000000000        0.0000000000000000     
  0.59375000000000000       0.50000000000000000        0.0000000000000000     
  0.62500000000000000       0.50000000000000000        0.0000000000000000     
  0.50000000000000000       0.53125000000000000        0.0000000000000000     
  0.53125000000000000       0.53125000000000000        0.0000000000000000     
  0.56250000000000000       0.53125000000000000        0.0000000000000000     
  0.59375000000000000       0.53125000000000000        0.0000000000000000     
  0.62500000000000000       0.53125000000000000        0.0000000000000000     
  0.50000000000000000       0.56250000000000000        0.0000000000000000     
  0.53125000000000000       0.56250000000000000        0.0000000000000000     
  0.56250000000000000       0.56250000000000000        0.0000000000000000     
  0.59375000000000000       0.56250000000000000        0.0000000000000000     
  0.62500000000000000       0.56250000000000000        0.0000000000000000     
  0.50000000000000000       0.59375000000000000        0.0000000000000000     
  0.53125000000000000       0.59375000000000000        0.0000000000000000     
  0.56250000000000000       0.59375000000000000        0.0000000000000000     
  0.59375000000000000       0.59375000000000000        0.0000000000000000     
  0.62500000000000000       0.59375000000000000        0.0000000000000000     
  0.50000000000000000       0.62500000000000000        0.0000000000000000     
  0.53125000000000000       0.62500000000000000        0.0000000000000000     
  0.56250000000000000       0.62500000000000000        0.0000000000000000     
  0.59375000000000000       0.62500000000000000        0.0000000000000000     
  0.62500000000000000       0.62500000000000000        0.0000000000000000     
  0.62500000000000000       0.50000000000000000        0.0000000000000000     
  0.65625000000000000       0.50000000000000000        0.0000000000000000     
  0.68750000000000000       0.50000000000000000        0.0000000000000000     
  0.71875000000000000       0.50000000000000000        0.0000000000000000     
  0.75000000000000000       0.50000000000000000        0.0000000000000000     
  0.62500000000000000       0.53125000000000000        0.0000000000000000     
  0.65625000000000000       0.53125000000000000        0.0000000000000000     
  0.68750000000000000       0.53125000000000000        0.0000000000000000     
  0.71875000000000000       0.53125000000000000        0.0000000000000000     
  0.75000000000000000       0.53125000000000000        0.0000000000000000     
  0.62500000000000000       0.56250000000000000        0.0000000000000000     
  0.65625000000000000       0.56250000000000000        0.0000000000000000     
  0.68750000000000000       0.56250000000000000        0.0000000000000000     
  0.71875000000000000       0.56250000000000000        0.0000000000000000     
  0.75000000000000000       0.56250000000000000        0.0000000000000000     
  0.62500000000000000       0.59375000000000000        0.0000000000000000     
  0.65625000000000000       0.59375000000000000        0.0000000000000000     
  0.68750000000000000       0.59375000000000000        0.0000000000000000     
  0.71875000000000000       0.59375000000000000        0.0000000000000000     
  0.75000000000000000       0.59375000000000000        0.0000000000000000     
  0.62500000000000000       0.62500000000000000        0.0000000000000000     
  0.65625000000000000       0.62500000000000000        0.0000000000000000     
  0.68750000000000000       0.62500000000000000        0.0000000000000000     
  0.71875000000000000       0.62500000000000000        0.0000000000000000     
  0.75000000000000000       0.62500000000000000        0.0000000000000000     
  0.75000000000000000       0.50000000000000000        0.0000000000000000     
  0.78125000000000000       0.50000000000000000        0.0000000000000000     
  0.81250000000000000       0.50000000000000000        0.0000000000000000     
  0.84375000000000000       0.50000000000000000        0.0000000000000000     
  0.87500000000000000       0.50000000000000000        0.0000000000000000     
  0.75000000000000000       0.53125000000000000        0.0000000000000000     
  0.78125000000000000       0.53125000000000000        0.0000000000000000     
  0.81250000000000000       0.53125000000000000        0.0000000000000000     
  0.84375000000000000       0.53125000000000000        0.0000000000000000     
  0.87500000000000000       0.53125000000000000        0.0000000000000000     
  0.75000000000000000       0.56250000000000000        0.0000000000000000     
  0.78125000000000000       0.56250000000000000        0.0000000000000000     
  0.81250000000000000       0.56250000000000000        0.0000000000000000     
  0.84375000000000000       0.56250000000000000        0.0000000000000000     
  0.87500000000000000       0.56250000000000000        0.0000000000000000     
  0.75000000000000000       0.59375000000000000        0.0000000000000000     
  0.78125000000000000       0.59375000000000000        0.0000000000000000     
  0.81250000000000000       0.59375000000000000        0.0000000000000000     
  0.84375000000000000       0.59375000000000000        0.0000000000000000     
  0.87500000000000000       0.59375000000000000        0.0000000000000000     
  0.75000000000000000       0.62500000000000000        0.0000000000000000     
  0.78125000000000000       0.62500000000000000        0.0000000000000000     
  0.81250000000000000       0.62500000000000000        0.0000000000000000     
  0.84375000000000000       0.62500000000000000        0.0000000000000000     
  0.87500000000000000       0.62500000000000000        0.0000000000000000     
  0.87500000000000000       0.50000000000000000        0.0000000000000000     
  0.90625000000000000       0.50000000000000000        0.0000000000000000     
  0.93750000000000000       0.50000000000000000        0.0000000000000000     
  0.96875000000000000       0.50000000000000000        0.0000000000000000     
   1.0000000000000000       0.50000000000000000        0.0000000000000000     
  0.87500000000000000       0.53125000000000000        0.0000000000000000     
  0.90625000000000000       0.53125000000000000        0.0000000000000000     
  0.93750000000000000       0.53125000000000000        0.0000000000000000     
  0.96875000000000000       0.53125000000000000        0.0000000000000000     
   1.0000000000000000       0.53125000000000000        0.0000000000000000     
  0.87500000000000000       0.56250000000000000        0.0000000000000000     
  0.90625000000000000       0.56250000000000000        0.0000000000000000     
  0.93750000000000000       0.56250000000000000        0.0000000000000000     
  0.96875000000000000       0.56250000000000000        0.0000000000000000     
   1.0000000000000000       0.56250000000000000        0.0000000000000000     
  0.87500000000000000       0.59375000000000000        0.0000000000000000     
  0.90625000000000000       0.59375000000000000        0.0000000000000000     
  0.93750000000000000       0.59375000000000000        0.0000000000000000     
  0.96875000000000000       0.59375000000000000        0.0000000000000000     
   1.0000000000000000       0.59375000000000000        0.0000000000000000     
  0.87500000000000000       0.62500000000000000        0.0000000000000000     
  0.90625000000000000       0.62500000000000000        0.0000000000000000     
  0.93750000000000000       0.62500000000000000        0.0000000000000000     
  0.96875000000000000       0.62500000000000000        0.0000000000000000     
   1.0000000000000000       0.62500000000000000        0.0000000000000000     
   1.0000000000000000       0.50000000000000000        0.0000000000000000     
   1.0312500000000000       0.50000000000000000        0.0000000000000000     
   1.0625000000000000       0.50000000000000000        0.0000000000000000     
   1.0937500000000000       0.50000000000000000        0.0000000000000000     
   1.1250000000000000       0.50000000000000000        0.0000000000000000     
   1.0000000000000000       0.53125000000000000        0.0000000000000000     
   1.0312500000000000       0.53125000000000000        0.0000000000000000     
   1.0625000000000000       0.53125000000000000        0.0000000000000000     
   1.0937500000000000       0.53125000000000000        0.0000000000000000     
   1.1250000000000000       0.53125000000000000        0.0000000000000000     
   1.0000000000000000       0.56250000000000000        0.0000000000000000     
   1.0312500000000000       0.56250000000000000        0.0000000000000000     
   1.0625000000000000       0.56250000000000000        0.0000000000000000     
   1.0937500000000000       0.56250000000000000        0.0000000000000000     
   1.1250000000000000       0.56250000000000000        0.0000000000000000     
   1.0000000000000000       0.59375000000000000        0.0000000000000000     
   1.0312500000000000       0.59375000000000000        0.0000000000000000     
   1.0625000000000000       0.59375000000000000        0.0000000000000000     
   1.0937500000000000       0.59375000000000000        0.0000000000000000     
   1.1250000000000000       0.59375000000000000        0.0000000000000000     
   1.0000000000000000       0.62500000000000000        0.0000000000000000     
   1.0312500000000000       0.62500000000000000        0.0000000000000000     
   1.0625000000000000       0.62500000000000000        0.0000000000000000     
   1.0937500000000000       0.62500000000000000        0.0000000000000000     
   1.1250000000000000       0.62500000000000000        0.0000000000000000     
   1.1250000000000000       0.50000000000000000        0.0000000000000000     
   1.1562500000000000       0.50000000000000000        0.0000000000000000     
   1.1875000000000000       0.50000000000000000        0.0000000000000000     
   1.2187500000000000       0.50000000000000000        0.0000000000000000     
   1.2500000000000000       0.50000000000000000        0.0000000000000000     
   1.1250000000000000       0.53125000000000000        0.0000000000000000     
   1.1562500000000000       0.53125000000000000        0.0000000000000000     
   1.1875000000000000       0.53125000000000000        0.0000000000000000     
   1.2187500000000000       0.53125000000000000        0.0000000000000000     
   1.2500000000000000       0.53125000000000000        0.0000000000000000     
   1.1250000000000000       0.56250000000000000        0.0000000000000000     
   1.1562500000000000       0.56250000000000000        0.0000000000000000     
   1.1875000000000000       0.56250000000000000        0.0000000000000000     
   1.2187500000000000       0.56250000000000000        0.0000000000000000     
   1.2500000000000000       0.56250000000000000        0.0000000000000000     
   1.1250000000000000       0.59375000000000000        0.0000000000000000     
   1.1562500000000000       0.59375000000000000        0.0000000000000000     
   1.1875000000000000       0.59375000000000000        0.0000000000000000     
   1.2187500000000000       0.59375000000000000        0.0000000000000000     
   1.2500000000000000       0.59375000000000000        0.0000000000000000     
   1.1250000000000000       0.62500000000000000        0.0000000000000000     
   1.1562500000000000       0.62500000000000000        0.0000000000000000     
   1.1875000000000000       0.62500000000000000        0.0000000000000000     
   1.2187500000000000       0.62500000000000000        0.0000000000000000     
   1.2500000000000000       0.62500000000000000        0.0000000000000000     
   1.2500000000000000       0.50000000000000000        0.0000000000000000     
   1.2812500000000000       0.50000000000000000        0.0000000000000000     
   1.3125000000000000       0.50000000000000000        0.0000000000000000     
   1.3437500000000000       0.50000000000000000        0.0000000000000000     
   1.3750000000000000       0.50000000000000000        0.0000000000000000     
   1.2500000000000000       0.53125000000000000        0.0000000000000000     
   1.2812500000000000       0.53125000000000000        0.0000000000000000     
   1.3125000000000000       0.53125000000000000        0.0000000000000000     
   1.3437500000000000       0.53125000000000000        0.0000000000000000     
   1.3750000000000000       0.53125000000000000        0.0000000000000000     
   1.2500000000000000       0.56250000000000000        0.0000000000000000     
   1.2812500000000000       0.56250000000000000        0.0000000000000000     
   1.3125000000000000       0.56250000000000000        0.0000000000000000     
   1.3437500000000000       0.56250000000000000        0.0000000000000000     
   1.3750000000000000       0.56250000000000000        0.0000000000000000     
   1.2500000000000000       0.59375000000000000        0.0000000000000000     
   1.2812500000000000       0.59375000000000000        0.0000000000000000     
   1.3125000000000000       0.59375000000000000        0.0000000000000000     
   1.3437500000000000       0.59375000000000000        0.0000000000000000     
   1.3750000000000000       0.59375000000000000        0.0000000000000000     
   1.2500000000000000       0.62500000000000000        0.0000000000000000     
   1.2812500000000000       0.62500000000000000        0.0000000000000000     
   1.3125000000000000       0.62500000000000000        0.0000000000000000     
   1.3437500000000000       0.62500000000000000        0.0000000000000000     
   1.3750000000000000       0.62500000000000000        0.0000000000000000     
   1.3750000000000000       0.50000000000000000        0.0000000000000000     
   1.4062500000000000       0.50000000000000000        0.0000000000000000     
   1.4375000000000000       0.50000000000000000        0.0000000000000000     
   1.4687500000000000       0.50000000000000000        0.0000000000000000     
   1.5000000000000000       0.50000000000000000        0.0000000000000000     
   1.3750000000000000       0.53125000000000000        0.0000000000000000     
   1.4062500000000000       0.53125000000000000        0.0000000000000000     
   1.4375000000000000       0.53125000000000000        0.0000000000000000     
   1.4687500000000000       0.53125000000000000        0.0000000000000000     
   1.5000000000000000       0.53125000000000000        0.0000000000000000     
   1.3750000000000000       0.56250000000000000        0.0000000000000000     
   1.4062500000000000       0.56250000000000000        0.0000000000000000     
   1.4375000000000000       0.56250000000000000        0.0000000000000000     
   1.4687500000000000       0.56250000000000000        0.0000000000000000     
   1.5000000000000000       0.56250000000000000        0.0000000000000000     
   1.3750000000000000       0.59375000000000000        0.0000000000000000     
   1.4062500000000000       0.59375000000000000        0.0000000000000000     
   1.4375000000000000       0.59375000000000000        0.0000000000000000     
   1.4687500000000000       0.59375000000000000        0.0000000000000000     
   1.5000000000000000       0.59375000000000000        0.0000000000000000     
   1.3750000000000000       0.62500000000000000        0.0000000000000000     
   1.4062500000000000       0.62500000000000000        0.0000000000000000     
   1.4375000000000000       0.62500000000000000        0.0000000000000000     
   1.4687500000000000       0.62500000000000000        0.0000000000000000     
   1.5000000000000000       0.62500000000000000        0.0000000000000000     
  0.50000000000000000       0.62500000000000000        0.0000000000000000     
  0.53125000000000000       0.62500000000000000        0.0000000000000000     
  0.56250000000000000       0.62500000000000000        0.0000000000000000     
  0.59375000000000000       0.62500000000000000        0.0000000000000000     
  0.62500000000000000       0.62500000000000000        0.0000000000000000     
  0.50000000000000000       0.65625000000000000        0.0000000000000000     
  0.53125000000000000       0.65625000000000000        0.0000000000000000     
  0.56250000000000000       0.65625000000000000        0.0000000000000000     
  0.59375000000000000       0.65625000000000000        0.0000000000000000     
  0.62500000000000000       0.65625000000000000        0.0000000000000000     
  0.50000000000000000       0.68750000000000000        0.0000000000000000     
  0.53125000000000000       0.68750000000000000        0.0000000000000000     
  0.56250000000000000       0.68750000000000000        0.0000000000000000     
  0.59375000000000000       0.68750000000000000        0.0000000000000000     
  0.62500000000000000       0.68750000000000000        0.0000000000000000     
  0.50000000000000000       0.71875000000000000        0.0000000000000000     
  0.53125000000000000       0.71875000000000000        0.0000000000000000     
  0.56250000000000000       0.71875000000000000        0.0000000000000000     
  0.59375000000000000       0.71875000000000000        0.0000000000000000     
  0.62500000000000000       0.71875000000000000        0.0000000000000000     
  0.50000000000000000       0.75000000000000000        0.0000000000000000     
  0.53125000000000000       0.75000000000000000        0.0000000000000000     
  0.56250000000000000       0.75000000000000000        0.0000000000000000     
  0.59375000000000000       0.75000000000000000        0.0000000000000000     
  0.62500000000000000       0.75000000000000000        0.0000000000000000     
  0.62500000000000000       0.62500000000000000        0.0000000000000000     
  0.65625000000000000       0.62500000000000000        0.0000000000000000     
  0.68750000000000000       0.62500000000000000        0.0000000000000000     
  0.71875000000000000       0.62500000000000000        0.0000000000000000     
  0.75000000000000000       0.62500000000000000        0.0000000000000000     
  0.62500000000000000       0.65625000000000000        0.0000000000000000     
  0.65625000000000000       0.65625000000000000        0.0000000000000000     
  0.68750000000000000       0.65625000000000000        0.0000000000000000     
  0.71875000000000000       0.65625000000000000        0.0000000000000000     
  0.75000000000000000       0.65625000000000000        0.0000000000000000     
  0.62500000000000000       0.68750000000000000        0.0000000000000000     
  0.65625000000000000       0.68750000000000000        0.0000000000000000     
  0.68750000000000000       0.68750000000000000        0.0000000000000000     
  0.71875000000000000       0.68750000000000000        0.0000000000000000     
  0.75000000000000000       0.68750000000000000        0.0000000000000000     
  0.62500000000000000       0.71875000000000000        0.0000000000000000     
  0.65625000000000000       0.71875000000000000        0.0000000000000000     
  0.68750000000000000       0.71875000000000000        0.0000000000000000     
  0.71875000000000000       0.71875000000000000        0.0000000000000000     
  0.75000000000000000       0.71875000000000000        0.0000000000000000     
  0.62500000000000000       0.75000000000000000        0.0000000000000000     
  0.65625000000000000       0.75000000000000000        0.0000000000000000     
  0.68750000000000000       0.75000000000000000        0.0000000000000000     
  0.71875000000000000       0.75000000000000000        0.0000000000000000     
  0.75000000000000000       0.75000000000000000        0.0000000000000000     
  0.75000000000000000       0.62500000000000000        0.0000000000000000     
  0.78125000000000000       0.62500000000000000        0.0000000000000000     
  0.81250000000000000       0.62500000000000000        0.0000000000000000     
  0.84375000000000000       0.62500000000000000        0.0000000000000000     
  0.87500000000000000       0.62500000000000000        0.0000000000000000     
  0.75000000000000000       0.65625000000000000        0.0000000000000000     
  0.78125000000000000       0.65625000000000000        0.0000000000000000     
  0.81250000000000000       0.65625000000000000        0.0000000000000000     
  0.84375000000000000       0.65625000000000000        0.0000000000000000     
  0.87500000000000000       0.65625000000000000        0.0000000000000000     
  0.75000000000000000       0.68750000000000000        0.0000000000000000     
  0.78125000000000000       0.68750000000000000        0.0000000000000000     
  0.81250000000000000       0.68750000000000000        0.0000000000000000     
  0.84375000000000000       0.68750000000000000        0.0000000000000000     
  0.87500000000000000       0.68750000000000000        0.0000000000000000     
  0.75000000000000000       0.71875000000000000        0.0000000000000000     
  0.78125000000000000       0.71875000000000000        0.0000000000000000     
  0.81250000000000000       0.71875000000000000        0.0000000000000000     
  0.84375000000000000       0.71875000000000000        0.0000000000000000     
  0.87500000000000000       0.71875000000000000        0.0000000000000000     
  0.75000000000000000       0.75000000000000000        0.0000000000000000     
  0.78125000000000000       0.75000000000000000        0.0000000000000000     
  0.81250000000000000       0.75000000000000000        0.0000000000000000     
  0.84375000000000000       0.75000000000000000        0.0000000000000000     
  0.87500000000000000       0.75000000000000000        0.0000000000000000     
  0.87500000000000000       0.62500000000000000        0.0000000000000000     
  0.90625000000000000       0.62500000000000000        0.0000000000000000     
  0.93750000000000000       0.62500000000000000        0.0000000000000000     
  0.96875000000000000       0.62500000000000000        0.0000000000000000     
   1.0000000000000000       0.62500000000000000        0.0000000000000000     
  0.87500000000000000       0.65625000000000000        0.0000000000000000     
  0.90625000000000000       0.65625000000000000        0.0000000000000000     
  0.93750000000000000       0.65625000000000000        0.0000000000000000     
  0.96875000000000000       0.65625000000000000        0.0000000000000000     
   1.0000000000000000       0.65625000000000000        0.0000000000000000     
  0.87500000000000000       0.68750000000000000        0.0000000000000000     
  0.90625000000000000       0.68750000000000000        0.0000000000000000     
  0.93750000000000000       0.68750000000000000        0.0000000000000000     
  0.96875000000000000       0.68750000000000000        0.0000000000000000     
   1.0000000000000000       0.68750000000000000        0.0000000000000000     
  0.87500000000000000       0.71875000000000000        0.0000000000000000     
  0.90625000000000000       0.71875000000000000        0.0000000000000000     
  0.93750000000000000       0.71875000000000000        0.0000000000000000     
  0.96875000000000000       0.71875000000000000        0.0000000000000000     
   1.0000000000000000       0.71875000000000000        0.0000000000000000     
  0.87500000000000000       0.75000000000000000        0.0000000000000000     
  0.90625000000000000       0.75000000000000000        0.0000000000000000     
  0.93750000000000000       0.75000000000000000        0.0000000000000000     
  0.96875000000000000       0.75000000000000000        0.0000000000000000     
   1.0000000000000000       0.75000000000000000        0.0000000000000000     
   1.0000000000000000       0.62500000000000000        0.0000000000000000     
   1.0312500000000000       0.62500000000000000        0.0000000000000000     
   1.0625000000000000       0.62500000000000000        0.0000000000000000     
   1.0937500000000000       0.62500000000000000        0.0000000000000000     
   1.1250000000000000       0.62500000000000000        0.0000000000000000     
   1.0000000000000000       0.65625000000000000        0.0000000000000000     
   1.0312500000000000       0.65625000000000000        0.0000000000000000     
   1.0625000000000000       0.65625000000000000        0.0000000000000000     
   1.0937500000000000       0.65625000000000000        0.0000000000000000     
   1.1250000000000000       0.65625000000000000        0.0000000000000000     
   1.0000000000000000       0.68750000000000000        0.0000000000000000     
   1.0312500000000000       0.68750000000000000        0.0000000000000000     
   1.0625000000000000       0.68750000000000000        0.0000000000000000     
   1.0937500000000000       0.68750000000000000        0.0000000000000000     
   1.1250000000000000       0.68750000000000000        0.0000000000000000     
   1.0000000000000000       0.71875000000000000        0.0000000000000000     
   1.0312500000000000       0.71875000000000000        0.0000000000000000     
   1.0625000000000000       0.71875000000000000        0.0000000000000000     
   1.0937500000000000       0.71875000000000000        0.0000000000000000     
   1.1250000000000000       0.71875000000000000        0.0000000000000000     
   1.0000000000000000       0.75000000000000000        0.0000000000000000     
   1.0312500000000000       0.75000000000000000        0.0000000000000000     
   1.0625000000000000       0.75000000000000000        0.0000000000000000     
   1.0937500000000000       0.75000000000000000        0.0000000000000000     
   1.1250000000000000       0.75000000000000000        0.0000000000000000     
   1.1250000000000000       0.62500000000000000        0.0000000000000000     
   1.1562500000000000       0.62500000000000000        0.0000000000000000     
   1.1875000000000000       0.62500000000000000        0.0000000000000000     
   1.2187500000000000       0.62500000000000000        0.0000000000000000     
   1.2500000000000000       0.62500000000000000        0.0000000000000000     
   1.1250000000000000       0.65625000000000000        0.0000000000000000     
   1.1562500000000000       0.65625000000000000        0.0000000000000000     
   1.1875000000000000       0.65625000000000000        0.0000000000000000     
   1.2187500000000000       0.65625000000000000        0.0000000000000000     
   1.2500000000000000       0.65625000000000000        0.0000000000000000     
   1.1250000000000000       0.68750000000000000        0.0000000000000000     
   1.1562500000000000       0.68750000000000000        0.0000000000000000     
   1.1875000000000000       0.68750000000000000        0.0000000000000000     
   1.2187500000000000       0.68750000000000000        0.0000000000000000     
   1.2500000000000000       0.68750000000000000        0.0000000000000000     
   1.1250000000000000       0.71875000000000000        0.0000000000000000     
   1.1562500000000000       0.71875000000000000        0.0000000000000000     
   1.1875000000000000       0.71875000000000000        0.0000000000000000     
   1.2187500000000000       0.71875000000000000        0.0000000000000000     
   1.2500000000000000       0.71875000000000000        0.0000000000000000     
   1.1250000000000000       0.75000000000000000        0.0000000000000000     
   1.1562500000000000       0.75000000000000000        0.0000000000000000     
   1.1875000000000000       0.75000000000000000        0.0000000000000000     
   1.2187500000000000       0.75000000000000000        0.0000000000000000     
   1.2500000000000000       0.75000000000000000        0.0000000000000000     
   1.2500000000000000       0.62500000000000000        0.0000000000000000     
   1.2812500000000000       0.62500000000000000        0.0000000000000000     
   1.3125000000000000       0.62500000000000000        0.0000000000000000     
   1.3437500000000000       0.62500000000000000        0.0000000000000000     
   1.3750000000000000       0.62500000000000000        0.0000000000000000     
   1.2500000000000000       0.65625000000000000        0.0000000000000000     
   1.2812500000000000       0.65625000000000000        0.0000000000000000     
   1.3125000000000000       0.65625000000000000        0.0000000000000000     
   1.3437500000000000       0.65625000000000000        0.0000000000000000     
   1.3750000000000000       0.65625000000000000        0.0000000000000000     
   1.2500000000000000       0.68750000000000000        0.0000000000000000     
   1.2812500000000000       0.68750000000000000        0.0000000000000000     
   1.3125000000000000       0.68750000000000000        0.0000000000000000     
   1.3437500000000000       0.68750000000000000        0.0000000000000000     
   1.3750000000000000       0.68750000000000000        0.0000000000000000     
   1.2500000000000000       0.71875000000000000        0.0000000000000000     
   1.2812500000000000       0.71875000000000000        0.0000000000000000     
   1.3125000000000000       0.71875000000000000        0.0000000000000000     
   1.3437500000000000       0.71875000000000000        0.0000000000000000     
   1.3750000000000000       0.71875000000000000        0.0000000000000000     
   1.2500000000000000       0.75000000000000000        0.0000000000000000     
   1.2812500000000000       0.75000000000000000        0.0000000000000000     
   1.3125000000000000       0.75000000000000000        0.0000000000000000     
   1.3437500000000000       0.75000000000000000        0.0000000000000000     
   1.3750000000000000       0.75000000000000000        0.0000000000000000     
   1.3750000000000000       0.62500000000000000        0.0000000000000000     
   1.4062500000000000       0.62500000000000000        0.0000000000000000     
   1.4375000000000000       0.62500000000000000        0.0000000000000000     
   1.4687500000000000       0.62500000000000000        0.0000000000000000     
   1.5000000000000000       0.62500000000000000        0.0000000000000000     
   1.3750000000000000       0.65625000000000000        0.0000000000000000     
   1.4062500000000000       0.65625000000000000        0.0000000000000000     
   1.4375000000000000       0.65625000000000000        0.0000000000000000     
   1.4687500000000000       0.65625000000000000        0.0000000000000000     
   1.5000000000000000       0.65625000000000000        0.0000000000000000     
   1.3750000000000000       0.68750000000000000        0.0000000000000000     
   1.4062500000000000       0.68750000000000000        0.0000000000000000     
   1.4375000000000000       0.68750000000000000        0.0000000000000000     
   1.4687500000000000       0.68750000000000000        0.0000000000000000     
   1.5000000000000000       0.68750000000000000        0.0000000000000000     
   1.3750000000000000       0.71875000000000000        0.0000000000000000     
   1.4062500000000000       0.71875000000000000        0.0000000000000000     
   1.4375000000000000       0.71875000000000000        0.0000000000000000     
   1.4687500000000000       0.71875000000000000        0.0000000000000000     
   1.5000000000000000       0.71875000000000000        0.0000000000000000     
   1.3750000000000000       0.75000000000000000        0.0000000000000000     
   1.4062500000000000       0.75000000000000000        0.0000000000000000     
   1.4375000000000000       0.75000000000000000        0.0000000000000000     
   1.4687500000000000       0.75000000000000000        0.0000000000000000     
   1.5000000000000000       0.75000000000000000        0.0000000000000000     
  0.50000000000000000       0.75000000000000000        0.0000000000000000     
  0.53125000000000000       0.75000000000000000        0.0000000000000000     
  0.56250000000000000       0.75000000000000000        0.0000000000000000     
  0.59375000000000000       0.75000000000000000        0.0000000000000000     
  0.62500000000000000       0.75000000000000000        0.0000000000000000     
  0.50000000000000000       0.78125000000000000        0.0000000000000000     
  0.53125000000000000       0.78125000000000000        0.0000000000000000     
  0.56250000000000000       0.78125000000000000        0.0000000000000000     
  0.59375000000000000       0.78125000000000000        0.0000000000000000     
  0.62500000000000000       0.78125000000000000        0.0000000000000000     
  0.50000000000000000       0.81250000000000000        0.0000000000000000     
  0.53125000000000000       0.81250000000000000        0.0000000000000000     
  0.56250000000000000       0.81250000000000000        0.0000000000000000     
  0.59375000000000000       0.81250000000000000        0.0000000000000000     
  0.62500000000000000       0.81250000000000000        0.0000000000000000     
  0.50000000000000000       0.84375000000000000        0.0000000000000000     
  0.53125000000000000       0.84375000000000000        0.0000000000000000     
  0.56250000000000000       0.84375000000000000        0.0000000000000000     
  0.59375000000000000       0.84375000000000000        0.0000000000000000     
  0.62500000000000000       0.84375000000000000        0.0000000000000000     
  0.50000000000000000       0.87500000000000000        0.0000000000000000     
  0.53125000000000000       0.87500000000000000        0.0000000000000000     
  0.56250000000000000       0.87500000000000000        0.0000000000000000     
  0.59375000000000000       0.87500000000000000        0.0000000000000000     
  0.62500000000000000       0.87500000000000000        0.0000000000000000     
  0.62500000000000000       0.75000000000000000        0.0000000000000000     
  0.65625000000000000       0.75000000000000000        0.0000000000000000     
  0.68750000000000000       0.75000000000000000        0.0000000000000000     
  0.71875000000000000       0.75000000000000000        0.0000000000000000     
  0.75000000000000000       0.75000000000000000        0.0000000000000000     
  0.62500000000000000       0.78125000000000000        0.0000000000000000     
  0.65625000000000000       0.78125000000000000        0.0000000000000000     
  0.68750000000000000       0.78125000000000000        0.0000000000000000     
  0.71875000000000000       0.78125000000000000        0.0000000000000000     
  0.75000000000000000       0.78125000000000000        0.0000000000000000     
  0.62500000000000000       0.81250000000000000        0.0000000000000000     
  0.65625000000000000       0.81250000000000000        0.0000000000000000     
  0.68750000000000000       0.81250000000000000        0.0000000000000000     
  0.71875000000000000       0.81250000000000000        0.0000000000000000     
  0.75000000000000000       0.81250000000000000        0.0000000000000000     
  0.62500000000000000       0.84375000000000000        0.0000000000000000     
  0.65625000000000000       0.84375000000000000        0.0000000000000000     
  0.68750000000000000       0.84375000000000000        0.0000000000000000     
  0.71875000000000000       0.84375000000000000        0.0000000000000000     
  0.75000000000000000       0.84375000000000000        0.0000000000000000     
  0.62500000000000000       0.87500000000000000        0.0000000000000000     
  0.65625000000000000       0.87500000000000000        0.0000000000000000     
  0.68750000000000000       0.87500000000000000        0.0000000000000000     
  0.71875000000000000       0.87500000000000000        0.0000000000000000     
  0.75000000000000000       0.87500000000000000        0.0000000000000000     
  0.75000000000000000       0.75000000000000000        0.0000000000000000     
  0.78125000000000000       0.75000000000000000        0.0000000000000000     
  0.81250000000000000       0.75000000000000000        0.0000000000000000     
  0.84375000000000000       0.75000000000000000        0.0000000000000000     
  0.87500000000000000       0.75000000000000000        0.0000000000000000     
  0.75000000000000000       0.78125000000000000        0.0000000000000000     
  0.78125000000000000       0.78125000000000000        0.0000000000000000     
  0.81250000000000000       0.78125000000000000        0.0000000000000000     
  0.84375000000000000       0.78125000000000000        0.0000000000000000     
  0.87500000000000000       0.78125000000000000        0.0000000000000000     
  0.75000000000000000       0.81250000000000000        0.0000000000000000     
  0.78125000000000000       0.81250000000000000        0.0000000000000000     
  0.81250000000000000       0.81250000000000000        0.0000000000000000     
  0.84375000000000000       0.81250000000000000        0.0000000000000000     
  0.87500000000000000       0.81250000000000000        0.0000000000000000     
  0.75000000000000000       0.84375000000000000        0.0000000000000000     
  0.78125000000000000       0.84375000000000000        0.0000000000000000     
  0.81250000000000000       0.84375000000000000        0.0000000000000000     
  0.84375000000000000       0.84375000000000000        0.0000000000000000     
  0.87500000000000000       0.84375000000000000        0.0000000000000000     
  0.75000000000000000       0.87500000000000000        0.0000000000000000     
  0.78125000000000000       0.87500000000000000        0.0000000000000000     
  0.81250000000000000       0.87500000000000000        0.0000000000000000     
  0.84375000000000000       0.87500000000000000        0.0000000000000000     
  0.87500000000000000       0.87500000000000000        0.0000000000000000     
  0.87500000000000000       0.75000000000000000        0.0000000000000000     
  0.90625000000000000       0.75000000000000000        0.0000000000000000     
  0.93750000000000000       0.75000000000000000        0.0000000000000000     
  0.96875000000000000       0.75000000000000000        0.0000000000000000     
   1.0000000000000000       0.75000000000000000        0.0000000000000000     
  0.87500000000000000       0.78125000000000000        0.0000000000000000     
  0.90625000000000000       0.78125000000000000        0.0000000000000000     
  0.93750000000000000       0.78125000000000000        0.0000000000000000     
  0.96875000000000000       0.78125000000000000        0.0000000000000000     
   1.0000000000000000       0.78125000000000000        0.0000000000000000     
  0.87500000000000000       0.81250000000000000        0.0000000000000000     
  0.90625000000000000       0.81250000000000000        0.0000000000000000     
  0.93750000000000000       0.81250000000000000        0.0000000000000000     
  0.96875000000000000       0.81250000000000000        0.0000000000000000     
   1.0000000000000000       0.81250000000000000        0.0000000000000000     
  0.87500000000000000       0.84375000000000000        0.0000000000000000     
  0.90625000000000000       0.84375000000000000        0.0000000000000000     
  0.93750000000000000       0.84375000000000000        0.0000000000000000     
  0.96875000000000000       0.84375000000000000        0.0000000000000000     
   1.0000000000000000       0.84375000000000000        0.0000000000000000     
  0.87500000000000000       0.87500000000000000        0.0000000000000000     
  0.90625000000000000       0.87500000000000000        0.0000000000000000     
  0.93750000000000000       0.87500000000000000        0.0000000000000000     
  0.96875000000000000       0.87500000000000000        0.0000000000000000     
   1.0000000000000000       0.87500000000000000        0.0000000000000000     
   1.0000000000000000       0.75000000000000000        0.0000000000000000     
   1.0312500000000000       0.75000000000000000        0.0000000000000000     
   1.0625000000000000       0.75000000000000000        0.0000000000000000     
   1.0937500000000000       0.75000000000000000        0.0000000000000000     
   1.1250000000000000       0.75000000000000000        0.0000000000000000     
   1.0000000000000000       0.78125000000000000        0.0000000000000000     
   1.0312500000000000       0.78125000000000000        0.0000000000000000     
   1.0625000000000000       0.78125000000000000        0.0000000000000000     
   1.0937500000000000       0.78125000000000000        0.0000000000000000     
   1.1250000000000000       0.78125000000000000        0.0000000000000000     
   1.0000000000000000       0.81250000000000000        0.0000000000000000     
   1.0312500000000000       0.81250000000000000        0.0000000000000000     
   1.0625000000000000       0.81250000000000000        0.0000000000000000     
   1.0937500000000000       0.81250000000000000        0.0000000000000000     
   1.1250000000000000       0.81250000000000000        0.0000000000000000     
   1.0000000000000000       0.84375000000000000        0.0000000000000000     
   1.0312500000000000       0.84375000000000000        0.0000000000000000     
   1.0625000000000000       0.84375000000000000        0.0000000000000000     
   1.0937500000000000       0.84375000000000000        0.0000000000000000     
   1.1250000000000000       0.84375000000000000        0.0000000000000000     
   1.0000000000000000       0.87500000000000000        0.0000000000000000     
   1.0312500000000000       0.87500000000000000        0.0000000000000000     
   1.0625000000000000       0.87500000000000000        0.0000000000000000     
   1.0937500000000000       0.87500000000000000        0.0000000000000000     
   1.1250000000000000       0.87500000000000000        0.0000000000000000     
   1.1250000000000000       0.75000000000000000        0.0000000000000000     
   1.1562500000000000       0.75000000000000000        0.0000000000000000     
   1.1875000000000000       0.75000000000000000        0.0000000000000000     
   1.2187500000000000       0.75000000000000000        0.0000000000000000     
   1.2500000000000000       0.75000000000000000        0.0000000000000000     
   1.1250000000000000       0.78125000000000000        0.0000000000000000     
   1.1562500000000000       0.78125000000000000        0.0000000000000000     
   1.1875000000000000       0.78125000000000000        0.0000000000000000     
   1.2187500000000000       0.78125000000000000        0.0000000000000000     
   1.2500000000000000       0.78125000000000000        0.0000000000000000     
   1.1250000000000000       0.81250000000000000        0.0000000000000000     
   1.1562500000000000       0.81250000000000000        0.0000000000000000     
   1.1875000000000000       0.81250000000000000        0.0000000000000000     
   1.2187500000000000       0.81250000000000000        0.0000000000000000     
   1.2500000000000000       0.81250000000000000        0.0000000000000000     
   1.1250000000000000       0.84375000000000000        0.0000000000000000     
   1.1562500000000000       0.84375000000000000        0.0000000000000000     
   1.1875000000000000       0.84375000000000000        0.0000000000000000     
   1.2187500000000000       0.84375000000000000        0.0000000000000000     
   1.2500000000000000       0.84375000000000000        0.0000000000000000     
   1.1250000000000000       0.87500000000000000        0.0000000000000000     
   1.1562500000000000       0.87500000000000000        0.0000000000000000     
   1.1875000000000000       0.87500000000000000        0.0000000000000000     
   1.2187500000000000       0.87500000000000000        0.0000000000000000     
   1.2500000000000000       0.87500000000000000        0.0000000000000000     
   1.2500000000000000       0.75000000000000000        0.0000000000000000     
   1.2812500000000000       0.75000000000000000        0.0000000000000000     
   1.3125000000000000       0.75000000000000000        0.0000000000000000     
   1.3437500000000000       0.75000000000000000        0.0000000000000000     
   1.3750000000000000       0.75000000000000000        0.0000000000000000     
   1.2500000000000000       0.78125000000000000        0.0000000000000000     
   1.2812500000000000       0.78125000000000000        0.0000000000000000     
   1.3125000000000000       0.78125000000000000        0.0000000000000000     
   1.3437500000000000       0.78125000000000000        0.0000000000000000     
   1.3750000000000000       0.78125000000000000        0.0000000000000000     
   1.2500000000000000       0.81250000000000000        0.0000000000000000     
   1.2812500000000000       0.81250000000000000        0.0000000000000000     
   1.3125000000000000       0.81250000000000000        0.0000000000000000     
   1.3437500000000000       0.81250000000000000        0.0000000000000000     
   1.3750000000000000       0.81250000000000000        0.0000000000000000     
   1.2500000000000000       0.84375000000000000        0.0000000000000000     
   1.2812500000000000       0.84375000000000000        0.0000000000000000     
   1.3125000000000000       0.84375000000000000        0.0000000000000000     
   1.3437500000000000       0.84375000000000000        0.0000000000000000     
   1.3750000000000000       0.84375000000000000        0.0000000000000000     
   1.2500000000000000       0.87500000000000000        0.0000000000000000     
   1.2812500000000000       0.87500000000000000        0.0000000000000000     
   1.3125000000000000       0.87500000000000000        0.0000000000000000     
   1.3437500000000000       0.87500000000000000        0.0000000000000000     
   1.3750000000000000       0.87500000000000000        0.0000000000000000     
   1.3750000000000000       0.75000000000000000        0.0000000000000000     
   1.4062500000000000       0.75000000000000000        0.0000000000000000     
   1.4375000000000000       0.75000000000000000        0.0000000000000000     
   1.4687500000000000       0.75000000000000000        0.0000000000000000     
   1.5000000000000000       0.75000000000000000        0.0000000000000000     
   1.3750000000000000       0.78125000000000000        0.0000000000000000     
   1.4062500000000000       0.78125000000000000        0.0000000000000000     
   1.4375000000000000       0.78125000000000000        0.0000000000000000     
   1.4687500000000000       0.78125000000000000        0.0000000000000000     
   1.5000000000000000       0.78125000000000000        0.0000000000000000     
   1.3750000000000000       0.81250000000000000        0.0000000000000000     
   1.4062500000000000       0.81250000000000000        0.0000000000000000     
   1.4375000000000000       0.81250000000000000        0.0000000000000000     
   1.4687500000000000       0.81250000000000000        0.0000000000000000     
   1.5000000000000000       0.81250000000000000        0.0000000000000000     
   1.3750000000000000       0.84375000000000000        0.0000000000000000     
   1.4062500000000000       0.84375000000000000        0.0000000000000000     
   1.4375000000000000       0.84375000000000000        0.0000000000000000     
   1.4687500000000000       0.84375000000000000        0.0000000000000000     
   1.5000000000000000       0.84375000000000000        0.0000000000000000     
   1.3750000000000000       0.87500000000000000        0.0000000000000000     
   1.4062500000000000       0.87500000000000000        0.0000000000000000     
   1.4375000000000000       0.87500000000000000        0.0000000000000000     
   1.4687500000000000       0.87500000000000000        0.0000000000000000     
   1.5000000000000000       0.87500000000000000        0.0000000000000000     
  0.50000000000000000       0.87500000000000000        0.0000000000000000     
  0.53125000000000000       0.87500000000000000        0.0000000000000000     
  0.56250000000000000       0.87500000000000000        0.0000000000000000     
  0.59375000000000000       0.87500000000000000        0.0000000000000000     
  0.62500000000000000       0.87500000000000000        0.0000000000000000     
  0.50000000000000000       0.90625000000000000        0.0000000000000000     
  0.53125000000000000       0.90625000000000000        0.0000000000000000     
  0.56250000000000000       0.90625000000000000        0.0000000000000000     
  0.59375000000000000       0.90625000000000000        0.0000000000000000     
  0.62500000000000000       0.90625000000000000        0.0000000000000000     
  0.50000000000000000       0.93750000000000000        0.0000000000000000     
  0.53125000000000000       0.93750000000000000        0.0000000000000000     
  0.56250000000000000       0.93750000000000000        0.0000000000000000     
  0.59375000000000000       0.93750000000000000        0.0000000000000000     
  0.62500000000000000       0.93750000000000000        0.0000000000000000     
  0.50000000000000000       0.96875000000000000        0.0000000000000000     
  0.53125000000000000       0.96875000000000000        0.0000000000000000     
  0.56250000000000000       0.96875000000000000        0.0000000000000000     
  0.59375000000000000       0.96875000000000000        0.0000000000000000     
  0.62500000000000000       0.96875000000000000        0.0000000000000000     
  0.50000000000000000        1.0000000000000000        0.0000000000000000     
  0.53125000000000000        1.0000000000000000        0.0000000000000000     
  0.56250000000000000        1.0000000000000000        0.0000000000000000     
  0.59375000000000000        1.0000000000000000        0.0000000000000000     
  0.62500000000000000        1.0000000000000000        0.0000000000000000     
  0.62500000000000000       0.87500000000000000        0.0000000000000000     
  0.65625000000000000       0.87500000000000000        0.0000000000000000     
  0.68750000000000000       0.87500000000000000        0.0000000000000000     
  0.71875000000000000       0.87500000000000000        0.0000000000000000     
  0.75000000000000000       0.87500000000000000        0.0000000000000000     
  0.62500000000000000       0.90625000000000000        0.0000000000000000     
  0.65625000000000000       0.90625000000000000        0.0000000000000000     
  0.68750000000000000       0.90625000000000000        0.0000000000000000     
  0.71875000000000000       0.90625000000000000        0.0000000000000000     
  0.75000000000000000       0.90625000000000000        0.0000000000000000     
  0.62500000000000000       0.93750000000000000        0.0000000000000000     
  0.65625000000000000       0.93750000000000000        0.0000000000000000     
  0.68750000000000000       0.93750000000000000        0.0000000000000000     
  0.71875000000000000       0.93750000000000000        0.0000000000000000     
  0.75000000000000000       0.93750000000000000        0.0000000000000000     
  0.62500000000000000       0.96875000000000000        0.0000000000000000     
  0.65625000000000000       0.96875000000000000        0.0000000000000000     
  0.68750000000000000       0.96875000000000000        0.0000000000000000     
  0.71875000000000000       0.96875000000000000        0.0000000000000000     
  0.75000000000000000       0.96875000000000000        0.0000000000000000     
  0.62500000000000000        1.0000000000000000        0.0000000000000000     
  0.65625000000000000        1.0000000000000000        0.0000000000000000     
  0.68750000000000000        1.0000000000000000        0.0000000000000000     
  0.71875000000000000        1.0000000000000000        0.0000000000000000     
  0.75000000000000000        1.0000000000000000        0.0000000000000000     
  0.75000000000000000       0.87500000000000000        0.0000000000000000     
  0.78125000000000000       0.87500000000000000        0.0000000000000000     
  0.81250000000000000       0.87500000000000000        0.0000000000000000     
  0.84375000000000000       0.87500000000000000        0.0000000000000000     
  0.87500000000000000       0.87500000000000000        0.0000000000000000     
  0.75000000000000000       0.90625000000000000        0.0000000000000000     
  0.78125000000000000       0.90625000000000000        0.0000000000000000     
  0.81250000000000000       0.90625000000000000        0.0000000000000000     
  0.84375000000000000       0.90625000000000000        0.0000000000000000     
  0.87500000000000000       0.90625000000000000        0.0000000000000000     
  0.75000000000000000       0.93750000000000000        0.0000000000000000     
  0.78125000000000000       0.93750000000000000        0.0000000000000000     
  0.81250000000000000       0.93750000000000000        0.0000000000000000     
  0.84375000000000000       0.93750000000000000        0.0000000000000000     
  0.87500000000000000       0.93750000000000000        0.0000000000000000     
  0.75000000000000000       0.96875000000000000        0.0000000000000000     
  0.78125000000000000       0.96875000000000000        0.0000000000000000     
  0.81250000000000000       0.96875000000000000        0.0000000000000000     
  0.84375000000000000       0.96875000000000000        0.0000000000000000     
  0.87500000000000000       0.96875000000000000        0.0000000000000000     
  0.75000000000000000        1.0000000000000000        0.0000000000000000     
  0.78125000000000000        1.0000000000000000        0.0000000000000000     
  0.81250000000000000        1.0000000000000000        0.0000000000000000     
  0.84375000000000000        1.0000000000000000        0.0000000000000000     
  0.87500000000000000        1.0000000000000000        0.0000000000000000     
  0.87500000000000000       0.87500000000000000        0.0000000000000000     
  0.90625000000000000       0.87500000000000000        0.0000000000000000     
  0.93750000000000000       0.87500000000000000        0.0000000000000000     
  0.96875000000000000       0.87500000000000000        0.0000000000000000     
   1.0000000000000000       0.87500000000000000        0.0000000000000000     
  0.87500000000000000       0.90625000000000000        0.0000000000000000     
  0.90625000000000000       0.90625000000000000        0.0000000000000000     
  0.93750000000000000       0.90625000000000000        0.0000000000000000     
  0.96875000000000000       0.90625000000000000        0.0000000000000000     
   1.0000000000000000       0.90625000000000000        0.0000000000000000     
  0.87500000000000000       0.93750000000000000        0.0000000000000000     
  0.90625000000000000       0.93750000000000000        0.0000000000000000     
  0.93750000000000000       0.93750000000000000        0.0000000000000000     
  0.96875000000000000       0.93750000000000000        0.0000000000000000     
   1.0000000000000000       0.93750000000000000        0.0000000000000000     
  0.87500000000000000       0.96875000000000000        0.0000000000000000     
  0.90625000000000000       0.96875000000000000        0.0000000000000000     
  0.93750000000000000       0.96875000000000000        0.0000000000000000     
  0.96875000000000000       0.96875000000000000        0.0000000000000000     
   1.0000000000000000       0.96875000000000000        0.0000000000000000     
  0.87500000000000000        1.0000000000000000        0.0000000000000000     
  0.90625000000000000        1.0000000000000000        0.0000000000000000     
  0.93750000000000000        1.0000000000000000        0.0000000000000000     
  0.96875000000000000        1.0000000000000000        0.0000000000000000     
   1.0000000000000000        1.0000000000000000        0.0000000000000000     
   1.0000000000000000       0.87500000000000000        0.0000000000000000     
   1.0312500000000000       0.87500000000000000        0.0000000000000000     
   1.0625000000000000       0.87500000000000000        0.0000000000000000     
   1.0937500000000000       0.87500000000000000        0.0000000000000000     
   1.1250000000000000       0.87500000000000000        0.0000000000000000     
   1.0000000000000000       0.90625000000000000        0.0000000000000000     
   1.0312500000000000       0.90625000000000000        0.0000000000000000     
   1.0625000000000000       0.90625000000000000        0.0000000000000000     
   1.0937500000000000       0.90625000000000000        0.0000000000000000     
   1.1250000000000000       0.90625000000000000        0.0000000000000000     
   1.0000000000000000       0.93750000000000000        0.0000000000000000     
   1.0312500000000000       0.93750000000000000        0.0000000000000000     
   1.0625000000000000       0.93750000000000000        0.0000000000000000     
   1.0937500000000000       0.93750000000000000        0.0000000000000000     
   1.1250000000000000       0.93750000000000000        0.0000000000000000     
   1.0000000000000000       0.96875000000000000        0.0000000000000000     
   1.0312500000000000       0.96875000000000000        0.0000000000000000     
   1.0625000000000000       0.96875000000000000        0.0000000000000000     
   1.0937500000000000       0.96875000000000000        0.0000000000000000     
   1.1250000000000000       0.96875000000000000        0.0000000000000000     
   1.0000000000000000        1.0000000000000000        0.0000000000000000     
   1.0312500000000000        1.0000000000000000        0.0000000000000000     
   1.0625000000000000        1.0000000000000000        0.0000000000000000     
   1.0937500000000000        1.0000000000000000        0.0000000000000000     
   1.1250000000000000        1.0000000000000000        0.0000000000000000     
   1.1250000000000000       0.87500000000000000        0.0000000000000000     
   1.1562500000000000       0.87500000000000000        0.0000000000000000     
   1.1875000000000000       0.87500000000000000        0.0000000000000000     
   1.2187500000000000       0.87500000000000000        0.0000000000000000     
   1.2500000000000000       0.87500000000000000        0.0000000000000000     
   1.1250000000000000       0.90625000000000000        0.0000000000000000     
   1.1562500000000000       0.90625000000000000        0.0000000000000000     
   1.1875000000000000       0.90625000000000000        0.0000000000000000     
   1.2187500000000000       0.90625000000000000        0.0000000000000000     
   1.2500000000000000       0.90625000000000000        0.0000000000000000     
   1.1250000000000000       0.93750000000000000        0.0000000000000000     
   1.1562500000000000       0.93750000000000000        0.0000000000000000     
   1.1875000000000000       0.93750000000000000        0.0000000000000000     
   1.2187500000000000       0.93750000000000000        0.0000000000000000     
   1.2500000000000000       0.93750000000000000        0.0000000000000000     
   1.1250000000000000       0.96875000000000000        0.0000000000000000     
   1.1562500000000000       0.96875000000000000        0.0000000000000000     
   1.1875000000000000       0.96875000000000000        0.0000000000000000     
   1.2187500000000000       0.96875000000000000        0.0000000000000000     
   1.2500000000000000       0.96875000000000000        0.0000000000000000     
   1.1250000000000000        1.0000000000000000        0.0000000000000000     
   1.1562500000000000        1.0000000000000000        0.0000000000000000     
   1.1875000000000000        1.0000000000000000        0.0000000000000000     
   1.2187500000000000        1.0000000000000000        0.0000000000000000     
   1.2500000000000000        1.0000000000000000        0.0000000000000000     
   1.2500000000000000       0.87500000000000000        0.0000000000000000     
   1.2812500000000000       0.87500000000000000        0.0000000000000000     
   1.3125000000000000       0.87500000000000000        0.0000000000000000     
   1.3437500000000000       0.87500000000000000        0.0000000000000000     
   1.3750000000000000       0.87500000000000000        0.0000000000000000     
   1.2500000000000000       0.90625000000000000        0.0000000000000000     
   1.2812500000000000       0.90625000000000000        0.0000000000000000     
   1.3125000000000000       0.90625000000000000        0.0000000000000000     
   1.3437500000000000       0.90625000000000000        0.0000000000000000     
   1.3750000000000000       0.90625000000000000        0.0000000000000000     
   1.2500000000000000       0.93750000000000000        0.0000000000000000     
   1.2812500000000000       0.93750000000000000        0.0000000000000000     
   1.3125000000000000       0.93750000000000000        0.0000000000000000     
   1.3437500000000000       0.93750000000000000        0.0000000000000000     
   1.3750000000000000       0.93750000000000000        0.0000000000000000     
   1.2500000000000000       0.96875000000000000        0.0000000000000000     
   1.2812500000000000       0.96875000000000000        0.0000000000000000     
   1.3125000000000000       0.96875000000000000        0.0000000000000000     
   1.3437500000000000       0.96875000000000000        0.0000000000000000     
   1.3750000000000000       0.96875000000000000        0.0000000000000000     
   1.2500000000000000        1.0000000000000000        0.0000000000000000     
   1.2812500000000000        1.0000000000000000        0.0000000000000000     
   1.3125000000000000        1.0000000000000000        0.0000000000000000     
   1.3437500000000000        1.0000000000000000        0.0000000000000000     
   1.3750000000000000        1.0000000000000000        0.0000000000000000     
   1.3750000000000000       0.87500000000000000        0.0000000000000000     
   1.4062500000000000       0.87500000000000000        0.0000000000000000     
   1.4375000000000000       0.87500000000000000        0.0000000000000000     
   1.4687500000000000       0.87500000000000000        0.0000000000000000     
   1.5000000000000000       0.87500000000000000        0.0000000000000000     
   1.3750000000000000       0.90625000000000000        0.0000000000000000     
   1.4062500000000000       0.90625000000000000        0.0000000000000000     
   1.4375000000000000       0.90625000000000000        0.0000000000000000     
   1.4687500000000000       0.90625000000000000        0.0000000000000000     
   1.5000000000000000       0.90625000000000000        0.0000000000000000     
   1.3750000000000000       0.93750000000000000        0.0000000000000000     
   1.4062500000000000       0.93750000000000000        0.0000000000000000     
   1.4375000000000000       0.93750000000000000        0.0000000000000000     
   1.4687500000000000       0.93750000000000000        0.0000000000000000     
   1.5000000000000000       0.93750000000000000        0.0000000000000000     
   1.3750000000000000       0.96875000000000000        0.0000000000000000     
   1.4062500000000000       0.96875000000000000        0.0000000000000000     
   1.4375000000000000       0.96875000000000000        0.0000000000000000     
   1.4687500000000000       0.96875000000000000        0.0000000000000000     
   1.5000000000000000       0.96875000000000000        0.0000000000000000     
   1.3750000000000000        1.0000000000000000        0.0000000000000000     
   1.4062500000000000        1.0000000000000000        0.0000000000000000     
   1.4375000000000000        1.0000000000000000        0.0000000000000000     
   1.4687500000000000        1.0000000000000000        0.0000000000000000     
   1.5000000000000000        1.0000000000000000        0.0000000000000000     
 </DataArray>
 </Points>
 <Cells>
 <DataArray  type="Int32"  Name="connectivity"  format="ascii">
           0           1           6           5
           1           2           7           6
           2           3           8           7
           3           4           9           8
           5           6          11          10
           6           7          12          11
           7           8          13          12
           8           9          14          13
          10          11          16          15
          11          12          17          16
          12          13          18          17
          13          14          19          18
          15          16          21          20
          16          17          22          21
          17          18          23          22
          18          19          24          23
          25          26          31          30
          26          27          32          31
          27          28          33          32
          28          29          34          33
          30          31          36          35
          31          32          37          36
          32          33          38          37
          33          34          39          38
          35          36          41          40
          36          37          42          41
          37          38          43          42
          38          39          44          43
          40          41          46          45
          41          42          47          46
          42          43          48          47
          43          44          49          48
          50          51          56          55
          51          52          57          56
          52          53          58          57
          53          54          59          58
          55          56          61          60
          56          57          62          61
          57          58          63          62
          58          59          64          63
          60          61          66          65
          61          62          67          66
          62          63          68          67
          63          64          69          68
          65          66          71          70
          66          67          72          71
          67          68          73          72
          68          69          74          73
          75          76          81          80
          76          77          82          81
          77          78          83          82
          78          79          84          83
          80          81          86          85
          81          82          87          86
          82          83          88          87
          83          84          89          88
          85          86          91          90
          86          87          92          91
          87          88          93          92
          88          89          94          93
          90          91          96          95
          91          92          97          96
          92          93          98          97
          93          94          99          98
         100         101         106         105
         101         102         107         106
         102         103         108         107
         103         104         109         108
         105         106         111         110
         106         107         112         111
         107         108         113         112
         108         109         114         113
         110         111         116         115
         111         112         117         116
         112         113         118         117
         113         114         119         118
         115         116         121         120
         116         117         122         121
         117         118         123         122
         118         119         124         123
         125         126         131         130
         126         127         132         131
         127         128         133         132
         128         129         134         133
         130         131         136         135
         131         132         137         136
         132         133         138         137
         133         134         139         138
         135         136         141         140
         136         137         142         141
         137         138         143         142
         138         139         144         143
         140         141         146         145
         141         142         147         146
         142         143         148         147
         143         144         149         148
         150         151         156         155
         151         152         157         156
         152         153         158         157
         153         154         159         158
         155         156         161         160
         156         157         162         161
         157         158         163         162
         158         159         164         163
         160         161         166         165
         161         162         167         166
         162         163         168         167
         163         164         169         168
         165         166         171         170
         166         167         172         171
         167         168         173         172
         168         169         174         173
         175         176         181         180
         176         177         182         181
         177         178         183         182
         178         179         184         183
         180         181         186         185
         181         182         187         186
         182         183         188         187
         183         184         189         188
         185         186         191         190
         186         187         192         191
         187         188         193         192
         188         189         194         193
         190         191         196         195
         191         192         197         196
         192         193         198         197
         193         194         199         198
         200         201         206         205
         201         202         207         206
         202         203         208         207
         203         204         209         208
         205         206         211         210
         206         207         212         211
         207         208         213         212
         208         209         214         213
         210         211         216         215
         211         212         217         216
         212         213         218         217
         213         214         219         218
         215         216         221         220
         216         217         222         221
         217         218         223         222
         218         219         224         223
         225         226         231         230
         226         227         232         231
         227         228         233         232
         228         229         234         233
         230         231         236         235
         231         232         237         236
         232         233         238         237
         233         234         239         238
         235         236         241         240
         236         237         242         241
         237         238         243         242
         238         239         244         243
         240         241         246         245
         241         242         247         246
         242         243         248         247
         243         244         249         248
         250         251         256         255
         251         252         257         256
         252         253         258         257
         253         254         259         258
         255         256         261         260
         256         257         262         261
         257         258         263         262
         258         259         264         263
         260         261         266         265
         261         262         267         266
         262         263         268         267
         263         264         269         268
         265         266         271         270
         266         267         272         271
         267         268         273         272
         268         269         274         273
         275         276         281         280
         276         277         282         281
         277         278         283         282
         278         279         284         283
         280         281         286         285
         281         282         287         286
         282         283         288         287
         283         284         289         288
         285         286         291         290
         286         287         292         291
         287         288         293         292
         288         289         294         293
         290         291         296         295
         291         292         297         296
         292         293         298         297
         293         294         299         298
         300         301         306         305
         301         302         307         306
         302         303         308         307
         303         304         309         308
         305         306         311         310
         306         307         312         311
         307         308         313         312
         308         309         314         313
         310         311         316         315
         311         312         317         316
         312         313         318         317
         313         314         319         318
         315         316         321         320
         316         317         322         321
         317         318         323         322
         318         319         324         323
         325         326         331         330
         326         327         332         331
         327         328         333         332
         328         329         334         333
         330         331         336         335
         331         332         337         336
         332         333         338         337
         333         334         339         338
         335         336         341         340
         336         337         342         341
         337         338         343         342
         338         339         344         343
         340         341         346         345
         341         342         347         346
         342         343         348         347
         343         344         349         348
         350         351         356         355
         351         352         357         356
         352         353         358         357
         353         354         359         358
         355         356         361         360
         356         357         362         361
         357         358         363         362
         358         359         364         363
         360         361         366         365
         361         362         367         366
         362         363         368         367
         363         364         369         368
         365         366         371         370
         366         367         372         371
         367         368         373         372
         368         369         374         373
         375         376         381         380
         376         377         382         381
         377         378         383         382
         378         379         384         383
         380         381         386         385
         381         382         387         386
         382         383         388         387
         383         384         389         388
         385         386         391         390
         386         387         392         391
         387         388         393         392
         388         389         394         393
         390         391         396         395
         391         392         397         396
         392         393         398         397
         393         394         399         398
         400         401         406         405
         401         402         407         406
         402         403         408         407
         403         404         409         408
         405         406         411         410
         406         407         412         411
         407         408         413         412
         408         409         414         413
         410         411         416         415
         411         412         417         416
         412         413         418         417
         413         414         419         418
         415         416         421         420
         416         417         422         421
         417         418         423         422
         418         419         424         423
         425         426         431         430
         426         427         432         431
         427         428         433         432
         428         429         434         433
         430         431         436         435
         431         432         437         436
         432         433         438         437
         433         434         439         438
         435         436         441         440
         436         437         442         441
         437         438         443         442
         438         439         444         443
         440         441         446         445
         441         442         447         446
         442         443         448         447
         443         444         449         448
         450         451         456         455
         451         452         457         456
         452         453         458         457
         453         454         459         458
         455         456         461         460
         456         457         462         461
         457         458         463         462
         458         459         464         463
         460         461         466         465
         461         462         467         466
         462         463         468         467
         463         464         469         468
         465         466         471         470
         466         467         472         471
         467         468         473         472
         468         469         474         473
         475         476         481         480
         476         477         482         481
         477         478         483         482
         478         479         484         483
         480         481         486         485
         481         482         487         486
         482         483         488         487
         483         484         489         488
         485         486         491         490
         486         487         492         491
         487         488         493         492
         488         489         494         493
         490         491         496         495
         491         492         497         496
         492         493         498         497
         493         494         499         498
         500         501         506         505
         501         502         507         506
         502         503         508         507
         503         504         509         508
         505         506         511         510
         506         507         512         511
         507         508         513         512
         508         509         514         513
         510         511         516         515
         511         512         517         516
         512         513         518         517
         513         514         519         518
         515         516         521         520
         516         517         522         521
         517         518         523         522
         518         519         524         523
         525         526         531         530
         526         527         532         531
         527         528         533         532
         528         529         534         533
         530         531         536         535
         531         532         537         536
         532         533         538         537
         533         534         539         538
         535         536         541         540
         536         537         542         541
         537         538         543         542
         538         539         544         543
         540         541         546         545
         541         542         547         546
         542         543         548         547
         543         544         549         548
         550         551         556         555
         551         552         557         556
         552         553         558         557
         553         554         559         558
         555         556         561         560
         556         557         562         561
         557         558         563         562
         558         559         564         563
         560         561         566         565
         561         562         567         566
         562         563         568         567
         563         564         569         568
         565         566         571         570
         566         567         572         571
         567         568         573         572
         568         569         574         573
         575         576         581         580
         576         577         582         581
         577         578         583         582
         578         579         584         583
         580         581         586         585
         581         582         587         586
         582         583         588         587
         583         584         589         588
         585         586         591         590
         586         587         592         591
         587         588         593         592
         588         589         594         593
         590         591         596         595
         591         592         597         596
         592         593         598         597
         593         594         599         598
         600         601         606         605
         601         602         607         606
         602         603         608         607
         603         604         609         608
         605         606         611         610
         606         607         612         611
         607         608         613         612
         608         609         614         613
         610         611         616         615
         611         612         617         616
         612         613         618         617
         613         614         619         618
         615         616         621         620
         616         617         622         621
         617         618         623         622
         618         619         624         623
         625         626         631         630
         626         627         632         631
         627         628         633         632
         628         629         634         633
         630         631         636         635
         631         632         637         636
         632         633         638         637
         633         634         639         638
         635         636         641         640
         636         637         642         641
         637         638         643         642
         638         639         644         643
         640         641         646         645
         641         642         647         646
         642         643         648         647
         643         644         649         648
         650         651         656         655
         651         652         657         656
         652         653         658         657
         653         654         659         658
         655         656         661         660
         656         657         662         661
         657         658         663         662
         658         659         664         663
         660         661         666         665
         661         662         667         666
         662         663         668         667
         663         664         669         668
         665         666         671         670
         666         667         672         671
         667         668         673         672
         668         669         674         673
         675         676         681         680
         676         677         682         681
         677         678         683         682
         678         679         684         683
         680         681         686         685
         681         682         687         686
         682         683         688         687
         683         684         689         688
         685         686         691         690
         686         687         692         691
         687         688         693         692
         688         689         694         693
         690         691         696         695
         691         692         697         696
         692         693         698         697
         693         694         699         698
         700         701         706         705
         701         702         707         706
         702         703         708         707
         703         704         709         708
         705         706         711         710
         706         707         712         711
         707         708         713         712
         708         709         714         713
         710         711         716         715
         711         712         717         716
         712         713         718         717
         713         714         719         718
         715         716         721         720
         716         717         722         721
         717         718         723         722
         718         719         724         723
         725         726         731         730
         726         727         732         731
         727         728         733         732
         728         729         734         733
         730         731         736         735
         731         732         737         736
         732         733         738         737
         733         734         739         738
         735         736         741         740
         736         737         742         741
         737         738         743         742
         738         739         744         743
         740         741         746         745
         741         742         747         746
         742         743         748         747
         743         744         749         748
         750         751         756         755
         751         752         757         756
         752         753         758         757
         753         754         759         758
         755         756         761         760
         756         757         762         761
         757         758         763         762
         758         759         764         763
         760         761         766         765
         761         762         767         766
         762         763         768         767
         763         764         769         768
         765         766         771         770
         766         767         772         771
         767         768         773         772
         768         769         774         773
         775         776         781         780
         776         777         782         781
         777         778         783         782
         778         779         784         783
         780         781         786         785
         781         782         787         786
         782         783         788         787
         783         784         789         788
         785         786         791         790
         786         787         792         791
         787         788         793         792
         788         789         794         793
         790         791         796         795
         791         792         797         796
         792         793         798         797
         793         794         799         798
         800         801         806         805
         801         802         807         806
         802         803         808         807
         803         804         809         808
         805         806         811         810
         806         807         812         811
         807         808         813         812
         808         809         814         813
         810         811         816         815
         811         812         817         816
         812         813         818         817
         813         814         819         818
         815         816         821         820
         816         817         822         821
         817         818         823         822
         818         819         824         823
         825         826         831         830
         826         827         832         831
         827         828         833         832
         828         829         834         833
         830         831         836         835
         831         832         837         836
         832         833         838         837
         833         834         839         838
         835         836         841         840
         836         837         842         841
         837         838         843         842
         838         839         844         843
         840         841         846         845
         841         842         847         846
         842         843         848         847
         843         844         849         848
         850         851         856         855
         851         852         857         856
         852         853         858         857
         853         854         859         858
         855         856         861         860
         856         857         862         861
         857         858         863         862
         858         859         864         863
         860         861         866         865
         861         862         867         866
         862         863         868         867
         863         864         869         868
         865         866         871         870
         866         867         872         871
         867         868         873         872
         868         869         874         873
         875         876         881         880
         876         877         882         881
         877         878         883         882
         878         879         884         883
         880         881         886         885
         881         882         887         886
         882         883         888         887
         883         884         889         888
         885         886         891         890
         886         887         892         891
         887         888         893         892
         888         889         894         893
         890         891         896         895
         891         892         897         896
         892         893         898         897
         893         894         899         898
         900         901         906         905
         901         902         907         906
         902         903         908         907
         903         904         909         908
         905         906         911         910
         906         907         912         911
         907         908         913         912
         908         909         914         913
         910         911         916         915
         911         912         917         916
         912         913         918         917
         913         914         919         918
         915         916         921         920
         916         917         922         921
         917         918         923         922
         918         919         924         923
         925         926         931         930
         926         927         932         931
         927         928         933         932
         928         929         934         933
         930         931         936         935
         931         932         937         936
         932         933         938         937
         933         934         939         938
         935         936         941         940
         936         937         942         941
         937         938         943         942
         938         939         944         943
         940         941         946         945
         941         942         947         946
         942         943         948         947
         943         944         949         948
         950         951         956         955
         951         952         957         956
         952         953         958         957
         953         954         959         958
         955         956         961         960
         956         957         962         961
         957         958         963         962
         958         959         964         963
         960         961         966         965
         961         962         967         966
         962         963         968         967
         963         964         969         968
         965         966         971         970
         966         967         972         971
         967         968         973         972
         968         969         974         973
         975         976         981         980
         976         977         982         981
         977         978         983         982
         978         979         984         983
         980         981         986         985
         981         982         987         986
         982         983         988         987
         983         984         989         988
         985         986         991         990
         986         987         992         991
         987         988         993         992
         988         989         994         993
         990         991         996         995
         991         992         997         996
         992         993         998         997
         993         994         999         998
        1000        1001        1006        1005
        1001        1002        1007        1006
        1002        1003        1008        1007
        1003        1004        1009        1008
        1005        1006        1011        1010
        1006        1007        1012        1011
        1007        1008        1013        1012
        1008        1009        1014        1013
        1010        1011        1016        1015
        1011        1012        1017        1016
        1012        1013        1018        1017
        1013        1014        1019        1018
        1015        1016        1021        1020
        1016        1017        1022        1021
        1017        1018        1023        1022
        1018        1019        1024        1023
        1025        1026        1031        1030
        1026        1027        1032        1031
        1027        1028        1033        1032
        1028        1029        1034        1033
        1030        1031        1036        1035
        1031        1032        1037        1036
        1032        1033        1038        1037
        1033        1034        1039        1038
        1035        1036        1041        1040
        1036        1037        1042        1041
        1037        1038        1043        1042
        1038        1039        1044        1043
        1040        1041        1046        1045
        1041        1042        1047        1046
        1042        1043        1048        1047
        1043        1044        1049        1048
        1050        1051        1056        1055
        1051        1052        1057        1056
        1052        1053        1058        1057
        1053        1054        1059        1058
        1055        1056        1061        1060
        1056        1057        1062        1061
        1057        1058        1063        1062
        1058        1059        1064        1063
        1060        1061        1066        1065
        1061        1062        1067        1066
        1062        1063        1068        1067
        1063        1064        1069        1068
        1065        1066        1071        1070
        1066        1067        1072        1071
        1067        1068        1073        1072
        1068        1069        1074        1073
        1075        1076        1081        1080
        1076        1077        1082        1081
        1077        1078        1083        1082
        1078        1079        1084        1083
        1080        1081        1086        1085
        1081        1082        1087        1086
        1082        1083        1088        1087
        1083        1084        1089        1088
        1085        1086        1091        1090
        1086        1087        1092        1091
        1087        1088        1093        1092
        1088        1089        1094        1093
        1090        1091        1096        1095
        1091        1092        1097        1096
        1092        1093        1098        1097
        1093        1094        1099        1098
        1100        1101        1106        1105
        1101        1102        1107        1106
        1102        1103        1108        1107
        1103        1104        1109        1108
        1105        1106        1111        1110
        1106        1107        1112        1111
        1107        1108        1113        1112
        1108        1109        1114        1113
        1110        1111        1116        1115
        1111        1112        1117        1116
        1112        1113        1118        1117
        1113        1114        1119        1118
        1115        1116        1121        1120
        1116        1117        1122        1121
        1117        1118        1123        1122
        1118        1119        1124        1123
        1125        1126        1131        1130
        1126        1127        1132        1131
        1127        1128        1133        1132
        1128        1129        1134        1133
        1130        1131        1136        1135
        1131        1132        1137        1136
        1132        1133        1138        1137
        1133        1134        1139        1138
        1135        1136        1141        1140
        1136        1137        1142        1141
        1137        1138        1143        1142
        1138        1139        1144        1143
        1140        1141        1146        1145
        1141        1142        1147        1146
        1142        1143        1148        1147
        1143        1144        1149        1148
        1150        1151        1156        1155
        1151        1152        1157        1156
        1152        1153        1158        1157
        1153        1154        1159        1158
        1155        1156        1161        1160
        1156        1157        1162        1161
        1157        1158        1163        1162
        1158        1159        1164        1163
        1160        1161        1166        1165
        1161        1162        1167        1166
        1162        1163        1168        1167
        1163        1164        1169        1168
        1165        1166        1171        1170
        1166        1167        1172        1171
        1167        1168        1173        1172
        1168        1169        1174        1173
        1175        1176        1181        1180
        1176        1177        1182        1181
        1177        1178        1183        1182
        1178        1179        1184        1183
        1180        1181        1186        1185
        1181        1182        1187        1186
        1182        1183        1188        1187
        1183        1184        1189        1188
        1185        1186        1191        1190
        1186        1187        1192        1191
        1187        1188        1193        1192
        1188        1189        1194        1193
        1190        1191        1196        1195
        1191        1192        1197        1196
        1192        1193        1198        1197
        1193        1194        1199        1198
        1200        1201        1206        1205
        1201        1202        1207        1206
        1202        1203        1208        1207
        1203        1204        1209        1208
        1205        1206        1211        1210
        1206        1207        1212        1211
        1207        1208        1213        1212
        1208        1209        1214        1213
        1210        1211        1216        1215
        1211        1212        1217        1216
        1212        1213        1218        1217
        1213        1214        1219        1218
        1215        1216        1221        1220
        1216        1217        1222        1221
        1217        1218        1223        1222
        1218        1219        1224        1223
        1225        1226        1231        1230
        1226        1227        1232        1231
        1227        1228        1233        1232
        1228        1229        1234        1233
        1230        1231        1236        1235
        1231        1232        1237        1236
        1232        1233        1238        1237
        1233        1234        1239        1238
        1235        1236        1241        1240
        1236        1237        1242        1241
        1237        1238        1243        1242
        1238        1239        1244        1243
        1240        1241        1246        1245
        1241        1242        1247        1246
        1242        1243        1248        1247
        1243        1244        1249        1248
        1250        1251        1256        1255
        1251        1252        1257        1256
        1252        1253        1258        1257
        1253        1254        1259        1258
        1255        1256        1261        1260
        1256        1257        1262        1261
        1257        1258        1263        1262
        1258        1259        1264        1263
        1260        1261        1266        1265
        1261        1262        1267        1266
        1262        1263        1268        1267
        1263        1264        1269        1268
        1265        1266        1271        1270
        1266        1267        1272        1271
        1267        1268        1273        1272
        1268        1269        1274        1273
        1275        1276        1281        1280
        1276        1277        1282        1281
        1277        1278        1283        1282
        1278        1279        1284        1283
        1280        1281        1286        1285
        1281        1282        1287        1286
        1282        1283        1288        1287
        1283        1284        1289        1288
        1285        1286        1291        1290
        1286        1287        1292        1291
        1287        1288        1293        1292
        1288        1289        1294        1293
        1290        1291        1296        1295
        1291        1292        1297        1296
        1292        1293        1298        1297
        1293        1294        1299        1298
        1300        1301        1306        1305
        1301        1302        1307        1306
        1302        1303        1308        1307
        1303        1304        1309        1308
        1305        1306        1311        1310
        1306        1307        1312        1311
        1307        1308        1313        1312
        1308        1309        1314        1313
        1310        1311        1316        1315
        1311        1312        1317        1316
        1312        1313        1318        1317
        1313        1314        1319        1318
        1315        1316        1321        1320
        1316        1317        1322        1321
        1317        1318        1323        1322
        1318        1319        1324        1323
        1325        1326        1331        1330
        1326        1327        1332        1331
        1327        1328        1333        1332
        1328        1329        1334        1333
        1330        1331        1336        1335
        1331        1332        1337        1336
        1332        1333        1338        1337
        1333        1334        1339        1338
        1335        1336        1341        1340
        1336        1337        1342        1341
        1337        1338        1343        1342
        1338        1339        1344        1343
        1340        1341        1346        1345
        1341        1342        1347        1346
        1342        1343        1348        1347
        1343        1344        1349        1348
        1350        1351        1356        1355
        1351        1352        1357        1356
        1352        1353        1358        1357
        1353        1354        1359        1358
        1355        1356        1361        1360
        1356        1357        1362        1361
        1357        1358        1363        1362
        1358        1359        1364        1363
        1360        1361        1366        1365
        1361        1362        1367        1366
        1362        1363        1368        1367
        1363        1364        1369        1368
        1365        1366        1371        1370
        1366        1367        1372        1371
        1367        1368        1373        1372
        1368        1369        1374        1373
        1375        1376        1381        1380
        1376        1377        1382        1381
        1377        1378        1383        1382
        1378        1379        1384        1383
        1380        1381        1386        1385
        1381        1382        1387        1386
        1382        1383        1388        1387
        1383        1384        1389        1388
        1385        1386        1391        1390
        1386        1387        1392        1391
        1387        1388        1393        1392
        1388        1389        1394        1393
        1390        1391        1396        1395
        1391        1392        1397        1396
        1392        1393        1398        1397
        1393        1394        1399        1398
        1400        1401        1406        1405
        1401        1402        1407        1406
        1402        1403        1408        1407
        1403        1404        1409        1408
        1405        1406        1411        1410
        1406        1407        1412        1411
        1407        1408        1413        1412
        1408        1409        1414        1413
        1410        1411        1416        1415
        1411        1412        1417        1416
        1412        1413        1418        1417
        1413        1414        1419        1418
        1415        1416        1421        1420
        1416        1417        1422        1421
        1417        1418        1423        1422
        1418        1419        1424        1423
        1425        1426        1431        1430
        1426        1427        1432        1431
        1427        1428        1433        1432
        1428        1429        1434        1433
        1430        1431        1436        1435
        1431        1432        1437        1436
        1432        1433        1438        1437
        1433        1434        1439        1438
        1435        1436        1441        1440
        1436        1437        1442        1441
        1437        1438        1443        1442
        1438        1439        1444        1443
        1440        1441        1446        1445
        1441        1442        1447        1446
        1442        1443        1448        1447
        1443        1444        1449        1448
        1450        1451        1456        1455
        1451        1452        1457        1456
        1452        1453        1458        1457
        1453        1454        1459        1458
        1455        1456        1461        1460
        1456        1457        1462        1461
        1457        1458        1463        1462
        1458        1459        1464        1463
        1460        1461        1466        1465
        1461        1462        1467        1466
        1462        1463        1468        1467
        1463        1464        1469        1468
        1465        1466        1471        1470
        1466        1467        1472        1471
        1467        1468        1473        1472
        1468        1469        1474        1473
        1475        1476        1481        1480
        1476        1477        1482        1481
        1477        1478        1483        1482
        1478        1479        1484        1483
        1480        1481        1486        1485
        1481        1482        1487        1486
        1482        1483        1488        1487
        1483        1484        1489        1488
        1485        1486        1491        1490
        1486        1487        1492        1491
        1487        1488        1493        1492
        1488        1489        1494        1493
        1490        1491        1496        1495
        1491        1492        1497        1496
        1492        1493        1498        1497
        1493        1494        1499        1498
        1500        1501        1506        1505
        1501        1502        1507        1506
        1502        1503        1508        1507
        1503        1504        1509        1508
        1505        1506        1511        1510
        1506        1507        1512        1511
        1507        1508        1513        1512
        1508        1509        1514        1513
        1510        1511        1516        1515
        1511        1512        1517        1516
        1512        1513        1518        1517
        1513        1514        1519        1518
        1515        1516        1521        1520
        1516        1517        1522        1521
        1517        1518        1523        1522
        1518        1519        1524        1523
        1525        1526        1531        1530
        1526        1527        1532        1531
        1527        1528        1533        1532
        1528        1529        1534        1533
        1530        1531        1536        1535
        1531        1532        1537        1536
        1532        1533        1538        1537
        1533        1534        1539        1538
        1535        1536        1541        1540
        1536        1537        1542        1541
        1537        1538        1543        1542
        1538        1539        1544        1543
        1540        1541        1546        1545
        1541        1542        1547        1546
        1542        1543        1548        1547
        1543        1544        1549        1548
        1550        1551        1556        1555
        1551        1552        1557        1556
        1552        1553        1558        1557
        1553        1554        1559        1558
        1555        1556        1561        1560
        1556        1557        1562        1561
        1557        1558        1563        1562
        1558        1559        1564        1563
        1560        1561        1566        1565
        1561        1562        1567        1566
        1562        1563        1568        1567
        1563        1564        1569        1568
        1565        1566        1571        1570
        1566        1567        1572        1571
        1567        1568        1573        1572
        1568        1569        1574        1573
        1575        1576        1581        1580
        1576        1577        1582        1581
        1577        1578        1583        1582
        1578        1579        1584        1583
        1580        1581        1586        1585
        1581        1582        1587        1586
        1582        1583        1588        1587
        1583        1584        1589        1588
        1585        1586        1591        1590
        1586        1587        1592        1591
        1587        1588        1593        1592
        1588        1589        1594        1593
        1590        1591        1596        1595
        1591        1592        1597        1596
        1592        1593        1598        1597
        1593        1594        1599        1598
 </DataArray>
 <DataArray  type="Int32"  Name="offsets"  format="ascii"> 
           4
           8
          12
          16
          20
          24
          28
          32
          36
          40
          44
          48
          52
          56
          60
          64
          68
          72
          76
          80
          84
          88
          92
          96
         100
         104
         108
         112
         116
         120
         124
         128
         132
         136
         140
         144
         148
         152
         156
         160
         164
         168
         172
         176
         180
         184
         188
         192
         196
         200
         204
         208
         212
         216
         220
         224
         228
         232
         236
         240
         244
         248
         252
         256
         260
         264
         268
         272
         276
         280
         284
         288
         292
         296
         300
         304
         308
         312
         316
         320
         324
         328
         332
         336
         340
         344
         348
         352
         356
         360
         364
         368
         372
         376
         380
         384
         388
         392
         396
         400
         404
         408
         412
         416
         420
         424
         428
         432
         436
         440
         444
         448
         452
         456
         460
         464
         468
         472
         476
         480
         484
         488
         492
         496
         500
         504
         508
         512
         516
         520
         524
         528
         532
         536
         540
         544
         548
         552
         556
         560
         564
         568
         572
         576
         580
         584
         588
         592
         596
         600
         604
         608
         612
         616
         620
         624
         628
         632
         636
         640
         644
         648
         652
         656
         660
         664
         668
         672
         676
         680
         684
         688
         692
         696
         700
         704
         708
         712
         716
         720
         724
         728
         732
         736
         740
         744
         748
         752
         756
         760
         764
         768
         772
         776
         780
         784
         788
         792
         796
         800
         804
         808
         812
         816
         820
         824
         828
         832
         836
         840
         844
         848
         852
         856
         860
         864
         868
         872
         876
         880
         884
         888
         892
         896
         900
         904
         908
         912
         916
         920
         924
         928
         932
         936
         940
         944
         948
         952
         956
         960
         964
         968
         972
         976
         980
         984
         988
         992
         996
        1000
        1004
        1008
        1012
        1016
        1020
        1024
        1028
        1032
        1036
        1040
        1044
        1048
        1052
        1056
        1060
        1064
        1068
        1072
        1076
        1080
        1084
        1088
        1092
        1096
        1100
        1104
        1108
        1112
        1116
        1120
        1124
        1128
        1132
        1136
        1140
        1144
        1148
        1152
        1156
        1160
        1164
        1168
        1172
        1176
        1180
        1184
        1188
        1192
        1196
        1200
        1204
        1208
        1212
        1216
        1220
        1224
        1228
        1232
        1236
        1240
        1244
        1248
        1252
        1256
        1260
        1264
        1268
        1272
        1276
        1280
        1284
        1288
        1292
        1296
        1300
        1304
        1308
        1312
        1316
        1320
        1324
        1328
        1332
        1336
        1340
        1344
        1348
        1352
        1356
        1360
        1364
        1368
        1372
        1376
        1380
        1384
        1388
        1392
        1396
        1400
        1404
        1408
        1412
        1416
        1420
        1424
        1428
        1432
        1436
        1440
        1444
        1448
        1452
        1456
        1460
        1464
        1468
        1472
        1476
        1480
        1484
        1488
        1492
        1496
        1500
        1504
        1508
        1512
        1516
        1520
        1524
        1528
        1532
        1536
        1540
        1544
        1548
        1552
        1556
        1560
        1564
        1568
        1572
        1576
        1580
        1584
        1588
        1592
        1596
        1600
        1604
        1608
        1612
        1616
        1620
        1624
        1628
        1632
        1636
        1640
        1644
        1648
        1652
        1656
        1660
        1664
        1668
        1672
        1676
        1680
        1684
        1688
        1692
        1696
        1700
        1704
        1708
        1712
        1716
        1720
        1724
        1728
        1732
        1736
        1740
        1744
        1748
        1752
        1756
        1760
        1764
        1768
        1772
        1776
        1780
        1784
        1788
        1792
        1796
        1800
        1804
        1808
        1812
        1816
        1820
        1824
        1828
        1832
        1836
        1840
        1844
        1848
        1852
        1856
        1860
        1864
        1868
        1872
        1876
        1880
        1884
        1888
        1892
        1896
        1900
        1904
        1908
        1912
        1916
        1920
        1924
        1928
        1932
        1936
        1940
        1944
        1948
        1952
        1956
        1960
        1964
        1968
        1972
        1976
        1980
        1984
        1988
        1992
        1996
        2000
        2004
        2008
        2012
        2016
        2020
        2024
        2028
        2032
        2036
        2040
        2044
        2048
        2052
        2056
        2060
        2064
        2068
        2072
        2076
        2080
        2084
        2088
        2092
        2096
        2100
        2104
        2108
        2112
        2116
        2120
        2124
        2128
        2132
        2136
        2140
        2144
        2148
        2152
        2156
        2160
        2164
        2168
        2172
        2176
        2180
        2184
        2188
        2192
        2196
        2200
        2204
        2208
        2212
        2216
        2220
        2224
        2228
        2232
        2236
        2240
        2244
        2248
        2252
        2256
        2260
        2264
        2268
        2272
        2276
        2280
        2284
        2288
        2292
        2296
        2300
        2304
        2308
        2312
        2316
        2320
        2324
        2328
        2332
        2336
        2340
        2344
        2348
        2352
        2356
        2360
        2364
        2368
        2372
        2376
        2380
        2384
        2388
        2392
        2396
        2400
        2404
        2408
        2412
        2416
        2420
        2424
        2428
        2432
        2436
        2440
        2444
        2448
        2452
        2456
        2460
        2464
        2468
        2472
        2476
        2480
        2484
        2488
        2492
        2496
        2500
        2504
        2508
        2512
        2516
        2520
        2524
        2528
        2532
        2536
        2540
        2544
        2548
        2552
        2556
        2560
        2564
        2568
        2572
        2576
        2580
        2584
        2588
        2592
        2596
        2600
        2604
        2608
        2612
        2616
        2620
        2624
        2628
        2632
        2636
        2640
        2644
        2648
        2652
        2656
        2660
        2664
        2668
        2672
        2676
        2680
        2684
        2688
        2692
        2696
        2700
        2704
        2708
        2712
        2716
        2720
        2724
        2728
        2732
        2736
        2740
        2744
        2748
        2752
        2756
        2760
        2764
        2768
        2772
        2776
        2780
        2784
        2788
        2792
        2796
        2800
        2804
        2808
        2812
        2816
        2820
        2824
        2828
        2832
        2836
        2840
        2844
        2848
        2852
        2856
        2860
        2864
        2868
        2872
        2876
        2880
        2884
        2888
        2892
        2896
        2900
        2904
        2908
        2912
        2916
        2920
        2924
        2928
        2932
        2936
        2940
        2944
        2948
        2952
        2956
        2960
        2964
        2968
        2972
        2976
        2980
        2984
        2988
        2992
        2996
        3000
        3004
        3008
        3012
        3016
        3020
        3024
        3028
        3032
        3036
        3040
        3044
        3048
        3052
        3056
        3060
        3064
        3068
        3072
        3076
        3080
        3084
        3088
        3092
        3096
        3100
        3104
        3108
        3112
        3116
        3120
        3124
        3128
        3132
        3136
        3140
        3144
        3148
        3152
        3156
        3160
        3164
        3168
        3172
        3176
        3180
        3184
        3188
        3192
        3196
        3200
        3204
        3208
        3212
        3216
        3220
        3224
        3228
        3232
        3236
        3240
        3244
        3248
        3252
        3256
        3260
        3264
        3268
        3272
        3276
        3280
        3284
        3288
        3292
        3296
        3300
        3304
        3308
        3312
        3316
        3320
        3324
        3328
        3332
        3336
        3340
        3344
        3348
        3352
        3356
        3360
        3364
        3368
        3372
        3376
        3380
        3384
        3388
        3392
        3396
        3400
        3404
        3408
        3412
        3416
        3420
        3424
        3428
        3432
        3436
        3440
        3444
        3448
        3452
        3456
        3460
        3464
        3468
        3472
        3476
        3480
        3484
        3488
        3492
        3496
        3500
        3504
        3508
        3512
        3516
        3520
        3524
        3528
        3532
        3536
        3540
        3544
        3548
        3552
        3556
        3560
        3564
        3568
        3572
        3576
        3580
        3584
        3588
        3592
        3596
        3600
        3604
        3608
        3612
        3616
        3620
        3624
        3628
        3632
        3636
        3640
        3644
        3648
        3652
        3656
        3660
        3664
        3668
        3672
        3676
        3680
        3684
        3688
        3692
        3696
        3700
        3704
        3708
        3712
        3716
        3720
        3724
        3728
        3732
        3736
        3740
        3744
        3748
        3752
        3756
        3760
        3764
        3768
        3772
        3776
        3780
        3784
        3788
        3792
        3796
        3800
        3804
        3808
        3812
        3816
        3820
        3824
        3828
        3832
        3836
        3840
        3844
        3848
        3852
        3856
        3860
        3864
        3868
        3872
        3876
        3880
        3884
        3888
        3892
        3896
        3900
        3904
        3908
        3912
        3916
        3920
        3924
        3928
        3932
        3936
        3940
        3944
        3948
        3952
        3956
        3960
        3964
        3968
        3972
        3976
        3980
        3984
        3988
        3992
        3996
        4000
        4004
        4008
        4012
        4016
        4020
        4024
        4028
        4032
        4036
        4040
        4044
        4048
        4052
        4056
        4060
        4064
        4068
        4072
        4076
        4080
        4084
        4088
        4092
        4096
 </DataArray>
 <DataArray  type="UInt8"  Name="types"  format="ascii">
 9
 9
 9
 9
 9
 9
 9
 9
 9
 9
 9
 9
 9
 9
 9
 9
 9
 9
 9
 9
 9
 9
 9
 9
 9
 9
 9
 9
 9
 9
 9
 9
 9
 9
 9
 9
 9
 9
 9
 9
 9
 9
 9
 9
 9
 9
 9
 9
 9
 9
 9
 9
 9
 9
 9
 9
 9
 9
 9
 9
 9
 9
 9
 9
 9
 9
 9
 9
 9
 9
 9
 9
 9
 9
 9
 9
 9
 9
 9
 9
 9
 9
 9
 9
 9
 9
 9
 9
 9
 9
 9
 9
 9
 9
 9
 9
 9
 9
 9
 9
 9
 9
 9
 9
 9
 9
 9
 9
 9
 9
 9
 9
 9
 9
 9
 9
 9
 9
 9
 9
 9
 9
 9
 9
 9
 9
 9
 9
 9
 9
 9
 9
 9
 9
 9
 9
 9
 9
 9
 9
 9
 9
 9
 9
 9
 9
 9
 9
 9
 9
 9
 9
 9
 9
 9
 9
 9
 9
 9
 9
 9
 9
 9
 9
 9
 9
 9
 9
 9
 9
 9
 9
 9
 9
 9
 9
 9
 9
 9
 9
 9
 9
 9
 9
 9
 9
 9
 9
 9
 9
 9
 9
 9
 9
 9
 9
 9
 9
 9
 9
 9
 9
 9
 9
 9
 9
 9
 9
 9
 9
 9
 9
 9
 9
 9
 9
 9
 9
 9
 9
 9
 9
 9
 9
 9
 9
 9
 9
 9
 9
 9
 9
 9
 9
 9
 9
 9
 9
 9
 9
 9
 9
 9
 9
 9
 9
 9
 9
 9
 9
 9
 9
 9
 9
 9
 9
 9
 9
 9
 9
 9
 9
 9
 9
 9
 9
 9
 9
 9
 9
 9
 9
 9
 9
 9
 9
 9
 9
 9
 9
 9
 9
 9
 9
 9
 9
 9
 9
 9
 9
 9
 9
 9
 9
 9
 9
 9
 9
 9
 9
 9
 9
 9
 9
 9
 9
 9
 9
 9
 9
 9
 9
 9
 9
 9
 9
 9
 9
 9
 9
 9
 9
 9
 9
 9
 9
 9
 9
 9
 9
 9
 9
 9
 9
 9
 9
 9
 9
 9
 9
 9
 9
 9
 9
 9
 9
 9
 9
 9
 9
 9
 9
 9
 9
 9
 9
 9
 9
 9
 9
 9
 9
 9
 9
 9
 9
 9
 9
 9
 9
 9
 9
 9
 9
 9
 9
 9
 9
 9
 9
 9
 9
 9
 9
 9
 9
 9
 9
 9
 9
 9
 9
 9
 9
 9
 9
 9
 9
 9
 9
 9
 9
 9
 9
 9
 9
 9
 9
 9
 9
 9
 9
 9
 9
 9
 9
 9
 9
 9
 9
 9
 9
 9
 9
 9
 9
 9
 9
 9
 9
 9
 9
 9
 9
 9
 9
 9
 9
 9
 9
 9
 9
 9
 9
 9
 9
 9
 9
 9
 9
 9
 9
 9
 9
 9
 9
 9
 9
 9
 9
 9
 9
 9
 9
 9
 9
 9
 9
 9
 9
 9
 9
 9
 9
 9
 9
 9
 9
 9
 9
 9
 9
 9
 9
 9
 9
 9
 9
 9
 9
 9
 9
 9
 9
 9
 9
 9
 9
 9
 9
 9
 9
 9
 9
 9
 9
 9
 9
 9
 9
 9
 9
 9
 9
 9
 9
 9
 9
 9
 9
 9
 9
 9
 9
 9
 9
 9
 9
 9
 9
 9
 9
 9
 9
 9
 9
 9
 9
 9
 9
 9
 9
 9
 9
 9
 9
 9
 9
 9
 9
 9
 9
 9
 9
 9
 9
 9
 9
 9
 9
 9
 9
 9
 9
 9
 9
 9
 9
 9
 9
 9
 9
 9
 9
 9
 9
 9
 9
 9
 9
 9
 9
 9
 9
 9
 9
 9
 9
 9
 9
 9
 9
 9
 9
 9
 9
 9
 9
 9
 9
 9
 9
 9
 9
 9
 9
 9
 9
 9
 9
 9
 9
 9
 9
 9
 9
 9
 9
 9
 9
 9
 9
 9
 9
 9
 9
 9
 9
 9
 9
 9
 9
 9
 9
 9
 9
 9
 9
 9
 9
 9
 9
 9
 9
 9
 9
 9
 9
 9
 9
 9
 9
 9
 9
 9
 9
 9
 9
 9
 9
 9
 9
 9
 9
 9
 9
 9
 9
 9
 9
 9
 9
 9
 9
 9
 9
 9
 9
 9
 9
 9
 9
 9
 9
 9
 9
 9
 9
 9
 9
 9
 9
 9
 9
 9
 9
 9
 9
 9
 9
 9
 9
 9
 9
 9
 9
 9
 9
 9
 9
 9
 9
 9
 9
 9
 9
 9
 9
 9
 9
 9
 9
 9
 9
 9
 9
 9
 9
 9
 9
 9
 9
 9
 9
 9
 9
 9
 9
 9
 9
 9
 9
 9
 9
 9
 9
 9
 9
 9
 9
 9
 9
 9
 9
 9
 9
 9
 9
 9
 9
 9
 9
 9
 9
 9
 9
 9
 9
 9
 9
 9
 9
 9
 9
 9
 9
 9
 9
 9
 9
 9
 9
 9
 9
 9
 9
 9
 9
 9
 9
 9
 9
 9
 9
 9
 9
 9
 9
 9
 9
 9
 9
 9
 9
 9
 9
 9
 9
 9
 9
 9
 9
 9
 9
 9
 9
 9
 9
 9
 9
 9
 9
 9
 9
 9
 9
 9
 9
 9
 9
 9
 9
 9
 9
 9
 9
 9
 9
 9
 9
 9
 9
 9
 9
 9
 9
 9
 9
 9
 9
 9
 9
 9
 9
 9
 9
 9
 9
 9
 9
 9
 9
 9
 9
 9
 9
 9
 9
 9
 9
 9
 9
 9
 9
 9
 9
 9
 9
 9
 9
 9
 9
 9
 9
 9
 9
 9
 9
 9
 9
 9
 9
 9
 9
 9
 9
 9
 9
 9
 9
 9
 9
 9
 9
 9
 9
 9
 9
 9
 9
 9
 9
 9
 9
 9
 9
 9
 9
 9
 9
 9
 9
 9
 9
 9
 9
 9
 9
 9
 9
 9
 9
 9
 9
 9
 9
 9
 9
 9
 9
 9
 9
 9
 9
 9
 9
 9
 9
 9
 9
 9
 9
 9
 9
 9
 9
 9
 9
 9
 9
 9
 9
 9
 9
 9
 9
 9
 9
 9
 9
 9
 9
 9
 9
 9
 9
 9
 9
 9
 9
 9
 9
 9
 9
 9
 9
 9
 9
 9
 9
 9
 9
 9
 9
 9
 9
 9
 9
 9
 9
 9
 9
 9
 9
 9
 9
 9
 9
 9
 9
 9
 9
 9
 9
 9
 9
 9
 9
 9
 9
 9
 9
 9
 9
 </DataArray>
 </Cells> 
 <PointData>
 <DataArray  type="Float64" Name="disp" NumberOfComponents="3" format="ascii">
   6.5118383932482704E-002   6.2836050107742833E-002   0.0000000000000000     
   6.8395644825555463E-002   6.8148369409408271E-002   0.0000000000000000     
   7.1486416879688292E-002   7.3676924895389628E-002   0.0000000000000000     
   7.4390700094881190E-002   7.9421716565686917E-002   0.0000000000000000     
   7.7108494471134173E-002   8.5382744420300152E-002   0.0000000000000000     
   6.0072091127829144E-002   6.1899359490920604E-002   0.0000000000000000     
   6.3009855220579614E-002   6.7278698796881406E-002   0.0000000000000000     
   6.5828855051928939E-002   7.2857185704626834E-002   0.0000000000000000     
   6.8529090621877120E-002   7.8634820214156922E-002   0.0000000000000000     
   7.1110561930424199E-002   8.4611602325471630E-002   0.0000000000000000     
   5.5177001585454771E-002   6.1030830500168443E-002   0.0000000000000000     
   5.7831748229166501E-002   6.6463460285785286E-002   0.0000000000000000     
   6.0412236384760371E-002   7.2083126690701119E-002   0.0000000000000000     
   6.2918466052236388E-002   7.7889829714915870E-002   0.0000000000000000     
   6.5350437231594546E-002   8.3883569358429610E-002   0.0000000000000000     
   5.0433115305359585E-002   6.0230463135486342E-002   0.0000000000000000     
   5.2861323851316117E-002   6.5702653876119968E-002   0.0000000000000000     
   5.5236560878182593E-002   7.1354747853612469E-002   0.0000000000000000     
   5.7558826385958953E-002   7.7186745067963802E-002   0.0000000000000000     
   5.9828120374645251E-002   8.3198645519174011E-002   0.0000000000000000     
   4.5840432287543566E-002   5.9498257396874303E-002   0.0000000000000000     
   4.8098582087028496E-002   6.4996279567885396E-002   0.0000000000000000     
   5.0301828532195586E-002   7.0672049193360870E-002   0.0000000000000000     
   5.2450171623044856E-002   7.6525566273300691E-002   0.0000000000000000     
   5.4543611359576319E-002   8.2556830807704901E-002   0.0000000000000000     
   7.7108494471134173E-002   8.5382744420300152E-002   0.0000000000000000     
   7.9700608347046953E-002   9.1520918732987219E-002   0.0000000000000000     
   8.2227850061219243E-002   9.7797149777506032E-002   0.0000000000000000     
   8.4690219613651044E-002  0.10421143755385659        0.0000000000000000     
   8.7087717004342369E-002  0.11076378206203888        0.0000000000000000     
   7.1110561930424199E-002   8.4611602325471630E-002   0.0000000000000000     
   7.3593806103176590E-002   9.0760316414067135E-002   0.0000000000000000     
   7.5999360265740806E-002   9.7053746855439479E-002   0.0000000000000000     
   7.8327224418116861E-002  0.10349189364958872        0.0000000000000000     
   8.0577398560304714E-002  0.11007475679651479        0.0000000000000000     
   6.5350437231594546E-002   8.3883569358429610E-002   0.0000000000000000     
   6.7703367775716505E-002   9.0045772444159622E-002   0.0000000000000000     
   6.9972475537483883E-002   9.6357865795023298E-002   0.0000000000000000     
   7.2157760516896707E-002  0.10281984941102068        0.0000000000000000     
   7.4259222713954950E-002  0.10943172329215171        0.0000000000000000     
   5.9828120374645251E-002   8.3198645519174011E-002   0.0000000000000000     
   6.2029293364666692E-002   8.9377286823264734E-002   0.0000000000000000     
   6.4147195876448460E-002   9.5709506596257557E-002   0.0000000000000000     
   6.6181827909990582E-002  0.10219530483815253        0.0000000000000000     
   6.8133189465293023E-002  0.10883468154894964        0.0000000000000000     
   5.4543611359576319E-002   8.2556830807704901E-002   0.0000000000000000     
   5.6571582870027136E-002   8.8754859551382403E-002   0.0000000000000000     
   5.8523521282634522E-002   9.5108669259142187E-002   0.0000000000000000     
   6.0399426597398463E-002  0.10161825993098424        0.0000000000000000     
   6.2199298814318973E-002  0.10828363156690857        0.0000000000000000     
   8.7087717004342369E-002  0.11076378206203888        0.0000000000000000     
   8.9402605573498911E-002  0.11745586555959014        0.0000000000000000     
   9.1617148661326420E-002  0.12428937030404760        0.0000000000000000     
   9.3731346267824853E-002  0.13126429629541123        0.0000000000000000     
   9.5745198392994252E-002  0.13838064353368104        0.0000000000000000     
   8.0577398560304714E-002  0.11007475679651479        0.0000000000000000     
   8.2741970398694270E-002  0.11679990246045729        0.0000000000000000     
   8.4813027639675395E-002  0.12366489680565571        0.0000000000000000     
   8.6790570283248047E-002  0.13066973983211003        0.0000000000000000     
   8.8674598329412255E-002  0.13781443153982031        0.0000000000000000     
   7.4259222713954950E-002  0.10943172329215171        0.0000000000000000     
   7.6275215383662970E-002  0.11618771012987134        0.0000000000000000     
   7.8204091781025095E-002  0.12308203261563451        0.0000000000000000     
   8.0045851906041326E-002  0.13011469074944124        0.0000000000000000     
   8.1800495758711678E-002  0.13728568453129150        0.0000000000000000     
   6.8133189465293023E-002  0.10883468154894964        0.0000000000000000     
   7.0002340528404969E-002  0.11561928856783232        0.0000000000000000     
   7.1790341085375520E-002  0.12254077773398406        0.0000000000000000     
   7.3497191136204718E-002  0.12959914904740483        0.0000000000000000     
   7.5122890680892507E-002  0.13679440250809466        0.0000000000000000     
   6.2199298814318973E-002  0.10828363156690857        0.0000000000000000     
   6.3923345832920295E-002  0.11509463777434023        0.0000000000000000     
   6.5571775552726697E-002  0.12204113216070434        0.0000000000000000     
   6.7144587973738193E-002  0.12912311472600083        0.0000000000000000     
   6.8641783095954742E-002  0.13634058547022979        0.0000000000000000     
   9.5745198392994252E-002  0.13838064353368104        0.0000000000000000     
   9.7660919368957447E-002  0.14562210591111593        0.0000000000000000     
   9.9480723527837295E-002  0.15297237731997479        0.0000000000000000     
  0.10120461086963381       0.16043145776025763        0.0000000000000000     
  0.10283258139434701       0.16799934723196441        0.0000000000000000     
   8.8674598329412255E-002  0.13781443153982031        0.0000000000000000     
   9.0467991778005880E-002  0.14508301420167957        0.0000000000000000     
   9.2173630628866715E-002  0.15245953009058100        0.0000000000000000     
   9.3791514881994789E-002  0.15994397920652451        0.0000000000000000     
   9.5321644537390102E-002  0.16753636154951018        0.0000000000000000     
   8.1800495758711678E-002  0.13728568453129150        0.0000000000000000     
   8.3471174314297777E-002  0.14457966043826365        0.0000000000000000     
   8.5061038548061296E-002  0.15198126494743594        0.0000000000000000     
   8.6570088460002220E-002  0.15949049805880844        0.0000000000000000     
   8.7998324050120549E-002  0.16710735977238114        0.0000000000000000     
   7.5122890680892507E-002  0.13679440250809466        0.0000000000000000     
   7.6670466977833210E-002  0.14411204462086807        0.0000000000000000     
   7.8142947285421094E-002  0.15153758189053967        0.0000000000000000     
   7.9540331603656131E-002  0.15907101431710940        0.0000000000000000     
   8.0862619932538363E-002  0.16671234190057729        0.0000000000000000     
   6.8641783095954742E-002  0.13634058547022979        0.0000000000000000     
   7.0065869768612121E-002  0.14368016674949294        0.0000000000000000     
   7.1419356840946052E-002  0.15112848091989214        0.0000000000000000     
   7.2702244312956493E-002  0.15868552798142740        0.0000000000000000     
   7.3914532184643528E-002  0.16635130793409869        0.0000000000000000     
  0.10283258139434701       0.16799934723196441        0.0000000000000000     
  0.10437120065483886       0.17566600912398159        0.0000000000000000     
  0.10582703420397144       0.18342140682519556        0.0000000000000000     
  0.10720008204174471       0.19126554033560639        0.0000000000000000     
  0.10849034416815870       0.19919840965521396        0.0000000000000000     
   9.5321644537390102E-002  0.16753636154951018        0.0000000000000000     
   9.6766480985161427E-002  0.17522757124822497        0.0000000000000000     
   9.8128485615417566E-002  0.18300850243135594        0.0000000000000000     
   9.9407658428158518E-002  0.19087915509890305        0.0000000000000000     
  0.10060399942338427       0.19883952925086634        0.0000000000000000     
   8.7998324050120549E-002  0.16710735977238114        0.0000000000000000     
   8.9345360752678030E-002  0.17482312714607631        0.0000000000000000     
   9.0610814001936449E-002  0.18262907723781621        0.0000000000000000     
   9.1794683797895751E-002  0.19052521004760090        0.0000000000000000     
   9.2896970140555993E-002  0.19851152557543039        0.0000000000000000     
   8.0862619932538363E-002  0.16671234190057729        0.0000000000000000     
   8.2107839957388684E-002  0.17445267681753560        0.0000000000000000     
   8.3274019363528046E-002  0.18228313124457649        0.0000000000000000     
   8.4361158150956447E-002  0.19020370518169996        0.0000000000000000     
   8.5369256319673889E-002  0.19821439862890611        0.0000000000000000     
   7.3914532184643528E-002  0.16635130793409869        0.0000000000000000     
   7.5053918599293390E-002  0.17411622026260284        0.0000000000000000     
   7.6118101700192412E-002  0.18197066445163668        0.0000000000000000     
   7.7107081487340565E-002  0.18991464050120027        0.0000000000000000     
   7.8020857960737905E-002  0.19794814841129355        0.0000000000000000     
  0.10849034416815870       0.19919840965521396        0.0000000000000000     
  0.10970104115055675       0.20721676632254699        0.0000000000000000     
  0.11083539355628221       0.21531736187613390        0.0000000000000000     
  0.11189340138533509       0.22350019631597484        0.0000000000000000     
  0.11287506463771535       0.23176526964206975        0.0000000000000000     
  0.10060399942338427       0.19883952925086634        0.0000000000000000     
  0.10172214568932354       0.20688373260674389        0.0000000000000000     
  0.10276673431420504       0.21500587288603387        0.0000000000000000     
  0.10373776529802872       0.22320595008873623        0.0000000000000000     
  0.10463523864079466       0.23148396421485101        0.0000000000000000     
   9.2896970140555993E-002  0.19851152557543039        0.0000000000000000     
   9.3922419568322826E-002  0.20658061650816709        0.0000000000000000     
   9.4875778619601947E-002  0.21472507553267350        0.0000000000000000     
   9.5757047294393299E-002  0.22294490264894967        0.0000000000000000     
   9.6566225592696925E-002  0.23124009785699551        0.0000000000000000     
   8.5369256319673889E-002  0.19821439862890611        0.0000000000000000     
   8.6301862787554570E-002  0.20630741802681649        0.0000000000000000     
   8.7162526472472884E-002  0.21447496981605285        0.0000000000000000     
   8.7951247374428707E-002  0.22271705399661507        0.0000000000000000     
   8.8668025493422134E-002  0.23103367056850327        0.0000000000000000     
   7.8020857960737905E-002  0.19794814841129355        0.0000000000000000     
   7.8860475347018844E-002  0.20606413716269217        0.0000000000000000     
   7.9626977872817889E-002  0.21425555573617186        0.0000000000000000     
   8.0320365538135041E-002  0.22252240413173255        0.0000000000000000     
   8.0940638342970300E-002  0.23086468234937430        0.0000000000000000     
  0.11287506463771535       0.23176526964206975        0.0000000000000000     
  0.11380915868495121       0.24012878389873793        0.0000000000000000     
  0.11472445889857082       0.24860694113029860        0.0000000000000000     
  0.11562096527857418       0.25719974133675189        0.0000000000000000     
  0.11649867782496126       0.26590718451809764        0.0000000000000000     
  0.10463523864079466       0.23148396421485101        0.0000000000000000     
  0.10546441058358577       0.23986310060174459        0.0000000000000000     
  0.10623053736748496       0.24836654458678351        0.0000000000000000     
  0.10693361899249229       0.25699429616996755        0.0000000000000000     
  0.10757365545860775       0.26574635535129698        0.0000000000000000     
   9.6566225592696925E-002  0.23124009785699551        0.0000000000000000     
   9.7294153358698496E-002  0.23963689559596771        0.0000000000000000     
   9.7931670436583698E-002  0.24816153030502291        0.0000000000000000     
   9.8478776826352546E-002  0.25681400198416104        0.0000000000000000     
   9.8935472528004997E-002  0.26559431063338212        0.0000000000000000     
   8.8668025493422134E-002  0.23103367056850327        0.0000000000000000     
   8.9298387010289457E-002  0.23945016888140727        0.0000000000000000     
   8.9827858105867034E-002  0.24799189828501694        0.0000000000000000     
   9.0256438780154907E-002  0.25665885877933226        0.0000000000000000     
   9.0584129033153063E-002  0.26545105036435324        0.0000000000000000     
   8.0940638342970300E-002  0.23086468234937430        0.0000000000000000     
   8.1477111538358626E-002  0.23930292045806323        0.0000000000000000     
   8.1919100375334994E-002  0.24785764852676553        0.0000000000000000     
   8.2266604853899417E-002  0.25652886655548118        0.0000000000000000     
   8.2519624974051908E-002  0.26531657454421020        0.0000000000000000     
  0.11649867782496126       0.26590718451809764        0.0000000000000000     
  0.11729780163695550       0.27489403035532117        0.0000000000000000     
  0.11795854181378022       0.28432503852940766        0.0000000000000000     
  0.11848089835543546       0.29420020904035710        0.0000000000000000     
  0.11886487126192122       0.30451954188816949        0.0000000000000000     
  0.10757365545860775       0.26574635535129698        0.0000000000000000     
  0.10813161166995924       0.27475500514944384        0.0000000000000000     
  0.10858845253067474       0.28415252858308038        0.0000000000000000     
  0.10894417804075424       0.29393892565220670        0.0000000000000000     
  0.10919878820019771       0.30411419635682274        0.0000000000000000     
   9.8935472528004997E-002  0.26559431063338212        0.0000000000000000     
   9.9312772358348567E-002  0.27460085835431508        0.0000000000000000     
   9.9621691134190671E-002  0.28393204724858878        0.0000000000000000     
   9.9862228855531338E-002  0.29358787731620328        0.0000000000000000     
  0.10003438552237059       0.30356834855715842        0.0000000000000000     
   9.0584129033153063E-002  0.26545105036435324        0.0000000000000000     
   9.0841283702123424E-002  0.27443158996993500        0.0000000000000000     
   9.1058257624328037E-002  0.28366359452593282        0.0000000000000000     
   9.1235050799766820E-002  0.29314706403234664        0.0000000000000000     
   9.1371663228439801E-002  0.30288199848917652        0.0000000000000000     
   8.2519624974051908E-002  0.26531657454421020        0.0000000000000000     
   8.2717145701283884E-002  0.27424719999630370        0.0000000000000000     
   8.2898152001086786E-002  0.28334717041511259        0.0000000000000000     
   8.3062643873460629E-002  0.29261648580063704        0.0000000000000000     
   8.3210621318405412E-002  0.30205514615287699        0.0000000000000000     
   4.5840432287543566E-002   5.9498257396874303E-002   0.0000000000000000     
   4.8098582087028496E-002   6.4996279567885396E-002   0.0000000000000000     
   5.0301828532195586E-002   7.0672049193360870E-002   0.0000000000000000     
   5.2450171623044856E-002   7.6525566273300691E-002   0.0000000000000000     
   5.4543611359576319E-002   8.2556830807704901E-002   0.0000000000000000     
   4.1397224389525700E-002   5.8829284041573504E-002   0.0000000000000000     
   4.3505355952094399E-002   6.4345279523107757E-002   0.0000000000000000     
   4.5548313984627012E-002   7.0039498301200404E-002   0.0000000000000000     
   4.7526098487123511E-002   7.5911940375851417E-002   0.0000000000000000     
   4.9438709459583931E-002   8.1962605747060810E-002   0.0000000000000000     
   3.7101763468824940E-002   5.8218613826825132E-002   0.0000000000000000     
   3.9043478462304680E-002   6.3750595903813226E-002   0.0000000000000000     
   4.0916291873304478E-002   6.9461562768385124E-002   0.0000000000000000     
   4.2720203701824361E-002   7.5351514420540847E-002   0.0000000000000000     
   4.4455213947864322E-002   8.1420450860280380E-002   0.0000000000000000     
   3.2954049525441287E-002   5.7666246752629158E-002   0.0000000000000000     
   3.4712949617659299E-002   6.3212228710001775E-002   0.0000000000000000     
   3.6405762198228005E-002   6.8938242594915031E-002   0.0000000000000000     
   3.8032487267147391E-002   7.4844288407368981E-002   0.0000000000000000     
   3.9593124824417479E-002   8.0930366147363555E-002   0.0000000000000000     
   2.8954082559374754E-002   5.7172182818985617E-002   0.0000000000000000     
   3.0513769418158299E-002   6.2730177941673404E-002   0.0000000000000000     
   3.2016724959397586E-002   6.8469537780790138E-002   0.0000000000000000     
   3.3462949183092630E-002   7.4390262336335805E-002   0.0000000000000000     
   3.4852442089243423E-002   8.0492351608310392E-002   0.0000000000000000     
   5.4543611359576319E-002   8.2556830807704901E-002   0.0000000000000000     
   5.6571582870027136E-002   8.8754859551382403E-002   0.0000000000000000     
   5.8523521282634522E-002   9.5108669259142187E-002   0.0000000000000000     
   6.0399426597398463E-002  0.10161825993098424        0.0000000000000000     
   6.2199298814318973E-002  0.10828363156690857        0.0000000000000000     
   4.9438709459583931E-002   8.1962605747060810E-002   0.0000000000000000     
   5.1285620249266889E-002   8.8180901044471946E-002   0.0000000000000000     
   5.3066304203431024E-002   9.4556232897728132E-002   0.0000000000000000     
   5.4780761322076349E-002  0.10108860130682940        0.0000000000000000     
   5.6428991605202837E-002  0.10777800627177572        0.0000000000000000     
   4.4455213947864322E-002   8.1420450860280380E-002   0.0000000000000000     
   4.6126789459854961E-002   8.7657821718492582E-002   0.0000000000000000     
   4.7740397086226911E-002   9.4053076626066295E-002   0.0000000000000000     
   4.9296036826980152E-002  0.10060621558300153        0.0000000000000000     
   5.0793708682114705E-002  0.10731723858929831        0.0000000000000000     
   3.9593124824417479E-002   8.0930366147363555E-002   0.0000000000000000     
   4.1095090501791373E-002   8.7185621573444311E-002   0.0000000000000000     
   4.2545799931022178E-002   9.3599200444156691E-002   0.0000000000000000     
   4.3945253112109915E-002  0.10017110275950068        0.0000000000000000     
   4.5293450045054563E-002  0.10690132851947631        0.0000000000000000     
   3.4852442089243423E-002   8.0492351608310392E-002   0.0000000000000000     
   3.6190523375076104E-002   8.6764300609327147E-002   0.0000000000000000     
   3.7482512737816831E-002   9.3194604351999305E-002   0.0000000000000000     
   3.8728410177465609E-002   9.9783262836326839E-002   0.0000000000000000     
   3.9928215694022426E-002  0.10653027606230978        0.0000000000000000     
   6.2199298814318973E-002  0.10828363156690857        0.0000000000000000     
   6.3923345832920295E-002  0.11509463777434023        0.0000000000000000     
   6.5571775552726697E-002  0.12204113216070434        0.0000000000000000     
   6.7144587973738193E-002  0.12912311472600083        0.0000000000000000     
   6.8641783095954742E-002  0.13634058547022979        0.0000000000000000     
   5.6428991605202837E-002  0.10777800627177572        0.0000000000000000     
   5.8009012980270745E-002  0.11461311662088404        0.0000000000000000     
   5.9518843374740296E-002  0.12158260118247130        0.0000000000000000     
   6.0958482788611476E-002  0.12868645995653746        0.0000000000000000     
   6.2327931221884299E-002  0.13592469294308254        0.0000000000000000     
   5.0793708682114705E-002  0.10731723858929831        0.0000000000000000     
   5.2230123653518118E-002  0.11417408397895272        0.0000000000000000     
   5.3601992743077989E-002  0.12116469008596092        0.0000000000000000     
   5.4909315950794305E-002  0.12828905691032294        0.0000000000000000     
   5.6152093276667064E-002  0.13554718445203873        0.0000000000000000     
   4.5293450045054563E-002  0.10690132851947631        0.0000000000000000     
   4.6586677852662434E-002  0.11377753984854627        0.0000000000000000     
   4.7821223657739803E-002  0.12078739887117325        0.0000000000000000     
   4.8997087460286665E-002  0.12793090558735726        0.0000000000000000     
   5.0114269260303046E-002  0.13520805999709826        0.0000000000000000     
   3.9928215694022426E-002  0.10653027606230978        0.0000000000000000     
   4.1078675577703665E-002  0.11342348422966471        0.0000000000000000     
   4.2176536118725717E-002  0.12045072753810826        0.0000000000000000     
   4.3221797317088577E-002  0.12761200598764041        0.0000000000000000     
   4.4214459172792250E-002  0.13490731957826119        0.0000000000000000     
   6.8641783095954742E-002  0.13634058547022979        0.0000000000000000     
   7.0065869768612121E-002  0.14368016674949294        0.0000000000000000     
   7.1419356840946052E-002  0.15112848091989214        0.0000000000000000     
   7.2702244312956493E-002  0.15868552798142740        0.0000000000000000     
   7.3914532184643528E-002  0.16635130793409869        0.0000000000000000     
   6.2327931221884299E-002  0.13592469294308254        0.0000000000000000     
   6.3629003260586861E-002  0.14328497489167411        0.0000000000000000     
   6.4863513490747302E-002  0.15075498055187969        0.0000000000000000     
   6.6031461912365585E-002  0.15833470992369922        0.0000000000000000     
   6.7132848525441768E-002  0.16602416300713280        0.0000000000000000     
   5.6152093276667064E-002  0.13554718445203873        0.0000000000000000     
   5.7331488027709779E-002  0.14292741711494752        0.0000000000000000     
   5.8448663510935965E-002  0.15041809930288852        0.0000000000000000     
   5.9503619726345630E-002  0.15801923101586177        0.0000000000000000     
   6.0496356673938753E-002  0.16573081225386724        0.0000000000000000     
   5.0114269260303046E-002  0.13520805999709826        0.0000000000000000     
   5.1173324069980854E-002  0.14260749341931314        0.0000000000000000     
   5.2174806901512036E-002  0.15011783717291868        0.0000000000000000     
   5.3118717754896599E-002  0.15773909125791494        0.0000000000000000     
   5.4005056630134524E-002  0.16547125567430188        0.0000000000000000     
   4.4214459172792250E-002  0.13490731957826119        0.0000000000000000     
   4.5154511387400099E-002  0.14232520380477098        0.0000000000000000     
   4.6041943662475521E-002  0.14985419416197016        0.0000000000000000     
   4.6876755998018507E-002  0.15749429064985879        0.0000000000000000     
   4.7658948394029059E-002  0.16524549326843685        0.0000000000000000     
   7.3914532184643528E-002  0.16635130793409869        0.0000000000000000     
   7.5053918599293390E-002  0.17411622026260284        0.0000000000000000     
   7.6118101700192412E-002  0.18197066445163668        0.0000000000000000     
   7.7107081487340565E-002  0.18991464050120027        0.0000000000000000     
   7.8020857960737905E-002  0.19794814841129355        0.0000000000000000     
   6.7132848525441768E-002  0.16602416300713280        0.0000000000000000     
   6.8165645365866986E-002  0.17381289030007166        0.0000000000000000     
   6.9127824469532487E-002  0.18169044230040704        0.0000000000000000     
   7.0019385836438283E-002  0.18965681900813905        0.0000000000000000     
   7.0840329466584334E-002  0.19771202042326752        0.0000000000000000     
   6.0496356673938753E-002  0.16573081225386724        0.0000000000000000     
   6.1425068944584313E-002  0.17354181974873562        0.0000000000000000     
   6.2287951129151302E-002  0.18144123023229772        0.0000000000000000     
   6.3085003227639685E-002  0.18942904370455355        0.0000000000000000     
   6.3816225240049484E-002  0.19750526016550310        0.0000000000000000     
   5.4005056630134524E-002  0.16547125567430188        0.0000000000000000     
   5.4832189335445404E-002  0.17330300860859474        0.0000000000000000     
   5.5598481679048843E-002  0.18122302824730871        0.0000000000000000     
   5.6303933660944813E-002  0.18923131459044390        0.0000000000000000     
   5.6948545281133328E-002  0.19732786763800012        0.0000000000000000     
   4.7658948394029059E-002  0.16524549326843685        0.0000000000000000     
   4.8387006538450239E-002  0.17309645687964900        0.0000000000000000     
   4.9059416119225097E-002  0.18103583634544004        0.0000000000000000     
   4.9676177136353646E-002  0.18906363166580992        0.0000000000000000     
   5.0237289589835872E-002  0.19717984284075868        0.0000000000000000     
   7.8020857960737905E-002  0.19794814841129355        0.0000000000000000     
   7.8860475347018844E-002  0.20606413716269217        0.0000000000000000     
   7.9626977872817889E-002  0.21425555573617186        0.0000000000000000     
   8.0320365538135041E-002  0.22252240413173255        0.0000000000000000     
   8.0940638342970300E-002  0.23086468234937430        0.0000000000000000     
   7.0840329466584334E-002  0.19771202042326752        0.0000000000000000     
   7.1589105595270472E-002  0.20584989292990158        0.0000000000000000     
   7.2264164457796445E-002  0.21406428291215010        0.0000000000000000     
   7.2865506054162296E-002  0.22235519037001300        0.0000000000000000     
   7.3393130384367983E-002  0.23072261530349036        0.0000000000000000     
   6.3816225240049484E-002  0.19750526016550310        0.0000000000000000     
   6.4478601880864378E-002  0.20566380434255230        0.0000000000000000     
   6.5069117864568066E-002  0.21389860096310706        0.0000000000000000     
   6.5587773191160520E-002  0.22220965002716742        0.0000000000000000     
   6.6034567860641769E-002  0.23059695153473339        0.0000000000000000     
   5.6948545281133328E-002  0.19732786763800012        0.0000000000000000     
   5.7528964203800576E-002  0.20550587140064422        0.0000000000000000     
   5.8041838093132708E-002  0.21375850988904277        0.0000000000000000     
   5.8487166949129733E-002  0.22208578310319582        0.0000000000000000     
   5.8864950771791665E-002  0.23048769104310329        0.0000000000000000     
   5.0237289589835872E-002  0.19717984284075868        0.0000000000000000     
   5.0740192564079037E-002  0.20537609410417745        0.0000000000000000     
   5.1182325143490380E-002  0.21364400968995725        0.0000000000000000     
   5.1563687328069915E-002  0.22198358959809811        0.0000000000000000     
   5.1884279117817636E-002  0.23039483382860007        0.0000000000000000     
   8.0940638342970300E-002  0.23086468234937430        0.0000000000000000     
   8.1477111538358626E-002  0.23930292045806323        0.0000000000000000     
   8.1919100375334994E-002  0.24785764852676553        0.0000000000000000     
   8.2266604853899417E-002  0.25652886655548118        0.0000000000000000     
   8.2519624974051908E-002  0.26531657454421020        0.0000000000000000     
   7.3393130384367983E-002  0.23072261530349036        0.0000000000000000     
   7.3843787727781635E-002  0.23918019124103107        0.0000000000000000     
   7.4214228363771312E-002  0.24774155171108395        0.0000000000000000     
   7.4504452292337042E-002  0.25640669671364902        0.0000000000000000     
   7.4714459513478812E-002  0.26517562624872615        0.0000000000000000     
   6.6034567860641769E-002  0.23059695153473339        0.0000000000000000     
   6.6411876363434083E-002  0.23906702214540626        0.0000000000000000     
   6.6722073189959735E-002  0.24762637851878738        0.0000000000000000     
   6.6965158340218711E-002  0.25627502065487667        0.0000000000000000     
   6.7141131814211025E-002  0.26501294855367424        0.0000000000000000     
   5.8864950771791665E-002  0.23048769104310329        0.0000000000000000     
   5.9181377445316000E-002  0.23896341317118872        0.0000000000000000     
   5.9442634853900250E-002  0.24751212894987576        0.0000000000000000     
   5.9648722997544444E-002  0.25613383837916431        0.0000000000000000     
   5.9799641876248553E-002  0.26482854145905432        0.0000000000000000     
   5.1884279117817636E-002  0.23039483382860007        0.0000000000000000     
   5.2152290973427357E-002  0.23886936431837860        0.0000000000000000     
   5.2375913355592878E-002  0.24739880300434922        0.0000000000000000     
   5.2555146264314227E-002  0.25598314988651183        0.0000000000000000     
   5.2689989699591391E-002  0.26462240496486650        0.0000000000000000     
   8.2519624974051908E-002  0.26531657454421020        0.0000000000000000     
   8.2717145701283884E-002  0.27424719999630370        0.0000000000000000     
   8.2898152001086786E-002  0.28334717041511259        0.0000000000000000     
   8.3062643873460629E-002  0.29261648580063704        0.0000000000000000     
   8.3210621318405412E-002  0.30205514615287699        0.0000000000000000     
   7.4714459513478812E-002  0.26517562624872615        0.0000000000000000     
   7.4885180064640081E-002  0.27404199538271534        0.0000000000000000     
   7.5057543983264308E-002  0.28299945918201624        0.0000000000000000     
   7.5231551269351452E-002  0.29204801764662885        0.0000000000000000     
   7.5407201922901568E-002  0.30118767077655323        0.0000000000000000     
   6.7141131814211025E-002  0.26501294855367424        0.0000000000000000     
   6.7290208501002230E-002  0.27381028307846444        0.0000000000000000     
   6.7452603289657867E-002  0.28263714509253202        0.0000000000000000     
   6.7628316180177936E-002  0.29149353459587674        0.0000000000000000     
   6.7817347172562437E-002  0.30037945158849866        0.0000000000000000     
   5.9799641876248553E-002  0.26482854145905432        0.0000000000000000     
   5.9932231010370332E-002  0.27355206308355107        0.0000000000000000     
   6.0083329920267513E-002  0.28226022814665985        0.0000000000000000     
   6.0252938605940089E-002  0.29095303664838057        0.0000000000000000     
   6.0441057067388074E-002  0.29963048858871316        0.0000000000000000     
   5.2689989699591391E-002  0.26462240496486650        0.0000000000000000     
   5.2811247592744387E-002  0.27326733539797521        0.0000000000000000     
   5.2949723875093210E-002  0.28186870834439981        0.0000000000000000     
   5.3105418546637910E-002  0.29042652380414041        0.0000000000000000     
   5.3278331607378437E-002  0.29894078177719696        0.0000000000000000     
   2.8954082559374754E-002   5.7172182818985617E-002   0.0000000000000000     
   3.0513769418158299E-002   6.2730177941673404E-002   0.0000000000000000     
   3.2016724959397586E-002   6.8469537780790138E-002   0.0000000000000000     
   3.3462949183092630E-002   7.4390262336335805E-002   0.0000000000000000     
   3.4852442089243423E-002   8.0492351608310392E-002   0.0000000000000000     
   2.5076546970481263E-002   5.6736604702283658E-002   0.0000000000000000     
   2.6431308718368105E-002   6.2304972558657669E-002   0.0000000000000000     
   2.7740853437813108E-002   6.8056050527218678E-002   0.0000000000000000     
   2.9005181128816278E-002   7.3989838607966651E-002   0.0000000000000000     
   3.0224291791377606E-002   8.0106336800901609E-002   0.0000000000000000     
   2.1296127158616757E-002   5.6359695078912440E-002   0.0000000000000000     
   2.2450938372855191E-002   6.1937141520784077E-002   0.0000000000000000     
   2.3569820914474463E-002   6.7698383035408899E-002   0.0000000000000000     
   2.4652774783474572E-002   7.3643419622786865E-002   0.0000000000000000     
   2.5699799979855519E-002   7.9772251282918011E-002   0.0000000000000000     
   1.7612823123781238E-002   5.6041453948871965E-002   0.0000000000000000     
   1.8572658381619551E-002   6.1626684828052641E-002   0.0000000000000000     
   1.9503627389381644E-002   6.7396535305360786E-002   0.0000000000000000     
   2.0405730147067511E-002   7.3351005380796419E-002   0.0000000000000000     
   2.1278966654677149E-002   7.9490095054359527E-002   0.0000000000000000     
   1.4026634865974708E-002   5.5781881312162232E-002   0.0000000000000000     
   1.4796468744661190E-002   6.1373602480463335E-002   0.0000000000000000     
   1.5542272862534652E-002   6.7150507337074367E-002   0.0000000000000000     
   1.6264047219595092E-002   7.3112595881995354E-002   0.0000000000000000     
   1.6961791815842512E-002   7.9259868115226256E-002   0.0000000000000000     
   3.4852442089243423E-002   8.0492351608310392E-002   0.0000000000000000     
   3.6190523375076104E-002   8.6764300609327147E-002   0.0000000000000000     
   3.7482512737816831E-002   9.3194604351999305E-002   0.0000000000000000     
   3.8728410177465609E-002   9.9783262836326839E-002   0.0000000000000000     
   3.9928215694022426E-002  0.10653027606230978        0.0000000000000000     
   3.0224291791377606E-002   8.0106336800901609E-002   0.0000000000000000     
   3.1400050797787654E-002   8.6393308543592631E-002   0.0000000000000000     
   3.2534323520336972E-002   9.2838517273608770E-002   0.0000000000000000     
   3.3627109959025563E-002   9.9441962990950039E-002   0.0000000000000000     
   3.4678410113853433E-002  0.10620364569561641        0.0000000000000000     
   2.5699799979855519E-002   7.9772251282918011E-002   0.0000000000000000     
   2.6710635488004491E-002   8.6072095093692291E-002   0.0000000000000000     
   2.7685020292308685E-002   9.2530168132999718E-002   0.0000000000000000     
   2.8622954392768102E-002   9.9146470400840306E-002   0.0000000000000000     
   2.9524437789382737E-002  0.10592100189721404        0.0000000000000000     
   2.1278966654677149E-002   7.9490095054359527E-002   0.0000000000000000     
   2.2122277445726621E-002   8.5800660259626141E-002   0.0000000000000000     
   2.2934603053731982E-002   9.2269556930172178E-002   0.0000000000000000     
   2.3715943478693220E-002   9.8896785065997680E-002   0.0000000000000000     
   2.4466298720610347E-002  0.10568234466710263        0.0000000000000000     
   1.6961791815842512E-002   7.9259868115226256E-002   0.0000000000000000     
   1.7634976670954053E-002   8.5579004041394180E-002   0.0000000000000000     
   1.8283071804606858E-002   9.2056683665126149E-002   0.0000000000000000     
   1.8906077216800921E-002   9.8692906986422149E-002   0.0000000000000000     
   1.9503992907536252E-002  0.10548767400528222        0.0000000000000000     
   3.9928215694022426E-002  0.10653027606230978        0.0000000000000000     
   4.1078675577703665E-002  0.11342348422966471        0.0000000000000000     
   4.2176536118725717E-002  0.12045072753810826        0.0000000000000000     
   4.3221797317088577E-002  0.12761200598764041        0.0000000000000000     
   4.4214459172792250E-002  0.13490731957826119        0.0000000000000000     
   3.4678410113853433E-002  0.10620364569561641        0.0000000000000000     
   3.5685793903750485E-002  0.11311176080150130        0.0000000000000000     
   3.6646831247646623E-002  0.12015450372249803        0.0000000000000000     
   3.7561522145541856E-002  0.12733187445860658        0.0000000000000000     
   3.8429866597436184E-002  0.13464387300982700        0.0000000000000000     
   2.9524437789382737E-002  0.10592100189721404        0.0000000000000000     
   3.0387709905911525E-002  0.11284221324324933        0.0000000000000000     
   3.1211010166113398E-002  0.11989855506007463        0.0000000000000000     
   3.1994338569988352E-002  0.12709002734768993        0.0000000000000000     
   3.2737695117536381E-002  0.13441663010609520        0.0000000000000000     
   2.4466298720610347E-002  0.10568234466710263        0.0000000000000000     
   2.5184423584186801E-002  0.11261484155490885        0.0000000000000000     
   2.5869072874126032E-002  0.11968288155083810        0.0000000000000000     
   2.6520246590428048E-002  0.12688646465489042        0.0000000000000000     
   2.7137944733092837E-002  0.13422559086706576        0.0000000000000000     
   1.9503992907536252E-002  0.10548767400528222        0.0000000000000000     
   2.0075934938576304E-002  0.11242964573647982        0.0000000000000000     
   2.0621019371684538E-002  0.11950748319478843        0.0000000000000000     
   2.1139246206860952E-002  0.12672118638020807        0.0000000000000000     
   2.1630615444105553E-002  0.13407075529273874        0.0000000000000000     
   4.4214459172792250E-002  0.13490731957826119        0.0000000000000000     
   4.5154511387400099E-002  0.14232520380477098        0.0000000000000000     
   4.6041943662475521E-002  0.14985419416197016        0.0000000000000000     
   4.6876755998018507E-002  0.15749429064985879        0.0000000000000000     
   4.7658948394029059E-002  0.16524549326843685        0.0000000000000000     
   3.8429866597436184E-002  0.13464387300982700        0.0000000000000000     
   3.9251423228445118E-002  0.14207878055800319        0.0000000000000000     
   4.0025750663684197E-002  0.14962487828497914        0.0000000000000000     
   4.0752848903153387E-002  0.15728216619075486        0.0000000000000000     
   4.1432717946852715E-002  0.16505064427533028        0.0000000000000000     
   3.2737695117536381E-002  0.13441663010609520        0.0000000000000000     
   3.3440432841593530E-002  0.14186645596569197        0.0000000000000000     
   3.4101904774995820E-002  0.14942759755688179        0.0000000000000000     
   3.4722110917743257E-002  0.15710005487966461        0.0000000000000000     
   3.5301051269835834E-002  0.16488382793404049        0.0000000000000000     
   2.7137944733092837E-002  0.13422559086706576        0.0000000000000000     
   2.7721540226845323E-002  0.14168823002783726        0.0000000000000000     
   2.8270405996410414E-002  0.14926235197767806        0.0000000000000000     
   2.8784542041788111E-002  0.15694795671658809        0.0000000000000000     
   2.9263948362978413E-002  0.16474504424456740        0.0000000000000000     
   2.1630615444105553E-002  0.13407075529273874        0.0000000000000000     
   2.2094745384200504E-002  0.14154410274443915        0.0000000000000000     
   2.2531254327927970E-002  0.14912914154736803        0.0000000000000000     
   2.2940142275287956E-002  0.15682587170152532        0.0000000000000000     
   2.3321409226280461E-002  0.16463429320691109        0.0000000000000000     
   4.7658948394029059E-002  0.16524549326843685        0.0000000000000000     
   4.8387006538450239E-002  0.17309645687964900        0.0000000000000000     
   4.9059416119225097E-002  0.18103583634544004        0.0000000000000000     
   4.9676177136353646E-002  0.18906363166580992        0.0000000000000000     
   5.0237289589835872E-002  0.19717984284075868        0.0000000000000000     
   4.1432717946852715E-002  0.16505064427533028        0.0000000000000000     
   4.2063927542888492E-002  0.17291901996654577        0.0000000000000000     
   4.2645047439367048E-002  0.18087600069224152        0.0000000000000000     
   4.3176077636288397E-002  0.18892158645241758        0.0000000000000000     
   4.3657018133652511E-002  0.19705577724707385        0.0000000000000000     
   3.5301051269835834E-002  0.16488382793404049        0.0000000000000000     
   3.5837359338049865E-002  0.17276755327393228        0.0000000000000000     
   3.6329668629161684E-002  0.18073986745326298        0.0000000000000000     
   3.6777979143171276E-002  0.18880077047203245        0.0000000000000000     
   3.7182290880078635E-002  0.19695026233024082        0.0000000000000000     
   2.9263948362978413E-002  0.16474504424456740        0.0000000000000000     
   2.9707301923934358E-002  0.17264205680180866        0.0000000000000000     
   3.0113279688608979E-002  0.18062743662850433        0.0000000000000000     
   3.0481881657002281E-002  0.18870118372465466        0.0000000000000000     
   3.0813107829114259E-002  0.19686329809025940        0.0000000000000000     
   2.3321409226280461E-002  0.16463429320691109        0.0000000000000000     
   2.3673755300541964E-002  0.17254253055017477        0.0000000000000000     
   2.3995880617708951E-002  0.18053870821796578        0.0000000000000000     
   2.4287785177781424E-002  0.18862282621028412        0.0000000000000000     
   2.4549468980759378E-002  0.19679488452712976        0.0000000000000000     
   5.0237289589835872E-002  0.19717984284075868        0.0000000000000000     
   5.0740192564079037E-002  0.20537609410417745        0.0000000000000000     
   5.1182325143490380E-002  0.21364400968995725        0.0000000000000000     
   5.1563687328069915E-002  0.22198358959809811        0.0000000000000000     
   5.1884279117817636E-002  0.23039483382860007        0.0000000000000000     
   4.3657018133652511E-002  0.19705577724707385        0.0000000000000000     
   4.4086517912528420E-002  0.20526829110450812        0.0000000000000000     
   4.4463225953985143E-002  0.21354884605301791        0.0000000000000000     
   4.4787142258022689E-002  0.22189744209260320        0.0000000000000000     
   4.5058266824641049E-002  0.23031407922326405        0.0000000000000000     
   3.7182290880078635E-002  0.19695026233024082        0.0000000000000000     
   3.7542171199977360E-002  0.20517628105299252        0.0000000000000000     
   3.7857187462961038E-002  0.21346676466539224        0.0000000000000000     
   3.8127339669029661E-002  0.22182171316743993        0.0000000000000000     
   3.8352627818183237E-002  0.23024112655913551        0.0000000000000000     
   3.0813107829114259E-002  0.19686329809025940        0.0000000000000000     
   3.1107152426425873E-002  0.20510006394963060        0.0000000000000000     
   3.1364209670418065E-002  0.21339776552708020        0.0000000000000000     
   3.1584279561090833E-002  0.22175640282260811        0.0000000000000000     
   3.1767362098444198E-002  0.23017597583621444        0.0000000000000000     
   2.4549468980759378E-002  0.19679488452712976        0.0000000000000000     
   2.4781461591873936E-002  0.20503963979442247        0.0000000000000000     
   2.4984292576356211E-002  0.21334184863808187        0.0000000000000000     
   2.5157961934206212E-002  0.22170151105810798        0.0000000000000000     
   2.5302469665423932E-002  0.23011862705450076        0.0000000000000000     
   5.1884279117817636E-002  0.23039483382860007        0.0000000000000000     
   5.2152290973427357E-002  0.23886936431837860        0.0000000000000000     
   5.2375913355592878E-002  0.24739880300434922        0.0000000000000000     
   5.2555146264314227E-002  0.25598314988651183        0.0000000000000000     
   5.2689989699591391E-002  0.26462240496486650        0.0000000000000000     
   4.5058266824641049E-002  0.23031407922326405        0.0000000000000000     
   4.5285494531040346E-002  0.23878343203845820        0.0000000000000000     
   4.5477720254420706E-002  0.24729017513164350        0.0000000000000000     
   4.5634943994782122E-002  0.25583430850281991        0.0000000000000000     
   4.5757165752124601E-002  0.26441583215198744        0.0000000000000000     
   3.8352627818183237E-002  0.23024112655913551        0.0000000000000000     
   3.8541865701427154E-002  0.23870417278291009        0.0000000000000000     
   3.8703867109766782E-002  0.24719001978119470        0.0000000000000000     
   3.8838632043202141E-002  0.25569866755398918        0.0000000000000000     
   3.8946160501733232E-002  0.26423011610129366        0.0000000000000000     
   3.1767362098444198E-002  0.23017597583621444        0.0000000000000000     
   3.1921404484587759E-002  0.23863158655173417        0.0000000000000000     
   3.2054353921631119E-002  0.24709833695300254        0.0000000000000000     
   3.2166210409574306E-002  0.25557622704001959        0.0000000000000000     
   3.2256973948417290E-002  0.26406525681278531        0.0000000000000000     
   2.5302469665423932E-002  0.23011862705450076        0.0000000000000000     
   2.5424110880522176E-002  0.23856567334493051        0.0000000000000000     
   2.5529180690013725E-002  0.24701512664706732        0.0000000000000000     
   2.5617679093898595E-002  0.25546698696091125        0.0000000000000000     
   2.5689606092176777E-002  0.26392125428646224        0.0000000000000000     
   5.2689989699591391E-002  0.26462240496486650        0.0000000000000000     
   5.2811247592744387E-002  0.27326733539797521        0.0000000000000000     
   5.2949723875093210E-002  0.28186870834439981        0.0000000000000000     
   5.3105418546637910E-002  0.29042652380414041        0.0000000000000000     
   5.3278331607378437E-002  0.29894078177719696        0.0000000000000000     
   4.5757165752124601E-002  0.26441583215198744        0.0000000000000000     
   4.5868501835808491E-002  0.27298481644752359        0.0000000000000000     
   4.5993068555194132E-002  0.28149133175780616        0.0000000000000000     
   4.6130865910281531E-002  0.28993537808283504        0.0000000000000000     
   4.6281893901070688E-002  0.29831695542261022        0.0000000000000000     
   3.8946160501733232E-002  0.26423011610129366        0.0000000000000000     
   3.9045237327246740E-002  0.27273322265798328        0.0000000000000000     
   3.9154647361629366E-002  0.28115684445893313        0.0000000000000000     
   3.9274390604881117E-002  0.28950098150414316        0.0000000000000000     
   3.9404467057001985E-002  0.29776563379361343        0.0000000000000000     
   3.2256973948417290E-002  0.26406525681278531        0.0000000000000000     
   3.2341454067059149E-002  0.27251255402935415        0.0000000000000000     
   3.2434460294398941E-002  0.28086524644778060        0.0000000000000000     
   3.2535992630436668E-002  0.28912333406806484        0.0000000000000000     
   3.2646051075172315E-002  0.29728681689020653        0.0000000000000000     
   2.5689606092176777E-002  0.26392125428646224        0.0000000000000000     
   2.5757152055245713E-002  0.27232281056163621        0.0000000000000000     
   2.5832507353502846E-002  0.28061653772434869        0.0000000000000000     
   2.5915671986948177E-002  0.28880243577459985        0.0000000000000000     
   2.6006645955581699E-002  0.29688050471238958        0.0000000000000000     
   1.4026634865974708E-002   5.5781881312162232E-002   0.0000000000000000     
   1.4796468744661190E-002   6.1373602480463335E-002   0.0000000000000000     
   1.5542272862534652E-002   6.7150507337074367E-002   0.0000000000000000     
   1.6264047219595092E-002   7.3112595881995354E-002   0.0000000000000000     
   1.6961791815842512E-002   7.9259868115226256E-002   0.0000000000000000     
   1.0496747407744030E-002   5.5580422724936712E-002   0.0000000000000000     
   1.1077831100826871E-002   6.1177256704616184E-002   0.0000000000000000     
   1.1639179535237852E-002   6.6959654011629635E-002   0.0000000000000000     
   1.2180792710976975E-002   7.2927614645977065E-002   0.0000000000000000     
   1.2702670628044236E-002   7.9081138607658502E-002   0.0000000000000000     
   6.9823457716360771E-003   5.5436523743348842E-002   0.0000000000000000     
   7.3722070889633692E-003   6.1037009727111194E-002   0.0000000000000000     
   7.7477696087956127E-003   6.6823330210106613E-002   0.0000000000000000     
   8.1090333311328085E-003   7.2795485192335072E-002   0.0000000000000000     
   8.4559982559749593E-003   7.8953474673796625E-002   0.0000000000000000     
   3.4834299576508450E-003   5.5350184367398636E-002   0.0000000000000000     
   3.6795967090706792E-003   6.0952861547948357E-002   0.0000000000000000     
   3.8680430832079317E-003   6.6741535932505258E-002   0.0000000000000000     
   4.0487690800625987E-003   7.2716207521069359E-002   0.0000000000000000     
   4.2217746996346828E-003   7.8876876313640626E-002   0.0000000000000000     
  -3.4211665184830098E-011   5.5321404597086093E-002   0.0000000000000000     
  -3.8851193095990055E-011   6.0924812167127688E-002   0.0000000000000000     
  -4.1525190512710364E-011   6.6714271178825640E-002   0.0000000000000000     
  -4.2233656811574774E-011   7.2689781632179915E-002   0.0000000000000000     
  -4.0976592344948992E-011   7.8851343527190532E-002   0.0000000000000000     
   1.6961791815842512E-002   7.9259868115226256E-002   0.0000000000000000     
   1.7634976670954053E-002   8.5579004041394180E-002   0.0000000000000000     
   1.8283071804606858E-002   9.2056683665126149E-002   0.0000000000000000     
   1.8906077216800921E-002   9.8692906986422149E-002   0.0000000000000000     
   1.9503992907536252E-002  0.10548767400528222        0.0000000000000000     
   1.2702670628044236E-002   7.9081138607658502E-002   0.0000000000000000     
   1.3205211520821408E-002   8.5406832994936496E-002   0.0000000000000000     
   1.3688813623690262E-002   9.1891304906073695E-002   0.0000000000000000     
   1.4153476936650795E-002   9.8534554341070044E-002   0.0000000000000000     
   1.4599201459703014E-002  0.10533658129992556        0.0000000000000000     
   8.4559982559749593E-003   7.8953474673796625E-002   0.0000000000000000     
   8.7894603524633162E-003   8.5283853676193261E-002   0.0000000000000000     
   9.1102155897391391E-003   9.1773177221226923E-002   0.0000000000000000     
   9.4182639678024264E-003   9.8421445308897695E-002   0.0000000000000000     
   9.7136054866531780E-003  0.10522865793920552        0.0000000000000000     
   4.2217746996346828E-003   7.8876876313640626E-002   0.0000000000000000     
   4.3877231658797800E-003   8.5210066085164390E-002   0.0000000000000000     
   4.5472777027534888E-003   9.1702300610585860E-002   0.0000000000000000     
   4.7004383102558119E-003   9.8353579889905091E-002   0.0000000000000000     
   4.8472049883867474E-003  0.10516390392312203        0.0000000000000000     
  -4.0976592344948992E-011   7.8851343527190532E-002   0.0000000000000000     
  -3.8929200141257780E-011   8.5185470221849927E-002   0.0000000000000000     
  -3.7266684421548291E-011   9.1678675074150492E-002   0.0000000000000000     
  -3.5989045375555903E-011   9.8330958084092243E-002   0.0000000000000000     
  -3.5096280916191436E-011  0.10514231925167516        0.0000000000000000     
   1.9503992907536252E-002  0.10548767400528222        0.0000000000000000     
   2.0075934938576304E-002  0.11242964573647982        0.0000000000000000     
   2.0621019371684538E-002  0.11950748319478843        0.0000000000000000     
   2.1139246206860952E-002  0.12672118638020807        0.0000000000000000     
   2.1630615444105553E-002  0.13407075529273874        0.0000000000000000     
   1.4599201459703014E-002  0.10533658129992556        0.0000000000000000     
   1.5025371647103733E-002  0.11228605133854612        0.0000000000000000     
   1.5431371953109774E-002  0.11937163001283758        0.0000000000000000     
   1.5817202377721142E-002  0.12659331732279996        0.0000000000000000     
   1.6182862920937829E-002  0.13395111326843320        0.0000000000000000     
   9.7136054866531780E-003  0.10522865793920552        0.0000000000000000     
   9.9958613877927770E-003  0.11218348391169168        0.0000000000000000     
   1.0264652912722608E-002  0.11927459202589756        0.0000000000000000     
   1.0519980061442669E-002  0.12650198228182311        0.0000000000000000     
   1.0761842833952961E-002  0.13386565467946832        0.0000000000000000     
   4.8472049883867474E-003  0.10516390392312203        0.0000000000000000     
   4.9874041606434395E-003  0.11212194345591654        0.0000000000000000     
   5.1208622505230375E-003  0.11921636923396835        0.0000000000000000     
   5.2475792580255441E-003  0.12644718125727755        0.0000000000000000     
   5.3675551831509523E-003  0.13381437952584407        0.0000000000000000     
  -3.5096280916191436E-011  0.10514231925167516        0.0000000000000000     
  -3.4344280891440704E-011  0.11210142997122062        0.0000000000000000     
  -3.3488934281927785E-011  0.11919696163704999        0.0000000000000000     
  -3.2530239678189854E-011  0.12642891424916325        0.0000000000000000     
  -3.1468197405487564E-011  0.13379728780756042        0.0000000000000000     
   2.1630615444105553E-002  0.13407075529273874        0.0000000000000000     
   2.2094745384200504E-002  0.14154410274443915        0.0000000000000000     
   2.2531254327927970E-002  0.14912914154736803        0.0000000000000000     
   2.2940142275287956E-002  0.15682587170152532        0.0000000000000000     
   2.3321409226280461E-002  0.16463429320691109        0.0000000000000000     
   1.6182862920937829E-002  0.13395111326843320        0.0000000000000000     
   1.6528264328352141E-002  0.14143290953262394        0.0000000000000000     
   1.6853317345556385E-002  0.14902659779825866        0.0000000000000000     
   1.7158021972550553E-002  0.15673217806533746        0.0000000000000000     
   1.7442378209334652E-002  0.16454965033386024        0.0000000000000000     
   1.0761842833952961E-002  0.13386565467946832        0.0000000000000000     
   1.0990313073993310E-002  0.14135348580951804        0.0000000000000000     
   1.1205462625303544E-002  0.14895335226265716        0.0000000000000000     
   1.1407291487883666E-002  0.15666525403888565        0.0000000000000000     
   1.1595799661733670E-002  0.16448919113820351        0.0000000000000000     
   5.3675551831509523E-003  0.13381437952584407        0.0000000000000000     
   5.4808916211240106E-003  0.14130583157512150        0.0000000000000000     
   5.5876901671694547E-003  0.14890940494056346        0.0000000000000000     
   5.6879508212872897E-003  0.15662509962216994        0.0000000000000000     
   5.7816735834775122E-003  0.16445291561994096        0.0000000000000000     
  -3.1468197405487564E-011  0.13379728780756042        0.0000000000000000     
  -3.0255761437891771E-011  0.14128994682943427        0.0000000000000000     
  -2.8845886183154201E-011  0.14889475583197759        0.0000000000000000     
  -2.7238572400216376E-011  0.15661171481519034        0.0000000000000000     
  -2.5433818679615472E-011  0.16444082377907254        0.0000000000000000     
   2.3321409226280461E-002  0.16463429320691109        0.0000000000000000     
   2.3673755300541964E-002  0.17254253055017477        0.0000000000000000     
   2.3995880617708951E-002  0.18053870821796578        0.0000000000000000     
   2.4287785177781424E-002  0.18862282621028412        0.0000000000000000     
   2.4549468980759378E-002  0.19679488452712976        0.0000000000000000     
   1.7442378209334652E-002  0.16454965033386024        0.0000000000000000     
   1.7705177171755203E-002  0.17246680705120085        0.0000000000000000     
   1.7945209975658724E-002  0.18047144066473336        0.0000000000000000     
   1.8162476621045226E-002  0.18856355117445761        0.0000000000000000     
   1.8356977107914695E-002  0.19674313858037368        0.0000000000000000     
   1.1595799661733670E-002  0.16448919113820351        0.0000000000000000     
   1.1770025241456586E-002  0.17241271883705725        0.0000000000000000     
   1.1929006321655432E-002  0.18042339241189337        0.0000000000000000     
   1.2072742902330211E-002  0.18852121186271198        0.0000000000000000     
   1.2201234983480920E-002  0.19670617718951300        0.0000000000000000     
   5.7816735834775122E-003  0.16445291561994096        0.0000000000000000     
   5.8682995096461105E-003  0.17238026590774380        0.0000000000000000     
   5.9472696556990660E-003  0.18039456345944588        0.0000000000000000     
   6.0185840216363806E-003  0.18849580827504719        0.0000000000000000     
   6.0822426074580542E-003  0.19668400035454769        0.0000000000000000     
  -2.5433818679615472E-011  0.16444082377907254        0.0000000000000000     
  -2.3676218971480090E-011  0.17236944826326062        0.0000000000000000     
  -2.2210367117518615E-011  0.18038495380739084        0.0000000000000000     
  -2.1036263199046210E-011  0.18848734041146323        0.0000000000000000     
  -2.0153906321596082E-011  0.19667660807547779        0.0000000000000000     
   2.4549468980759378E-002  0.19679488452712976        0.0000000000000000     
   2.4781461591873936E-002  0.20503963979442247        0.0000000000000000     
   2.4984292576356211E-002  0.21334184863808187        0.0000000000000000     
   2.5157961934206212E-002  0.22170151105810798        0.0000000000000000     
   2.5302469665423932E-002  0.23011862705450076        0.0000000000000000     
   1.8356977107914695E-002  0.19674313858037368        0.0000000000000000     
   1.8529350092377012E-002  0.20499367807334234        0.0000000000000000     
   1.8680234230542048E-002  0.21329864484422437        0.0000000000000000     
   1.8809629522409804E-002  0.22165803889301977        0.0000000000000000     
   1.8917535967980268E-002  0.23007186021972861        0.0000000000000000     
   1.2201234983480920E-002  0.19670617718951300        0.0000000000000000     
   1.2315069323990560E-002  0.20496084827236458        0.0000000000000000     
   1.2414832682742126E-002  0.21326778499133492        0.0000000000000000     
   1.2500525059735612E-002  0.22162698734642400        0.0000000000000000     
   1.2572146454971025E-002  0.23003845533763187        0.0000000000000000     
   6.0822426074580542E-003  0.19668400035454769        0.0000000000000000     
   6.1386192867145788E-003  0.20494115039148919        0.0000000000000000     
   6.1880879329564431E-003  0.21324926907941352        0.0000000000000000     
   6.2306485461836539E-003  0.22160835641832069        0.0000000000000000     
   6.2663011263962044E-003  0.23001841240821064        0.0000000000000000     
  -2.0153906321596082E-011  0.19667660807547779        0.0000000000000000     
  -1.9450936087489490E-011  0.20493458443071622        0.0000000000000000     
  -1.8814995785335076E-011  0.21324309710846018        0.0000000000000000     
  -1.8246080915693824E-011  0.22160214610870976        0.0000000000000000     
  -1.7744195002222796E-011  0.23001173143146486        0.0000000000000000     
   2.5302469665423932E-002  0.23011862705450076        0.0000000000000000     
   2.5424110880522176E-002  0.23856567334493051        0.0000000000000000     
   2.5529180690013725E-002  0.24701512664706732        0.0000000000000000     
   2.5617679093898595E-002  0.25546698696091125        0.0000000000000000     
   2.5689606092176777E-002  0.26392125428646224        0.0000000000000000     
   1.8917535967980268E-002  0.23007186021972861        0.0000000000000000     
   1.9008321601148764E-002  0.23851091873707750        0.0000000000000000     
   1.9086354455810597E-002  0.24694602435779328        0.0000000000000000     
   1.9151634531965764E-002  0.25537717708187585        0.0000000000000000     
   1.9204161829614270E-002  0.26380437690932529        0.0000000000000000     
   1.2572146454971025E-002  0.23003845533763187        0.0000000000000000     
   1.2632373358385889E-002  0.23847180830275377        0.0000000000000000     
   1.2683882259917734E-002  0.24689666557958490        0.0000000000000000     
   1.2726673159566555E-002  0.25531302716812532        0.0000000000000000     
   1.2760746057332358E-002  0.26372089306837504        0.0000000000000000     
   6.2663011263962044E-003  0.23001841240821064        0.0000000000000000     
   6.2962661522335470E-003  0.23844834204195919        0.0000000000000000     
   6.3217641023351348E-003  0.24686705031244222        0.0000000000000000     
   6.3427949767009646E-003  0.25527453721965959        0.0000000000000000     
   6.3593587753310362E-003  0.26367080276361138        0.0000000000000000     
  -1.7744195002222796E-011  0.23001173143146486        0.0000000000000000     
  -1.7308258775869390E-011  0.23844051995469387        0.0000000000000000     
  -1.6937197304389695E-011  0.24685717855636513        0.0000000000000000     
  -1.6631009720421974E-011  0.25526170723647867        0.0000000000000000     
  -1.6389694722923620E-011  0.26365410599503453        0.0000000000000000     
   2.5689606092176777E-002  0.26392125428646224        0.0000000000000000     
   2.5757152055245713E-002  0.27232281056163621        0.0000000000000000     
   2.5832507353502846E-002  0.28061653772434869        0.0000000000000000     
   2.5915671986948177E-002  0.28880243577459985        0.0000000000000000     
   2.6006645955581699E-002  0.29688050471238958        0.0000000000000000     
   1.9204161829614270E-002  0.26380437690932529        0.0000000000000000     
   1.9253909010061136E-002  0.27217031478522796        0.0000000000000000     
   1.9310848734611381E-002  0.28041768165467024        0.0000000000000000     
   1.9374981003265002E-002  0.28854647751765222        0.0000000000000000     
   1.9446305816022004E-002  0.29655670237417386        0.0000000000000000     
   1.2760746057332358E-002  0.26372089306837504        0.0000000000000000     
   1.2793302649760125E-002  0.27206138923052797        0.0000000000000000     
   1.2831544633394839E-002  0.28027564160477825        0.0000000000000000     
   1.2875472008236501E-002  0.28836365019112586        0.0000000000000000     
   1.2925084774285112E-002  0.29632541498957082        0.0000000000000000     
   6.3593587753310362E-003  0.26367080276361138        0.0000000000000000     
   6.3753329743426812E-003  0.27199603389753624        0.0000000000000000     
   6.3945950498532269E-003  0.28019041757467267        0.0000000000000000     
   6.4171450018626758E-003  0.28825395379502067        0.0000000000000000     
   6.4429828303710253E-003  0.29618664255858024        0.0000000000000000     
  -1.6389694722923620E-011  0.26365410599503453        0.0000000000000000     
  -1.6191196603940194E-011  0.27197424878625276        0.0000000000000000     
  -1.6013457270272480E-011  0.28016200956435339        0.0000000000000000     
  -1.5856476992971019E-011  0.28821738832933669        0.0000000000000000     
  -1.5720255826245921E-011  0.29614038508120233        0.0000000000000000     
  -3.4211665184830098E-011   5.5321404597086093E-002   0.0000000000000000     
  -3.8851193095990055E-011   6.0924812167127688E-002   0.0000000000000000     
  -4.1525190512710364E-011   6.6714271178825640E-002   0.0000000000000000     
  -4.2233656811574774E-011   7.2689781632179915E-002   0.0000000000000000     
  -4.0976592344948992E-011   7.8851343527190532E-002   0.0000000000000000     
  -3.4834300252201901E-003   5.5350184420274520E-002   0.0000000000000000     
  -3.6795967857740034E-003   6.0952861578463184E-002   0.0000000000000000     
  -3.8680431652326169E-003   6.6741535947028474E-002   0.0000000000000000     
  -4.0487691635960332E-003   7.2716207525970369E-002   0.0000000000000000     
  -4.2217747808642484E-003   7.8876876315288863E-002   0.0000000000000000     
  -6.9823458366434646E-003   5.5436523824827208E-002   0.0000000000000000     
  -7.3722071626694998E-003   6.1037009775768855E-002   0.0000000000000000     
  -7.7477696877432120E-003   6.6823330235074557E-002   0.0000000000000000     
  -8.1090334118646031E-003   7.2795485202744314E-002   0.0000000000000000     
  -8.4559983350336668E-003   7.8953474678778141E-002   0.0000000000000000     
  -1.0496747468481492E-002   5.5580422810744164E-002   0.0000000000000000     
  -1.1077831169537687E-002   6.1177256759044708E-002   0.0000000000000000     
  -1.1639179609056976E-002   6.6959654042963918E-002   0.0000000000000000     
  -1.2180792787039365E-002   7.2927614662501805E-002   0.0000000000000000     
  -1.2702670703484848E-002   7.9081138617658392E-002   0.0000000000000000     
  -1.4026634920734271E-002   5.5781881378025387E-002   0.0000000000000000     
  -1.4796468806378561E-002   6.1373602528290716E-002   0.0000000000000000     
  -1.5542272929173909E-002   6.7150507370696527E-002   0.0000000000000000     
  -1.6264047289120318E-002   7.3112595905242828E-002   0.0000000000000000     
  -1.6961791886217790E-002   7.9259868131929589E-002   0.0000000000000000     
  -4.0976592344948992E-011   7.8851343527190532E-002   0.0000000000000000     
  -3.8929200141257780E-011   8.5185470221849927E-002   0.0000000000000000     
  -3.7266684421548291E-011   9.1678675074150492E-002   0.0000000000000000     
  -3.5989045375555903E-011   9.8330958084092243E-002   0.0000000000000000     
  -3.5096280916191436E-011  0.10514231925167516        0.0000000000000000     
  -4.2217747808642484E-003   7.8876876315288863E-002   0.0000000000000000     
  -4.3877232432461156E-003   8.5210066086753217E-002   0.0000000000000000     
  -4.5472777769504855E-003   9.1702300612132706E-002   0.0000000000000000     
  -4.7004383819773590E-003   9.8353579891427317E-002   0.0000000000000000     
  -4.8472050583267343E-003  0.10516390392463702        0.0000000000000000     
  -8.4559983350336668E-003   7.8953474678778141E-002   0.0000000000000000     
  -8.7894604283534541E-003   8.5283853680377650E-002   0.0000000000000000     
  -9.1102156629270133E-003   9.1773177224744387E-002   0.0000000000000000     
  -9.4182640387543426E-003   9.8421445311878422E-002   0.0000000000000000     
  -9.7136055558354438E-003  0.10522865794177974        0.0000000000000000     
  -1.2702670703484848E-002   7.9081138617658392E-002   0.0000000000000000     
  -1.3205211594251219E-002   8.5406833002723143E-002   0.0000000000000000     
  -1.3688813695196268E-002   9.1891304911985536E-002   0.0000000000000000     
  -1.4153477006320001E-002   9.8534554345445613E-002   0.0000000000000000     
  -1.4599201527622410E-002  0.10533658130310333        0.0000000000000000     
  -1.6961791886217790E-002   7.9259868131929589E-002   0.0000000000000000     
  -1.7634976740939404E-002   8.5579004053789751E-002   0.0000000000000000     
  -1.8283071873758251E-002   9.2056683673856166E-002   0.0000000000000000     
  -1.8906077284674330E-002   9.8692906992128862E-002   0.0000000000000000     
  -1.9503992973687632E-002  0.10548767400860783        0.0000000000000000     
  -3.5096280916191436E-011  0.10514231925167516        0.0000000000000000     
  -3.4344280891440704E-011  0.11210142997122062        0.0000000000000000     
  -3.3488934281927785E-011  0.11919696163704999        0.0000000000000000     
  -3.2530239678189854E-011  0.12642891424916325        0.0000000000000000     
  -3.1468197405487564E-011  0.13379728780756042        0.0000000000000000     
  -4.8472050583267343E-003  0.10516390392463702        0.0000000000000000     
  -4.9874042290484668E-003  0.11212194345726070        0.0000000000000000     
  -5.1208623171924116E-003  0.11921636923479728        0.0000000000000000     
  -5.2475793227585660E-003  0.12644718125724677        0.0000000000000000     
  -5.3675552457469336E-003  0.13381437952460909        0.0000000000000000     
  -9.7136055558354438E-003  0.10522865794177974        0.0000000000000000     
  -9.9958614553472009E-003  0.11218348391369357        0.0000000000000000     
  -1.0264652978466496E-002  0.11927459202686519        0.0000000000000000     
  -1.0519980125193330E-002  0.12650198228129458        0.0000000000000000     
  -1.0761842895527703E-002  0.13386565467698172        0.0000000000000000     
  -1.4599201527622410E-002  0.10533658130310333        0.0000000000000000     
  -1.5025371713240476E-002  0.11228605134051919        0.0000000000000000     
  -1.5431372017311184E-002  0.11937163001325363        0.0000000000000000     
  -1.5817202439834529E-002  0.12659331732130671        0.0000000000000000     
  -1.6182862980810512E-002  0.13395111326467832        0.0000000000000000     
  -1.9503992973687632E-002  0.10548767400860783        0.0000000000000000     
  -2.0075935002728307E-002  0.11242964573773757        0.0000000000000000     
  -2.0621019433726483E-002  0.11950748319396269        0.0000000000000000     
  -2.1139246266682159E-002  0.12672118637728311        0.0000000000000000     
  -2.1630615501595347E-002  0.13407075528769885        0.0000000000000000     
  -3.1468197405487564E-011  0.13379728780756042        0.0000000000000000     
  -3.0255761437891771E-011  0.14128994682943427        0.0000000000000000     
  -2.8845886183154201E-011  0.14889475583197759        0.0000000000000000     
  -2.7238572400216376E-011  0.15661171481519034        0.0000000000000000     
  -2.5433818679615472E-011  0.16444082377907254        0.0000000000000000     
  -5.3675552457469336E-003  0.13381437952460909        0.0000000000000000     
  -5.4808916812907867E-003  0.14130583157269572        0.0000000000000000     
  -5.5876902245234027E-003  0.14890940493731819        0.0000000000000000     
  -5.6879508754447763E-003  0.15662509961847643        0.0000000000000000     
  -5.7816736340549147E-003  0.16445291561617045        0.0000000000000000     
  -1.0761842895527703E-002  0.13386565467698172        0.0000000000000000     
  -1.0990313133125854E-002  0.14135348580514528        0.0000000000000000     
  -1.1205462681644015E-002  0.14895335225700398        0.0000000000000000     
  -1.1407291541082182E-002  0.15666525403255779        0.0000000000000000     
  -1.1595799711440358E-002  0.16448919113180668        0.0000000000000000     
  -1.6182862980810512E-002  0.13395111326467832        0.0000000000000000     
  -1.6528264385760966E-002  0.14143290952678292        0.0000000000000000     
  -1.6853317400207724E-002  0.14902659779103494        0.0000000000000000     
  -1.7158022024150784E-002  0.15673217805743442        0.0000000000000000     
  -1.7442378257590159E-002  0.16454965032598129        0.0000000000000000     
  -2.1630615501595347E-002  0.13407075528769885        0.0000000000000000     
  -2.2094745439196109E-002  0.14154410273760862        0.0000000000000000     
  -2.2531254380214524E-002  0.14912914153941112        0.0000000000000000     
  -2.2940142324650595E-002  0.15682587169310627        0.0000000000000000     
  -2.3321409272504312E-002  0.16463429319869421        0.0000000000000000     
  -2.5433818679615472E-011  0.16444082377907254        0.0000000000000000     
  -2.3676218971480090E-011  0.17236944826326062        0.0000000000000000     
  -2.2210367117518615E-011  0.18038495380739084        0.0000000000000000     
  -2.1036263199046210E-011  0.18848734041146323        0.0000000000000000     
  -2.0153906321596082E-011  0.19667660807547779        0.0000000000000000     
  -5.7816736340549147E-003  0.16445291561617045        0.0000000000000000     
  -5.8682995567414294E-003  0.17238026590416131        0.0000000000000000     
  -5.9472696998919411E-003  0.18039456345620999        0.0000000000000000     
  -6.0185840635064523E-003  0.18849580827231649        0.0000000000000000     
  -6.0822426475849612E-003  0.19668400035248090        0.0000000000000000     
  -1.1595799711440358E-002  0.16448919113180668        0.0000000000000000     
  -1.1770025287780544E-002  0.17241271883099957        0.0000000000000000     
  -1.1929006365164731E-002  0.18042339240638516        0.0000000000000000     
  -1.2072742943592920E-002  0.18852121185796350        0.0000000000000000     
  -1.2201235023065114E-002  0.19670617718573463        0.0000000000000000     
  -1.7442378257590159E-002  0.16454965032598129        0.0000000000000000     
  -1.7705177216793565E-002  0.17246680704377529        0.0000000000000000     
  -1.7945210018028738E-002  0.18047144065791634        0.0000000000000000     
  -1.8162476661295661E-002  0.18856355116840420        0.0000000000000000     
  -1.8356977146594355E-002  0.19674313857523906        0.0000000000000000     
  -2.3321409272504312E-002  0.16463429319869421        0.0000000000000000     
  -2.3673755343780491E-002  0.17254253054248869        0.0000000000000000     
  -2.3995880658483949E-002  0.18053870821080345        0.0000000000000000     
  -2.4287785216614687E-002  0.18862282620363863        0.0000000000000000     
  -2.4549469018172697E-002  0.19679488452099414        0.0000000000000000     
  -2.0153906321596082E-011  0.19667660807547779        0.0000000000000000     
  -1.9450936087489490E-011  0.20493458443071622        0.0000000000000000     
  -1.8814995785335076E-011  0.21324309710846018        0.0000000000000000     
  -1.8246080915693824E-011  0.22160214610870976        0.0000000000000000     
  -1.7744195002222796E-011  0.23001173143146486        0.0000000000000000     
  -6.0822426475849612E-003  0.19668400035248090        0.0000000000000000     
  -6.1386193254531025E-003  0.20494115039005406        0.0000000000000000     
  -6.1880879704365082E-003  0.21324926907838698        0.0000000000000000     
  -6.2306485825351868E-003  0.22160835641747959        0.0000000000000000     
  -6.2663011617491281E-003  0.23001841240733195        0.0000000000000000     
  -1.2201235023065114E-002  0.19670617718573463        0.0000000000000000     
  -1.2315069362239034E-002  0.20496084826951125        0.0000000000000000     
  -1.2414832719772412E-002  0.21326778498910590        0.0000000000000000     
  -1.2500525095665254E-002  0.22162698734451861        0.0000000000000000     
  -1.2572146489917554E-002  0.23003845533574940        0.0000000000000000     
  -1.8356977146594355E-002  0.19674313857523906        0.0000000000000000     
  -1.8529350129808733E-002  0.20499367806908772        0.0000000000000000     
  -1.8680234266822703E-002  0.21329864484061689        0.0000000000000000     
  -1.8809629557636286E-002  0.22165803888982671        0.0000000000000000     
  -1.8917536002249467E-002  0.23007186021671713        0.0000000000000000     
  -2.4549469018172697E-002  0.19679488452099414        0.0000000000000000     
  -2.4781461628162194E-002  0.20503963978878345        0.0000000000000000     
  -2.4984292611587387E-002  0.21334184863292008        0.0000000000000000     
  -2.5157961968448279E-002  0.22170151105340399        0.0000000000000000     
  -2.5302469698744876E-002  0.23011862705023522        0.0000000000000000     
  -1.7744195002222796E-011  0.23001173143146486        0.0000000000000000     
  -1.7308258775869390E-011  0.23844051995469387        0.0000000000000000     
  -1.6937197304389695E-011  0.24685717855636513        0.0000000000000000     
  -1.6631009720421974E-011  0.25526170723647867        0.0000000000000000     
  -1.6389694722923620E-011  0.26365410599503453        0.0000000000000000     
  -6.2663011617491281E-003  0.23001841240733195        0.0000000000000000     
  -6.2962661867190101E-003  0.23844834204096588        0.0000000000000000     
  -6.3217641360855037E-003  0.24686705031140324        0.0000000000000000     
  -6.3427950098486115E-003  0.25527453721864396        0.0000000000000000     
  -6.3593588080083285E-003  0.26367080276268806        0.0000000000000000     
  -1.2572146489917554E-002  0.23003845533574940        0.0000000000000000     
  -1.2632373392478186E-002  0.23847180830078343        0.0000000000000000     
  -1.2683882293296036E-002  0.24689666557760587        0.0000000000000000     
  -1.2726673192371092E-002  0.25531302716621673        0.0000000000000000     
  -1.2760746089703366E-002  0.26372089306661606        0.0000000000000000     
  -1.8917536002249467E-002  0.23007186021671713        0.0000000000000000     
  -1.9008321634585788E-002  0.23851091873414648        0.0000000000000000     
  -1.9086354488568782E-002  0.24694602435497312        0.0000000000000000     
  -1.9151634564198453E-002  0.25537717707919705        0.0000000000000000     
  -1.9204161861474799E-002  0.26380437690681824        0.0000000000000000     
  -2.5302469698744876E-002  0.23011862705023522        0.0000000000000000     
  -2.5424110913041816E-002  0.23856567334105511        0.0000000000000000     
  -2.5529180721903754E-002  0.24701512664350495        0.0000000000000000     
  -2.5617679125330695E-002  0.25546698695758485        0.0000000000000000     
  -2.5689606123322634E-002  0.26392125428329472        0.0000000000000000     
  -1.6389694722923620E-011  0.26365410599503453        0.0000000000000000     
  -1.6191196603940194E-011  0.27197424878625276        0.0000000000000000     
  -1.6013457270272480E-011  0.28016200956435339        0.0000000000000000     
  -1.5856476992971019E-011  0.28821738832933669        0.0000000000000000     
  -1.5720255826245921E-011  0.29614038508120233        0.0000000000000000     
  -6.3593588080083285E-003  0.26367080276268806        0.0000000000000000     
  -6.3753330066346446E-003  0.27199603389669669        0.0000000000000000     
  -6.3945950817975439E-003  0.28019041757383073        0.0000000000000000     
  -6.4171450334970228E-003  0.28825395379409008        0.0000000000000000     
  -6.4429828617330875E-003  0.29618664255747490        0.0000000000000000     
  -1.2760746089703366E-002  0.26372089306661606        0.0000000000000000     
  -1.2793302681780800E-002  0.27206138922888740        0.0000000000000000     
  -1.2831544665091357E-002  0.28027564160311447        0.0000000000000000     
  -1.2875472039635032E-002  0.28836365018929727        0.0000000000000000     
  -1.2925084805411826E-002  0.29632541498743581        0.0000000000000000     
  -1.9204161861474799E-002  0.26380437690681824        0.0000000000000000     
  -1.9253909041629658E-002  0.27217031478282477        0.0000000000000000     
  -1.9310848765894895E-002  0.28041768165220471        0.0000000000000000     
  -1.9374981034270499E-002  0.28854647751495827        0.0000000000000000     
  -1.9446305846756468E-002  0.29655670237108511        0.0000000000000000     
  -2.5689606123322634E-002  0.26392125428329472        0.0000000000000000     
  -2.5757152086181234E-002  0.27232281055850893        0.0000000000000000     
  -2.5832507384208170E-002  0.28061653772110162        0.0000000000000000     
  -2.5915672017403423E-002  0.28880243577107290        0.0000000000000000     
  -2.6006645985767018E-002  0.29688050470842281        0.0000000000000000     
  -1.4026634920734271E-002   5.5781881378025387E-002   0.0000000000000000     
  -1.4796468806378561E-002   6.1373602528290716E-002   0.0000000000000000     
  -1.5542272929173909E-002   6.7150507370696527E-002   0.0000000000000000     
  -1.6264047289120318E-002   7.3112595905242828E-002   0.0000000000000000     
  -1.6961791886217790E-002   7.9259868131929589E-002   0.0000000000000000     
  -1.7612823170964305E-002   5.6041453985713995E-002   0.0000000000000000     
  -1.8572658435592772E-002   6.1626684864635663E-002   0.0000000000000000     
  -1.9503627448609649E-002   6.7396535339728447E-002   0.0000000000000000     
  -2.0405730210014933E-002   7.3351005410992320E-002   0.0000000000000000     
  -2.1278966719808626E-002   7.9490095078427303E-002   0.0000000000000000     
  -2.1296127196734096E-002   5.6359695092853095E-002   0.0000000000000000     
  -2.2450938419580971E-002   6.1937141549208277E-002   0.0000000000000000     
  -2.3569820967879823E-002   6.7698383071515669E-002   0.0000000000000000     
  -2.4652774841630660E-002   7.3643419659775278E-002   0.0000000000000000     
  -2.5699800040833477E-002   7.9772251313987061E-002   0.0000000000000000     
  -2.5076546998043642E-002   5.6736604699442694E-002   0.0000000000000000     
  -2.6431308758343160E-002   6.2304972582008573E-002   0.0000000000000000     
  -2.7740853486984442E-002   6.8056050566058235E-002   0.0000000000000000     
  -2.9005181183967516E-002   7.3989838651591672E-002   0.0000000000000000     
  -3.0224291849292352E-002   8.0106336838608891E-002   0.0000000000000000     
  -2.8954082574892945E-002   5.7172182805482794E-002   0.0000000000000000     
  -3.0513769451879325E-002   6.2730177963036537E-002   0.0000000000000000     
  -3.2016725005923508E-002   6.8469537823356116E-002   0.0000000000000000     
  -3.3462949237025474E-002   7.4390262386441516E-002   0.0000000000000000     
  -3.4852442145185236E-002   8.0492351652292737E-002   0.0000000000000000     
  -1.6961791886217790E-002   7.9259868131929589E-002   0.0000000000000000     
  -1.7634976740939404E-002   8.5579004053789751E-002   0.0000000000000000     
  -1.8283071873758251E-002   9.2056683673856166E-002   0.0000000000000000     
  -1.8906077284674330E-002   9.8692906992128862E-002   0.0000000000000000     
  -1.9503992973687632E-002  0.10548767400860783        0.0000000000000000     
  -2.1278966719808626E-002   7.9490095078427303E-002   0.0000000000000000     
  -2.2122277511839879E-002   8.5800660277063359E-002   0.0000000000000000     
  -2.2934603119957854E-002   9.2269556941930439E-002   0.0000000000000000     
  -2.3715943544162555E-002   9.8896785073028529E-002   0.0000000000000000     
  -2.4466298784453978E-002  0.10568234467035763        0.0000000000000000     
  -2.5699800040833477E-002   7.9772251313987061E-002   0.0000000000000000     
  -2.6710635550374510E-002   8.6072095116029881E-002   0.0000000000000000     
  -2.7685020355139995E-002   9.2530168147782518E-002   0.0000000000000000     
  -2.8622954455129919E-002   9.9146470409244916E-002   0.0000000000000000     
  -2.9524437850344299E-002  0.10592100190041717        0.0000000000000000     
  -3.0224291849292352E-002   8.0106336838608891E-002   0.0000000000000000     
  -3.1400050856543286E-002   8.6393308570689289E-002   0.0000000000000000     
  -3.2534323579304643E-002   9.2838517291412376E-002   0.0000000000000000     
  -3.3627110017576421E-002   9.9441963000778094E-002   0.0000000000000000     
  -3.4678410171358608E-002  0.10620364569878646        0.0000000000000000     
  -3.4852442145185236E-002   8.0492351652292737E-002   0.0000000000000000     
  -3.6190523430346219E-002   8.6764300641041639E-002   0.0000000000000000     
  -3.7482512792451822E-002   9.3194604372820053E-002   0.0000000000000000     
  -3.8728410231502038E-002   9.9783262847628021E-002   0.0000000000000000     
  -3.9928215747496901E-002  0.10653027606546549        0.0000000000000000     
  -1.9503992973687632E-002  0.10548767400860783        0.0000000000000000     
  -2.0075935002728307E-002  0.11242964573773757        0.0000000000000000     
  -2.0621019433726483E-002  0.11950748319396269        0.0000000000000000     
  -2.1139246266682159E-002  0.12672118637728311        0.0000000000000000     
  -2.1630615501595347E-002  0.13407075528769885        0.0000000000000000     
  -2.4466298784453978E-002  0.10568234467035763        0.0000000000000000     
  -2.5184423645918986E-002  0.11261484155508111        0.0000000000000000     
  -2.5869072933644481E-002  0.11968288154836229        0.0000000000000000     
  -2.6520246647630443E-002  0.12688646465020120        0.0000000000000000     
  -2.7137944787876882E-002  0.13422559086059785        0.0000000000000000     
  -2.9524437850344299E-002  0.10592100190041717        0.0000000000000000     
  -3.0387709964920840E-002  0.11284221324228207        0.0000000000000000     
  -3.1211010222997274E-002  0.11989855505582245        0.0000000000000000     
  -3.1994338624573584E-002  0.12709002734103836        0.0000000000000000     
  -3.2737695169649778E-002  0.13441663009792976        0.0000000000000000     
  -3.4678410171358608E-002  0.10620364569878646        0.0000000000000000     
  -3.5685793959733869E-002  0.11311176079934047        0.0000000000000000     
  -3.6646831301784859E-002  0.12015450371634319        0.0000000000000000     
  -3.7561522197511583E-002  0.12733187444979457        0.0000000000000000     
  -3.8429866646914036E-002  0.13464387299969463        0.0000000000000000     
  -3.9928215747496901E-002  0.10653027606546549        0.0000000000000000     
  -4.1078675630358066E-002  0.11342348422625635        0.0000000000000000     
  -4.2176536170007252E-002  0.12045072752992447        0.0000000000000000     
  -4.3221797366444444E-002  0.12761200597646979        0.0000000000000000     
  -4.4214459219669648E-002  0.13490731956589239        0.0000000000000000     
  -2.1630615501595347E-002  0.13407075528769885        0.0000000000000000     
  -2.2094745439196109E-002  0.14154410273760862        0.0000000000000000     
  -2.2531254380214524E-002  0.14912914153941112        0.0000000000000000     
  -2.2940142324650595E-002  0.15682587169310627        0.0000000000000000     
  -2.3321409272504312E-002  0.16463429319869421        0.0000000000000000     
  -2.7137944787876882E-002  0.13422559086059785        0.0000000000000000     
  -2.7721540279078138E-002  0.14168823002009123        0.0000000000000000     
  -2.8270406045928571E-002  0.14926235196922039        0.0000000000000000     
  -2.8784542088428167E-002  0.15694795670798525        0.0000000000000000     
  -2.9263948406576923E-002  0.16474504423638592        0.0000000000000000     
  -3.2737695169649778E-002  0.13441663009792976        0.0000000000000000     
  -3.3440432891053896E-002  0.14186645595669958        0.0000000000000000     
  -3.4101904821613994E-002  0.14942759754755067        0.0000000000000000     
  -3.4722110961330072E-002  0.15710005487048306        0.0000000000000000     
  -3.5301051310202128E-002  0.16488382792549675        0.0000000000000000     
  -3.8429866646914036E-002  0.13464387299969463        0.0000000000000000     
  -3.9251423275123390E-002  0.14207878054743364        0.0000000000000000     
  -4.0025750707270810E-002  0.14962487827440202        0.0000000000000000     
  -4.0752848943356325E-002  0.15728216618059970        0.0000000000000000     
  -4.1432717983379906E-002  0.16505064426602672        0.0000000000000000     
  -4.4214459219669648E-002  0.13490731956589239        0.0000000000000000     
  -4.5154511431286584E-002  0.14232520379229349        0.0000000000000000     
  -4.6041943702899005E-002  0.14985419414977444        0.0000000000000000     
  -4.6876756034506903E-002  0.15749429063833523        0.0000000000000000     
  -4.7658948426110272E-002  0.16524549325797583        0.0000000000000000     
  -2.3321409272504312E-002  0.16463429319869421        0.0000000000000000     
  -2.3673755343780491E-002  0.17254253054248869        0.0000000000000000     
  -2.3995880658483949E-002  0.18053870821080345        0.0000000000000000     
  -2.4287785216614687E-002  0.18862282620363863        0.0000000000000000     
  -2.4549469018172697E-002  0.19679488452099414        0.0000000000000000     
  -2.9263948406576923E-002  0.16474504423638592        0.0000000000000000     
  -2.9707301964689303E-002  0.17264205679423369        0.0000000000000000     
  -3.0113279727079740E-002  0.18062743662134001        0.0000000000000000     
  -3.0481881693748231E-002  0.18870118371770483        0.0000000000000000     
  -3.0813107864694780E-002  0.19686329808332823        0.0000000000000000     
  -3.5301051310202128E-002  0.16488382792549675        0.0000000000000000     
  -3.5837359375467975E-002  0.17276755326610452        0.0000000000000000     
  -3.6329668664365461E-002  0.18073986744581935        0.0000000000000000     
  -3.6777979176894543E-002  0.18880077046464105        0.0000000000000000     
  -3.7182290913055263E-002  0.19695026232256979        0.0000000000000000     
  -4.1432717983379906E-002  0.16505064426602672        0.0000000000000000     
  -4.2063927576116517E-002  0.17291901995810124        0.0000000000000000     
  -4.2645047470341084E-002  0.18087600068424142        0.0000000000000000     
  -4.3176077666053636E-002  0.18892158644444723        0.0000000000000000     
  -4.3657018163254131E-002  0.19705577723871884        0.0000000000000000     
  -4.7658948426110272E-002  0.16524549325797583        0.0000000000000000     
  -4.8387006566634909E-002  0.17309645687022368        0.0000000000000000     
  -4.9059416145006661E-002  0.18103583633660625        0.0000000000000000     
  -4.9676177161225486E-002  0.18906363165712345        0.0000000000000000     
  -5.0237289615291406E-002  0.19717984283177531        0.0000000000000000     
  -2.4549469018172697E-002  0.19679488452099414        0.0000000000000000     
  -2.4781461628162194E-002  0.20503963978878345        0.0000000000000000     
  -2.4984292611587387E-002  0.21334184863292008        0.0000000000000000     
  -2.5157961968448279E-002  0.22170151105340399        0.0000000000000000     
  -2.5302469698744876E-002  0.23011862705023522        0.0000000000000000     
  -3.0813107864694780E-002  0.19686329808332823        0.0000000000000000     
  -3.1107152461128555E-002  0.20510006394273267        0.0000000000000000     
  -3.1364209704258739E-002  0.21339776552044087        0.0000000000000000     
  -3.1584279594085315E-002  0.22175640281645273        0.0000000000000000     
  -3.1767362130608288E-002  0.23017597583076826        0.0000000000000000     
  -3.7182290913055263E-002  0.19695026232256979        0.0000000000000000     
  -3.7542171232536961E-002  0.20517628104506966        0.0000000000000000     
  -3.7857187495029025E-002  0.21346676465760478        0.0000000000000000     
  -3.8127339700531442E-002  0.22182171316017521        0.0000000000000000     
  -3.8352627849044217E-002  0.23024112655278095        0.0000000000000000     
  -4.3657018163254131E-002  0.19705577723871884        0.0000000000000000     
  -4.4086517942387410E-002  0.20526829109579428        0.0000000000000000     
  -4.4463225983898250E-002  0.21354884604441179        0.0000000000000000     
  -4.4787142287786678E-002  0.22189744208457143        0.0000000000000000     
  -4.5058266854052655E-002  0.23031407921627317        0.0000000000000000     
  -5.0237289615291406E-002  0.19717984283177531        0.0000000000000000     
  -5.0740192590679890E-002  0.20537609409490656        0.0000000000000000     
  -5.1182325170866419E-002  0.21364400968086197        0.0000000000000000     
  -5.1563687355850998E-002  0.22198358958964148        0.0000000000000000     
  -5.1884279145633622E-002  0.23039483382124509        0.0000000000000000     
  -2.5302469698744876E-002  0.23011862705023522        0.0000000000000000     
  -2.5424110913041816E-002  0.23856567334105511        0.0000000000000000     
  -2.5529180721903754E-002  0.24701512664350495        0.0000000000000000     
  -2.5617679125330695E-002  0.25546698695758485        0.0000000000000000     
  -2.5689606123322634E-002  0.26392125428329472        0.0000000000000000     
  -3.1767362130608288E-002  0.23017597583076826        0.0000000000000000     
  -3.1921404516019311E-002  0.23863158654701094        0.0000000000000000     
  -3.2054353952510044E-002  0.24709833694880423        0.0000000000000000     
  -3.2166210440080487E-002  0.25557622703614813        0.0000000000000000     
  -3.2256973978730633E-002  0.26406525680904258        0.0000000000000000     
  -3.8352627849044217E-002  0.23024112655278095        0.0000000000000000     
  -3.8541865731691327E-002  0.23870417277751582        0.0000000000000000     
  -3.8703867139596747E-002  0.24719001977647381        0.0000000000000000     
  -3.8838632072760497E-002  0.25569866754965487        0.0000000000000000     
  -3.8946160531182571E-002  0.26423011609705904        0.0000000000000000     
  -4.5058266854052655E-002  0.23031407921627317        0.0000000000000000     
  -4.5285494560057857E-002  0.23878343203256971        0.0000000000000000     
  -4.5477720283163880E-002  0.24729017512651369        0.0000000000000000     
  -4.5634944023370747E-002  0.25583430849810507        0.0000000000000000     
  -4.5757165780678441E-002  0.26441583214734393        0.0000000000000000     
  -5.1884279145633622E-002  0.23039483382124509        0.0000000000000000     
  -5.2152291001118893E-002  0.23886936431217259        0.0000000000000000     
  -5.2375913383211424E-002  0.24739880299892386        0.0000000000000000     
  -5.2555146291911214E-002  0.25598314988149878        0.0000000000000000     
  -5.2689989727218264E-002  0.26462240495989736        0.0000000000000000     
  -2.5689606123322634E-002  0.26392125428329472        0.0000000000000000     
  -2.5757152086181234E-002  0.27232281055850893        0.0000000000000000     
  -2.5832507384208170E-002  0.28061653772110162        0.0000000000000000     
  -2.5915672017403423E-002  0.28880243577107290        0.0000000000000000     
  -2.6006645985767018E-002  0.29688050470842281        0.0000000000000000     
  -3.2256973978730633E-002  0.26406525680904258        0.0000000000000000     
  -3.2341454097247042E-002  0.27251255402557140        0.0000000000000000     
  -3.2434460324416277E-002  0.28086524644381822        0.0000000000000000     
  -3.2535992660238315E-002  0.28912333406378304        0.0000000000000000     
  -3.2646051104713178E-002  0.29728681688546582        0.0000000000000000     
  -3.8946160531182571E-002  0.26423011609705904        0.0000000000000000     
  -3.9045237356638632E-002  0.27273322265364403        0.0000000000000000     
  -3.9154647390904324E-002  0.28115684445436773        0.0000000000000000     
  -3.9274390633979674E-002  0.28950098149923004        0.0000000000000000     
  -3.9404467085864668E-002  0.29776563378823107        0.0000000000000000     
  -4.5757165780678441E-002  0.26441583214734393        0.0000000000000000     
  -4.5868501864355989E-002  0.27298481644272682        0.0000000000000000     
  -4.5993068583672331E-002  0.28149133175275015        0.0000000000000000     
  -4.6130865938627495E-002  0.28993537807741404        0.0000000000000000     
  -4.6281893929221475E-002  0.29831695541671849        0.0000000000000000     
  -5.2689989727218264E-002  0.26462240495989736        0.0000000000000000     
  -5.2811247620399099E-002  0.27326733539281967        0.0000000000000000     
  -5.2949723902720285E-002  0.28186870833896549        0.0000000000000000     
  -5.3105418574181780E-002  0.29042652379833500        0.0000000000000000     
  -5.3278331634783613E-002  0.29894078177092809        0.0000000000000000     
  -2.8954082574892945E-002   5.7172182805482794E-002   0.0000000000000000     
  -3.0513769451879325E-002   6.2730177963036537E-002   0.0000000000000000     
  -3.2016725005923508E-002   6.8469537823356116E-002   0.0000000000000000     
  -3.3462949237025474E-002   7.4390262386441516E-002   0.0000000000000000     
  -3.4852442145185236E-002   8.0492351652292737E-002   0.0000000000000000     
  -3.2954049526614335E-002   5.7666246739509132E-002   0.0000000000000000     
  -3.4712949643569017E-002   6.3212228735107234E-002   0.0000000000000000     
  -3.6405762241051604E-002   6.8938242643225831E-002   0.0000000000000000     
  -3.8032487319062114E-002   7.4844288463864900E-002   0.0000000000000000     
  -3.9593124877600534E-002   8.0930366197024442E-002   0.0000000000000000     
  -3.7101763452540147E-002   5.8218613830057449E-002   0.0000000000000000     
  -3.9043478476791744E-002   6.3750595941035687E-002   0.0000000000000000     
  -4.0916291908723354E-002   6.9461562825483825E-002   0.0000000000000000     
  -4.2720203748334969E-002   7.5351514483401882E-002   0.0000000000000000     
  -4.4455213995626602E-002   8.1420450914789819E-002   0.0000000000000000     
  -4.1397224352670382E-002   5.8829284077127737E-002   0.0000000000000000     
  -4.3505355951547524E-002   6.4345279580821896E-002   0.0000000000000000     
  -4.5548314008938738E-002   7.0039498370130113E-002   0.0000000000000000     
  -4.7526098524844046E-002   7.5911940445052437E-002   0.0000000000000000     
  -4.9438709499263447E-002   8.1962605805588826E-002   0.0000000000000000     
  -4.5840432227005033E-002   5.9498257480720004E-002   0.0000000000000000     
  -4.8098582067836328E-002   6.4996279654465847E-002   0.0000000000000000     
  -5.0301828541697763E-002   7.0672049277164709E-002   0.0000000000000000     
  -5.2450171648589353E-002   7.6525566348816604E-002   0.0000000000000000     
  -5.4543611388511083E-002   8.2556830869421491E-002   0.0000000000000000     
  -3.4852442145185236E-002   8.0492351652292737E-002   0.0000000000000000     
  -3.6190523430346219E-002   8.6764300641041639E-002   0.0000000000000000     
  -3.7482512792451822E-002   9.3194604372820053E-002   0.0000000000000000     
  -3.8728410231502038E-002   9.9783262847628021E-002   0.0000000000000000     
  -3.9928215747496901E-002  0.10653027606546549        0.0000000000000000     
  -3.9593124877600534E-002   8.0930366197024442E-002   0.0000000000000000     
  -4.1095090552716360E-002   8.7185621609447400E-002   0.0000000000000000     
  -4.2545799980459070E-002   9.3599200467876592E-002   0.0000000000000000     
  -4.3945253160828680E-002  0.10017110277231213        0.0000000000000000     
  -4.5293450093825183E-002  0.10690132852275393        0.0000000000000000     
  -4.4455213995626602E-002   8.1420450914789819E-002   0.0000000000000000     
  -4.6126789504586756E-002   8.7657821758267085E-002   0.0000000000000000     
  -4.7740397129203957E-002   9.4053076652453119E-002   0.0000000000000000     
  -4.9296036869478199E-002  0.10060621559734791        0.0000000000000000     
  -5.0793708725409496E-002  0.10731723859295145        0.0000000000000000     
  -4.9438709499263447E-002   8.1962605805588826E-002   0.0000000000000000     
  -5.1285620285957428E-002   8.8180901087500735E-002   0.0000000000000000     
  -5.3066304238686489E-002   9.4556232926549563E-002   0.0000000000000000     
  -5.4780761357450622E-002  0.10108860132273532        0.0000000000000000     
  -5.6428991642249834E-002  0.10777800627605801        0.0000000000000000     
  -5.4543611388511083E-002   8.2556830869421491E-002   0.0000000000000000     
  -5.6571582896828371E-002   8.8754859597148308E-002   0.0000000000000000     
  -5.8523521308906652E-002   9.5108669290165940E-002   0.0000000000000000     
  -6.0399426624745921E-002  0.10161825994847438        0.0000000000000000     
  -6.2199298844346197E-002  0.10828363157207366        0.0000000000000000     
  -3.9928215747496901E-002  0.10653027606546549        0.0000000000000000     
  -4.1078675630358066E-002  0.11342348422625635        0.0000000000000000     
  -4.2176536170007252E-002  0.12045072752992447        0.0000000000000000     
  -4.3221797366444444E-002  0.12761200597646979        0.0000000000000000     
  -4.4214459219669648E-002  0.13490731956589239        0.0000000000000000     
  -4.5293450093825183E-002  0.10690132852275393        0.0000000000000000     
  -4.6586677901455160E-002  0.11377753984405449        0.0000000000000000     
  -4.7821223705725176E-002  0.12078739886106626        0.0000000000000000     
  -4.8997087506635222E-002  0.12793090557378928        0.0000000000000000     
  -5.0114269304185291E-002  0.13520805998222349        0.0000000000000000     
  -5.0793708725409496E-002  0.10731723859295145        0.0000000000000000     
  -5.2230123697686877E-002  0.11417408397375968        0.0000000000000000     
  -5.3601992786999363E-002  0.12116469007426861        0.0000000000000000     
  -5.4909315993346954E-002  0.12828905689447817        0.0000000000000000     
  -5.6152093316729657E-002  0.13554718443438837        0.0000000000000000     
  -5.6428991642249834E-002  0.10777800627605801        0.0000000000000000     
  -5.8009013019053202E-002  0.11461311661537196        0.0000000000000000     
  -5.9518843413829813E-002  0.12158260116953143        0.0000000000000000     
  -6.0958482826579653E-002  0.12868645993853647        0.0000000000000000     
  -6.2327931257302745E-002  0.13592469292238704        0.0000000000000000     
  -6.2199298844346197E-002  0.10828363157207366        0.0000000000000000     
  -6.3923345865554149E-002  0.11509463776889128        0.0000000000000000     
  -6.5571775586216532E-002  0.12204113214685476        0.0000000000000000     
  -6.7144588006333314E-002  0.12912311470596419        0.0000000000000000     
  -6.8641783125904535E-002  0.13634058544621946        0.0000000000000000     
  -4.4214459219669648E-002  0.13490731956589239        0.0000000000000000     
  -4.5154511431286584E-002  0.14232520379229349        0.0000000000000000     
  -4.6041943702899005E-002  0.14985419414977444        0.0000000000000000     
  -4.6876756034506903E-002  0.15749429063833523        0.0000000000000000     
  -4.7658948426110272E-002  0.16524549325797583        0.0000000000000000     
  -5.0114269304185291E-002  0.13520805998222349        0.0000000000000000     
  -5.1173324110681651E-002  0.14260749340443496        0.0000000000000000     
  -5.2174806938430490E-002  0.15011783715848970        0.0000000000000000     
  -5.3118717787431831E-002  0.15773909124438776        0.0000000000000000     
  -5.4005056657685666E-002  0.16547125566212909        0.0000000000000000     
  -5.6152093316729657E-002  0.13554718443438837        0.0000000000000000     
  -5.7331488064446670E-002  0.14292741709701401        0.0000000000000000     
  -5.8448663543797151E-002  0.15041809928536970        0.0000000000000000     
  -5.9503619754781120E-002  0.15801923099945550        0.0000000000000000     
  -6.0496356697398557E-002  0.16573081223927141        0.0000000000000000     
  -6.2327931257302745E-002  0.13592469292238704        0.0000000000000000     
  -6.3629003292581643E-002  0.14328497487003050        0.0000000000000000     
  -6.4863513518998994E-002  0.15075498053041433        0.0000000000000000     
  -6.6031461936554764E-002  0.15833470990353843        0.0000000000000000     
  -6.7132848545248952E-002  0.16602416298940287        0.0000000000000000     
  -6.8641783125904535E-002  0.13634058544621946        0.0000000000000000     
  -7.0065869795086624E-002  0.14368016672348463        0.0000000000000000     
  -7.1419356864036013E-002  0.15112848089362366        0.0000000000000000     
  -7.2702244332752783E-002  0.15868552795663660        0.0000000000000000     
  -7.3914532201236838E-002  0.16635130791252339        0.0000000000000000     
  -4.7658948426110272E-002  0.16524549325797583        0.0000000000000000     
  -4.8387006566634909E-002  0.17309645687022368        0.0000000000000000     
  -4.9059416145006661E-002  0.18103583633660625        0.0000000000000000     
  -4.9676177161225486E-002  0.18906363165712345        0.0000000000000000     
  -5.0237289615291406E-002  0.19717984283177531        0.0000000000000000     
  -5.4005056657685666E-002  0.16547125566212909        0.0000000000000000     
  -5.4832189358656060E-002  0.17330300859777495        0.0000000000000000     
  -5.5598481699807065E-002  0.18122302823738662        0.0000000000000000     
  -5.6303933681138660E-002  0.18923131458096404        0.0000000000000000     
  -5.6948545302650887E-002  0.19732786762850724        0.0000000000000000     
  -6.0496356697398557E-002  0.16573081223927141        0.0000000000000000     
  -6.1425068963812814E-002  0.17354181973605787        0.0000000000000000     
  -6.2287951146187195E-002  0.18144123022105524        0.0000000000000000     
  -6.3085003244521737E-002  0.18942904369426347        0.0000000000000000     
  -6.3816225258816389E-002  0.19750526015568268        0.0000000000000000     
  -6.7132848545248952E-002  0.16602416298940287        0.0000000000000000     
  -6.8165645382105192E-002  0.17381289028507246        0.0000000000000000     
  -6.9127824484147102E-002  0.18169044228761208        0.0000000000000000     
  -7.0019385851374655E-002  0.18965681899702178        0.0000000000000000     
  -7.0840329483787906E-002  0.19771202041330146        0.0000000000000000     
  -7.3914532201236838E-002  0.16635130791252339        0.0000000000000000     
  -7.5053918613533194E-002  0.17411622024481871        0.0000000000000000     
  -7.6118101713686728E-002  0.18197066443705723        0.0000000000000000     
  -7.7107081501697497E-002  0.18991464048923887        0.0000000000000000     
  -7.8020857977565444E-002  0.19794814840136371        0.0000000000000000     
  -5.0237289615291406E-002  0.19717984283177531        0.0000000000000000     
  -5.0740192590679890E-002  0.20537609409490656        0.0000000000000000     
  -5.1182325170866419E-002  0.21364400968086197        0.0000000000000000     
  -5.1563687355850998E-002  0.22198358958964148        0.0000000000000000     
  -5.1884279145633622E-002  0.23039483382124509        0.0000000000000000     
  -5.6948545302650887E-002  0.19732786762850724        0.0000000000000000     
  -5.7528964227319755E-002  0.20550587139109844        0.0000000000000000     
  -5.8041838118121358E-002  0.21375850987981973        0.0000000000000000     
  -5.8487166975055668E-002  0.22208578309467114        0.0000000000000000     
  -5.8864950798122713E-002  0.23048769103565270        0.0000000000000000     
  -6.3816225258816389E-002  0.19750526015568268        0.0000000000000000     
  -6.4478601902212371E-002  0.20566380433306172        0.0000000000000000     
  -6.5069117887850886E-002  0.21389860095414967        0.0000000000000000     
  -6.5587773215731948E-002  0.22220965001894649        0.0000000000000000     
  -6.6034567885855544E-002  0.23059695152745222        0.0000000000000000     
  -7.0840329483787906E-002  0.19771202041330146        0.0000000000000000     
  -7.1589105615357723E-002  0.20584989292079639        0.0000000000000000     
  -7.2264164480055015E-002  0.21406428290385174        0.0000000000000000     
  -7.2865506077879824E-002  0.22235519036246743        0.0000000000000000     
  -7.3393130408832108E-002  0.23072261529664359        0.0000000000000000     
  -7.8020857977565444E-002  0.19794814840136371        0.0000000000000000     
  -7.8860475366755806E-002  0.20606413715430252        0.0000000000000000     
  -7.9626977894733761E-002  0.21425555572892591        0.0000000000000000     
  -8.0320365561499282E-002  0.22252240412523402        0.0000000000000000     
  -8.0940638367052398E-002  0.23086468234322677        0.0000000000000000     
  -5.1884279145633622E-002  0.23039483382124509        0.0000000000000000     
  -5.2152291001118893E-002  0.23886936431217259        0.0000000000000000     
  -5.2375913383211424E-002  0.24739880299892386        0.0000000000000000     
  -5.2555146291911214E-002  0.25598314988149878        0.0000000000000000     
  -5.2689989727218264E-002  0.26462240495989736        0.0000000000000000     
  -5.8864950798122713E-002  0.23048769103565270        0.0000000000000000     
  -5.9181377471777444E-002  0.23896341316482300        0.0000000000000000     
  -5.9442634880474868E-002  0.24751212894424057        0.0000000000000000     
  -5.9648723024214985E-002  0.25613383837390558        0.0000000000000000     
  -5.9799641902997788E-002  0.26482854145381785        0.0000000000000000     
  -6.6034567885855544E-002  0.23059695152745222        0.0000000000000000     
  -6.6411876388936503E-002  0.23906702213901929        0.0000000000000000     
  -6.6722073215689695E-002  0.24762637851300023        0.0000000000000000     
  -6.6965158366115121E-002  0.25627502064939500        0.0000000000000000     
  -6.7141131840212767E-002  0.26501294854820368        0.0000000000000000     
  -7.3393130408832108E-002  0.23072261529664359        0.0000000000000000     
  -7.3843787752596077E-002  0.23918019123476153        0.0000000000000000     
  -7.4214228388855913E-002  0.24774155170520276        0.0000000000000000     
  -7.4504452317611644E-002  0.25640669670796729        0.0000000000000000     
  -7.4714459538863243E-002  0.26517562624305502        0.0000000000000000     
  -8.0940638367052398E-002  0.23086468234322677        0.0000000000000000     
  -8.1477111562756152E-002  0.23930292045204968        0.0000000000000000     
  -8.1919100399973521E-002  0.24785764852084816        0.0000000000000000     
  -8.2266604878704561E-002  0.25652886654962215        0.0000000000000000     
  -8.2519624998949215E-002  0.26531657453837176        0.0000000000000000     
  -5.2689989727218264E-002  0.26462240495989736        0.0000000000000000     
  -5.2811247620399099E-002  0.27326733539281967        0.0000000000000000     
  -5.2949723902720285E-002  0.28186870833896549        0.0000000000000000     
  -5.3105418574181780E-002  0.29042652379833500        0.0000000000000000     
  -5.3278331634783613E-002  0.29894078177092809        0.0000000000000000     
  -5.9799641902997788E-002  0.26482854145381785        0.0000000000000000     
  -5.9932231037168285E-002  0.27355206307811736        0.0000000000000000     
  -6.0083329947071482E-002  0.28226022814094415        0.0000000000000000     
  -6.0252938632707406E-002  0.29095303664229821        0.0000000000000000     
  -6.0441057094076024E-002  0.29963048858217939        0.0000000000000000     
  -6.7141131840212767E-002  0.26501294854820368        0.0000000000000000     
  -6.7290208527063786E-002  0.27381028307281463        0.0000000000000000     
  -6.7452603315749274E-002  0.28263714508661625        0.0000000000000000     
  -6.7628316206269232E-002  0.29149353458960864        0.0000000000000000     
  -6.7817347198623673E-002  0.30037945158179163        0.0000000000000000     
  -7.4714459538863243E-002  0.26517562624305502        0.0000000000000000     
  -7.4885180090085629E-002  0.27404199537691143        0.0000000000000000     
  -7.5057544008753627E-002  0.28299945917598185        0.0000000000000000     
  -7.5231551294867277E-002  0.29204801764026639        0.0000000000000000     
  -7.5407201948426567E-002  0.30118767076976499        0.0000000000000000     
  -8.2519624998949215E-002  0.26531657453837176        0.0000000000000000     
  -8.2717145726233787E-002  0.27424719999040781        0.0000000000000000     
  -8.2898152026084568E-002  0.28334717040904106        0.0000000000000000     
  -8.3062643898501543E-002  0.29261648579427152        0.0000000000000000     
  -8.3210621343484698E-002  0.30205514614609935        0.0000000000000000     
  -4.5840432227005033E-002   5.9498257480720004E-002   0.0000000000000000     
  -4.8098582067836328E-002   6.4996279654465847E-002   0.0000000000000000     
  -5.0301828541697763E-002   7.0672049277164709E-002   0.0000000000000000     
  -5.2450171648589353E-002   7.6525566348816604E-002   0.0000000000000000     
  -5.4543611388511083E-002   8.2556830869421491E-002   0.0000000000000000     
  -5.0433115232405387E-002   6.0230463259340422E-002   0.0000000000000000     
  -5.2861323818840150E-002   6.5702653986917478E-002   0.0000000000000000     
  -5.5236560874110906E-002   7.1354747950177988E-002   0.0000000000000000     
  -5.7558826398217640E-002   7.7186745149122007E-002   0.0000000000000000     
  -5.9828120391160380E-002   8.3198645583749495E-002   0.0000000000000000     
  -5.5177001525732752E-002   6.1030830631495163E-002   0.0000000000000000     
  -5.7831748197740979E-002   6.6463460403126645E-002   0.0000000000000000     
  -6.0412236373288637E-002   7.2083126792760369E-002   0.0000000000000000     
  -6.2918466052375721E-002   7.7889829800396299E-002   0.0000000000000000     
  -6.5350437235002265E-002   8.3883569426034504E-002   0.0000000000000000     
  -6.0072091106987108E-002   6.1899359597184220E-002   0.0000000000000000     
  -6.3009855204538792E-002   6.7278698903093390E-002   0.0000000000000000     
  -6.5828855039230944E-002   7.2857185804911795E-002   0.0000000000000000     
  -6.8529090611063603E-002   7.8634820302639533E-002   0.0000000000000000     
  -7.1110561920036675E-002   8.4611602396276506E-002   0.0000000000000000     
  -6.5118383976168454E-002   6.2836050156407600E-002   0.0000000000000000     
  -6.8395644839233577E-002   6.8148369486817684E-002   0.0000000000000000     
  -7.1486416871937852E-002   7.3676924986632364E-002   0.0000000000000000     
  -7.4390700074281210E-002   7.9421716655851640E-002   0.0000000000000000     
  -7.7108494446263706E-002   8.5382744494475526E-002   0.0000000000000000     
  -5.4543611388511083E-002   8.2556830869421491E-002   0.0000000000000000     
  -5.6571582896828371E-002   8.8754859597148308E-002   0.0000000000000000     
  -5.8523521308906652E-002   9.5108669290165940E-002   0.0000000000000000     
  -6.0399426624745921E-002  0.10161825994847438        0.0000000000000000     
  -6.2199298844346197E-002  0.10828363157207366        0.0000000000000000     
  -5.9828120391160380E-002   8.3198645583749495E-002   0.0000000000000000     
  -6.2029293380164482E-002   8.9377286871313438E-002   0.0000000000000000     
  -6.4147195892455378E-002   9.5709506629066743E-002   0.0000000000000000     
  -6.6181827928033010E-002  0.10219530485700946        0.0000000000000000     
  -6.8133189486897422E-002  0.10883468155514159        0.0000000000000000     
  -6.5350437235002265E-002   8.3883569426034504E-002   0.0000000000000000     
  -6.7703367778930684E-002   9.0045772494099632E-002   0.0000000000000000     
  -6.9972475541923526E-002   9.6357865829016426E-002   0.0000000000000000     
  -7.2157760523980763E-002  0.10281984943078488        0.0000000000000000     
  -7.4259222725102381E-002  0.10943172329940498        0.0000000000000000     
  -7.1110561920036675E-002   8.4611602396276506E-002   0.0000000000000000     
  -7.3593806093126976E-002   9.0760316465506932E-002   0.0000000000000000     
  -7.5999360257311133E-002   9.7053746890014989E-002   0.0000000000000000     
  -7.8327224412589186E-002  0.10349189366980062        0.0000000000000000     
  -8.0577398558961094E-002  0.11007475680486389        0.0000000000000000     
  -7.7108494446263706E-002   8.5382744494475526E-002   0.0000000000000000     
  -7.9700608322753358E-002   9.1520918785535338E-002   0.0000000000000000     
  -8.2227850038618211E-002   9.7797149812062403E-002   0.0000000000000000     
  -8.4690219593858279E-002  0.10421143757405671        0.0000000000000000     
  -8.7087716988473535E-002  0.11076378207151827        0.0000000000000000     
  -6.2199298844346197E-002  0.10828363157207366        0.0000000000000000     
  -6.3923345865554149E-002  0.11509463776889128        0.0000000000000000     
  -6.5571775586216532E-002  0.12204113214685476        0.0000000000000000     
  -6.7144588006333314E-002  0.12912311470596419        0.0000000000000000     
  -6.8641783125904535E-002  0.13634058544621946        0.0000000000000000     
  -6.8133189486897422E-002  0.10883468155514159        0.0000000000000000     
  -7.0002340553465173E-002  0.11561928856296516        0.0000000000000000     
  -7.1790341112152864E-002  0.12254077771998230        0.0000000000000000     
  -7.3497191162960454E-002  0.12959914902619293        0.0000000000000000     
  -7.5122890705887999E-002  0.13679440248159716        0.0000000000000000     
  -7.4259222725102381E-002  0.10943172329940498        0.0000000000000000     
  -7.6275215399061735E-002  0.11618771012624110        0.0000000000000000     
  -7.8204091799632142E-002  0.12308203260265760        0.0000000000000000     
  -8.0045851926813572E-002  0.13011469072865445        0.0000000000000000     
  -8.1800495780606039E-002  0.13728568450423165        0.0000000000000000     
  -8.0577398558961094E-002  0.11007475680486389        0.0000000000000000     
  -8.2741970402343823E-002  0.11679990245871912        0.0000000000000000     
  -8.4813027648654352E-002  0.12366489679488069        0.0000000000000000     
  -8.6790570297892652E-002  0.13066973981334862        0.0000000000000000     
  -8.8674598350058725E-002  0.13781443151412293        0.0000000000000000     
  -8.7087716988473535E-002  0.11076378207151827        0.0000000000000000     
  -8.9402605563311449E-002  0.11745586556039919        0.0000000000000000     
  -9.1617148659219522E-002  0.12428937029665162        0.0000000000000000     
  -9.3731346276197697E-002  0.13126429628027553        0.0000000000000000     
  -9.5745198414246002E-002  0.13838064351127094        0.0000000000000000     
  -6.8641783125904535E-002  0.13634058544621946        0.0000000000000000     
  -7.0065869795086624E-002  0.14368016672348463        0.0000000000000000     
  -7.1419356864036013E-002  0.15112848089362366        0.0000000000000000     
  -7.2702244332752783E-002  0.15868552795663660        0.0000000000000000     
  -7.3914532201236838E-002  0.16635130791252339        0.0000000000000000     
  -7.5122890705887999E-002  0.13679440248159716        0.0000000000000000     
  -7.6670467000281295E-002  0.14411204459122076        0.0000000000000000     
  -7.8142947305486252E-002  0.15153758186008964        0.0000000000000000     
  -7.9540331621502855E-002  0.15907101428820378        0.0000000000000000     
  -8.0862619948331105E-002  0.16671234187556322        0.0000000000000000     
  -8.1800495780606039E-002  0.13728568450423165        0.0000000000000000     
  -8.3471174336485446E-002  0.14457966040708350        0.0000000000000000     
  -8.5061038569927708E-002  0.15198126491490430        0.0000000000000000     
  -8.6570088480932755E-002  0.15949049802769394        0.0000000000000000     
  -8.7998324069500630E-002  0.16710735974545249        0.0000000000000000     
  -8.8674598350058725E-002  0.13781443151412293        0.0000000000000000     
  -9.0467991803699105E-002  0.14508301417107278        0.0000000000000000     
  -9.2173630657360367E-002  0.15245953005806748        0.0000000000000000     
  -9.3791514911042470E-002  0.15994397917510697        0.0000000000000000     
  -9.5321644564745442E-002  0.16753636152219134        0.0000000000000000     
  -9.5745198414246002E-002  0.13838064351127094        0.0000000000000000     
  -9.7660919401922230E-002  0.14562210588318864        0.0000000000000000     
  -9.9480723567784243E-002  0.15297237728957927        0.0000000000000000     
 -0.10120461091183199       0.16043145773044293        0.0000000000000000     
 -0.10283258143406550       0.16799934720577958        0.0000000000000000     
  -7.3914532201236838E-002  0.16635130791252339        0.0000000000000000     
  -7.5053918613533194E-002  0.17411622024481871        0.0000000000000000     
  -7.6118101713686728E-002  0.18197066443705723        0.0000000000000000     
  -7.7107081501697497E-002  0.18991464048923887        0.0000000000000000     
  -7.8020857977565444E-002  0.19794814840136371        0.0000000000000000     
  -8.0862619948331105E-002  0.16671234187556322        0.0000000000000000     
  -8.2107839971818225E-002  0.17445267679727069        0.0000000000000000     
  -8.3274019377811453E-002  0.18228313122842904        0.0000000000000000     
  -8.4361158166310776E-002  0.19020370516903826        0.0000000000000000     
  -8.5369256337316179E-002  0.19821439861909837        0.0000000000000000     
  -8.7998324069500630E-002  0.16710735974545249        0.0000000000000000     
  -8.9345360770681795E-002  0.17482312712440240        0.0000000000000000     
  -9.0610814019526600E-002  0.18262907722076602        0.0000000000000000     
  -9.1794683816035075E-002  0.19052521003454331        0.0000000000000000     
  -9.2896970160207232E-002  0.19851152556573431        0.0000000000000000     
  -9.5321644564745442E-002  0.16753636152219134        0.0000000000000000     
  -9.6766481010123820E-002  0.17522757122621391        0.0000000000000000     
  -9.8128485638832127E-002  0.18300850241406810        0.0000000000000000     
  -9.9407658450870393E-002  0.19087915508575398        0.0000000000000000     
 -0.10060399944623863       0.19883952924127160        0.0000000000000000     
 -0.10283258143406550       0.16799934720577958        0.0000000000000000     
 -0.10437120069014434       0.17566600910270511        0.0000000000000000     
 -0.10582703423572810       0.18342140680833538        0.0000000000000000     
 -0.10720008207081674       0.19126554032267037        0.0000000000000000     
 -0.10849034419541033       0.19919840964571014        0.0000000000000000     
  -7.8020857977565444E-002  0.19794814840136371        0.0000000000000000     
  -7.8860475366755806E-002  0.20606413715430252        0.0000000000000000     
  -7.9626977894733761E-002  0.21425555572892591        0.0000000000000000     
  -8.0320365561499282E-002  0.22252240412523402        0.0000000000000000     
  -8.0940638367052398E-002  0.23086468234322677        0.0000000000000000     
  -8.5369256337316179E-002  0.19821439861909837        0.0000000000000000     
  -8.6301862807761726E-002  0.20630741801918562        0.0000000000000000     
  -8.7162526494581449E-002  0.21447496980987638        0.0000000000000000     
  -8.7951247397775364E-002  0.22271705399117059        0.0000000000000000     
  -8.8668025517343471E-002  0.23103367056306823        0.0000000000000000     
  -9.2896970160207232E-002  0.19851152556573431        0.0000000000000000     
  -9.3922419589730549E-002  0.20658061650105145        0.0000000000000000     
  -9.4875778642292505E-002  0.21472507552720718        0.0000000000000000     
  -9.5757047317893043E-002  0.22294490264420147        0.0000000000000000     
  -9.6566225616532261E-002  0.23124009785203428        0.0000000000000000     
 -0.10060399944623863       0.19883952924127160        0.0000000000000000     
 -0.10172214571266225       0.20688373259989995        0.0000000000000000     
 -0.10276673433786686       0.21500587288091833        0.0000000000000000     
 -0.10373776532185236       0.22320595008432659        0.0000000000000000     
 -0.10463523866461881       0.23148396421012490        0.0000000000000000     
 -0.10849034419541033       0.19919840964571014        0.0000000000000000     
 -0.10970104117655691       0.20721676631573110        0.0000000000000000     
 -0.11083539358130456       0.21531736187100975        0.0000000000000000     
 -0.11189340140965327       0.22350019631154608        0.0000000000000000     
 -0.11287506466160309       0.23176526963734007        0.0000000000000000     
  -8.0940638367052398E-002  0.23086468234322677        0.0000000000000000     
  -8.1477111562756152E-002  0.23930292045204968        0.0000000000000000     
  -8.1919100399973521E-002  0.24785764852084816        0.0000000000000000     
  -8.2266604878704561E-002  0.25652886654962215        0.0000000000000000     
  -8.2519624998949215E-002  0.26531657453837176        0.0000000000000000     
  -8.8668025517343471E-002  0.23103367056306823        0.0000000000000000     
  -8.9298387034429758E-002  0.23945016887567527        0.0000000000000000     
  -8.9827858130178323E-002  0.24799189827909751        0.0000000000000000     
  -9.0256438804589112E-002  0.25665885877333500        0.0000000000000000     
  -9.0584129057662166E-002  0.26545105035838779        0.0000000000000000     
  -9.6566225616532261E-002  0.23124009785203428        0.0000000000000000     
  -9.7294153382629964E-002  0.23963689559042980        0.0000000000000000     
  -9.7931670460606121E-002  0.24816153029911209        0.0000000000000000     
  -9.8478776850460664E-002  0.25681400197808113        0.0000000000000000     
  -9.8935472552193648E-002  0.26559431062733696        0.0000000000000000     
 -0.10463523866461881       0.23148396421012490        0.0000000000000000     
 -0.10546441060735677       0.23986310059631319        0.0000000000000000     
 -0.10623053739125692       0.24836654458089175        0.0000000000000000     
 -0.10693361901631920       0.25699429616386038        0.0000000000000000     
 -0.10757365548254368       0.26574635534521923        0.0000000000000000     
 -0.11287506466160309       0.23176526963734007        0.0000000000000000     
 -0.11380915870861016       0.24012878389332559        0.0000000000000000     
 -0.11472445892213072       0.24860694112443651        0.0000000000000000     
 -0.11562096530216473       0.25719974133067286        0.0000000000000000     
 -0.11649867784871221       0.26590718451203460        0.0000000000000000     
  -8.2519624998949215E-002  0.26531657453837176        0.0000000000000000     
  -8.2717145726233787E-002  0.27424719999040781        0.0000000000000000     
  -8.2898152026084568E-002  0.28334717040904106        0.0000000000000000     
  -8.3062643898501543E-002  0.29261648579427152        0.0000000000000000     
  -8.3210621343484698E-002  0.30205514614609935        0.0000000000000000     
  -9.0584129057662166E-002  0.26545105035838779        0.0000000000000000     
  -9.0841283726682390E-002  0.27443158996398687        0.0000000000000000     
  -9.1058257648934687E-002  0.28366359451986334        0.0000000000000000     
  -9.1235050824419073E-002  0.29314706402601720        0.0000000000000000     
  -9.1371663253135546E-002  0.30288199848244840        0.0000000000000000     
  -9.8935472552193648E-002  0.26559431062733696        0.0000000000000000     
  -9.9312772382605483E-002  0.27460085834833198        0.0000000000000000     
  -9.9621691158496589E-002  0.28393204724251841        0.0000000000000000     
  -9.9862228879866954E-002  0.29358787730989638        0.0000000000000000     
 -0.10003438554671662       0.30356834855046588        0.0000000000000000     
 -0.10757365548254368       0.26574635534521923        0.0000000000000000     
 -0.10813161169400309       0.27475500514344292        0.0000000000000000     
 -0.10858845255477025       0.28415252857700624        0.0000000000000000     
 -0.10894417806484520       0.29393892564590918        0.0000000000000000     
 -0.10919878822422792       0.30411419635015174        0.0000000000000000     
 -0.11649867784871221       0.26590718451203460        0.0000000000000000     
 -0.11729780166087519       0.27489403034931992        0.0000000000000000     
 -0.11795854183775573       0.28432503852332691        0.0000000000000000     
 -0.11848089837935380       0.29420020903405564        0.0000000000000000     
 -0.11886487128566943       0.30451954188150604        0.0000000000000000     
 </DataArray>
 <DataArray  type="Float64" Name="stress" NumberOfComponents="3" format="ascii">
   6496929512.6200380        85197708.460072756        60780386.742886879     
   6150225177.2415619        123045159.74735093       -51096751.704971820     
   5791129004.1145716        119586485.20622039       -104388797.47599605     
   5419640993.2390623        74821684.836697817       -99095750.570194781     
   5035761144.6150198       -11249241.361246824       -35217610.987543672     
   5752326925.3236818       -7312745.6743035316        228239506.37871179     
   5539823669.8158045        44434342.266695738        145450935.62483996     
   5318079233.2915688        65377493.486498117        104101263.63603526     
   5087093615.7509708        55516707.985095501        104190490.41230793     
   4846866817.1940088        14851985.762475729        145718615.95365030     
   5151384125.4446001       -56725263.583513975        383722017.03330427     
   5024092824.3451452       -5775276.6274335384        333697780.16093147     
   4890710998.9614840        24872962.714639425        307966248.14186937     
   4751238649.2936239        35219454.442695618        306527420.97611433     
   4605675775.3415604        25264198.556747198        329381298.66367579     
   4694101112.9827814       -63039845.267536163        527227918.70665443     
   4603032640.8295813       -27583696.935025930        513643781.90329856     
   4509024301.1243210       -1927107.1093471050        507206156.04149705     
   4412076093.8670254        13929924.209533930        507915041.12124139     
   4312188019.0576859        19987397.021587849        515770437.14253801     
   4380477887.9382486       -26256490.726375818        658757211.39875996     
   4276643119.2691116       -20990918.656103134        685288940.85194600     
   4173019139.7800879       -15022715.985445023        701820987.33492088     
   4069605949.4711776       -8351882.7144045830        708353350.84768355     
   3966403548.3423834       -978418.84299039841        704886031.39023304     
   5035761144.6150198       -11249241.361246824       -35217610.987543672     
   4904625962.9319344       -33184678.499088526       -5746355.7951152278     
   4778176304.0376701       -39501706.340868473        11791075.455150133     
   4656412167.9322367       -30200324.886553049        17394682.763249207     
   4539333554.6156254       -5280534.1361393929        11064466.129186478     
   4846866817.1940088        14851985.762475729        145718615.95365030     
   4690554143.6501217       -8974194.1794652939        164272230.88149908     
   4537986588.3380594       -20316646.681991339        175828693.58261025     
   4389164151.2578163       -19175371.745125294        180388004.05697539     
   4244086832.4093881       -5550369.3688685894        177950162.30460930     
   4605675775.3415604        25264198.556747198        329381298.66367579     
   4438290386.2666702        3778708.7096893787        335920134.67710239     
   4273709710.8665895       -8357735.5546650887        340398490.17921132     
   4111933749.1413174       -11145134.236335039        342816365.17000633     
   3952962501.0908546       -4583487.3352968693        343173759.64948696     
   4312188019.0576859        19987397.021587849        515770437.14253801     
   4147834690.7815733        5074030.1683490276        509197355.59169739     
   3985345671.6232586       -3624972.9589042664        505500465.24496466     
   3824720961.5827475       -6109612.3601524830        504679766.10233968     
   3665960560.6600275       -2379888.0354080200        506735258.16382676     
   3966403548.3423834       -978418.84299039841        704886031.39023304     
   3819187057.1948271       -5088229.8034980297        684103893.62528229     
   3672894470.6080627       -6118358.8947017193        671134618.77986312     
   3527525788.5820928       -4068806.1165950298        665978206.85397816     
   3383081011.1169071        1060428.5307927132        668634657.84762847     
   4539333554.6156254       -5280534.1361393929        11064466.129186478     
   4349245784.9039974        3304647.3310511112        3853932.0465730703     
   4158143791.9433031        8509084.6346635818        1847457.0529084606     
   3966027575.7335248        10332777.774670601        5045041.1482099425     
   3772897136.2746644        8775726.7510795593        13446684.332466627     
   4244086832.4093881       -5550369.3688685894        177950162.30460930     
   4067005662.0184770        2672486.0754761696        170861471.74337080     
   3888947950.4490619        7640204.2581524849        168657412.19130313     
   3709913697.7011395        9352785.1791360378        171337983.64840251     
   3529902903.7747154        7810228.8384499550        178903186.11465994     
   3952962501.0908546       -4583487.3352968693        343173759.64948696     
   3787975278.3641191        3003246.5892736912        336250875.02529269     
   3622049196.5294523        7460450.1540689468        333893193.33047509     
   3455184255.5868421        8788123.3590610027        336100714.56503981     
   3287380455.5363035        6986266.2042849064        342873438.72898364     
   3665960560.6600275       -2379888.0354080200        506735258.16382676     
   3512154633.9409280        4296928.8724160194        500022141.89233917     
   3357447530.1844525        7969822.3223426342        497554800.47044444     
   3201839249.3906221        8638792.3143994808        499333233.89813226     
   3045329791.5594196        6303838.8485703468        505357442.17541808     
   3383081011.1169071        1060428.5307927132        668634657.84762847     
   3239543728.7488890        6553532.9248938560        662175272.34451950     
   3095142951.4140778        9168320.7630188465        659642233.61120260     
   2949878679.1124682        8904792.0451449156        661035541.64768851     
   2803750911.8440676        5762946.7713080645        666355196.45397496     
   3772897136.2746644        8775726.7510795593        13446684.332466627     
   3588236017.9781466        7106295.0960626602        3606822.3312368807     
   3402839775.4712553        2986449.4064440727        245624.50535042374     
   3216708408.7540035       -3583810.3177069426        3363090.8547989284     
   3029841917.8263726       -12604484.076435447        12959221.379599689     
   3529902903.7747154        7810228.8384499550        178903186.11465994     
   3361370012.4118781        7663349.7853534222        168130521.63730481     
   3192463534.6573391        6271182.7599246502        162934163.10238123     
   3023183470.5110784        3633727.7621005774        163314110.50988147     
   2853529819.9731398       -249015.20799839497        169270363.85981321     
   3287380455.5363035        6986266.2042849064        342873438.72898364     
   3132397624.7273889        7588489.8391784430        331589765.89727348     
   2977402745.3454437        8150551.5639576912        324980040.77508593     
   2822395817.3904648        8672451.3786276579        323044263.36240995     
   2667376840.8624506        9154189.2831817865        325782433.65925562     
   3045329791.5594196        6303838.8485703468        505357442.17541808     
   2901318854.9246912        6881715.2575472593        493984555.11113912     
   2757657407.5355949        8624555.8186247349        486383257.52346838     
   2614345449.3921328        11532360.531826258        482553549.41240114     
   2471382980.4943066        15605129.397135615        482495430.77793550     
   2803750911.8440676        5762946.7713080645        666355196.45397496     
   2668133703.0037770        5543026.0404412746        655314889.27890265     
   2533227521.2277884        7693195.5239164829        647143813.34753036     
   2399032366.5160947        12213455.221706033        641841968.65985370     
   2265548238.8687143        19103805.133861661        639409355.21586287     
   3029841917.8263726       -12604484.076435447        12959221.379599689     
   2870707993.4115953       -13222346.092884898        10715378.467293859     
   2712363946.0347071       -11207284.649695277        7959529.6409653910     
   2554809775.6957269       -6559299.7468261719        4691674.9006399047     
   2398045482.3946381        721608.61570084095        911814.24626615923     
   2853529819.9731398       -249015.20799839497        169270363.85981321     
   2694304862.9336715       -875239.90900194645        164788054.03751156     
   2535537828.6944427        24944.724125504494        160749654.88359925     
   2377228717.2554469        2451538.6913635731        157155166.39807507     
   2219377528.6167030        6404541.9927862883        154004588.58093259     
   2667376840.8624506        9154189.2831817865        325782433.65925562     
   2510792041.4337568        9338958.9683272839        318674376.98302472     
   2354333210.5676222        9943623.8620177507        312966147.55757791     
   2198000348.2640634        10968183.964288592        308657745.38292068     
   2041793454.5230730        12412639.275116444        305749170.45905846     
   2471382980.4943066        15605129.397135615        482495430.77793550     
   2320169528.9118099        17420250.539018512        472374347.30382627     
   2168750091.6542273        18548752.763931751        464609007.66290385     
   2017124668.7215390        18990636.071838379        459199411.85518569     
   1865293260.1137574        18745900.462757587        456145559.88065070     
   2265548238.8687143        19103805.133861661        639409355.21586287     
   2122437325.3678617        23368634.803122759        625887964.99991941     
   1978788471.9542556        25840331.429859519        615678235.19958746     
   1834601678.6278815        26518895.014047980        608780165.81484878     
   1689876945.3887534        25404325.555712163        605193756.84570622     
   2398045482.3946381        721608.61570084095        911814.24626615923     
   2253630459.9283886        7943491.0994261503       -6649123.1183783375     
   2105943929.3500392        4260346.5428100824       -11664752.566341842     
   1954985890.6595693       -10327825.054198980       -14135074.097616667     
   1800756343.8569858       -35821023.691597104       -14060087.712200250     
   2219377528.6167030        6404541.9927862883        154004588.58093259     
   2080235547.9632232        13366842.584310055        143158911.85241714     
   1938919074.1103160        13080832.511100888        133884016.73060785     
   1795428107.0580063        5546511.7732090950        126179903.21552072     
   1649762646.8062923       -9236119.6293624640        120046571.30714618     
   2041793454.5230730        12412639.275116444        305749170.45905846     
   1905140154.7967024        18280049.708704233        292898605.09815919     
   1767409376.7836368        20555865.853314996        280644295.03399956     
   1628601120.4838457        19240087.708837152        268986240.26658791     
   1488715385.8973651        14332715.275388956        257924440.79591984     
   1865293260.1137574        18745900.462757587        456145559.88065070     
   1728344280.4288721        22683112.472746968        442569956.61885864     
   1591414837.3699837        26685446.569405258        428616082.34383649     
   1454504930.9370990        30752902.752716422        414283937.05558896     
   1317614561.1302128        34885481.022706151        399573520.75410563     
   1689876945.3887534        25404325.555712163        605193756.84570622     
   1549847924.8597155        26576030.876391947        592172966.41451097     
   1410935455.8693874        31469574.659447491        577799378.66011667     
   1273139538.4177477        40084956.904809773        562072993.58252013     
   1136460172.5048184        52422177.612517297        544993811.18170774     
   1800756343.8569858       -35821023.691597104       -14060087.712200250     
   1770346333.4975529       -16907189.745649338       -8239602.8234805055     
   1747995416.9538372        28870290.252666235       -41331775.141800322     
   1733703594.2258291        101511416.30334121       -113336604.66715714     
   1727470865.3134811        201016188.40623879       -224254091.39953816     
   1649762646.8062923       -9236119.6293624640        120046571.30714618     
   1527277963.1042523       -14029381.728130221        135720016.86636543     
   1408968961.3965561       -4903703.8457472324        124950316.14861985     
   1294835641.6832006        18140914.017785668        87737469.153910071     
   1184878003.9641662        55104471.862356067        24081475.882234201     
   1488715385.8973651        14332715.275388956        257924440.79591984     
   1309783202.9386325       -3479490.6422668695        278920199.90071094     
   1131143290.1528752       -20317462.650015771        285942323.65861076     
   952795647.54007542       -36181200.747905970        278990812.06961304     
   774740275.10024023       -51070704.935903311        258065665.13371569     
   1317614561.1302128        34885481.022706151        399573520.75410563     
   1117862053.0006890        14742483.511892915        421360946.27954364     
   914518403.22277081       -17370986.160250425        441644247.38816130     
   707583611.79645240       -61454927.993726760        460423424.07994896     
   497057678.72174042       -117509341.98852488        477698476.35490721     
   1136460172.5048184        52422177.612517297        544993811.18170774     
   951514513.29042101        40636540.734328508        563042256.00287521     
   759094300.60625672        3935725.6236053705        592056087.33728421     
   559199534.45231938       -57680267.719700545        632035305.18492758     
   351830214.82861716       -144211439.29556680        682979909.54580593     
   1727470865.3134811        201016188.40623879       -224254091.39953816     
   1456863657.5661628        184647427.66655034       -96692890.363591328     
   1154091077.4149506        61060758.913915813        60063593.429000750     
   819153124.85980511       -169743817.85183567        246015359.97824451     
   452049799.90076375       -507766302.63059545        461162409.28406948     
   1184878003.9641662        55104471.862356067        24081475.882234201     
   977771047.13689041        11886193.175225139        155499305.78824428     
   732837612.18389916       -157420345.93094581        312764242.40246689     
   450077699.10521686       -452815145.45611465        495876285.72490209     
   129491307.90078962       -874298205.40038908        704835435.75551903     
   774740275.10024023       -51070704.935903311        258065665.13371569     
   621567351.91178751       -124008366.75486916        386735500.56768733     
   424906844.87581372       -341904641.39887935        537904266.66144454     
   184758753.99233541       -704759528.86792862        711571963.41497374     
  -98876920.738651752       -1212573029.1619964        907738590.82826471     
   497057678.72174042       -117509341.98852488        477698476.35490721     
   388252571.89084005       -223036252.12374672        597015693.97474933     
   230298775.49065262       -492392127.48996806        735483666.20593143     
   23196289.521152496       -925576968.08720958        893102393.04845452     
  -233054886.01766652       -1522590773.9155157        1069871874.5023245     
   351830214.82861716       -144211439.29556680        682979909.54580593     
   277826707.07409054       -285197462.93131834        786339886.00941372     
   149013404.02843863       -608882804.20413756        905502441.03593206     
  -34609694.308323801       -1115267463.1139865        1040467574.6253617     
  -273042587.93618506       -1804351439.6608591        1191235286.7776852     
   4380477887.9382486       -26256490.726375818        658757211.39875996     
   4276643119.2691116       -20990918.656103134        685288940.85194600     
   4173019139.7800879       -15022715.985445023        701820987.33492088     
   4069605949.4711776       -8351882.7144045830        708353350.84768355     
   3966403548.3423834       -978418.84299039841        704886031.39023304     
   4111694330.5410986        5050471.9151215553        780959574.56917036     
   3984933094.5543642       -376389.14298343658        795733157.50267434     
   3858563454.1043305       -4497931.7454059124        805338163.88401902     
   3732585409.1910033       -7314155.8921544552        809774593.71320355     
   3606998959.8143783       -8825061.5832161903        809042446.99022424     
   3801410513.6767550        23907356.716459036        901589354.69832385     
   3665525971.5668483        11929010.888302088        904815731.86149824     
   3530213831.3502421        1858671.3711259365        907704638.89056778     
   3395474093.0269270       -6303661.8350710869        910256075.78552854     
   3261306756.5969033       -12557988.730288267        912470042.54637396     
   3449626437.3452163        30314163.677638769        1020646551.7862256     
   3318421750.3065767        15925281.437758923        1012536663.9284294     
   3187970271.5178194        4047093.3641564846        1008920412.3545784     
   3058272000.9789495       -5320400.5431586504        1009797797.0646671     
   2929326938.6899629       -12177200.284197330        1015168818.0586947     
   3056342101.5464873        24270892.798661470        1138131165.8328679     
   2943620430.7735419        11612422.505390644        1118895953.7034543     
   2831832774.6070719        2067334.2337020636        1108985484.2760360     
   2720979133.0470729       -4364372.0164138079        1108399757.5506108     
   2611059506.0935502       -7682696.2449481487        1117138773.5271752     
   3966403548.3423834       -978418.84299039841        704886031.39023304     
   3819187057.1948271       -5088229.8034980297        684103893.62528229     
   3672894470.6080627       -6118358.8947017193        671134618.77986312     
   3527525788.5820928       -4068806.1165950298        665978206.85397816     
   3383081011.1169071        1060428.5307927132        668634657.84762847     
   3606998959.8143783       -8825061.5832161903        809042446.99022424     
   3479718745.2977343       -9240695.9849150181        793415534.95205426     
   3353104122.6057377       -7437690.9711267948        784458855.11994147     
   3227155091.7383776       -3416046.5418852568        782172407.49388909     
   3101871652.6956606        2824237.3028420210        786556192.07388902     
   3261306756.5969033       -12557988.730288267        912470042.54637396     
   3150698159.5298133       -10258844.327581644        901696991.37615037     
   3040496841.5512176       -6602102.9632208347        896451541.69850719     
   2930702802.6611137       -1587764.6372233629        896733693.51344347     
   2821316042.8595095        4784170.6504296064        902543446.82096446     
   2929326938.6899629       -12177200.284197330        1015168818.0586947     
   2832125299.8910613       -8142674.8314970732        1008948262.8975754     
   2735072627.4445086       -3611594.8709712029        1007112678.5155554     
   2638168921.3502998        1416039.5973690748        1009662064.9126458     
   2541414181.6084385        6940228.5735347271        1016596422.0888387     
   2611059506.0935502       -7682696.2449481487        1117138773.5271752     
   2524000166.3814783       -2892187.4966634512        1115169349.5163200     
   2436831480.2856107        1533833.3056299686        1116442265.5710940     
   2349553447.8059320        5595366.1618888378        1120957521.6914976     
   2262166068.9424605        9292411.0721709728        1128715117.8775294     
   3383081011.1169071        1060428.5307927132        668634657.84762847     
   3239543728.7488890        6553532.9248938560        662175272.34451950     
   3095142951.4140778        9168320.7630188465        659642233.61120260     
   2949878679.1124682        8904792.0451449156        661035541.64768851     
   2803750911.8440676        5762946.7713080645        666355196.45397496     
   3101871652.6956606        2824237.3028420210        786556192.07388902     
   2968283742.5102739        6753479.1810638905        779583777.70832944     
   2834149119.2098932        8860344.0093084574        776699271.14019907     
   2699467782.7945080        9144831.7875443697        777902672.36949813     
   2564239733.2641387        7606942.5158184767        783193981.39622450     
   2821316042.8595095        4784170.6504296064        902543446.82096446     
   2698139107.7928348        7288030.8935984373        895427582.42005360     
   2574732241.4629641        9025453.5927704573        892561186.84420419     
   2451095443.8698950        9996438.7479645014        893944260.09340942     
   2327228715.0136356        10200986.359166265        899576802.16767371     
   2541414181.6084385        6940228.5735347271        1016596422.0888387     
   2429109824.5965676        8157188.0624753237        1009706686.4796836     
   2316892318.1732950        9663649.5134143829        1007227980.7232094     
   2204761662.3386264        11459612.926369667        1009160304.8194336     
   2092717857.0925653        13545078.301339269        1015503658.7683346     
   2262166068.9424605        9292411.0721709728        1128715117.8775294     
   2161195892.9214754        9360950.6877082586        1122421089.8872194     
   2060629349.3408840        10774931.771233916        1120699652.7772264     
   1960466438.2007034        13534354.322785497        1123550806.5475526     
   1860707159.5009212        17639218.342339993        1130974551.1981981     
   2803750911.8440676        5762946.7713080645        666355196.45397496     
   2668133703.0037770        5543026.0404412746        655314889.27890265     
   2533227521.2277884        7693195.5239164829        647143813.34753036     
   2399032366.5160947        12213455.221706033        641841968.65985370     
   2265548238.8687143        19103805.133861661        639409355.21586287     
   2564239733.2641387        7606942.5158184767        783193981.39622450     
   2436667124.5707664        8360488.2076016665        773872935.83807218     
   2309637802.2093797        10924988.339325905        767646166.89786673     
   2183151766.1799631        15300442.910960913        764513674.57559681     
   2057209016.4825325        21486851.922537923        764475458.87126398     
   2327228715.0136356        10200986.359166265        899576802.16767371     
   2208343693.2507563        12120894.508683681        891779320.70540202     
   2089834217.0875247        15292621.323708773        887301161.23531640     
   1971700286.5239525        19716166.804259181        886142323.75741386     
   1853941901.5600421        25391530.950331926        888302808.27171004     
   2092717857.0925653        13545078.301339269        1015503658.7683346     
   1983163409.0437286        16824244.943639517        1009034043.8808893     
   1873816765.8622272        20796094.477060318        1006108796.3598887     
   1764677927.5480552        25460626.901577830        1006727916.2053187     
   1655746894.1012201        30817842.217218101        1010891403.4171849     
   1860707159.5009212        17639218.342339993        1130974551.1981981     
   1761126271.9496958        22470539.512503982        1125637105.3645484     
   1661585448.5334811        27435407.799365401        1124069072.2715821     
   1562084689.2522814        32533823.202946603        1126270451.9192917     
   1462623994.1060896        37765785.723224819        1132241244.3076856     
   2265548238.8687143        19103805.133861661        639409355.21586287     
   2122437325.3678617        23368634.803122759        625887964.99991941     
   1978788471.9542556        25840331.429859519        615678235.19958746     
   1834601678.6278815        26518895.014047980        608780165.81484878     
   1689876945.3887534        25404325.555712163        605193756.84570622     
   2057209016.4825325        21486851.922537923        764475458.87126398     
   1922801712.4542284        25416020.423735142        752281712.70098448     
   1788037139.0976057        28154291.163881183        743548850.59431493     
   1652915296.4126639        29701664.142962635        738276872.55124593     
   1517436184.3994091        30058139.360994577        736465778.57177615     
   1853941901.5600421        25391530.950331926        888302808.27171004     
   1728664560.2842853        29112944.267447948        877647488.49561727     
   1603210620.2646556        32245695.105012596        870602276.43112326     
   1477580081.5011528        34789783.462989032        867167172.07824111     
   1351772943.9937863        36745209.341416717        867342175.43696094     
   1655746894.1012201        30817842.217218101        1010891403.4171849     
   1540025868.8580194        34459406.334260702        1001985292.3837854     
   1424308915.4554012        38114543.253246129        996838512.71000266     
   1308596033.8933489        41783252.974124372        995451064.39582896     
   1192887224.1718810        45465535.496949136        997822947.44125628     
   1462623994.1060896        37765785.723224819        1132241244.3076856     
   1356885638.1754587        41455406.624208331        1125295124.3655179     
   1251332024.6698511        45760835.608602643        1122257559.4309559     
   1145963153.5892601        50682072.676393747        1123128549.5040128     
   1040779024.9336903        56219117.827589214        1127908094.5846765     
   1689876945.3887534        25404325.555712163        605193756.84570622     
   1549847924.8597155        26576030.876391947        592172966.41451097     
   1410935455.8693874        31469574.659447491        577799378.66011667     
   1273139538.4177477        40084956.904809773        562072993.58252013     
   1136460172.5048184        52422177.612517297        544993811.18170774     
   1517436184.3994091        30058139.360994577        736465778.57177615     
   1375368944.3553224        28291175.972312391        727528254.54574335     
   1233562050.4324074        27392032.987528205        719053820.99504781     
   1092015502.6306670        27360710.406662762        711042477.91967475     
   950729300.95011282        28197208.229752600        703494225.31963491     
   1351772943.9937863        36745209.341416717        867342175.43696094     
   1212855735.2875907        33596052.499198198        861489011.49565470     
   1073342667.2850496        28460698.002508104        857914825.82820630     
   933233739.98615706        21339145.851313293        856619618.43461752     
   792528953.39092946        12231396.045654565        857603389.31489432     
   1192887224.1718810        45465535.496949136        997822947.44125628     
   1062308297.6565266        42490660.457094133        994055237.26422393     
   930277306.42730916        34675569.704373658        994382393.15958965     
   796794250.48422015        22020263.238742530        998804415.12734354     
   661859129.82726073        4524741.0602091551        1007321303.1674942     
   1040779024.9336903        56219117.827589214        1127908094.5846765     
   923726631.46213233        54974999.846004426        1125226931.8514760     
   804365967.85917926        46036648.093105674        1128456522.9891996     
   682697034.12482738        29404062.568887621        1137596867.9978535     
   558719830.25910115        5077243.2734099329        1152647966.8774276     
   1136460172.5048184        52422177.612517297        544993811.18170774     
   951514513.29042101        40636540.734328508        563042256.00287521     
   759094300.60625672        3935725.6236053705        592056087.33728421     
   559199534.45231938       -57680267.719700545        632035305.18492758     
   351830214.82861716       -144211439.29556680        682979909.54580593     
   950729300.95011282        28197208.229752600        703494225.31963491     
   791555325.47470379        11004217.491698533        721366608.98547721     
   623771669.97305036       -34887706.667150319        749345829.13573658     
   447378334.44515800       -109478564.24680567        787431885.77040780     
   262375318.89102775       -212768355.24725384        835624778.88948596     
   792528953.39092946        12231396.045654565        857603389.31489432     
   656673661.57214582       -11104848.576977044        873975397.50953162     
   511073563.17064786       -66923781.808651567        899595692.15976417     
   355728658.18643665       -155225403.64937216        934464273.26557791     
   190638946.61951530       -276009714.09912777        978581140.82697737     
   661859129.82726073        4524741.0602091551        1007321303.1674942     
   546869521.58273911       -25690657.471713811        1020868621.5750417     
   420999980.19903553       -92172499.800915748        1042805676.4093555     
   284250505.67614388       -194920785.92741334        1073132467.6704309     
   136621098.01407519       -333935515.85116839        1111848995.3582668     
   558719830.25910115        5077243.2734099329        1152647966.8774276     
   462142905.50649112       -32753209.192503035        1162046281.1820104     
   353550921.05821538       -110633860.64395723        1178975781.8845260     
   232943876.91428828       -228564711.08092713        1203436468.9849720     
   100321773.07470453       -386545760.50340813        1235428342.4833519     
   351830214.82861716       -144211439.29556680        682979909.54580593     
   277826707.07409054       -285197462.93131834        786339886.00941372     
   149013404.02843863       -608882804.20413756        905502441.03593206     
  -34609694.308323801       -1115267463.1139865        1040467574.6253617     
  -273042587.93618506       -1804351439.6608591        1191235286.7776852     
   262375318.89102775       -212768355.24725384        835624778.88948596     
   223658262.25975430       -352342762.44768858        885007655.26463485     
   140691278.70296624       -639416926.06651342        945405619.37892675     
   13474368.220655262       -1073990846.1037133        1016818671.2323495     
  -157992469.18717903       -1656064522.5593743        1099246810.8249164     
   190638946.61951530       -276009714.09912777        978581140.82697737     
   173529795.90072984       -418276068.42744851        986306763.54019225     
   122730586.62202048       -672842617.95552528        1000259983.1687680     
   38241318.783387661       -1039709362.6833680        1020440799.7127235     
  -79938007.615187645       -1518876302.6109674        1046849213.1720331     
   136621098.01407519       -333935515.85116839        1111848995.3582668     
   127441307.99701032       -482997380.87061882        1090237210.8360655     
   95131327.785624087       -709159879.87115538        1070065532.4054652     
   39691157.379874706       -1012423012.8528693        1051333960.0664479     
  -38879203.220183372       -1392786779.8156631        1034042493.8190435     
   100321773.07470453       -386545760.50340813        1235428342.4833519     
   85392798.548594922       -546506699.77720439        1196798997.1522613     
   57893502.193734229       -748368711.81348181        1154822267.0890033     
   17823884.010133207       -992131796.61224103        1109498152.2935679     
  -34816056.002217889       -1277795954.1734841        1060826652.7659483     
   3056342101.5464873        24270892.798661470        1138131165.8328679     
   2943620430.7735419        11612422.505390644        1118895953.7034543     
   2831832774.6070719        2067334.2337020636        1108985484.2760360     
   2720979133.0470729       -4364372.0164138079        1108399757.5506108     
   2611059506.0935502       -7682696.2449481487        1117138773.5271752     
   2648960916.5998144        14700044.509687662        1217010535.3119009     
   2559713977.3873110        6599229.1624374390        1202442380.1717818     
   2471236205.8905997        1062306.2011839151        1195555201.6193907     
   2383527602.1096931       -1910724.3740692139        1196348999.6547241     
   2296588166.0445862       -2319862.5633217096        1204823774.2777817     
   2254423780.2962899        8982410.8136621714        1295030386.8148084     
   2183955098.0320296        4030308.0287673473        1284936967.2915306     
   2114090736.5928946        1092607.9942960739        1280880758.2417145     
   2044830695.9788864        169310.71024894714        1282861759.6653545     
   1976174976.1900034        1260416.1766192913        1290879971.5624537     
   1872730692.6359112        7117991.7105791569        1372190720.3415904     
   1816343792.7077036        3905659.1043866873        1366379715.0627024     
   1760396366.7139504        2158239.6130412817        1364962154.1430075     
   1704888414.6546490        1875733.2365337610        1367938037.5825043     
   1649819936.5298018        3058139.9748729467        1375307365.3811908     
   1503881653.6186767        9106787.2004379034        1448491535.8922489     
   1456880061.4143326        6225282.3892873526        1446770623.4852960     
   1410153096.2537684        4259201.0574086905        1447799389.3232694     
   1363700758.1369855        3208543.2047948837        1451577833.4061675     
   1317523047.0639811        3073308.8314440250        1458105955.7339907     
   2611059506.0935502       -7682696.2449481487        1117138773.5271752     
   2524000166.3814783       -2892187.4966634512        1115169349.5163200     
   2436831480.2856107        1533833.3056299686        1116442265.5710940     
   2349553447.8059320        5595366.1618888378        1120957521.6914976     
   2262166068.9424605        9292411.0721709728        1128715117.8775294     
   2296588166.0445862       -2319862.5633217096        1204823774.2777817     
   2217884913.5144496        848179.04487025738        1200846493.1577342     
   2139141938.1500225        3883811.2054207325        1200429046.8366470     
   2060359239.9512963        6787033.9183167219        1203571435.3145158     
   1981536818.9182861        9557847.1835930347        1210273658.5913465     
   1976174976.1900034        1260416.1766192913        1290879971.5624537     
   1906734938.6513114        3078128.9875686169        1284976060.8076429     
   1837324801.8278375        4995510.8492387533        1282949479.5851202     
   1767944565.7195776        7012561.7616229057        1284800227.8948829     
   1698594230.3265345        9129281.7247350216        1290528305.7369320     
   1649819936.5298018        3058139.9748729467        1375307365.3811908     
   1590550241.7920640        3797662.3314285278        1367558052.4660423     
   1531380071.3190570        4868932.2370783687        1364003563.8165114     
   1472309425.1107674        6271949.6917968988        1364643899.4325957     
   1413338303.1672096        8006714.6956082582        1369479059.3142941     
   1317523047.0639811        3073308.8314440250        1458105955.7339907     
   1269330822.9367135        3006779.0764726996        1448592468.1329348     
   1221307746.6236756        3504075.3689309359        1443591299.5308208     
   1173453818.1248741        4565197.7088475227        1443102449.9276516     
   1125769037.4403069        6190146.0962082744        1447125919.3234272     
   2262166068.9424605        9292411.0721709728        1128715117.8775294     
   2161195892.9214754        9360950.6877082586        1122421089.8872194     
   2060629349.3408840        10774931.771233916        1120699652.7772264     
   1960466438.2007034        13534354.322785497        1123550806.5475526     
   1860707159.5009212        17639218.342339993        1130974551.1981981     
   1981536818.9182861        9557847.1835930347        1210273658.5913465     
   1892613455.3338933        9763889.6414231062        1203652561.8791852     
   1804036745.5451016        11125444.751267314        1201693921.6589425     
   1715806689.5519068        13642512.513095856        1204397737.9306159     
   1627923287.3543129        17315092.926930785        1211764010.6942048     
   1698594230.3265345        9129281.7247350216        1290528305.7369320     
   1621974438.0690193        9549854.6919589639        1283513665.2173223     
   1545644320.9623017        10936011.495177925        1281251346.8012245     
   1469603879.0063837        13287752.134391367        1283741350.4886453     
   1393853112.2012639        16605076.609602809        1290983676.2795775     
   1413338303.1672096        8006714.6956082582        1369479059.3142941     
   1349278841.1268530        8718845.8393046856        1362004399.9016268     
   1285452075.5924942        10206632.002993286        1359371928.2040780     
   1221858006.5641317        12470073.186669946        1361581644.2216368     
   1158496634.0417676        15509169.390340507        1368633547.9543133     
   1125769037.4403069        6190146.0962082744        1447125919.3234272     
   1074526664.5073926        7270863.0834603906        1439124765.9321051     
   1023460009.4356762        8937306.2747088671        1436055665.8674972     
   972569072.22515118        11189475.669925034        1437918619.1296022     
   921853852.87582195        14027371.269130230        1444713625.7184191     
   1860707159.5009212        17639218.342339993        1130974551.1981981     
   1761126271.9496958        22470539.512503982        1125637105.3645484     
   1661585448.5334811        27435407.799365401        1124069072.2715821     
   1562084689.2522814        32533823.202946603        1126270451.9192917     
   1462623994.1060896        37765785.723224819        1132241244.3076856     
   1627923287.3543129        17315092.926930785        1211764010.6942048     
   1538383874.6630018        21117236.883054256        1206249869.2968309     
   1448910797.2027216        25140498.275960088        1204928029.0234873     
   1359504054.9734731        29384877.105629623        1207798489.8741732     
   1270163647.9752631        33850373.372098148        1214861251.8488822     
   1393853112.2012639        16605076.609602809        1290983676.2795775     
   1315563426.8937070        19740519.108829141        1285323488.9305079     
   1237366347.9132137        23184649.364924312        1284278491.0888176     
   1159261875.2597697        26937467.377861202        1287848682.7545004     
   1081250008.9333861        30998973.147659600        1296034063.9275584     
   1158496634.0417676        15509169.390340507        1368633547.9543133     
   1092664928.6418204        18340386.189830720        1362857964.2655778     
   1026952100.6649514        21567861.066251755        1362120458.4675591     
   961358150.11116600        25191594.019620776        1366421030.5602682     
   895883076.98045731        29211585.049903899        1375759680.5436954     
   921853852.87582195        14027371.269130230        1444713625.7184191     
   869688379.90733266        16916838.126041859        1438853295.3020387     
   817668055.45794618        20290133.379971415        1438453931.1597247     
   765792879.52765763        24147257.030889452        1443515533.2914815     
   714062852.11647868        28488209.078839898        1454038101.6973150     
   1462623994.1060896        37765785.723224819        1132241244.3076856     
   1356885638.1754587        41455406.624208331        1125295124.3655179     
   1251332024.6698511        45760835.608602643        1122257559.4309559     
   1145963153.5892601        50682072.676393747        1123128549.5040128     
   1040779024.9336903        56219117.827589214        1127908094.5846765     
   1270163647.9752631        33850373.372098148        1214861251.8488822     
   1174848433.3707199        36707068.523173094        1209492633.7886224     
   1079587965.6229639        39746253.196874619        1208425475.3753963     
   984382244.73199654        42967927.393202960        1211659776.6092341     
   889231270.69781125        46372091.112140536        1219195537.4901073     
   1081250008.9333861        30998973.147659600        1296034063.9275584     
   997480520.33903897        33359517.954070151        1292091286.2529194     
   913635783.03323960        35469233.722309738        1292842872.8647678     
   829715797.01599407        37328120.452393979        1298288823.7630968     
   745720562.28729498        38936178.144297272        1308429138.9479158     
   895883076.98045731        29211585.049903899        1375759680.5436954     
   824781899.08041227        31412754.916886002        1373091081.7584107     
   753475476.90067112        32929777.184881061        1375509751.8990529     
   681963810.44125152        33762651.853947908        1383015690.9656134     
   610246899.70214510        33911378.924059033        1395608898.9580913     
   714062852.11647868        28488209.078839898        1454038101.6973150     
   656752569.59483123        30866779.411592245        1452492020.3051054     
   599107047.22526360        32127883.584609121        1456426112.4782574     
   541126285.00777769        32271521.597902894        1465840378.2167711     
   482810282.94236678        31297693.451438844        1480734817.5206425     
   1040779024.9336903        56219117.827589214        1127908094.5846765     
   923726631.46213233        54974999.846004426        1125226931.8514760     
   804365967.85917926        46036648.093105674        1128456522.9891996     
   682697034.12482738        29404062.568887621        1137596867.9978535     
   558719830.25910115        5077243.2734099329        1152647966.8774276     
   889231270.69781125        46372091.112140536        1219195537.4901073     
   787267416.23964751        44359695.734376788        1216632901.6033278     
   683025059.99975193        34752294.417506725        1219943375.1012020     
   576504201.97812903        17549887.161545783        1229126957.9837203     
   467704842.17476016       -7247526.0335740745        1244183650.2508912     
   745720562.28729498        38936178.144297272        1308429138.9479158     
   658737691.16746247        36123238.667852372        1306019759.6488216     
   569506086.61555111        25814521.084477365        1309445845.2480996     
   478025748.63156718        8010025.3941920698        1318707395.7457592     
   384296677.21550417       -17290248.403019220        1333804411.1417861     
   610246899.70214510        33911378.924059033        1395608898.9580913     
   538137456.24557030        30265628.646402508        1393387505.9879501     
   463809047.70657098        19223328.094003424        1396963933.4299121     
   387261674.08516008        784477.26689790189        1406338181.2839680     
   308495335.38133019       -25050923.834946454        1421510249.5501297     
   482810282.94236678        31297693.451438844        1480734817.5206425     
   425466711.47397512        26786865.670048371        1478736140.6207178     
   365933943.27282482        14978715.446126297        1482497639.6466200     
   304211978.33891022       -4126757.2203407884        1492019314.5983503     
   240300816.67223361       -30529552.329350471        1507301165.4759049     
   558719830.25910115        5077243.2734099329        1152647966.8774276     
   462142905.50649112       -32753209.192503035        1162046281.1820104     
   353550921.05821538       -110633860.64395723        1178975781.8845260     
   232943876.91428828       -228564711.08092713        1203436468.9849720     
   100321773.07470453       -386545760.50340813        1235428342.4833519     
   467704842.17476016       -7247526.0335740745        1244183650.2508912     
   390219923.48740238       -41517897.003553972        1242709158.0477188     
   302573535.08087116       -109659833.70410925        1247568080.6900609     
   204765676.95518598       -211673336.13518196        1258760418.1778977     
   96796349.110328048       -347558404.29683065        1276286170.5112486     
   384296677.21550417       -17290248.403019220        1333804411.1417861     
   322481560.15788615       -49027199.207729876        1323619634.0701091     
   252358563.35759181       -108457082.48802100        1318570500.2915118     
   173927686.81462312       -195579898.24389470        1318657009.8059876     
   87188930.528984219       -310395646.47533995        1323879162.6135371     
   308495335.38133019       -25050923.834946454        1421510249.5501297     
   258927815.51794344       -55281115.805018723        1404777709.2491779     
   202906005.88836548       -107025606.99573056        1391983040.6888833     
   140429906.49260938       -180284397.40703949        1383126243.8692300     
   71499517.330674618       -275057487.03894073        1378207318.7902284     
   240300816.67223361       -30529552.329350471        1507301165.4759049     
   199558689.56756109       -60279646.795472756        1486183383.5849321     
   154215862.67320165       -105365407.22720973        1467805701.8821723     
   104272335.98913750       -165786833.62463045        1452168120.3676403     
   49728109.515397176       -241543925.98763850        1439270639.0413227     
   100321773.07470453       -386545760.50340813        1235428342.4833519     
   85392798.548594922       -546506699.77720439        1196798997.1522613     
   57893502.193734229       -748368711.81348181        1154822267.0890033     
   17823884.010133207       -992131796.61224103        1109498152.2935679     
  -34816056.002217889       -1277795954.1734841        1060826652.7659483     
   96796349.110328048       -347558404.29683065        1276286170.5112486     
   79826617.394589901       -488800245.17386788        1221965294.8877983     
   51486497.230443954       -667943380.87892556        1165102198.8360128     
   11775988.617896557       -884987811.41200328        1105696882.3559191     
  -39304908.443059564       -1139933536.7730854        1043749345.4474645     
   87188930.528984219       -310395646.47533995        1323879162.6135371     
   70478911.063154787       -432228248.12379694        1255266678.9748006     
   43598436.529273868       -587962366.66575885        1184917139.2115774     
   6547506.9273233712       -777598002.10127294        1112830543.3238592     
  -40673877.742679119       -1001135154.4303199        1039006891.3116616     
   71499517.330674618       -275057487.03894073        1378207318.7902284     
   57349679.554304078       -376790708.62693912        1296703149.4132798     
   34229320.090228319       -508425669.17394865        1214267088.2156689     
   2138438.9384300113       -669962368.68004870        1130899135.1974201     
  -38922963.901088536       -861400807.14519155        1046599290.3585162     
   49728109.515397176       -241543925.98763850        1439270639.0413227     
   40438922.868033111       -322487626.68331403        1346274706.2032125     
   23379147.913316458       -429333288.40348995        1253152045.8483026     
  -1451215.3487862945       -562080911.14829588        1159902657.9765797     
  -34052166.918270320       -720730494.91769481        1066526542.5880481     
   1503881653.6186767        9106787.2004379034        1448491535.8922489     
   1456880061.4143326        6225282.3892873526        1446770623.4852960     
   1410153096.2537684        4259201.0574086905        1447799389.3232694     
   1363700758.1369855        3208543.2047948837        1451577833.4061675     
   1317523047.0639811        3073308.8314440250        1458105955.7339907     
   1137542372.7755852        9719445.7718180418        1463562660.0687969     
   1098677065.3062091        6474076.3738037944        1460296479.1366525     
   1060017728.7663527        3915276.7408481240        1460623269.2757633     
   1021564363.1560119        2043046.8729487062        1464543030.4861226     
   983316968.47518849        857386.77010750771        1472055762.7677364     
   764782338.34360766        8405878.2665358186        1477595083.6424954     
   736462723.68441999        5519466.7042181492        1472703535.3851941     
   708280423.84048963        3090771.1927533150        1472248251.0254660     
   680235438.81181240        1119791.7321347296        1476229230.5633204     
   652327768.59839118       -393471.67763048410        1484646473.9987490     
   385601550.32274050        5166084.6845849752        1490588806.6133583     
   370237036.54896414        3361453.3805353045        1483991792.2309151     
   354941181.47617918        1785684.4131226689        1482674334.5723815     
   339713985.10438597        438777.78235110641        1486636433.6377525     
   324555447.43358839       -679266.51177008450        1495878089.4270289     
   8.7129871083625456        65.025968309562558        1502543828.9813709     
   3.8998404322715219        36.402748809843892        1494161249.6738217     
   1.6734221151639064        16.401957173403254        1491901519.9165077     
   2.0337356569872838        5.0236050667325856        1495764639.7094216     
   4.9807796623377154        2.2676885323748239        1505750609.0525718     
   1317523047.0639811        3073308.8314440250        1458105955.7339907     
   1269330822.9367135        3006779.0764726996        1448592468.1329348     
   1221307746.6236756        3504075.3689309359        1443591299.5308208     
   1173453818.1248741        4565197.7088475227        1443102449.9276516     
   1125769037.4403069        6190146.0962082744        1447125919.3234272     
   983316968.47518849        857386.77010750771        1472055762.7677364     
   946916451.25529289        730584.78369224072        1463870761.8182576     
   910642794.89367187        1026652.3248598576        1460257894.6212215     
   874495999.39032602        1745589.3936117291        1461217161.1766322     
   838476064.74525404        2887395.9899437428        1466748561.4844837     
   652327768.59839118       -393471.67763048410        1484646473.9987490     
   627889857.58158445       -529276.10676211119        1477740624.9188969     
   603536520.46709108       -383167.52818110585        1475466724.3449852     
   579267757.25491261        44854.058116406202        1477824772.2770174     
   555083567.94504964        754788.65213048458        1484814768.7149951     
   324555447.43358839       -679266.51177008450        1495878089.4270289     
   312251041.91558421       -772803.59490357339        1490202057.4348459     
   299988923.34393287       -725384.19019357860        1489217788.7021079     
   287769091.71863562       -537008.29763472080        1492925283.2288122     
   275591547.03969556       -207675.91722270846        1501324541.0149617     
   4.9807796623377154        2.2676885323748239        1505750609.0525718     
   4.2572881575364780        2.3192562110734354        1501255059.3661113     
   3.5241945579749072        2.3388165602929059        1501511087.6925912     
   2.7814930990334514        2.3263503646347323        1506518694.0320137     
   2.0291885388107884        2.2818748722066182        1516277878.3843806     
   1125769037.4403069        6190146.0962082744        1447125919.3234272     
   1074526664.5073926        7270863.0834603906        1439124765.9321051     
   1023460009.4356762        8937306.2747088671        1436055665.8674972     
   972569072.22515118        11189475.669925034        1437918619.1296022     
   921853852.87582195        14027371.269130230        1444713625.7184191     
   838476064.74525404        2887395.9899437428        1466748561.4844837     
   799987986.95770979        3681044.2907296717        1460298521.4012887     
   761631697.52982497        4913987.1237148941        1458793670.8770072     
   723407196.46160221        6586224.4889081717        1462234009.9116371     
   685314483.75304186        8697756.3863091171        1470619538.5051727     
   555083567.94504964        754788.65213048458        1484814768.7149951     
   529387317.39486635        1272627.8940433264        1479864590.8548050     
   503778925.70281225        2083329.9963892102        1479872738.7857254     
   478258392.86888325        3186894.9591503143        1484839212.5077486     
   452825718.89307880        4583322.7823264301        1494764012.0208843     
   275591547.03969556       -207675.91722270846        1501324541.0149617     
   262724655.81886545        45613.893416762352        1497822974.2926536     
   249901693.95463151        445334.89270974696        1499292869.5936499     
   237122661.44698715        991487.08063431084        1505734226.9179518     
   224387558.29593456        1684070.4571994096        1517147046.2655582     
   2.0291885388107884        2.2818748722066182        1516277878.3843806     
   2.2297043332554454        2.2888371600956874        1514173671.7148306     
   2.2852816708593249        1.8126712585154978        1517054063.3007822     
   2.1959190418411163       0.85337213486168051        1524919053.1422338     
   1.9616045052031781      -0.58910001419123592        1537768641.2391896     
   921853852.87582195        14027371.269130230        1444713625.7184191     
   869688379.90733266        16916838.126041859        1438853295.3020387     
   817668055.45794618        20290133.379971415        1438453931.1597247     
   765792879.52765763        24147257.030889452        1443515533.2914815     
   714062852.11647868        28488209.078839898        1454038101.6973150     
   685314483.75304186        8697756.3863091171        1470619538.5051727     
   646965461.95224357        11097381.061435431        1466234665.7052083     
   608725301.57555413        13859877.150260717        1467129906.4944286     
   570594002.62298083        16985244.652805865        1473305260.8728259     
   532571565.09452176        20473483.569064081        1484760728.8404086     
   452825718.89307880        4583322.7823264301        1494764012.0208843     
   427776426.30314320        6338088.6886072755        1491812261.8931878     
   402799708.04232818        8334769.0252923667        1493959772.6697819     
   377895564.11064166        10573363.792403400        1501206544.3506670     
   353063994.50807983        13053872.989932805        1513552576.9358506     
   224387558.29593456        1684070.4571994096        1517147046.2655582     
   212121272.96003544        2638961.0075761080        1515586083.8659718     
   199891274.85827303        3714809.0050790086        1518943529.6857917     
   187697563.99064982        4911614.4497119039        1527219383.7250118     
   175540140.35716110        6229377.3414601460        1540413645.9836428     
   1.9616045052031781      -0.58910001419123592        1537768641.2391896     
   1.9229251890429488       -1.9816425057660347        1537556131.6235619     
   2.0233905668181622       -2.9103700447787482        1542081177.5424526     
   2.2630025829441434       -3.3752747620661792        1551343778.9958577     
   2.6417638223495006       -3.3763494289784157        1565343935.9837770     
   714062852.11647868        28488209.078839898        1454038101.6973150     
   656752569.59483123        30866779.411592245        1452492020.3051054     
   599107047.22526360        32127883.584609121        1456426112.4782574     
   541126285.00777769        32271521.597902894        1465840378.2167711     
   482810282.94236678        31297693.451438844        1480734817.5206425     
   532571565.09452176        20473483.569064081        1484760728.8404086     
   489376617.90469080        22193740.778597653        1483591484.9677906     
   445930240.84569490        23075898.424245104        1487951936.1981084     
   402232433.91754371        23119956.506043077        1497842082.5313606     
   358283197.12022740        22325915.023957402        1513261923.9675488     
   353063994.50807983        13053872.989932805        1513552576.9358506     
   324125872.75742275        14158264.108439744        1512857948.8913805     
   295020131.11636198        14703922.258937687        1517742537.4874165     
   265746769.58490777        14690847.441455781        1528206342.7239659     
   236305788.16305178        14119039.655968368        1544249364.6010292     
   175540140.35716110        6229377.3414601460        1540413645.9836428     
   161000334.15303844        6760349.4011561200        1540291412.0758684     
   146376718.03727332        7011955.0887106583        1545797916.3461831     
   131669292.00987045        6984194.4041415229        1556933158.7945788     
   116878056.07083696        6677067.3474659324        1573697139.4210737     
   2.6417638223495006       -3.3763494289784157        1565343935.9837770     
   2.0915354613073198       -3.3432597807408491        1565891874.5212598     
   1.6084235134248914       -3.0864480614147181        1572118072.7744017     
   1.1924420928699251       -2.6058675707190186        1584022530.7432091     
  0.84358271284141551       -1.9015483327139124        1601605248.4276783     
   482810282.94236678        31297693.451438844        1480734817.5206425     
   425466711.47397512        26786865.670048371        1478736140.6207178     
   365933943.27282482        14978715.446126297        1482497639.6466200     
   304211978.33891022       -4126757.2203407884        1492019314.5983503     
   240300816.67223361       -30529552.329350471        1507301165.4759049     
   358283197.12022740        22325915.023957402        1513261923.9675488     
   316082285.02152520        19184824.330891579        1509826706.2033184     
   272239475.34983873        10570741.727880955        1511963418.8541689     
   226754768.10518384       -3516332.7850285172        1519672061.9201114     
   179628163.28754845       -23076399.207867548        1532952635.4011414     
   236305788.16305178        14119039.655968368        1544249364.6010292     
   208709691.11764368        12186332.756295316        1540016121.6588953     
   180018995.65904561        6604964.4793201610        1541166563.6211145     
   150233701.78725469       -2625065.1749637648        1547700690.4876876     
   119353809.50226901       -15503756.206562884        1559618502.2586184     
   116878056.07083696        6677067.3474659324        1573697139.4210737     
   103348929.76233599        5791390.9462728500        1569304386.9874549     
   89272504.200428158        3081383.7003887482        1570107073.9474523     
   74648779.385118783       -1452954.3901677094        1576105200.3010719     
   59477755.316397086       -7811623.3254293203        1587298766.0483081     
  0.84358271284141551       -1.9015483327139124        1601605248.4276783     
  0.95560317900458736       -1.0991704799093203        1597691502.1889982     
  0.97400402761497762      -0.60885801894733305        1598784949.8331904     
  0.89877350067874073      -0.43064944925137999        1604885591.3602707     
  0.72992930381306842      -0.56448783376565848        1615993426.7702296     
   240300816.67223361       -30529552.329350471        1507301165.4759049     
   199558689.56756109       -60279646.795472756        1486183383.5849321     
   154215862.67320165       -105365407.22720973        1467805701.8821723     
   104272335.98913750       -165786833.62463045        1452168120.3676403     
   49728109.515397176       -241543925.98763850        1439270639.0413227     
   179628163.28754845       -23076399.207867548        1532952635.4011414     
   148387490.29694098       -45594193.400581256        1507357519.7274063     
   113696292.47185478       -79613737.041556031        1484662122.3516355     
   75554569.812285662       -125135030.13080642        1464866443.2738345     
   33962322.318233907       -182158072.66833240        1447970482.4940031     
   119353809.50226901       -15503756.206562884        1559618502.2586184     
   98070642.367873430       -30652434.603217319        1530887923.5831900     
   74487125.354205966       -53468945.930778734        1505216681.3154798     
   48603258.461269632       -83953290.189238116        1482604775.4554913     
   20419041.689061604       -122105467.37859905        1463052206.0032182     
   59477755.316397086       -7811623.3254293203        1587298766.0483081     
   48608145.780354783       -15454370.403395373        1556774595.1522725     
   36588361.320252188       -26931033.894890029        1529469378.7737067     
   23418401.936084226       -42241613.799937382        1505383116.9126062     
   9098267.6278587356       -61386110.118509799        1484515809.5689774     
  0.72992930381306842      -0.56448783376565848        1615993426.7702296     
  0.53438672900671369      -0.80110492415565737        1585017534.4346628     
  0.36998558978445273      -0.93391514759717198        1557420214.7263162     
  0.23674899037543817      -0.96284495943997916        1533201467.6451857     
  0.13464989196891947      -0.88798240738507694        1512361293.1912727     
   49728109.515397176       -241543925.98763850        1439270639.0413227     
   40438922.868033111       -322487626.68331403        1346274706.2032125     
   23379147.913316458       -429333288.40348995        1253152045.8483026     
  -1451215.3487862945       -562080911.14829588        1159902657.9765797     
  -34052166.918270320       -720730494.91769481        1066526542.5880481     
   33962322.318233907       -182158072.66833240        1447970482.4940031     
   29813280.701163381       -242020493.65352741        1347491202.4096210     
   19836297.845526114       -321309385.43395185        1246227696.8552489     
   4031373.7513213158       -420024748.00959504        1144179965.8308849     
  -17601491.581461817       -538166581.38049948        1041348009.3365017     
   20419041.689061604       -122105467.37859905        1463052206.0032182     
   19531579.521716215       -161450178.32755071        1357356000.2528508     
   14758823.184621066       -213745869.84233561        1250218071.0792973     
   6100772.6777616441       -278992541.92300463        1141638418.4825528     
  -6442571.9988630265       -357190194.56955349        1031617042.4626027     
   9098267.6278587356       -61386110.118509799        1484515809.5689774     
   9593819.3297014944       -80776680.705339253        1375869099.7328944     
   8146723.9305967912       -106642741.62866147        1265123168.5204201     
   4756981.4305333868       -138984292.88850963        1152278015.9315670     
  -575408.17048539966       -177801334.48488063        1037333641.9663121     
  0.13464989196891947      -0.88798240738507694        1512361293.1912727     
  0.12512262288537584      -0.78688374497633895        1403030500.8497446     
   8.3457096544914122E-002 -0.79291191286793750        1290942989.1786287     
   9.6429732331017037E-003 -0.90610415233220953        1176098758.1779470     
  -9.6325145662021772E-002  -1.1264729076272333        1058497807.8476855     
   8.7129871083625456        65.025968309562558        1502543828.9813709     
   3.8998404322715219        36.402748809843892        1494161249.6738217     
   1.6734221151639064        16.401957173403254        1491901519.9165077     
   2.0337356569872838        5.0236050667325856        1495764639.7094216     
   4.9807796623377154        2.2676885323748239        1505750609.0525718     
  -385601547.82997024       -5166005.7175244838        1490588789.0100679     
  -370237036.39920127       -3361406.6242337674        1483991779.5454698     
  -354941180.77961832       -1785660.2349011600        1482674326.6298387     
  -339713980.97122186       -438766.54951991141        1486636430.2631810     
  -324555436.97401333        679274.43190053105        1495878090.4454918     
  -764782349.92193484       -8405850.1257211268        1477595058.5567827     
  -736462730.82228792       -5519445.8884314597        1472703517.4708984     
  -708280425.93174314       -3090755.6814893782        1472248239.9327178     
  -680235435.25030315       -1119779.5048919618        1476229225.9422443     
  -652327758.77796721        393482.64135760069        1484646475.4994774     
  -1137542397.5629060       -9719468.1986206174        1463562637.6215134     
  -1098677079.3694186       -6474081.3898424506        1460296463.4501045     
  -1060017733.7829516       -3915269.9378020167        1460623259.8251395     
  -1021564360.8035049       -2043033.8424968123        1464543026.7466156     
  -983316960.43108034       -857373.10393148661        1472055764.2145350     
  -1503881690.7528830       -9106859.9362185001        1448491526.2042627     
  -1456880082.0405936       -6225313.1284649968        1446770617.4830935     
  -1410153104.3332410       -4259203.0038389564        1447799386.3071039     
  -1363700757.6308246       -3208529.5623337626        1451577832.6762931     
  -1317523041.9333520       -3073292.8039680123        1458105956.5906606     
   4.9807796623377154        2.2676885323748239        1505750609.0525718     
   4.2572881575364780        2.3192562110734354        1501255059.3661113     
   3.5241945579749072        2.3388165602929059        1501511087.6925912     
   2.7814930990334514        2.3263503646347323        1506518694.0320137     
   2.0291885388107884        2.2818748722066182        1516277878.3843806     
  -324555436.97401333        679274.43190053105        1495878090.4454918     
  -312251033.17231977        772810.23489506543        1490202058.1241553     
  -299988916.27577305        725389.68740123510        1489217789.1743054     
  -287769086.28436852        537012.78943315148        1492925283.5959394     
  -275591543.19811481        207679.54096180201        1501324541.3890586     
  -652327758.77796721        393482.64135760069        1484646475.4994774     
  -627889849.42668116        529284.50310954452        1477740625.8318038     
  -603536513.87608314        383173.69589978456        1475466724.8941581     
  -579267752.12617373       -44849.780270427465        1477824772.6865408     
  -555083564.17695403       -754785.92540705204        1484814769.2089469     
  -983316960.43108034       -857373.10393148661        1472055764.2145350     
  -946916444.50580049       -730574.87611585855        1463870762.4890583     
  -910642789.27674532       -1026645.6357156038        1460257894.8521485     
  -874495994.74392354       -1745585.3827624321        1461217161.3038094     
  -838476060.90733004       -2887394.1172344089        1466748561.8440390     
  -1317523041.9333520       -3073292.8039680123        1458105956.5906606     
  -1269330818.4096653       -3006767.9027399421        1448592468.0959151     
  -1221307742.4777539       -3504068.3074331284        1443591299.0482788     
  -1173453814.1376107       -4565194.0180168152        1443102449.4477549     
  -1125769033.3892457       -6190145.0345304012        1447125919.2943389     
   2.0291885388107884        2.2818748722066182        1516277878.3843806     
   2.2297043332554454        2.2888371600956874        1514173671.7148306     
   2.2852816708593249        1.8126712585154978        1517054063.3007822     
   2.1959190418411163       0.85337213486168051        1524919053.1422338     
   1.9616045052031781      -0.58910001419123592        1537768641.2391896     
  -275591543.19811481        207679.54096180201        1501324541.3890586     
  -262724651.73498660       -45610.746456637979        1497822974.4581039     
  -249901689.77463537       -445332.70979897678        1499292869.5415902     
  -237122657.31705850       -991486.34905691445        1505734226.6395180     
  -224387554.36226135       -1684071.6642445922        1517147045.7518902     
  -555083564.17695403       -754785.92540705204        1484814769.2089469     
  -529387313.56853241       -1272626.1424143910        1479864591.0991139     
  -503778921.82072014       -2083329.2281170189        1479872738.7626622     
  -478258388.93351781       -3186895.1825207472        1484839212.1995938     
  -452825714.90692610       -4583324.0056271851        1494764011.4099028     
  -838476060.90733004       -2887394.1172344089        1466748561.8440390     
  -799987983.27093029       -3681043.8990223706        1460298521.6378562     
  -761631693.85297513       -4913987.7422940731        1458793670.9639966     
  -723407192.65346038       -6586225.6470310688        1462234009.8224561     
  -685314479.67238891       -8697757.6132500172        1470619538.2132385     
  -1125769033.3892457       -6190145.0345304012        1447125919.2943389     
  -1074526660.8421822       -7270864.0162915587        1439124766.0743363     
  -1023460005.8713981       -8937308.2523173094        1436055666.1455927     
  -972569068.47688794       -11189477.742590845        1437918619.5081120     
  -921853848.65865505       -14027372.487120509        1444713626.1618874     
   1.9616045052031781      -0.58910001419123592        1537768641.2391896     
   1.9229251890429488       -1.9816425057660347        1537556131.6235619     
   2.0233905668181622       -2.9103700447787482        1542081177.5424526     
   2.2630025829441434       -3.3752747620661792        1551343778.9958577     
   2.6417638223495006       -3.3763494289784157        1565343935.9837770     
  -224387554.36226135       -1684071.6642445922        1517147045.7518902     
  -212121268.81388554       -2638963.9615873694        1515586083.6328704     
  -199891270.30793917       -3714813.0670297593        1518943529.7166386     
  -187697558.84442821       -4911618.9805883244        1527219384.0031922     
  -175540134.42334700       -6229381.7022453398        1540413646.4925401     
  -452825714.90692610       -4583324.0056271851        1494764011.4099028     
  -427776421.86214221       -6338090.6349526942        1491812261.7423131     
  -402799703.04136753       -8334771.3443086296        1493959772.9457865     
  -377895558.44461173       -10573366.133727580        1501206545.0203209     
  -353063988.07186359       -13053875.003169656        1513552577.9659114     
  -685314479.67238891       -8697757.6132500172        1470619538.2132385     
  -646965457.22185016       -11097382.001756728        1466234665.9519036     
  -608725296.17690158       -13859877.742231101        1467129907.2299008     
  -570593996.53754628       -16985244.834682196        1473305262.0472286     
  -532571558.30378431       -20473483.279111862        1484760730.4038892     
  -921853848.65865505       -14027372.487120509        1444713626.1618874     
  -869688374.89300811       -16916838.061992377        1438853296.2616313     
  -817668049.71453214       -20290132.260765821        1438453932.5689757     
  -765792873.12323809       -24147255.083479851        1443515535.0839252     
  -714062845.11910832       -28488206.530075043        1454038103.8064790     
   2.6417638223495006       -3.3763494289784157        1565343935.9837770     
   2.0915354613073198       -3.3432597807408491        1565891874.5212598     
   1.6084235134248914       -3.0864480614147181        1572118072.7744017     
   1.1924420928699251       -2.6058675707190186        1584022530.7432091     
  0.84358271284141551       -1.9015483327139124        1601605248.4276783     
  -175540134.42334700       -6229381.7022453398        1540413646.4925401     
  -161000329.33487138       -6760353.7710783407        1540291412.6530004     
  -146376714.26819989       -7011959.2459241301        1545797916.9972417     
  -131669289.22330827       -6984198.1267027631        1556933159.5252659     
  -116878054.20020705       -6677070.4134505205        1573697140.2370682     
  -353063988.07186359       -13053875.003169656        1513552577.9659114     
  -324125867.43577528       -14158266.201264337        1512857949.9789469     
  -295020126.91039610       -14703924.435052052        1517742538.6438873     
  -265746766.49572307       -14690849.704530641        1528206343.9607322     
  -236305786.19175416       -14119042.009686574        1544249365.9294748     
  -532571558.30378431       -20473483.279111862        1484760730.4038892     
  -489376612.21116894       -22193740.633788109        1483591486.4991071     
  -445930236.31817460       -23075898.653867990        1487951937.7143404     
  -402232430.62480599       -23119957.339365616        1497842084.0496032     
  -358283195.13104653       -22325916.690229550        1513261925.5048811     
  -714062845.11910832       -28488206.530075043        1454038103.8064790     
  -656752563.66105115       -30866777.068651795        1452492022.2134714     
  -599107042.49152970       -32127881.902348578        1456426114.2086053     
  -541126281.61055171       -32271521.031188995        1465840379.7918773     
  -482810281.01810074       -31297694.455121085        1480734818.9632936     
  0.84358271284141551       -1.9015483327139124        1601605248.4276783     
  0.95560317900458736       -1.0991704799093203        1597691502.1889982     
  0.97400402761497762      -0.60885801894733305        1598784949.8331904     
  0.89877350067874073      -0.43064944925137999        1604885591.3602707     
  0.72992930381306842      -0.56448783376565848        1615993426.7702296     
  -116878054.20020705       -6677070.4134505205        1573697140.2370682     
  -103348927.87310208       -5791393.1187198646        1569304387.6127918     
  -89272502.387745947       -3081385.2964856699        1570107074.3882277     
  -74648777.744139701        1452953.0532488227        1576105200.5633776     
  -59477753.942290500        7811621.9304602444        1587298766.1382484     
  -236305786.19175416       -14119042.009686574        1544249365.9294748     
  -208709689.31574553       -12186334.922450706        1540016122.7134433     
  -180018994.02961484       -6604966.4681423455        1541166564.4139681     
  -150233700.33336666        2625063.3532263190        1547700691.0310426     
  -119353808.22699082        15503754.541684151        1559618502.5646756     
  -358283195.13104653       -22325916.690229550        1513261925.5048811     
  -316082283.37233055       -19184826.510380670        1509826707.4909589     
  -272239473.95160985       -10570744.123853505        1511963419.9104218     
  -226754766.86889493        3516330.4693234265        1519672062.7632723     
  -179628162.12418723        23076397.269142568        1532952636.0495179     
  -482810281.01810074       -31297694.455121085        1480734818.9632936     
  -425466710.04284275       -26786867.882458806        1478736141.9453275     
  -365933942.15371674       -14978718.263569906        1482497640.8775840     
  -304211977.35072750        4126754.4015296251        1492019315.7600672     
  -240300815.63386625        30529550.112869531        1507301166.5927732     
  0.72992930381306842      -0.56448783376565848        1615993426.7702296     
  0.53438672900671369      -0.80110492415565737        1585017534.4346628     
  0.36998558978445273      -0.93391514759717198        1557420214.7263162     
  0.23674899037543817      -0.96284495943997916        1533201467.6451857     
  0.13464989196891947      -0.88798240738507694        1512361293.1912727     
  -59477753.942290500        7811621.9304602444        1587298766.1382484     
  -48608144.713326044        15454368.831987053        1556774595.2866473     
  -36588360.535257034        26931032.230532885        1529469378.9486444     
  -23418401.408077665        42241612.126110300        1505383117.1242397     
  -9098267.3317893185        61386108.518719710        1484515809.8134325     
  -119353808.22699082        15503754.541684151        1559618502.5646756     
  -98070641.326733291        30652433.055365689        1530887923.9346659     
  -74487124.559402108        53468944.459290192        1505216681.7046335     
  -48603257.925000764        83953288.753449947        1482604775.8745778     
  -20419041.423528746        122105465.93784508        1463052206.4445004     
  -179628162.12418723        23076397.269142568        1532952636.0495179     
  -148387489.30583018        45594191.869046614        1507357520.3787189     
  -113696291.70244199        79613735.752389058        1484662122.9942739     
  -75554569.314018294        125135028.91918124        1464866443.8961885     
  -33962322.140573785        182158071.36937881        1447970483.0844474     
  -240300815.63386625        30529550.112869531        1507301166.5927732     
  -199558688.65062350        60279645.273005247        1486183384.6188076     
  -154215861.96437770        105365406.10981916        1467805702.8175728     
  -104272335.57515016        165786832.62323827        1452168121.1890748     
  -49728109.482923508        241543924.81332111        1439270639.7333050     
  0.13464989196891947      -0.88798240738507694        1512361293.1912727     
  0.12512262288537584      -0.78688374497633895        1403030500.8497446     
   8.3457096544914122E-002 -0.79291191286793750        1290942989.1786287     
   9.6429732331017037E-003 -0.90610415233220953        1176098758.1779470     
  -9.6325145662021772E-002  -1.1264729076272333        1058497807.8476855     
  -9098267.3317893185        61386108.518719710        1484515809.8134325     
  -9593819.0756728724        80776679.206572697        1375869099.8964727     
  -8146723.7634120435        106642740.08157329        1265123168.6087971     
  -4756981.3950102851        138984291.14371046        1152278015.9503975     
   575408.02953355014        177801332.39298791        1037333641.9212846     
  -20419041.423528746        122105465.93784508        1463052206.4445004     
  -19531579.305033475        161450176.89145961        1357356000.5551116     
  -14758823.042107329        213745868.32651231        1250218071.2538552     
  -6100772.6347506046        278992540.24299937        1141638418.5407436     
   6442571.9170434475        357190192.64094406        1031617042.4157760     
  -33962322.140573785        182158071.36937881        1447970483.0844474     
  -29813280.562966645        242020492.26776144        1347491202.8256443     
  -19836297.752631396        321309383.94190192        1246227697.1138356     
  -4031373.7095767558        420024746.39177567        1144179965.9490242     
   17601491.566201955        538166579.61739480        1041348009.3312162     
  -49728109.482923508        241543924.81332111        1439270639.7333050     
  -40438922.849455774        322487625.33552313        1346274706.7080855     
  -23379147.894979924        429333286.92775077        1253152046.1887162     
   1451215.3805092275        562080909.59001720        1159902658.1752098     
   34052166.977011800        720730493.32234097        1066526542.6675538     
  -1503881690.7528830       -9106859.9362185001        1448491526.2042627     
  -1456880082.0405936       -6225313.1284649968        1446770617.4830935     
  -1410153104.3332410       -4259203.0038389564        1447799386.3071039     
  -1363700757.6308246       -3208529.5623337626        1451577832.6762931     
  -1317523041.9333520       -3073292.8039680123        1458105956.5906606     
  -1872730725.0147297       -7118051.2698165178        1372190727.0175030     
  -1816343811.5552468       -3905683.3857185841        1366379719.6844423     
  -1760396375.3949032       -2158239.8320994377        1364962156.6710439     
  -1704888416.5337095       -1875720.6089707613        1367938037.9773033     
  -1649819934.9716604       -3058125.7163238525        1375307363.6032252     
  -2254423813.0530033       -8982458.7363442183        1295030407.2660277     
  -2183955118.3478060       -4030326.8263442516        1284936980.6445000     
  -2114090747.2359598       -1092606.8941868544        1280880765.1171153     
  -2044830699.7174656       -169298.93986570835        1282861760.6838737     
  -1976174975.7923234       -1260402.9633910656        1290879967.3447711     
  -2648960954.8677063       -14700082.335800886        1217010566.9498327     
  -2559714002.4182734       -6599243.4503414631        1202442400.3632662     
  -2471236219.8564053       -1062304.1900864840        1195555211.6453218     
  -2383527607.1820927        1910735.4449813366        1196349000.7959991     
  -2296588164.3953452        2319875.4548383951        1204823767.8153031     
  -3056342150.4588304       -24270922.068182230        1138131206.0689182     
  -2943620463.7666531       -11612433.257710576        1118895978.8407364     
  -2831832793.2562418       -2067331.7198020220        1108985496.2556591     
  -2720979138.9275961        4364382.5455573797        1108399758.3136842     
  -2611059500.7807207        7682709.5383580923        1117138765.0148139     
  -1317523041.9333520       -3073292.8039680123        1458105956.5906606     
  -1269330818.4096653       -3006767.9027399421        1448592468.0959151     
  -1221307742.4777539       -3504068.3074331284        1443591299.0482788     
  -1173453814.1376107       -4565194.0180168152        1443102449.4477549     
  -1125769033.3892457       -6190145.0345304012        1447125919.2943389     
  -1649819934.9716604       -3058125.7163238525        1375307363.6032252     
  -1590550239.8001168       -3797652.1895061731        1367558050.7328072     
  -1531380068.7241585       -4868925.6479693651        1364003562.3077242     
  -1472309421.7437828       -6271946.0917055011        1364643898.3279731     
  -1413338298.8589952       -8006713.5207365155        1369479058.7935581     
  -1976174975.7923234       -1260402.9633910656        1290879967.3447711     
  -1906734937.5494282       -3078119.3839244843        1284976057.5109015     
  -1837324799.9059296       -4995504.4691153765        1282949477.1205902     
  -1767944562.8618269       -7012558.2189592123        1284800226.1738329     
  -1698594226.4171224       -9129280.6334609985        1290528304.6706374     
  -2296588164.3953452        2319875.4548383951        1204823767.8153031     
  -2217884911.6575990       -848169.48599696159        1200846488.4301999     
  -2139141936.0230629       -3883804.7708669901        1200429043.4868777     
  -2060359237.4917378       -6787030.3997677565        1203571432.9853339     
  -1981536816.0636208       -9557846.3726961613        1210273656.9255757     
  -2611059500.7807207        7682709.5383580923        1117138765.0148139     
  -2524000162.1246352        2892197.5042575598        1115169343.4906969     
  -2436831477.0755668       -1533826.5532376766        1116442261.4065843     
  -2349553445.6335196       -5595362.6341346502        1120957518.7624788     
  -2262166067.7984958       -9292410.7384439707        1128715115.5583754     
  -1125769033.3892457       -6190145.0345304012        1447125919.2943389     
  -1074526660.8421822       -7270864.0162915587        1439124766.0743363     
  -1023460005.8713981       -8937308.2523173094        1436055666.1455927     
  -972569068.47688794       -11189477.742590845        1437918619.5081120     
  -921853848.65865505       -14027372.487120509        1444713626.1618874     
  -1413338298.8589952       -8006713.5207365155        1369479058.7935581     
  -1349278837.2682190       -8718846.8177816272        1362004399.6844792     
  -1285452071.8982234       -10206634.184092045        1359371928.3135962     
  -1221858002.7490013       -12470075.619650245        1361581644.6809123     
  -1158496629.8205640       -15509171.124489307        1368633548.7864304     
  -1698594226.4171224       -9129280.6334609985        1290528304.6706374     
  -1621974434.5056639       -9549855.8626932502        1283513664.5872295     
  -1545644317.4594877       -10936013.976195514        1281251346.6889565     
  -1469603875.2785890       -13287754.973958790        1283741350.9758205     
  -1393853107.9629736       -16605078.855998337        1290983677.4478223     
  -1981536816.0636208       -9557846.3726961613        1210273656.9255757     
  -1892613452.5545151       -9763891.1510273218        1203652560.7825859     
  -1804036742.5551958       -11125447.628640294        1201693921.2716694     
  -1715806686.0656543       -13642515.805517197        1204397738.3928282     
  -1627923283.0858948       -17315095.681659162        1211764012.1460683     
  -2262166067.7984958       -9292410.7384439707        1128715115.5583754     
  -2161195891.4147758       -9360952.6827859879        1122421088.2705498     
  -2060629347.1853404       -10774935.141402721        1120699652.0617399     
  -1960466435.1101875       -13534358.114297509        1123550806.9319444     
  -1860707155.1893215       -17639221.601481557        1130974552.8811634     
  -921853848.65865505       -14027372.487120509        1444713626.1618874     
  -869688374.89300811       -16916838.061992377        1438853296.2616313     
  -817668049.71453214       -20290132.260765821        1438453932.5689757     
  -765792873.12323809       -24147255.083479851        1443515535.0839252     
  -714062845.11910832       -28488206.530075043        1454038103.8064790     
  -1158496629.8205640       -15509171.124489307        1368633548.7864304     
  -1092664923.7707927       -18340386.803913057        1362857965.5746710     
  -1026952095.1998069       -21567860.745951056        1362120460.2441428     
  -961358144.10759985       -25191592.950587332        1366421032.7948477     
  -895883070.49417698       -29211583.417837113        1375759683.2267904     
  -1393853107.9629736       -16605078.855998337        1290983677.4478223     
  -1315563421.9901404       -19740520.348297596        1285323490.5510192     
  -1237366342.3876996       -23184649.741908371        1284278493.2090726     
  -1159261869.1556456       -26937467.036806703        1287848685.4219942     
  -1081250002.2939847       -30998972.233014226        1296034067.1897786     
  -1627923283.0858948       -17315095.681659162        1211764012.1460683     
  -1538383869.5510554       -21117238.695158184        1206249871.1906712     
  -1448910791.2782166       -25140499.248656154        1204928031.4637673     
  -1359504048.2673731       -29384877.342140555        1207798492.9653571     
  -1270163640.5185256       -33850372.975611269        1214861255.6954422     
  -1860707155.1893215       -17639221.601481557        1130974552.8811634     
  -1761126266.4535284       -22470541.844472766        1125637107.4936326     
  -1661585441.8713562       -27435409.266194940        1124069075.0082295     
  -1562084681.4427774       -32533823.866563559        1126270455.4249468     
  -1462623985.1678095       -37765785.645637989        1132241248.7437885     
  -714062845.11910832       -28488206.530075043        1454038103.8064790     
  -656752563.66105115       -30866777.068651795        1452492022.2134714     
  -599107042.49152970       -32127881.902348578        1456426114.2086053     
  -541126281.61055171       -32271521.031188995        1465840379.7918773     
  -482810281.01810074       -31297694.455121085        1480734818.9632936     
  -895883070.49417698       -29211583.417837113        1375759683.2267904     
  -824781893.71574175       -31412753.443480283        1373091084.2830589     
  -753475472.76044643       -32929776.212923020        1375509754.1869509     
  -681963807.62827516       -33762651.726111084        1383015692.9384708     
  -610246898.31925225       -33911379.983130455        1395608900.5376191     
  -1081250002.2939847       -30998972.233014226        1296034067.1897786     
  -997480515.16807365       -33359517.237604499        1292091289.4382892     
  -913635779.39989352       -35469233.434630752        1292842875.7939105     
  -829715794.98945224       -37328120.824119478        1298288826.2566435     
  -745720561.93674362       -38936179.406045139        1308429140.8264894     
  -1270163640.5185256       -33850372.975611269        1214861255.6954422     
  -1174848428.0180373       -36707068.451006591        1209492637.6791635     
  -1079587962.4098816       -39746253.567507029        1208425479.0294838     
  -984382243.69406080       -42967928.325122178        1211659779.7463949     
  -889231271.87057590       -46372092.723863751        1219195539.8299088     
  -1462623985.1678095       -37765785.645637989        1132241248.7437885     
  -1356885632.2656476       -41455407.083715916        1125295129.0056870     
  -1251332021.7904115       -45760836.611554086        1122257563.8936667     
  -1145963153.7421145       -50682074.229180396        1123128553.4077311     
  -1040779028.1207449       -56219119.936576724        1127908097.5478728     
  -482810281.01810074       -31297694.455121085        1480734818.9632936     
  -425466710.04284275       -26786867.882458806        1478736141.9453275     
  -365933942.15371674       -14978718.263569906        1482497640.8775840     
  -304211977.35072750        4126754.4015296251        1492019315.7600672     
  -240300815.63386625        30529550.112869531        1507301166.5927732     
  -610246898.31925225       -33911379.983130455        1395608900.5376191     
  -538137455.13293922       -30265630.505139351        1393387507.4724498     
  -463809046.73547834       -19223330.323321804        1396963934.8720195     
  -387261673.12687421       -784479.43769216537        1406338182.7363341     
  -308495334.30712914        25050922.151737645        1421510251.0653858     
  -745720561.93674362       -38936179.406045139        1308429140.8264894     
  -658737690.78360665       -36123240.295976132        1306019761.3942728     
  -569506086.12204862       -25814522.824503839        1309445846.9413109     
  -478025747.95207107       -8010026.9916359186        1318707397.4676123     
  -384296676.27367473        17290247.202634275        1333804412.9731743     
  -889231271.87057590       -46372092.723863751        1219195539.8299088     
  -787267416.99485469       -44359697.255004644        1216632903.7107985     
  -683025060.31343591       -34752295.767150491        1219943377.0854626     
  -576504201.82631159       -17549888.260282606        1229126959.9539034     
  -467704841.53349924        7247525.2655505836        1244183652.3161244     
  -1040779028.1207449       -56219119.936576724        1127908097.5478728     
  -923726633.76667118       -54975001.382180303        1125226934.4220250     
  -804365969.30962563       -46036649.151206255        1128456525.3044708     
  -682697034.74960911       -29404063.243665189        1137596870.1952124     
  -558719830.08661568       -5077243.6595340371        1152647969.0942440     
  -240300815.63386625        30529550.112869531        1507301166.5927732     
  -199558688.65062350        60279645.273005247        1486183384.6188076     
  -154215861.96437770        105365406.10981916        1467805702.8175728     
  -104272335.57515016        165786832.62323827        1452168121.1890748     
  -49728109.482923508        241543924.81332111        1439270639.7333050     
  -308495334.30712914        25050922.151737645        1421510251.0653858     
  -258927814.64285612        55281114.609439597        1404777710.5426936     
  -202906005.27878791        107025606.06646304        1391983041.7640035     
  -140429906.21494371        180284396.52274227        1383126244.7293251     
  -71499517.451304317        275057485.97832966        1378207319.4386435     
  -384296676.27367473        17290247.202634275        1333804412.9731743     
  -322481559.43903112        49027198.304691255        1323619635.5646842     
  -252358562.90779454        108457081.72872798        1318570501.4714663     
  -173927686.67998099        195579897.47468641        1318657010.6935234     
  -87188930.755581796        310395645.54260248        1323879163.2308643     
  -467704841.53349924        7247525.2655505836        1244183652.3161244     
  -390219923.03914064        41517896.358769178        1242709159.6847651     
  -302573534.85140038        109659833.09659651        1247568081.9399552     
  -204765676.97027385        211673335.47904724        1258760419.0816917     
  -96796349.395766228        347558403.50609326        1276286171.1099672     
  -558719830.08661568       -5077243.6595340371        1152647969.0942440     
  -462142905.44319814        32753208.771646082        1162046282.9029467     
  -353550921.10959220        110633860.17012088        1178975783.1694686     
  -232943877.08581859        228564710.53581882        1203436469.8938053     
  -100321773.37186244        386545759.86879712        1235428343.0759573     
  -49728109.482923508        241543924.81332111        1439270639.7333050     
  -40438922.849455774        322487625.33552313        1346274706.7080855     
  -23379147.894979924        429333286.92775077        1253152046.1887162     
   1451215.3805092275        562080909.59001720        1159902658.1752098     
   34052166.977011800        720730493.32234097        1066526542.6675538     
  -71499517.451304317        275057485.97832966        1378207319.4386435     
  -57349679.625587404        376790707.44208646        1296703149.9021060     
  -34229320.099981248        508425667.90547472        1214267088.5595453     
  -2138438.8744831085        669962367.36849880        1130899135.4109600     
   38922964.050907612        861400805.83117104        1046599290.4563540     
  -87188930.755581796        310395645.54260248        1323879163.2308643     
  -70478911.200145483        432228247.10912192        1255266679.4583759     
  -43598436.565937281        587962365.60489213        1184917139.5679748     
  -6547506.8529526591        777598001.02992046        1112830543.5596659     
   40673877.938808024        1001135153.3841892        1039006891.4334590     
  -96796349.395766228        347558403.50609326        1276286171.1099672     
  -79826617.573137552        488800244.33662713        1221965295.3768861     
  -51486497.292836517        667943380.02606332        1165102199.2140243     
  -11775988.554891407        884987810.57430303        1105696882.6213665     
   39304908.640706956        1139933535.9814069        1043749345.5989119     
  -100321773.37186244        386545759.86879712        1235428343.0759573     
  -85392798.744553715        546506699.12460518        1196798997.6576469     
  -57893502.280696332        748368711.16890299        1154822267.4976699     
  -17823883.980301619        992131796.00165319        1109498152.5960088     
   34816056.156619668        1277795953.6228421        1060826652.9526809     
  -3056342150.4588304       -24270922.068182230        1138131206.0689182     
  -2943620463.7666531       -11612433.257710576        1118895978.8407364     
  -2831832793.2562418       -2067331.7198020220        1108985496.2556591     
  -2720979138.9275961        4364382.5455573797        1108399758.3136842     
  -2611059500.7807207        7682709.5383580923        1117138765.0148139     
  -3449626492.4930630       -30314164.156253099        1020646597.3028417     
  -3318421789.2264061       -15925277.888751507        1012536693.7123474     
  -3187970294.3523002       -4047086.2630935907        1008920428.0459608     
  -3058272007.8707514        5320410.7207126617        1009797800.3036772     
  -2929326929.7817612        12177213.062658072        1015168810.4854957     
  -3801410573.5781250       -23907327.959576368        901589399.05127823     
  -3665526015.7912703       -11928992.851316214        904815761.51921844     
  -3530213858.6077585       -1858659.7542023659        907704655.19226575     
  -3395474102.0275893        6303671.3317596912        910256080.07041657     
  -3261306746.0507684        12558000.406574488        912470036.15367281     
  -4111694393.7140183       -5050413.4781486988        780959611.31421888     
  -3984933143.4612484        376421.85458207130        795733182.26134121     
  -3858563486.0226145        4497947.8068647385        805338177.69457018     
  -3732585421.3981090        7314164.3787071705        809774597.61390543     
  -3606998949.5877433        8825071.5700988770        809042442.01934206     
  -4380477952.9007368        26256579.288034439        658757234.09167171     
  -4276643172.2363439        20990966.228938103        685288955.93872142     
  -4173019176.5968680        15022736.420119762        701820995.55287790     
  -4069605965.9823141        8351889.8615441322        708353352.93413889     
  -3966403540.3926854        978426.55323004723        704886028.08250582     
  -2611059500.7807207        7682709.5383580923        1117138765.0148139     
  -2524000162.1246352        2892197.5042575598        1115169343.4906969     
  -2436831477.0755668       -1533826.5532376766        1116442261.4065843     
  -2349553445.6335196       -5595362.6341346502        1120957518.7624788     
  -2262166067.7984958       -9292410.7384439707        1128715115.5583754     
  -2929326929.7817612        12177213.062658072        1015168810.4854957     
  -2832125293.3882060        8142684.5199662447        1008948257.2104419     
  -2735072623.3555131        3611601.4410746098        1007112674.2569584     
  -2638168919.6836777       -1416036.1740113497        1009662061.6250433     
  -2541414182.3727007       -6940228.3252954483        1016596419.3146938     
  -3261306746.0507684        12558000.406574488        912470036.15367281     
  -3150698152.2581367        10258853.253763676        901696986.24820411     
  -3040496837.5802035        6602109.0519636869        896451537.54586756     
  -2930702802.0169683        1587767.8011755943        896733690.04666567     
  -2821316045.5684266       -4784170.4986045361        902543443.75059617     
  -3606998949.5877433        8825071.5700988770        809042442.01934206     
  -3479718738.7344217        9240703.7056529522        793415530.60398054     
  -3353104119.7496333        7437696.2794377804        784458851.27331614     
  -3227155092.6333847        3416049.2914265394        782172404.02735114     
  -3101871657.3856688       -2824237.2583646774        786556188.86608291     
  -3966403540.3926854        978426.55323004723        704886028.08250582     
  -3819187052.8170609        5088235.8756444454        684103890.27777159     
  -3672894469.8638139        6118363.1234724522        671134615.43930268     
  -3527525791.5329318        4068808.2967412472        665978203.56709516     
  -3383081017.8244314       -1060428.6045873165        668634654.66114664     
  -2262166067.7984958       -9292410.7384439707        1128715115.5583754     
  -2161195891.4147758       -9360952.6827859879        1122421088.2705498     
  -2060629347.1853404       -10774935.141402721        1120699652.0617399     
  -1960466435.1101875       -13534358.114297509        1123550806.9319444     
  -1860707155.1893215       -17639221.601481557        1130974552.8811634     
  -2541414182.3727007       -6940228.3252954483        1016596419.3146938     
  -2429109824.3329906       -8157189.6966927052        1009706684.6708443     
  -2316892316.7052073       -9663652.4411882162        1007227980.0896047     
  -2204761659.4893551       -11459616.558778286        1009160305.5709703     
  -2092717852.6854320       -13545082.049475074        1015503661.1149462     
  -2821316045.5684266       -4784170.4986045361        902543443.75059617     
  -2698139108.7767396       -7288032.1682554483        895427580.45013428     
  -2574732240.6546278       -9025456.0698332787        892561186.19587433     
  -2451095441.2020903       -9996442.2033195496        893944260.98781860     
  -2327228710.4191327       -10200990.568740606        899576804.82596242     
  -3101871657.3856688       -2824237.2583646774        786556188.86608291     
  -2968283744.7460213       -6753480.0974818468        779583775.60842097     
  -2834149119.0335970       -8860346.0273479223        776699270.38055420     
  -2699467780.2483950       -9144835.0479431152        777902673.18248487     
  -2564239728.3904138       -7606947.1592826843        783193984.01421201     
  -3383081017.8244314       -1060428.6045873165        668634654.66114664     
  -3239543732.2408381       -6553533.4843657017        662175270.14569628     
  -3095142951.8421211       -9168322.3137234449        659642232.64364064     
  -2949878676.6282625       -8904795.0926133394        661035542.15496993     
  -2803750906.5992832       -5762951.8210980892        666355198.67969334     
  -1860707155.1893215       -17639221.601481557        1130974552.8811634     
  -1761126266.4535284       -22470541.844472766        1125637107.4936326     
  -1661585441.8713562       -27435409.266194940        1124069075.0082295     
  -1562084681.4427774       -32533823.866563559        1126270455.4249468     
  -1462623985.1678095       -37765785.645637989        1132241248.7437885     
  -2092717852.6854320       -13545082.049475074        1015503661.1149462     
  -1983163403.4240494       -16824248.495551825        1009034046.6853505     
  -1873816758.9326923       -20796097.508388996        1006108799.6509497     
  -1764677919.2113543       -25460629.087941170        1006727920.0117475     
  -1655746884.2600377       -30817843.234249771        1010891407.7677428     
  -2327228710.4191327       -10200990.568740606        899576804.82596242     
  -2208343687.7948003       -12120899.366696596        891779323.96847773     
  -2089834210.5569069       -15292626.119446278        887301164.99926913     
  -1971700278.7054462       -19716170.826983094        886142327.91833115     
  -1853941892.2404265       -25391533.489303112        888302812.72566581     
  -2564239728.3904138       -7606947.1592826843        783193984.01421201     
  -2436667119.5657787       -8360494.4579111338        773872939.34302652     
  -2309637796.7439923       -10924995.099364877        767646171.05318475     
  -2183151759.9250631       -15300449.083674073        764513679.14469278     
  -2057209009.1089756       -21486856.410804510        764475463.61754477     
  -2803750906.5992832       -5762951.8210980892        666355198.67969334     
  -2668133698.7369919       -5543033.7691928148        655314892.80898404     
  -2533227517.4939518       -7693204.4481465816        647143817.81270027     
  -2399032362.8701897       -12213463.858018398        641841973.69083917     
  -2265548234.8656912       -19103811.998762488        639409360.44339669     
  -1462623985.1678095       -37765785.645637989        1132241248.7437885     
  -1356885632.2656476       -41455407.083715916        1125295129.0056870     
  -1251332021.7904115       -45760836.611554086        1122257563.8936667     
  -1145963153.7421145       -50682074.229180396        1123128553.4077311     
  -1040779028.1207449       -56219119.936576724        1127908097.5478728     
  -1655746884.2600377       -30817843.234249771        1010891407.7677428     
  -1540025862.7212005       -34459407.615557432        1001985296.5217025     
  -1424308913.0351617       -38114544.839531302        996838516.43392158     
  -1308596035.2019169       -41783254.906144917        995451067.50440288     
  -1192887229.2214618       -45465537.815398872        997822949.73314583     
  -1853941892.2404265       -25391533.489303112        888302812.72566581     
  -1728664554.8301260       -29112946.643434048        877647492.30818033     
  -1603210618.6984754       -32245697.393069923        870602279.58113396     
  -1477580083.8454781       -34789785.738230228        867167174.54452670     
  -1351772950.2711411       -36745211.678903043        867342177.19836342     
  -2057209009.1089756       -21486856.410804510        764475463.61754477     
  -1922801708.5924048       -25416024.167298436        752281716.36511517     
  -1788037138.7803559       -28154294.272199035        743548853.33529902     
  -1652915299.6728177       -29701666.725462437        738276874.52810526     
  -1517436191.2697835       -30058141.527096272        736465779.94353116     
  -2265548234.8656912       -19103811.998762488        639409360.44339669     
  -2122437324.0080583       -23368640.187195182        625887968.69251180     
  -1978788473.2807908       -25840335.476859450        615678237.69642603     
  -1834601682.6839097       -26518897.867796659        608780167.45513678     
  -1689876952.2173979       -25404327.359981000        605193757.96864390     
  -1040779028.1207449       -56219119.936576724        1127908097.5478728     
  -923726633.76667118       -54975001.382180303        1125226934.4220250     
  -804365969.30962563       -46036649.151206255        1128456525.3044708     
  -682697034.74960911       -29404063.243665189        1137596870.1952124     
  -558719830.08661568       -5077243.6595340371        1152647969.0942440     
  -1192887229.2214618       -45465537.815398872        997822949.73314583     
  -1062308301.3878878       -42490661.787433863        994055239.30338442     
  -930277308.92265964       -34675570.320605934        994382395.04796982     
  -796794251.82576609       -22020263.414896011        998804416.96689975     
  -661859130.09721732       -4524741.0703345239        1007321305.0601667     
  -1351772950.2711411       -36745211.678903043        867342177.19836342     
  -1212855739.9122214       -33596053.463624120        861489013.08149838     
  -1073342670.3929505       -28460698.047188461        857914827.30502689     
  -933233741.71332717       -21339145.429574490        856619619.86894548     
  -792528953.87335348       -12231395.610785365        857603390.77326047     
  -1517436191.2697835       -30058141.527096272        736465779.94353116     
  -1375368949.3396599       -28291176.410751641        727528255.75636053     
  -1233562053.7204962       -27392032.330934465        719053822.07563782     
  -1092015504.4122910       -27360709.287650526        711042478.90135503     
  -950729301.41504896       -28197207.280909002        703494226.23350406     
  -1689876952.2173979       -25404327.359981000        605193757.96864390     
  -1549847929.6702116       -26576030.628803134        592172967.32798028     
  -1410935458.9053035       -31469573.171880841        577799379.35980320     
  -1273139539.9226556       -40084954.989167333        562072994.06412458     
  -1136460172.7222834       -52422176.080694318        544993811.44092858     
  -558719830.08661568       -5077243.6595340371        1152647969.0942440     
  -462142905.44319814        32753208.771646082        1162046282.9029467     
  -353550921.10959220        110633860.17012088        1178975783.1694686     
  -232943877.08581859        228564710.53581882        1203436469.8938053     
  -100321773.37186244        386545759.86879712        1235428343.0759573     
  -661859130.09721732       -4524741.0703345239        1007321305.0601667     
  -546869521.89695919        25690657.203720093        1020868623.0536326     
  -420999980.53410745        92172499.353096962        1042805677.5154201     
  -284250506.00866157        194920785.37778419        1073132468.4455220     
  -136621098.32060432        333935515.27783978        1111848995.8439550     
  -792528953.87335348       -12231395.610785365        857603390.77326047     
  -656673662.08626211        11104848.515113264        873975398.66931343     
  -511073563.66414762        66923781.424423069        899595693.04418778     
  -355728658.60701799        155225403.11711568        934464273.89788413     
  -190638946.91486239        276009713.59324080        978581141.23040020     
  -950729301.41504896       -28197207.280909002        703494226.23350406     
  -791555326.01110625       -11004217.294143468        721366609.74997866     
  -623771670.49973118        34887706.384079069        749345829.75577331     
  -447378334.88090718        109478563.75378397        787431886.25088906     
  -262375319.15464181        212768354.81497216        835624779.23533559     
  -1136460172.7222834       -52422176.080694318        544993811.44092858     
  -951514513.67149031       -40636540.224072158        563042256.29563594     
  -759094301.04084146       -3935725.7679196000        592056087.65017104     
  -559199534.83032513        57680267.287782758        632035305.50453019     
  -351830215.03993744        144211438.94306192        682979909.85871720     
  -100321773.37186244        386545759.86879712        1235428343.0759573     
  -85392798.744553715        546506699.12460518        1196798997.6576469     
  -57893502.280696332        748368711.16890299        1154822267.4976699     
  -17823883.980301619        992131796.00165319        1109498152.5960088     
   34816056.156619668        1277795953.6228421        1060826652.9526809     
  -136621098.32060432        333935515.27783978        1111848995.8439550     
  -127441308.21122724        482997380.33177495        1090237211.2473772     
  -95131327.905669302        709159879.37296033        1070065532.7329671     
  -39691157.403922439        1012423012.4014615        1051333960.3007249     
   38879203.294011176        1392786779.4172213        1034042493.9506299     
  -190638946.91486239        276009713.59324080        978581141.23040020     
  -173529796.11247116        418276068.00854045        986306763.87516272     
  -122730586.75424027        672842617.60996664        1000259983.4259158     
  -38241318.840174794        1039709362.3974875        1020440799.8826575     
   79938007.629705548        1518876302.3711050        1046849213.2454103     
  -262375319.15464181        212768354.81497216        835624779.23533559     
  -223658262.44828242        352342762.15493238        885007655.54100263     
  -140691278.82643110        639416925.87985945        945405619.57650638     
  -13474368.289100945        1073990845.9897077        1016818671.3418347     
   157992469.16369468        1656064522.4844635        1099246810.8369920     
  -351830215.03993744        144211438.94306192        682979909.85871720     
  -277826707.21865219        285197462.77098340        786339886.24490225     
  -149013404.12222570        608882804.18268120        905502441.18474507     
   34609694.249327779        1115267463.1781468        1040467574.6782417     
   273042587.89599460        1804351439.7573285        1191235286.7254193     
  -4380477952.9007368        26256579.288034439        658757234.09167171     
  -4276643172.2363439        20990966.228938103        685288955.93872142     
  -4173019176.5968680        15022736.420119762        701820995.55287790     
  -4069605965.9823141        8351889.8615441322        708353352.93413889     
  -3966403540.3926854        978426.55323004723        704886028.08250582     
  -4694101196.0977468        63039865.914824963        527227909.19737357     
  -4603032703.7615204        27583707.585905313        513643776.34446472     
  -4509024342.5393925        1927112.2100019455        507206152.84196877     
  -4412076112.4313574       -13929920.212878942        507915038.68989146     
  -4312188013.4374151       -19987389.682741642        515770433.88823217     
  -5151384199.5153017        56725224.475453615        383721987.94302118     
  -5024092876.6977901        5775256.5195362568        333697763.28611648     
  -4890711031.0835381       -24872968.780587912        307966239.56293964     
  -4751238662.6725550       -35219451.424944639        306527416.77349287     
  -4605675771.4648361       -25264191.413516998        329381294.91777158     
  -5752326963.1533957        7312654.9699211121        228239470.32862219     
  -5539823691.0451307       -44434386.970143318        145450916.76368949     
  -5318079242.2293043       -65377506.551672935        104101255.71579374     
  -5087093616.7059135       -55516703.774655581        104190487.18493541     
  -4846866814.4749622       -14851978.639105797        145718611.17112079     
  -6496929487.0120382       -85197842.601778746        60780356.354164571     
  -6150225146.8035631       -123045222.88315678       -51096763.222828999     
  -5791128975.9766941       -119586501.10324168       -104388798.69947635     
  -5419640974.5314407       -74821677.262036085       -99095750.075769126     
  -5035761142.4677896        11249248.640495062       -35217617.351714402     
  -3966403540.3926854        978426.55323004723        704886028.08250582     
  -3819187052.8170609        5088235.8756444454        684103890.27777159     
  -3672894469.8638139        6118363.1234724522        671134615.43930268     
  -3527525791.5329318        4068808.2967412472        665978203.56709516     
  -3383081017.8244314       -1060428.6045873165        668634654.66114664     
  -4312188013.4374151       -19987389.682741642        515770433.88823217     
  -4147834688.9244013       -5074025.6040537357        509197352.57166845     
  -3985345673.3679595        3624975.2860743999        505500462.52769226     
  -3824720966.7680855        6109612.9876348972        504679763.75630480     
  -3665960569.1247807        2379887.5006401539        506735256.25750905     
  -4605675771.4648361       -25264191.413516998        329381294.91777158     
  -4438290386.2820807       -3778705.4588491917        335920131.69948262     
  -4273709714.3900824        8357736.1932773590        340398488.06010979     
  -4111933755.7888551        11145133.542850733        342816363.99965113     
  -3952962510.4783802        4583486.5898993015        343173759.51810420     
  -4846866814.4749622       -14851978.639105797        145718611.17112079     
  -4690554144.8901024        8974196.3112320900        164272227.66121504     
  -4537986592.9301891        20316645.845083237        175828692.03655332     
  -4389164158.5952396        19175369.962381840        180388004.29712594     
  -4244086841.8852410        5550368.6631782055        177950164.44294623     
  -5035761142.4677896        11249248.640495062       -35217617.351714402     
  -4904625964.7484579        33184679.706242800       -5746359.5431299470     
  -4778176308.9882708        39501704.241489649        11791074.457021629     
  -4656412175.1872406        30200322.246233702        17394684.648741290     
  -4539333563.3453541        5280533.7204782963        11064471.032028712     
  -3383081017.8244314       -1060428.6045873165        668634654.66114664     
  -3239543732.2408381       -6553533.4843657017        662175270.14569628     
  -3095142951.8421211       -9168322.3137234449        659642232.64364064     
  -2949878676.6282625       -8904795.0926133394        661035542.15496993     
  -2803750906.5992832       -5762951.8210980892        666355198.67969334     
  -3665960569.1247807        2379887.5006401539        506735256.25750905     
  -3512154638.8224916       -4296928.5909016132        500022140.79992169     
  -3357447531.6969900       -7969821.9383995533        497554799.93065637     
  -3201839247.7482696       -8638792.5418292284        499333233.64971155     
  -3045329786.9763250       -6303840.4011983871        505357441.95708871     
  -3952962510.4783802        4583486.5898993015        343173759.51810420     
  -3787975285.2433128       -3003245.6491947174        336250875.46114981     
  -3622049201.1769328       -7460448.4505949020        333893193.56744915     
  -3455184258.2792587       -8788121.8143362999        336100713.83700079     
  -3287380456.5502701       -6986265.7403712273        342873436.26980752     
  -4244086841.8852410        5550368.6631782055        177950164.44294623     
  -4067005671.5032949       -2672484.6592242718        170861474.12939167     
  -3888947960.2819552       -7640201.8503186703        168657413.55402297     
  -3709913708.2212234       -9352782.9101045132        171337982.71683365     
  -3529902915.3211036       -7810227.8385961056        178903181.61782649     
  -4539333563.3453541        5280533.7204782963        11064471.032028712     
  -4349245797.6024418       -3304645.6210165024        3853936.8046426494     
  -4158143809.0120497       -8509082.1375610828        1847459.8903675745     
  -3966027597.5741892       -10332775.829215527        5045040.2892074902     
  -3772897163.2888403       -8775726.6959192753        13446678.001169601     
  -2803750906.5992832       -5762951.8210980892        666355198.67969334     
  -2668133698.7369919       -5543033.7691928148        655314892.80898404     
  -2533227517.4939518       -7693204.4481465816        647143817.81270027     
  -2399032362.8701897       -12213463.858018398        641841973.69083917     
  -2265548234.8656912       -19103811.998762488        639409360.44339669     
  -3045329786.9763250       -6303840.4011983871        505357441.95708871     
  -2901318851.3602867       -6881719.1531643867        493984555.23457742     
  -2757657404.6636152       -8624560.9697251320        486383258.24911380     
  -2614345446.8863192       -11532365.850848794        482553551.00069666     
  -2471382978.0283990       -15605133.796562433        482495433.48933232     
  -3287380456.5502701       -6986265.7403712273        342873436.26980752     
  -3132397625.0015497       -7588490.8425548077        331589762.67869514     
  -2977402744.6723089       -8150553.3430052996        324980037.68725669     
  -2822395815.5625477       -8672453.2417284250        323044261.29549640     
  -2667376837.6722660       -9154190.5387101173        325782433.50341427     
  -3529902915.3211036       -7810227.8385961056        178903181.61782649     
  -3361370019.6607704       -7663348.8373181820        168130515.14133272     
  -3192463537.5200195       -6271181.5679779053        162934156.12712970     
  -3023183468.8988643       -3633726.0306314230        163314104.57523933     
  -2853529813.7972898        249017.77479529381        169270360.48564944     
  -3772897163.2888403       -8775726.6959192753        13446678.001169601     
  -3588236035.3379436       -7106293.1374409199        3606812.6224851296     
  -3402839783.2067676       -2986445.6446881294        245613.56874111327     
  -3216708406.8952765        3583815.7824485302        3363080.8399212193     
  -3029841906.4034719        12604491.143953323        12959214.436030891     
  -2265548234.8656912       -19103811.998762488        639409360.44339669     
  -2122437324.0080583       -23368640.187195182        625887968.69251180     
  -1978788473.2807908       -25840335.476859450        615678237.69642603     
  -1834601682.6839097       -26518897.867796659        608780167.45513678     
  -1689876952.2173979       -25404327.359981000        605193757.96864390     
  -2471382978.0283990       -15605133.796562433        482495433.48933232     
  -2320169528.5505815       -17420254.164831281        472374349.18789929     
  -2168750093.4117622       -18548755.663099170        464609008.95792949     
  -2017124672.6119351       -18990638.291347980        459199412.79941589     
  -1865293266.1511106       -18745902.049586535        456145560.71235782     
  -2667376837.6722660       -9154190.5387101173        325782433.50341427     
  -2510792040.0980983       -9338960.2439687252        318674376.74138403     
  -2354333211.0715442       -9943625.1079428196        312966147.36746329     
  -2198000350.5926151       -10968185.130659461        308657745.38167083     
  -2041793458.6613019       -12412640.312105298        305749170.78398508     
  -2853529813.7972898        249017.77479529381        169270360.48564944     
  -2694304858.6506076        875241.57539427280        164788051.35295561     
  -2535537826.2601614       -24943.811453342438        160749652.92503893     
  -2377228716.6259675       -2451538.3858139515        157155165.20188230     
  -2219377529.7480016       -6404542.1475950480        154004588.18350899     
  -3029841906.4034719        12604491.143953323        12959214.436030891     
  -2870707984.2081041        13222351.293281078        10715373.022613255     
  -2712363938.9776068        11207288.226374507        7959525.6306246137     
  -2554809770.7119741        6559301.9432569742        4691672.2600784171     
  -2398045479.4111915       -721607.55603861809        911812.91095481056     
  -1689876952.2173979       -25404327.359981000        605193757.96864390     
  -1549847929.6702116       -26576030.628803134        592172967.32798028     
  -1410935458.9053035       -31469573.171880841        577799379.35980320     
  -1273139539.9226556       -40084954.989167333        562072994.06412458     
  -1136460172.7222834       -52422176.080694318        544993811.44092858     
  -1865293266.1511106       -18745902.049586535        456145560.71235782     
  -1728344284.7373288       -22683112.542207360        442569957.34275073     
  -1591414840.1187944       -26685445.685661614        428616082.86506248     
  -1454504932.2955122       -30752901.479949415        414283937.27930021     
  -1317614561.2674780       -34885479.925069988        399573520.58546197     
  -2041793458.6613019       -12412640.312105298        305749170.78398508     
  -1905140157.7539799       -18280049.840470076        292898605.50362009     
  -1767409378.6548793       -20555865.396226645        280644295.33461517     
  -1628601121.3640053       -19240086.979415774        268986240.27696663     
  -1488715385.8813622       -14332714.590032518        257924440.33066955     
  -2219377529.7480016       -6404542.1475950480        154004588.18350899     
  -2080235548.7201834       -13366842.523585916        143158911.81058985     
  -1938919074.5135598       -13080832.303577304        133884016.76846026     
  -1795428107.1281481       -5546511.4875904322        126179903.05711712     
  -1649762646.5639331        9236119.9243922234        120046570.67656310     
  -2398045479.4111915       -721607.55603861809        911812.91095481056     
  -2253630457.6359277       -7943490.5915840864       -6649123.7363314619     
  -2105943927.6948323       -4260346.4076921940       -11664752.833391044     
  -1954985889.5879321        10327824.995554209       -14135074.380243473     
  -1800756343.3152142        35821023.618184090       -14060088.376868570     
  -1136460172.7222834       -52422176.080694318        544993811.44092858     
  -951514513.67149031       -40636540.224072158        563042256.29563594     
  -759094301.04084146       -3935725.7679196000        592056087.65017104     
  -559199534.83032513        57680267.287782758        632035305.50453019     
  -351830215.03993744        144211438.94306192        682979909.85871720     
  -1317614561.2674780       -34885479.925069988        399573520.58546197     
  -1117862053.2615366       -14742483.133549035        421360946.27278203     
  -914518403.53073370        17370986.074160695        441644247.51772577     
  -707583612.07506812        61454927.698077708        460423424.32029545     
  -497057678.89453852        117509341.73822752        477698476.68048048     
  -1488715385.8813622       -14332714.590032518        257924440.33066955     
  -1309783203.0408533        3479490.9001880884        278920199.68644387     
  -1131143290.3304946        20317462.623261988        285942323.65762752     
  -952795647.75025594        36181200.579252899        278990812.24423492     
  -774740275.30016005        51070704.768113583        258065665.44626054     
  -1649762646.5639331        9236119.9243922234        120046570.67656310     
  -1527277963.0094585        14029381.877124429        135720016.53661606     
  -1408968961.4400990        4903703.8794628382        124950316.06987081     
  -1294835641.8558972       -18140914.068721414        87737469.276346505     
  -1184878004.2568133       -55104471.967296481        24081476.156039219     
  -1800756343.3152142        35821023.618184090       -14060088.376868570     
  -1770346333.1673226        16907189.797322989       -8239603.1767030852     
  -1747995416.8595824       -28870290.157353520       -41331775.245534010     
  -1733703594.3919649       -101511416.24578875       -113336604.58334695     
  -1727470865.7644961       -201016188.46804219       -224254091.19017744     
  -351830215.03993744        144211438.94306192        682979909.85871720     
  -277826707.21865219        285197462.77098340        786339886.24490225     
  -149013404.12222570        608882804.18268120        905502441.18474507     
   34609694.249327779        1115267463.1781468        1040467574.6782417     
   273042587.89599460        1804351439.7573285        1191235286.7254193     
  -497057678.89453852        117509341.73822752        477698476.68048048     
  -388252572.02137643        223036252.00078288        597015694.19218826     
  -230298775.58871546        492392127.46167576        735483666.32060301     
  -23196289.596561551        925576968.12087870        893102393.06571770     
   233054885.95508215        1522590773.9783947        1069871874.4275458     
  -774740275.30016005        51070704.768113583        258065665.44626054     
  -621567352.05215001        124008366.66220081        386735500.74858814     
  -424906844.96028399        341904641.36912847        537904266.73066735     
  -184758754.02454534        704759528.88899279        711571963.39249301     
   98876920.755068243        1212573029.2217307        907738590.73407090     
  -1184878004.2568133       -55104471.967296481        24081476.156039219     
  -977771047.31098115       -11886193.244841814        155499305.91408527     
  -732837612.23691285        157420345.90507886        312764242.41493016     
  -450077699.03460169        452815145.48249316        495876285.65857846     
  -129491307.70405495        874298205.48731387        704835435.64500105     
  -1727470865.7644961       -201016188.46804219       -224254091.19017744     
  -1456863657.7978442       -184647427.72024077       -96692890.311292142     
  -1154091077.4186213       -61060758.930514634        60063593.373418294     
  -819153124.62675118        169743817.90136403        246015359.86397022     
  -452049799.42228925        507766302.77520359        461162409.16035813     
 </DataArray>
 <DataArray  type="Float64" Name="VM" NumberOfComponents="1" format="ascii">
   6455610815.5012026     
   6090278075.4906244     
   5735122175.6714649     
   5385356071.1561241     
   5041764193.6102037     
   5769546225.8924170     
   5523488952.3203363     
   5288768238.1683426     
   5062781038.5595751     
   4846034943.4607086     
   5222443637.3038387     
   5060100810.5345097     
   4907398078.1362677     
   4763407421.0367918     
   4628391193.4654655     
   4813354601.8989086     
   4701821861.1820679     
   4594754344.7759619     
   4492113387.0661268     
   4393999661.5004787     
   4539402504.4902725     
   4448454838.8690615     
   4353695280.9190216     
   4254532244.3802595     
   4150521873.3701792     
   5041764193.6102037     
   4921312279.9418087     
   4798092577.5623684     
   4671682697.1160192     
   4542016554.0344229     
   4846034943.4607086     
   4703661207.1752434     
   4558363620.9381418     
   4409865416.5225992     
   4258034626.2069097     
   4628391193.4654655     
   4474392901.3411856     
   4318332603.7312918     
   4160110648.2441950     
   3999669559.4615264     
   4393999661.5004787     
   4238084233.5073519     
   4082160236.2150536     
   3926321474.7055550     
   3770721275.4932599     
   4150521873.3701792     
   4001205191.0838547     
   3855376550.0488753     
   3713271937.0944648     
   3575313644.0999603     
   4542016554.0344229     
   4347599527.6819897     
   4153897018.5648432     
   3960880934.0230827     
   3768588905.6675191     
   4258034626.2069097     
   4076426634.7685537     
   3896100376.7091923     
   3717111675.3543358     
   3539593932.9676809     
   3999669559.4615264     
   3831002931.0897980     
   3664249980.0869379     
   3499557394.3992381     
   3337160340.3699269     
   3770721275.4932599     
   3615276418.8658252     
   3462432889.4797258     
   3312429654.9205203     
   3165601750.4706855     
   3575313644.0999603     
   3433494478.9085770     
   3294996253.9430346     
   3160142310.4936495     
   3029353439.8416791     
   3768588905.6675191     
   3584693596.8963332     
   3401347560.6847110     
   3218507081.6404533     
   3036246751.9126768     
   3539593932.9676809     
   3370150048.5923100     
   3201794004.9427643     
   3034580789.9472766     
   2868675728.6333122     
   3337160340.3699269     
   3180889437.8100820     
   3026146418.3983736     
   2873080064.8803072     
   2721941939.1498399     
   3165601750.4706855     
   3021555001.6143198     
   2879352567.7930613     
   2739226046.5268617     
   2601502763.2706232     
   3029353439.8416791     
   2896979713.4220781     
   2766622054.1298790     
   2638576951.2932286     
   2513230223.5465240     
   3036246751.9126768     
   2877401808.3161449     
   2718019881.4819741     
   2558108639.7881246     
   2397685279.6576633     
   2868675728.6333122     
   2709816032.8473215     
   2550766588.2449360     
   2391545056.0221901     
   2232177362.1329904     
   2721941939.1498399     
   2566198702.9973550     
   2411102769.8330307     
   2256773486.9077339     
   2103373054.0802684     
   2601502763.2706232     
   2452036856.4736538     
   2304599313.7695308     
   2159499569.9172106     
   2017153952.6319058     
   2513230223.5465240     
   2372950708.4331584     
   2236586250.8336258     
   2104674519.3919039     
   1977922580.9466546     
   2397685279.6576633     
   2249698710.4905357     
   2103914003.1231055     
   1960323098.3360202     
   1819094431.1758564     
   2232177362.1329904     
   2088357212.8615639     
   1946276033.4224787     
   1805934271.2843766     
   1667415077.2128916     
   2103373054.0802684     
   1962762311.5165436     
   1823214600.5646288     
   1684766498.5313916     
   1547487203.3920708     
   2017153952.6319058     
   1880449081.2257867     
   1744127552.7262564     
   1608320126.0820045     
   1473206199.4793854     
   1977922580.9466546     
   1847580183.8515182     
   1717231499.2541075     
   1587209971.8895981     
   1458001664.6292999     
   1819094431.1758564     
   1778917437.1322992     
   1735217935.3649561     
   1696637135.8790452     
   1681720304.3634913     
   1667415077.2128916     
   1552243967.4933569     
   1427923139.2206500     
   1294809839.3865438     
   1159059991.0744774     
   1547487203.3920708     
   1397673408.8088293     
   1244254371.5309024     
   1084946789.2537572     
   917709597.48679328     
   1473206199.4793854     
   1328904807.9613745     
   1199033223.5898008     
   1088073969.9554586     
   1001933732.9001135     
   1458001664.6292999     
   1348856806.8186297     
   1274693410.9498093     
   1243660642.0050697     
   1262815921.4579713     
   1681720304.3634913     
   1384047978.7894111     
   1129605178.8001072     
   1010169122.7320014     
   1153136417.9437056     
   1159059991.0744774     
   1008511590.8911688     
   985220835.92582560     
   1161504783.5485418     
   1544266279.9500690     
   917709597.48679328     
   963066270.99311852     
   1144877824.6325538     
   1476494585.3200855     
   1957596116.9373603     
   1001933732.9001135     
   1164629917.3598678     
   1425374865.4287131     
   1808755482.7653046     
   2334872054.0955296     
   1262815921.4579713     
   1446634713.0516672     
   1715657009.8101110     
   2110483025.4685242     
   2663587075.9925723     
   4539402504.4902725     
   4448454838.8690615     
   4353695280.9190216     
   4254532244.3802595     
   4150521873.3701792     
   4326081754.8520966     
   4216724507.1433396     
   4105069596.2937899     
   3990833587.5122304     
   3873757918.2056155     
   4098658545.3703251     
   3981026422.4415617     
   3863629741.1532469     
   3746516561.2252617     
   3629743744.7889714     
   3862826311.9536538     
   3746334370.3668203     
   3633734994.8933134     
   3525393870.6928658     
   3421765448.7483292     
   3626797984.2197471     
   3519465583.0577607     
   3420960859.9595842     
   3331857128.2425919     
   3252959861.9102712     
   4150521873.3701792     
   4001205191.0838547     
   3855376550.0488753     
   3713271937.0944648     
   3575313644.0999603     
   3873757918.2056155     
   3745558382.0288787     
   3621384958.0883827     
   3501563478.3097296     
   3386571604.7874155     
   3629743744.7889714     
   3521150245.4544182     
   3416959818.9464602     
   3317539548.5270877     
   3223368341.4676366     
   3421765448.7483292     
   3331364718.0168700     
   3245510920.7899857     
   3164562207.8038802     
   3088948214.2218313     
   3252959861.9102712     
   3179417103.9149594     
   3110264027.3345690     
   3045804228.2247982     
   2986378098.5213251     
   3575313644.0999603     
   3433494478.9085770     
   3294996253.9430346     
   3160142310.4936495     
   3029353439.8416791     
   3386571604.7874155     
   3257907356.3364697     
   3133233708.6169376     
   3012958921.4828649     
   2897594810.9532275     
   3223368341.4676366     
   3108973352.2979035     
   2999347573.1339512     
   2894974196.5584426     
   2796439306.1042571     
   3088948214.2218313     
   2989874437.5258236     
   2896414745.8995676     
   2809101841.8119092     
   2728561620.0150185     
   2986378098.5213251     
   2903465476.9549360     
   2827014221.5913501     
   2757567303.1363559     
   2695743155.7843232     
   3029353439.8416791     
   2896979713.4220781     
   2766622054.1298790     
   2638576951.2932286     
   2513230223.5465240     
   2897594810.9532275     
   2777351761.9189191     
   2660292329.6823125     
   2546846289.9442534     
   2437547098.7123489     
   2796439306.1042571     
   2689976348.0693727     
   2587970619.6273079     
   2490955846.5050206     
   2399565902.1124439     
   2728561620.0150185     
   2637101446.7332716     
   2551356190.2279615     
   2471904107.5624433     
   2399401020.8172789     
   2695743155.7843232     
   2619861426.1707621     
   2550808982.9930043     
   2489136764.3301344     
   2435440158.2230129     
   2513230223.5465240     
   2372950708.4331584     
   2236586250.8336258     
   2104674519.3919039     
   1977922580.9466546     
   2437547098.7123489     
   2312298803.7253194     
   2192287215.7492695     
   2078238449.4107401     
   1971053090.6564608     
   2399565902.1124439     
   2291200024.5928130     
   2189400010.9877539     
   2094990512.6726053     
   2008934162.8309321     
   2399401020.8172789     
   2309052257.6842685     
   2226405799.1648121     
   2152268683.4700184     
   2087525734.3077581     
   2435440158.2230129     
   2363360804.1758051     
   2299793464.6543865     
   2245433955.8698449     
   2200999749.8420830     
   1977922580.9466546     
   1847580183.8515182     
   1717231499.2541075     
   1587209971.8895981     
   1458001664.6292999     
   1971053090.6564608     
   1855106843.9285345     
   1743488192.0515900     
   1637104872.2519443     
   1537070508.9039490     
   2008934162.8309321     
   1912561244.8207080     
   1824932863.5229552     
   1747242877.7260737     
   1680776229.4840910     
   2087525734.3077581     
   2012362700.5380535     
   1949551075.9869652     
   1900171342.1396134     
   1865253833.4719307     
   2200999749.8420830     
   2145674302.7192461     
   2105311388.6187718     
   2080683944.0979419     
   2072474095.6798747     
   1458001664.6292999     
   1348856806.8186297     
   1274693410.9498093     
   1243660642.0050697     
   1262815921.4579713     
   1537070508.9039490     
   1476170665.2041802     
   1447973662.1624486     
   1456453978.7011709     
   1504906196.1790226     
   1680776229.4840910     
   1652311975.2021909     
   1651573547.6298149     
   1680930207.5872054     
   1742987641.6499853     
   1865253833.4719307     
   1854802940.6456475     
   1867316901.3032951     
   1905003589.0348470     
   1970894582.5305834     
   2072474095.6798747     
   2069019134.7375438     
   2084779242.7601740     
   2122386729.9616733     
   2185660222.3167510     
   1262815921.4579713     
   1446634713.0516672     
   1715657009.8101110     
   2110483025.4685242     
   2663587075.9925723     
   1504906196.1790226     
   1613284990.3616512     
   1788849848.8290734     
   2066366345.7237422     
   2476064670.6969261     
   1742987641.6499853     
   1787751077.6627247     
   1884653404.8525105     
   2060610611.3599491     
   2340862915.1675496     
   1970894582.5305834     
   1968992915.8237112     
   2003632141.0518796     
   2093482570.4632423     
   2257199105.8141065     
   2185660222.3167510     
   2156296073.8773417     
   2146526607.7480795     
   2166860698.0109138     
   2228350601.7710900     
   3626797984.2197471     
   3519465583.0577607     
   3420960859.9595842     
   3331857128.2425919     
   3252959861.9102712     
   3379587861.6754375     
   3297406570.2654824     
   3223730916.9052043     
   3159036962.7620082     
   3103941258.5103798     
   3177037647.3450651     
   3116739182.4748349     
   3064153637.5322723     
   3019633963.8077340     
   2983603798.2955985     
   3023667136.1733851     
   2982114448.6780944     
   2946958723.0724435     
   2918426550.8883529     
   2896770761.1592803     
   2922743680.1957626     
   2897050998.6256585     
   2875919502.5736656     
   2859466589.9430304     
   2847814285.3768678     
   3252959861.9102712     
   3179417103.9149594     
   3110264027.3345690     
   3045804228.2247982     
   2986378098.5213251     
   3103941258.5103798     
   3040268071.3849554     
   2981731876.2054653     
   2928633663.1869402     
   2881306522.5879650     
   2983603798.2955985     
   2929721634.4921908     
   2881750701.9279847     
   2839967292.0331039     
   2804672651.4057660     
   2896770761.1592803     
   2852099086.9460726     
   2814109025.9352527     
   2783030550.8121328     
   2759110681.3281412     
   2847814285.3768678     
   2811165878.7080646     
   2781940483.9711461     
   2760306450.1213622     
   2746442398.4290380     
   2986378098.5213251     
   2903465476.9549360     
   2827014221.5913501     
   2757567303.1363559     
   2695743155.7843232     
   2881306522.5879650     
   2812461595.3102460     
   2750782886.3274913     
   2696755927.6329832     
   2650917284.9782019     
   2804672651.4057660     
   2749113428.6666188     
   2701304836.6018953     
   2661646099.3773479     
   2630565290.2965026     
   2759110681.3281412     
   2715517116.7255683     
   2680120742.6637812     
   2653218715.7881403     
   2635120686.1629362     
   2746442398.4290380     
   2712948204.0185747     
   2687967804.3465667     
   2671696676.7135863     
   2664333404.0554934     
   2695743155.7843232     
   2619861426.1707621     
   2550808982.9930043     
   2489136764.3301344     
   2435440158.2230129     
   2650917284.9782019     
   2588378007.2381740     
   2533594850.9744749     
   2487066035.1785650     
   2449312068.8101645     
   2630565290.2965026     
   2580948726.1270823     
   2539889531.0666652     
   2507797605.9981055     
   2485087073.4731956     
   2635120686.1629362     
   2597375331.2851024     
   2568864157.4808726     
   2549891225.7666039     
   2540754560.2541361     
   2664333404.0554934     
   2636821589.7590871     
   2619131779.9472728     
   2611463442.4828486     
   2614007529.9366121     
   2435440158.2230129     
   2363360804.1758051     
   2299793464.6543865     
   2245433955.8698449     
   2200999749.8420830     
   2449312068.8101645     
   2393137752.3853350     
   2346285735.3996611     
   2309310724.9713035     
   2282752808.7867436     
   2485087073.4731956     
   2443625268.4483056     
   2412034521.1472030     
   2390713611.2271214     
   2380029434.5388741     
   2540754560.2541361     
   2512266034.2766075     
   2494008644.2624273     
   2486239500.3446712     
   2489182504.9434657     
   2614007529.9366121     
   2596382881.2786837     
   2589255583.5212979     
   2592770753.8598166     
   2607048382.0123491     
   2200999749.8420830     
   2145674302.7192461     
   2105311388.6187718     
   2080683944.0979419     
   2072474095.6798747     
   2282752808.7867436     
   2242191266.6013832     
   2215576625.1554551     
   2203362599.8169007     
   2205939463.2903938     
   2380029434.5388741     
   2351277808.5709987     
   2335433002.7262259     
   2332747599.9901185     
   2343444067.0436506     
   2489182504.9434657     
   2469576297.1024656     
   2461929550.0668516     
   2466379869.7790771     
   2483062460.4740238     
   2607048382.0123491     
   2594286849.9514737     
   2592691371.3399539     
   2602341690.1459627     
   2623334371.1298447     
   2072474095.6798747     
   2069019134.7375438     
   2084779242.7601740     
   2122386729.9616733     
   2185660222.3167510     
   2205939463.2903938     
   2191614607.8946471     
   2192266985.2619748     
   2209866826.0261259     
   2247337965.0937676     
   2343444067.0436506     
   2319076367.3674846     
   2306231200.3529429     
   2306314814.7332754     
   2321417356.4918542     
   2483062460.4740238     
   2450431527.5433497     
   2426353606.3232961     
   2411774235.5152779     
   2408070082.1232381     
   2623334371.1298447     
   2584900342.8862944     
   2552350711.3923631     
   2526266360.4834809     
   2507454444.8665547     
   2185660222.3167510     
   2156296073.8773417     
   2146526607.7480795     
   2166860698.0109138     
   2228350601.7710900     
   2247337965.0937676     
   2182639407.7838979     
   2134380164.2828960     
   2112216961.7737424     
   2127069921.0791602     
   2321417356.4918542     
   2224710052.4950638     
   2141336192.3340578     
   2079655814.1884232     
   2049832157.3902140     
   2408070082.1232381     
   2282802274.2555523     
   2168041756.2796936     
   2070527803.2317655     
   1999026837.9602115     
   2507454444.8665547     
   2357125661.0107880     
   2214967551.3613200     
   2085963538.5598598     
   1976994223.4095063     
   2922743680.1957626     
   2897050998.6256585     
   2875919502.5736656     
   2859466589.9430304     
   2847814285.3768678     
   2776524412.9889512     
   2756341362.9665918     
   2742218746.9605823     
   2734258525.2074537     
   2732565537.8667173     
   2669905562.0393491     
   2654224940.6964831     
   2646134221.2507782     
   2645698018.9805212     
   2652982058.6043825     
   2610036046.6824784     
   2596639587.2915154     
   2592358417.5881534     
   2597213965.5234327     
   2611227859.6078205     
   2602482252.3948174     
   2587963199.1356659     
   2584049232.3846226     
   2590740352.1416745     
   2608036558.4068356     
   2847814285.3768678     
   2811165878.7080646     
   2781940483.9711461     
   2760306450.1213622     
   2746442398.4290380     
   2732565537.8667173     
   2706420573.1150556     
   2688009634.7995234     
   2677440301.0043030     
   2674824006.1038947     
   2652982058.6043825     
   2635475354.4841566     
   2625927245.3553534     
   2624390086.6228385     
   2630916961.5388737     
   2611227859.6078205     
   2599970987.3534384     
   2596828903.5078707     
   2601815438.6558676     
   2614944379.9090042     
   2608036558.4068356     
   2600250037.9419360     
   2600693492.0115762     
   2609366920.6157598     
   2626270323.7544904     
   2746442398.4290380     
   2712948204.0185747     
   2687967804.3465667     
   2671696676.7135863     
   2664333404.0554934     
   2674824006.1038947     
   2652256558.6632161     
   2638295143.4912248     
   2633055587.5787091     
   2636652494.2205906     
   2630916961.5388737     
   2617169551.2769132     
   2612052445.3965659     
   2615618387.3779249     
   2627918386.6709495     
   2614944379.9090042     
   2607572290.4491053     
   2608826765.3225999     
   2618721008.7941003     
   2637267564.7211738     
   2626270323.7544904     
   2622625730.8932042     
   2627614715.4657664     
   2641237277.4721737     
   2663493416.9124336     
   2664333404.0554934     
   2636821589.7590871     
   2619131779.9472728     
   2611463442.4828486     
   2614007529.9366121     
   2636652494.2205906     
   2619358723.6779199     
   2611457872.2747626     
   2613055588.9188218     
   2624250617.9878230     
   2627918386.6709495     
   2618555523.8613358     
   2618149582.7607598     
   2626744085.8456926     
   2644378933.6484804     
   2637267564.7211738     
   2633523524.0289283     
   2638332068.3313398     
   2651703177.1096230     
   2673645870.7995858     
   2663493416.9124336     
   2663125339.4610691     
   2670962948.8991704     
   2687006245.2267294     
   2711255228.4437461     
   2614007529.9366121     
   2596382881.2786837     
   2589255583.5212979     
   2592770753.8598166     
   2607048382.0123491     
   2624250617.9878230     
   2613857689.5629764     
   2613637107.3953304     
   2623665104.2982273     
   2644002883.3563766     
   2644378933.6484804     
   2639486029.2666736     
   2644530650.2888527     
   2659544509.7081208     
   2684552413.7588010     
   2673645870.7995858     
   2672521523.5340681     
   2681216611.6644182     
   2699738609.6360507     
   2728093238.9553046     
   2711255228.4437461     
   2712204285.8300910     
   2722988377.5425296     
   2743607503.5810723     
   2774061663.9457126     
   2607048382.0123491     
   2594286849.9514737     
   2592691371.3399539     
   2602341690.1459627     
   2623334371.1298447     
   2644002883.3563766     
   2633048068.9822350     
   2632384553.8212948     
   2642051657.7125263     
   2662099794.4482422     
   2684552413.7588010     
   2675091363.1192040     
   2675227948.3724518     
   2684977413.5710597     
   2704360506.3723130     
   2728093238.9553046     
   2719975144.0941873     
   2720921289.3929658     
   2730934971.7377238     
   2750020974.6023164     
   2774061663.9457126     
   2767282856.6123872     
   2769176763.4875445     
   2779743384.5712118     
   2798982719.8633738     
   2623334371.1298447     
   2584900342.8862944     
   2552350711.3923631     
   2526266360.4834809     
   2507454444.8665547     
   2662099794.4482422     
   2616723784.1460404     
   2577010250.9334354     
   2543289775.4767427     
   2516024059.5976157     
   2704360506.3723130     
   2654132067.2324843     
   2609486880.8315063     
   2570572231.1848536     
   2537594378.8416543     
   2750020974.6023164     
   2697034337.5687389     
   2649694150.8387165     
   2608036999.8588209     
   2572114131.7656398     
   2798982719.8633738     
   2745330900.5283885     
   2697530940.6408100     
   2655582840.2006316     
   2619486599.2078552     
   2507454444.8665547     
   2357125661.0107880     
   2214967551.3613200     
   2085963538.5598598     
   1976994223.4095063     
   2516024059.5976157     
   2348164346.3951087     
   2183862909.1079884     
   2026221532.8747182     
   1879807856.3822308     
   2537594378.8416543     
   2357296535.0045934     
   2176739633.7172742     
   1997396045.7603347     
   1821545026.9435165     
   2572114131.7656398     
   2384625590.9880819     
   2194064203.0281544     
   2000808408.1790593     
   1805462431.5016527     
   2619486599.2078552     
   2430120112.0405664     
   2235978846.9322243     
   2037062803.8828669     
   1833371982.8924699     
   2602482252.3948174     
   2587963199.1356659     
   2584049232.3846226     
   2590740352.1416745     
   2608036558.4068356     
   2610036021.8339267     
   2596639568.7936859     
   2592358405.5036054     
   2597213959.9211125     
   2611227860.5510035     
   2669905527.6302342     
   2654224915.6947846     
   2646134205.3518667     
   2645698011.8969603     
   2652982060.0579815     
   2776524383.0880466     
   2756341342.6357799     
   2742218735.0999308     
   2734258520.7449131     
   2732565539.7661114     
   2922743666.3549509     
   2897050992.3206501     
   2875919501.4997783     
   2859466591.8281708     
   2847814288.0120592     
   2608036558.4068356     
   2600250037.9419360     
   2600693492.0115762     
   2609366920.6157598     
   2626270323.7544904     
   2611227860.5510035     
   2599970987.8880448     
   2596828903.8217998     
   2601815438.9355640     
   2614944380.3395696     
   2652982060.0579815     
   2635475355.0779829     
   2625927245.4754128     
   2624390086.6547050     
   2630916961.8675866     
   2732565539.7661114     
   2706420573.5734997     
   2688009634.4045663     
   2677440300.3488374     
   2674824005.7858806     
   2847814288.0120592     
   2811165879.1198473     
   2781940482.9435987     
   2760306448.4553409     
   2746442396.9422879     
   2626270323.7544904     
   2622625730.8932042     
   2627614715.4657664     
   2641237277.4721737     
   2663493416.9124336     
   2614944380.3395696     
   2607572290.4812627     
   2608826764.9369740     
   2618721007.9734774     
   2637267563.4506636     
   2630916961.8675866     
   2617169551.0946054     
   2612052444.6836610     
   2615618386.1158009     
   2627918384.8417144     
   2674824005.7858806     
   2652256558.0030322     
   2638295142.4893665     
   2633055586.2324495     
   2636652492.5227919     
   2746442396.9422879     
   2712948202.6159048     
   2687967803.0711741     
   2671696675.5995417     
   2664333403.1245670     
   2663493416.9124336     
   2663125339.4610691     
   2670962948.8991704     
   2687006245.2267294     
   2711255228.4437461     
   2637267563.4506636     
   2633523523.1785917     
   2638332067.8949118     
   2651703177.0788012     
   2673645871.1635137     
   2627918384.8417144     
   2618555522.7290797     
   2618149582.3007989     
   2626744086.0311012     
   2644378934.4492908     
   2636652492.5227919     
   2619358722.8216968     
   2611457872.2043982     
   2613055589.5775642     
   2624250619.3171244     
   2664333403.1245670     
   2636821589.7023597     
   2619131780.6644378     
   2611463443.8743129     
   2614007531.9032865     
   2711255228.4437461     
   2712204285.8300910     
   2722988377.5425296     
   2743607503.5810723     
   2774061663.9457126     
   2673645871.1635137     
   2672521524.1272068     
   2681216612.4870353     
   2699738610.6867623     
   2728093240.2313952     
   2644378934.4492908     
   2639486030.3802433     
   2644530651.7132077     
   2659544511.4393935     
   2684552415.7917566     
   2624250619.3171244     
   2613857691.1409764     
   2613637109.2148724     
   2623665106.3516731     
   2644002885.6360173     
   2614007531.9032865     
   2596382883.2842655     
   2589255585.5490160     
   2592770755.8955131     
   2607048384.0448112     
   2774061663.9457126     
   2767282856.6123872     
   2769176763.4875445     
   2779743384.5712118     
   2798982719.8633738     
   2728093240.2313952     
   2719975145.0701423     
   2720921290.0731907     
   2730934972.1276021     
   2750020974.7073369     
   2684552415.7917566     
   2675091364.7293611     
   2675227949.5730729     
   2684977414.3758693     
   2704360506.7956057     
   2644002885.6360173     
   2633048070.8903828     
   2632384555.3852654     
   2642051658.9580679     
   2662099795.4025760     
   2607048384.0448112     
   2594286851.8306503     
   2592691373.1142755     
   2602341691.8585992     
   2623334372.8265481     
   2798982719.8633738     
   2745330900.5283885     
   2697530940.6408100     
   2655582840.2006316     
   2619486599.2078552     
   2750020974.7073369     
   2697034337.7559767     
   2649694151.0984154     
   2608037000.1816487     
   2572114132.1433167     
   2704360506.7956057     
   2654132067.7497172     
   2609486881.4229441     
   2570572231.8306289     
   2537594379.5212708     
   2662099795.4025760     
   2616723785.1366534     
   2577010251.9300456     
   2543289776.4474483     
   2516024060.5053778     
   2623334372.8265481     
   2584900344.4938154     
   2552350712.8688102     
   2526266361.7829766     
   2507454445.9311662     
   2619486599.2078552     
   2430120112.0405664     
   2235978846.9322243     
   2037062803.8828669     
   1833371982.8924699     
   2572114132.1433167     
   2384625591.2121148     
   2194064203.0982800     
   2000808408.0870001     
   1805462431.2252605     
   2537594379.5212708     
   2357296535.4132061     
   2176739633.8560996     
   1997396045.6197531     
   1821545026.4969153     
   2516024060.5053778     
   2348164346.9508104     
   2183862909.3167009     
   2026221532.7334688     
   1879807855.8789868     
   2507454445.9311662     
   2357125661.6783166     
   2214967551.6432972     
   2085963538.4676037     
   1976994222.9606223     
   2922743666.3549509     
   2897050992.3206501     
   2875919501.4997783     
   2859466591.8281708     
   2847814288.0120592     
   3023667146.9742384     
   2982114459.1354995     
   2946958731.7024355     
   2918426556.2208886     
   2896770761.7856321     
   3177037678.6845403     
   3116739206.6508079     
   3064153653.8747821     
   3019633971.6221018     
   2983603796.9281149     
   3379587911.1063366     
   3297406606.2436414     
   3223730939.5336008     
   3159036972.0706062     
   3103941254.5429001     
   3626798051.0176644     
   3519465630.1118155     
   3420960888.0809274     
   3331857138.1234865     
   3252959854.2360554     
   2847814288.0120592     
   2811165879.1198473     
   2781940482.9435987     
   2760306448.4553409     
   2746442396.9422879     
   2896770761.7856321     
   2852099086.1577740     
   2814109024.1128998     
   2783030548.3539171     
   2759110678.6496372     
   2983603796.9281149     
   2929721632.5528378     
   2881750699.4355197     
   2839967289.0157566     
   2804672647.8994546     
   3103941254.5429001     
   3040268067.9127326     
   2981731872.9348836     
   2928633659.8173208     
   2881306518.8065424     
   3252959854.2360554     
   3179417098.1747031     
   3110264022.9776030     
   3045804224.6712365     
   2986378095.1523128     
   2746442396.9422879     
   2712948202.6159048     
   2687967803.0711741     
   2671696675.5995417     
   2664333403.1245670     
   2759110678.6496372     
   2715517114.2478051     
   2680120740.5508490     
   2653218714.1984577     
   2635120685.2451286     
   2804672647.8994546     
   2749113425.3465934     
   2701304833.7452259     
   2661646097.2635503     
   2630565289.2031708     
   2881306518.8065424     
   2812461591.5340867     
   2750782882.9332390     
   2696755925.0122213     
   2650917283.5340600     
   2986378095.1523128     
   2903465473.2248511     
   2827014217.9579334     
   2757567300.0874596     
   2695743153.8371453     
   2664333403.1245670     
   2636821589.7023597     
   2619131780.6644378     
   2611463443.8743129     
   2614007531.9032865     
   2635120685.2451286     
   2597375331.1889906     
   2568864158.2064133     
   2549891227.3161225     
   2540754562.6318016     
   2630565289.2031708     
   2580948725.7610378     
   2539889531.5278935     
   2507797607.3939199     
   2485087075.9173865     
   2650917283.5340600     
   2588378006.3447900     
   2533594850.8289337     
   2487066035.9941130     
   2449312070.8157973     
   2695743153.8371453     
   2619861424.4802108     
   2550808981.8450756     
   2489136764.0393324     
   2435440159.1335111     
   2614007531.9032865     
   2596382883.2842655     
   2589255585.5490160     
   2592770755.8955131     
   2607048384.0448112     
   2540754562.6318016     
   2512266036.9119282     
   2494008646.9584308     
   2486239502.9002943     
   2489182507.1552434     
   2485087075.9173865     
   2443625271.5621657     
   2412034524.5579572     
   2390713614.5433130     
   2380029437.3531356     
   2449312070.8157973     
   2393137755.7140760     
   2346285739.5154395     
   2309310729.2952986     
   2282752812.6994915     
   2435440159.1335111     
   2363360807.3389010     
   2299793469.3965793     
   2245433961.4426670     
   2200999755.4191589     
   2607048384.0448112     
   2594286851.8306503     
   2592691373.1142755     
   2602341691.8585992     
   2623334372.8265481     
   2489182507.1552434     
   2469576299.1998563     
   2461929552.1499796     
   2466379871.9434609     
   2483062462.8159781     
   2380029437.3531356     
   2351277811.1718884     
   2335433005.2637691     
   2332747602.6139565     
   2343444069.9055285     
   2282752812.6994915     
   2242191270.0528011     
   2215576628.3405595     
   2203362602.9399428     
   2205939466.5639076     
   2200999755.4191589     
   2145674307.4346492     
   2105311392.7010720     
   2080683947.8015239     
   2072474099.2812641     
   2623334372.8265481     
   2584900344.4938154     
   2552350712.8688102     
   2526266361.7829766     
   2507454445.9311662     
   2483062462.8159781     
   2450431529.5755048     
   2426353608.0293984     
   2411774236.8766499     
   2408070083.1101365     
   2343444069.9055285     
   2319076369.7371464     
   2306231202.2397876     
   2306314816.1455488     
   2321417357.4294477     
   2205939466.5639076     
   2191614610.5257287     
   2192266987.2861090     
   2209866827.4794278     
   2247337966.0088696     
   2072474099.2812641     
   2069019137.5688872     
   2084779244.8848929     
   2122386731.4470985     
   2185660223.2347665     
   2507454445.9311662     
   2357125661.6783166     
   2214967551.6432972     
   2085963538.4676037     
   1976994222.9606223     
   2408070083.1101365     
   2282802274.8857813     
   2168041756.5512991     
   2070527803.1461966     
   1999026837.5310874     
   2321417357.4294477     
   2224710053.1180577     
   2141336192.6293902     
   2079655814.1505551     
   2049832157.0308692     
   2247337966.0088696     
   2182639408.4290681     
   2134380164.6360180     
   2112216961.8237395     
   2127069920.8358362     
   2185660223.2347665     
   2156296074.5731192     
   2146526608.1917477     
   2166860698.1863370     
   2228350601.6844697     
   3626798051.0176644     
   3519465630.1118155     
   3420960888.0809274     
   3331857138.1234865     
   3252959854.2360554     
   3862826396.8556623     
   3746334430.4646235     
   3633735031.0912633     
   3525393883.8898554     
   3421765439.8810501     
   4098658643.1898837     
   3981026491.5666151     
   3863629782.8431711     
   3746516576.8327370     
   3629743735.7598939     
   4326081862.4598074     
   4216724582.8402033     
   4105069642.0071001     
   3990833605.2993011     
   3873757910.2293611     
   4539402620.4886799     
   4448454919.9801207     
   4353695330.1095114     
   4254532264.6643524     
   4150521867.7728577     
   3252959854.2360554     
   3179417098.1747031     
   3110264022.9776030     
   3045804224.6712365     
   2986378095.1523128     
   3421765439.8810501     
   3331364711.4552717     
   3245510916.1530700     
   3164562204.6935282     
   3088948212.2123494     
   3629743735.7598939     
   3521150239.0172334     
   3416959814.8614593     
   3317539546.5457053     
   3223368341.3237672     
   3873757910.2293611     
   3745558376.7655916     
   3621384955.4096136     
   3501563478.0817046     
   3386571606.8664141     
   4150521867.7728577     
   4001205188.0911179     
   3855376549.6157312     
   3713271939.1687317     
   3575313648.6232042     
   2986378095.1523128     
   2903465473.2248511     
   2827014217.9579334     
   2757567300.0874596     
   2695743153.8371453     
   3088948212.2123494     
   2989874434.8200612     
   2896414742.9054394     
   2809101838.9807386     
   2728561617.8471403     
   3223368341.3237672     
   3108973350.8984241     
   2999347570.8067274     
   2894974193.6820040     
   2796439303.1181741     
   3386571606.8664141     
   3257907356.4481101     
   3133233706.9857960     
   3012958918.3845520     
   2897594806.7270188     
   3575313648.6232042     
   3433494480.6648955     
   3294996253.0394068     
   3160142307.0828075     
   3029353434.1339674     
   2695743153.8371453     
   2619861424.4802108     
   2550808981.8450756     
   2489136764.0393324     
   2435440159.1335111     
   2728561617.8471403     
   2637101444.4313760     
   2551356187.9718413     
   2471904105.5466704     
   2399401019.2503576     
   2796439303.1181741     
   2689976344.8756905     
   2587970616.3365045     
   2490955843.2276964     
   2399565898.9537868     
   2897594806.7270188     
   2777351757.7422404     
   2660292325.6389465     
   2546846286.1074791     
   2437547095.1330547     
   3029353434.1339674     
   2896979708.3476849     
   2766622049.7887115     
   2638576947.7720108     
   2513230220.9011478     
   2435440159.1335111     
   2363360807.3389010     
   2299793469.3965793     
   2245433961.4426670     
   2200999755.4191589     
   2399401019.2503576     
   2309052258.6157365     
   2226405802.1589532     
   2152268688.0163641     
   2087525739.8128753     
   2399565898.9537868     
   2291200024.0275068     
   2189400012.8061585     
   2094990516.6045680     
   2008934168.5351803     
   2437547095.1330547     
   2312298802.5961452     
   2192287217.0538416     
   2078238453.0970969     
   1971053096.6301711     
   2513230220.9011478     
   2372950707.7906580     
   2236586252.3180485     
   2104674523.1174548     
   1977922587.0201759     
   2200999755.4191589     
   2145674307.4346492     
   2105311392.7010720     
   2080683947.8015239     
   2072474099.2812641     
   2087525739.8128753     
   2012362705.1672430     
   1949551079.9089732     
   1900171345.5603237     
   1865253836.6320078     
   2008934168.5351803     
   1912561249.5669260     
   1824932867.3969979     
   1747242880.8551388     
   1680776232.0415332     
   1971053096.6301711     
   1855106848.8543789     
   1743488195.9111080     
   1637104875.0591009     
   1537070510.7180951     
   1977922587.0201759     
   1847580188.8308387     
   1717231503.0108316     
   1587209974.3092763     
   1458001665.6275070     
   2072474099.2812641     
   2069019137.5688872     
   2084779244.8848929     
   2122386731.4470985     
   2185660223.2347665     
   1865253836.6320078     
   1854802943.1386626     
   1867316903.1675723     
   1905003590.3141103     
   1970894583.2827675     
   1680776232.0415332     
   1652311977.2359016     
   1651573549.1627171     
   1680930208.6446967     
   1742987642.2773905     
   1537070510.7180951     
   1476170666.6620822     
   1447973663.2905216     
   1456453979.5179334     
   1504906196.7209339     
   1458001665.6275070     
   1348856807.6129198     
   1274693411.6013927     
   1243660642.5539379     
   1262815921.9472558     
   2185660223.2347665     
   2156296074.5731192     
   2146526608.1917477     
   2166860698.1863370     
   2228350601.6844697     
   1970894583.2827675     
   1968992916.3974657     
   2003632141.4153867     
   2093482570.5998869     
   2257199105.7310200     
   1742987642.2773905     
   1787751078.1441181     
   1884653405.1595383     
   2060610611.4808922     
   2340862915.1102400     
   1504906196.7209339     
   1613284990.7789693     
   1788849849.1000531     
   2066366345.8439765     
   2476064670.6716514     
   1262815921.9472558     
   1446634713.4306846     
   1715657010.0619776     
   2110483025.5947332     
   2663587075.9923463     
   4539402620.4886799     
   4448454919.9801207     
   4353695330.1095114     
   4254532264.6643524     
   4150521867.7728577     
   4813354690.7124329     
   4701821926.4305830     
   4594754386.8722982     
   4492113406.3965130     
   4393999658.4193764     
   5222443684.6439371     
   5060100849.2006083     
   4907398105.4606476     
   4763407435.0034704     
   4628391192.3337059     
   5769546214.0230455     
   5523488949.9788294     
   5288768240.2253914     
   5062781041.3837729     
   4846034943.8543987     
   6455610723.3101358     
   6090278014.7473392     
   5735122139.9243183     
   5385356056.1382704     
   5041764195.2480316     
   4150521867.7728577     
   4001205188.0911179     
   3855376549.6157312     
   3713271939.1687317     
   3575313648.6232042     
   4393999658.4193764     
   4238084232.8303742     
   4082160238.0477538     
   3926321479.1626859     
   3770721282.6966662     
   4628391192.3337059     
   4474392902.2953796     
   4318332607.0379038     
   4160110654.1897388     
   3999669568.3417869     
   4846034943.8543987     
   4703661209.1425323     
   4558363624.9207563     
   4409865422.9760618     
   4258034635.5733838     
   5041764195.2480316     
   4921312282.3810968     
   4798092581.4428234     
   4671682703.0589066     
   4542016562.5917082     
   3575313648.6232042     
   3433494480.6648955     
   3294996253.0394068     
   3160142307.0828075     
   3029353434.1339674     
   3770721282.6966662     
   3615276423.2883840     
   3462432890.8972239     
   3312429653.1134720     
   3165601745.2179914     
   3999669568.3417869     
   3831002938.4678226     
   3664249985.5794029     
   3499557397.6030598     
   3337160340.8372350     
   4258034635.5733838     
   4076426645.2339301     
   3896100387.8883500     
   3717111686.8386025     
   3539593944.2842135     
   4542016562.5917082     
   4347599541.2471123     
   4153897036.8820562     
   3960880956.8292727     
   3768588932.6408353     
   3029353434.1339674     
   2896979708.3476849     
   2766622049.7887115     
   2638576947.7720108     
   2513230220.9011478     
   3165601745.2179914     
   3021554996.3949261     
   2879352562.9632301     
   2739226042.4640932     
   2601502760.3807807     
   3337160340.8372350     
   3180889436.5815344     
   3026146415.8717713     
   2873080061.4807014     
   2721941935.3620577     
   3539593944.2842135     
   3370150055.3124866     
   3201794007.3213234     
   3034580788.2443266     
   2868675723.1693544     
   3768588932.6408353     
   3584693615.2031679     
   3401347570.2962518     
   3218507082.4872646     
   3036246743.9568973     
   2513230220.9011478     
   2372950707.7906580     
   2236586252.3180485     
   2104674523.1174548     
   1977922587.0201759     
   2601502760.3807807     
   2452036855.5323596     
   2304599314.8588252     
   2159499573.1192861     
   2017153958.0319800     
   2721941935.3620577     
   2566198700.9835362     
   2411102769.6468596     
   2256773488.6071429     
   2103373057.7296340     
   2868675723.1693544     
   2709816028.9272919     
   2550766585.9085164     
   2391545055.3125329     
   2232177363.0974045     
   3036246743.9568973     
   2877401801.6701365     
   2718019876.1891437     
   2558108635.8923116     
   2397685277.2022858     
   1977922587.0201759     
   1847580188.8308387     
   1717231503.0108316     
   1587209974.3092763     
   1458001665.6275070     
   2017153958.0319800     
   1880449085.6397855     
   1744127555.9872894     
   1608320128.0215766     
   1473206199.9281690     
   2103373057.7296340     
   1962762314.4920278     
   1823214602.7232628     
   1684766499.7263768     
   1547487203.4674315     
   2232177363.0974045     
   2088357213.6344113     
   1946276033.9326296     
   1805934271.4619012     
   1667415076.9838166     
   2397685277.2022858     
   2249698708.4561667     
   2103914001.5397699     
   1960323097.2410400     
   1819094430.6118419     
   1458001665.6275070     
   1348856807.6129198     
   1274693411.6013927     
   1243660642.5539379     
   1262815921.9472558     
   1473206199.9281690     
   1328904808.3278508     
   1199033223.9360096     
   1088073970.3367941     
   1001933733.3702068     
   1547487203.4674315     
   1397673408.8979652     
   1244254371.6805494     
   1084946789.4968724     
   917709597.84463680     
   1667415076.9838166     
   1552243967.3878105     
   1427923139.2597668     
   1294809839.5581682     
   1159059991.3351033     
   1819094430.6118419     
   1778917436.8332026     
   1735217935.3246257     
   1696637136.0530062     
   1681720304.6917124     
   1262815921.9472558     
   1446634713.4306846     
   1715657010.0619776     
   2110483025.5947332     
   2663587075.9923463     
   1001933733.3702068     
   1164629917.7062318     
   1425374865.6269450     
   1808755482.8285828     
   2334872054.0447607     
   917709597.84463680     
   963066271.26884067     
   1144877824.7596815     
   1476494585.3106728     
   1957596116.8375640     
   1159059991.3351033     
   1008511591.0842094     
   985220835.96761036     
   1161504783.4378626     
   1544266279.7794104     
   1681720304.6917124     
   1384047978.9857709     
   1129605178.7873099     
   1010169122.4683489     
   1153136417.5943871     
 </DataArray>
 <DataArray  type="Float64" Name="strain" NumberOfComponents="3" format="ascii">
  0.10785617000136694       -3.1064685755432309E-002   2.6338167588584316E-003
  0.10188852715528929       -2.8700373223751963E-002  -2.2141925738821122E-003
   9.5920884309211751E-002  -2.6962536933802517E-002  -4.5235145572931623E-003
   8.9953241463134215E-002  -2.5851176885583679E-002  -4.2941491913751073E-003
   8.3985598617056567E-002  -2.5366293079095881E-002  -1.5260964761268925E-003
   9.5908679150432885E-002  -2.8883513721190135E-002   9.8903786097441770E-003
   9.2108222785596605E-002  -2.6958545977967430E-002   6.3028738770763981E-003
   8.8307766420760325E-002  -2.5500771275016210E-002   4.5110547575615279E-003
   8.4507310055924045E-002  -2.4510189612336600E-002   4.5149212512000103E-003
   8.0706853691087765E-002  -2.3986800989928780E-002   6.3144733579915124E-003
   8.6140028408660918E-002  -2.6702341686948239E-002   1.6627954071443185E-002
   8.3763756788889587E-002  -2.5216718732182952E-002   1.4460237140307031E-002
   8.1387485169118201E-002  -2.4039005616230097E-002   1.3345204086147672E-002
   7.9011213549346926E-002  -2.3169202339089860E-002   1.3282854908964956E-002
   7.6634941929575595E-002  -2.2607308900762013E-002   1.4273189608759285E-002
   7.8550217776050701E-002  -2.4521169652706176E-002   2.2846543143955025E-002
   7.6855129165168151E-002  -2.3474891486398336E-002   2.2257897215809605E-002
   7.5160040554285407E-002  -2.2577239957444054E-002   2.1978933428464874E-002
   7.3464951943402759E-002  -2.1828215065842895E-002   2.2009651781920461E-002
   7.1769863332520167E-002  -2.1227816811595301E-002   2.2350052276176646E-002
   7.3139247252602679E-002  -2.2339997618464169E-002   2.8546145827279601E-002
   7.1382339914432380E-002  -2.1733064240613942E-002   2.9695854103584329E-002
   6.9625432576262025E-002  -2.1115474298657858E-002   3.0412242784513238E-002
   6.7868525238091643E-002  -2.0487227792595961E-002   3.0695311870066286E-002
   6.6111617899921343E-002  -1.9848324722428423E-002   3.0545061360243431E-002
   8.3985598617056567E-002  -2.5366293079095881E-002  -1.5260964761268925E-003
   8.1909689441361011E-002  -2.5076207789644478E-002  -2.4900875112165988E-004
   7.9833780265665510E-002  -2.4549243292536160E-002   5.1094660305650574E-004
   7.7757871089970038E-002  -2.3785399587770401E-002   7.5376958640746561E-004
   7.5681961914274454E-002  -2.2784676675347115E-002   4.7946019893141401E-004
   8.0706853691087765E-002  -2.3986800989928780E-002   6.3144733579915124E-003
   7.8220773365066026E-002  -2.3602340621241696E-002   7.1184633381982942E-003
   7.5734693039044287E-002  -2.3028543719723488E-002   7.6192433885797772E-003
   7.3248612713022576E-002  -2.2265410285374508E-002   7.8168135091356006E-003
   7.0762532387000809E-002  -2.1312940318194751E-002   7.7111736998664027E-003
   7.6634941929575595E-002  -2.2607308900762013E-002   1.4273189608759285E-002
   7.3952612894229386E-002  -2.2128473452838526E-002   1.4556539169341104E-002
   7.1270283858883163E-002  -2.1507844146910704E-002   1.4750601241099157E-002
   6.8587954823536967E-002  -2.0745420982978838E-002   1.4855375824033609E-002
   6.5905625788190730E-002  -1.9841203961042553E-002   1.4870862918144434E-002
   7.1769863332520167E-002  -2.1227816811595301E-002   2.2350052276176646E-002
   6.9105208028851145E-002  -2.0654606284435384E-002   2.2065218742306887E-002
   6.6440552725182164E-002  -1.9987144574098031E-002   2.1905020160615137E-002
   6.3775897421513225E-002  -1.9225431680582945E-002   2.1869456531101387E-002
   6.1111242117844168E-002  -1.8369467603890272E-002   2.1958527853765827E-002
   6.6111617899921343E-002  -1.9848324722428423E-002   3.0545061360243431E-002
   6.3678558768931276E-002  -1.9180739116032436E-002   2.9644502057095568E-002
   6.1245499637941223E-002  -1.8466445001285345E-002   2.9082500147127405E-002
   5.8812440506951190E-002  -1.7705442378187049E-002   2.8859055630339053E-002
   5.6379381375961157E-002  -1.6897731246737990E-002   2.8974168506730569E-002
   7.5681961914274454E-002  -2.2784676675347115E-002   4.7946019893141401E-004
   7.2470906511744704E-002  -2.1691151469002468E-002   1.6700372201816638E-004
   6.9259851109215065E-002  -2.0648900882472121E-002   8.0056472292699965E-005
   6.6048795706685398E-002  -1.9657924915756450E-002   2.1861844975576417E-004
   6.2837740304155676E-002  -1.8718223568855330E-002   5.8268965440688714E-004
   7.0762532387000809E-002  -2.1312940318194751E-002   7.7111736998664027E-003
   6.7770065269930568E-002  -2.0290486875501113E-002   7.4039971088794010E-003
   6.4777598152860272E-002  -1.9317403014609436E-002   7.3084878616231364E-003
   6.1785131035789975E-002  -1.8393688735520095E-002   7.4246459580974422E-003
   5.8792663918719679E-002  -1.7519344038232743E-002   7.7524713983019300E-003
   6.5905625788190730E-002  -1.9841203961042553E-002   1.4870862918144434E-002
   6.3117905073122288E-002  -1.8889822281999369E-002   1.4570871251096018E-002
   6.0330184358053859E-002  -1.7985905146746112E-002   1.4468705044320587E-002
   5.7542463642985396E-002  -1.7129452555283191E-002   1.4564364297818391E-002
   5.4754742927916961E-002  -1.6320464507610100E-002   1.4857849011589291E-002
   6.1111242117844168E-002  -1.8369467603890272E-002   2.1958527853765827E-002
   5.8514425921320057E-002  -1.7489157688497708E-002   2.1667626148668032E-002
   5.5917609724795828E-002  -1.6654407278883218E-002   2.1560708020385927E-002
   5.3320793528271702E-002  -1.5865216375046450E-002   2.1637773468919066E-002
   5.0723977331747480E-002  -1.5121584976987595E-002   2.1898822494268118E-002
   5.6379381375961157E-002  -1.6897731246737990E-002   2.8974168506730569E-002
   5.3959627814523681E-002  -1.6088493094996215E-002   2.8694261801595844E-002
   5.1539874253086204E-002  -1.5322909411020075E-002   2.8584496789818781E-002
   4.9120120691648742E-002  -1.4600980194809925E-002   2.8644873471399837E-002
   4.6700367130211251E-002  -1.3922705446365202E-002   2.8875391846338916E-002
   6.2837740304155676E-002  -1.8718223568855330E-002   5.8268965440688714E-004
   5.9768402157488798E-002  -1.7822741838289691E-002   1.5629563435359817E-004
   5.6699064010822031E-002  -1.6964424720582211E-002   1.0643728565185029E-005
   5.3629725864155264E-002  -1.6143272215731801E-002   1.4573393704128690E-004
   5.0560387717488386E-002  -1.5359284323739120E-002   5.6156625978265318E-004
   5.8792663918719679E-002  -1.7519344038232743E-002   7.7524713983019300E-003
   5.5984516791271199E-002  -1.6679127565636831E-002   7.2856559376165420E-003
   5.3176369663822692E-002  -1.5857797960621284E-002   7.0604804011031863E-003
   5.0368222536374144E-002  -1.5055355223187052E-002   7.0769447887615300E-003
   4.7560075408925651E-002  -1.4271799353332337E-002   7.3350491005919061E-003
   5.4754742927916961E-002  -1.6320464507610100E-002   1.4857849011589291E-002
   5.2168684629593925E-002  -1.5535513292983971E-002   1.4368889855548517E-002
   4.9582626331270946E-002  -1.4751171200661259E-002   1.4082468433587056E-002
   4.6996568032947938E-002  -1.3967438230641862E-002   1.3998584745704430E-002
   4.4410509734624931E-002  -1.3184314382925888E-002   1.4117238791901077E-002
   5.0723977331747480E-002  -1.5121584976987595E-002   2.1898822494268118E-002
   4.8320905672457115E-002  -1.4391899020331000E-002   2.1405997388149363E-002
   4.5917834013166785E-002  -1.3644544440700894E-002   2.1076607826016964E-002
   4.3514762353876413E-002  -1.2879521238096893E-002   2.0910653807870716E-002
   4.1111690694586096E-002  -1.2096829412519272E-002   2.0908135333710540E-002
   4.6700367130211251E-002  -1.3922705446365202E-002   2.8875391846338916E-002
   4.4441179919860740E-002  -1.3248284747678196E-002   2.8396978535419115E-002
   4.2181992709510230E-002  -1.2537917680740335E-002   2.8042898578392983E-002
   3.9922805499159719E-002  -1.1791604245552041E-002   2.7813151975260325E-002
   3.7663618288809264E-002  -1.1009344442112545E-002   2.7707738726020725E-002
   5.0560387717488386E-002  -1.5359284323739120E-002   5.6156625978265318E-004
   4.7911244953991017E-002  -1.4573912401939393E-002   4.6433306691606724E-004
   4.5262102190493592E-002  -1.3748607807668456E-002   3.4491295110850029E-004
   4.2612959426996250E-002  -1.2883370540925740E-002   2.0330591236106255E-004
   3.9963816663498797E-002  -1.1978200601711508E-002   3.9511950671533569E-005
   4.7560075408925651E-002  -1.4271799353332337E-002   7.3350491005919061E-003
   4.4909457248439533E-002  -1.3486111646485055E-002   7.1408156749588336E-003
   4.2258839087953415E-002  -1.2677273398070121E-002   6.9658183782893013E-003
   3.9608220927467297E-002  -1.1845284608087842E-002   6.8100572105832535E-003
   3.6957602766981124E-002  -1.0990145276537078E-002   6.6735321718404128E-003
   4.4410509734624931E-002  -1.3184314382925888E-002   1.4117238791901077E-002
   4.1799839229054309E-002  -1.2398310891029996E-002   1.3809223002597737E-002
   3.9189168723483617E-002  -1.1605938988471148E-002   1.3561866394161709E-002
   3.6578498217912946E-002  -1.0807198675248840E-002   1.3375168966593229E-002
   3.3967827712342302E-002  -1.0002089951363424E-002   1.3249130719892532E-002
   4.1111690694586096E-002  -1.2096829412519272E-002   2.0908135333710540E-002
   3.8582390895835074E-002  -1.1310510135575408E-002   2.0469555049832472E-002
   3.6053091097084128E-002  -1.0534604578872273E-002   2.0133056998725835E-002
   3.3523791298333126E-002  -9.7691127424103900E-003   1.9898641180391381E-002
   3.0994491499582166E-002  -9.0140346261894932E-003   1.9766307594828197E-002
   3.7663618288809264E-002  -1.1009344442112545E-002   2.7707738726020725E-002
   3.5257112248782085E-002  -1.0222709380120598E-002   2.7121811816663177E-002
   3.2850606208754962E-002  -9.4632701692736187E-003   2.6679390191982122E-002
   3.0444100168727783E-002  -8.7310268095719401E-003   2.6380473851976782E-002
   2.8037594128700660E-002  -8.0259793010152292E-003   2.6225062796647269E-002
   3.9963816663498797E-002  -1.1978200601711508E-002   3.9511950671533569E-005
   3.7520790209976007E-002  -1.1135760781318171E-002  -2.8812866846306129E-004
   3.5077763756453273E-002  -1.0458713871036696E-002  -5.0547261120814646E-004
   3.2634737302930483E-002  -9.9470598708678304E-003  -6.1251987756338888E-004
   3.0191710849407749E-002  -9.6007987808115480E-003  -6.0927046752867753E-004
   3.6957602766981124E-002  -1.0990145276537078E-002   6.6735321718404128E-003
   3.4603758253132166E-002  -1.0178397030077613E-002   6.2035528469380763E-003
   3.2249913739283098E-002  -9.4765814953665650E-003   5.8016407249930069E-003
   2.9896069225434058E-002  -8.8846986724032129E-003   5.4677958060058984E-003
   2.7542224711585017E-002  -8.4027485611875008E-003   5.2020180899763346E-003
   3.3967827712342302E-002  -1.0002089951363424E-002   1.3249130719892532E-002
   3.1660935664734852E-002  -9.2210332788384419E-003   1.2692272887586897E-002
   2.9354043617127373E-002  -8.4944491196962679E-003   1.2161252784806648E-002
   2.7047151569519909E-002  -7.8223374739386092E-003   1.1656070411552144E-002
   2.4740259521912472E-002  -7.2046983415636756E-003   1.1176725767823192E-002
   3.0994491499582166E-002  -9.0140346261894932E-003   1.9766307594828197E-002
   2.8692322444784132E-002  -8.2636695275985772E-003   1.9178031453483874E-002
   2.6390153389986036E-002  -7.5123167440264982E-003   1.8573363568232915E-002
   2.4087984335188068E-002  -6.7599762754735546E-003   1.7952303939075522E-002
   2.1785815280390017E-002  -6.0066481219392953E-003   1.7314852566011243E-002
   2.8037594128700660E-002  -8.0259793010152292E-003   2.6225062796647269E-002
   2.5697918593279967E-002  -7.3063057763587125E-003   2.5660828544628811E-002
   2.3358243057859218E-002  -6.5301843683561456E-003   2.5037973075271724E-002
   2.1018567522438414E-002  -5.6976150770085762E-003   2.4356496388575871E-002
   1.8678891987017721E-002  -4.8085979023154701E-003   2.3616398484540668E-002
   3.0191710849407749E-002  -9.6007987808115480E-003  -6.0927046752867753E-004
   2.9590308173687463E-002  -9.1335181632485885E-003  -3.5704945568415525E-004
   2.8988905497967288E-002  -8.2588055805580818E-003  -1.7910435894780141E-003
   2.8387502822247113E-002  -6.9766610327401252E-003  -4.9112528689101431E-003
   2.7786100146526826E-002  -5.2870845197967586E-003  -9.7176772939799871E-003
   2.7542224711585017E-002  -8.4027485611875008E-003   5.2020180899763346E-003
   2.5524779627044858E-002  -7.8702128443234320E-003   5.8812007308758352E-003
   2.3507334542504671E-002  -7.1265732044119012E-003   5.4145136997735266E-003
   2.1489889457964415E-002  -6.1718296414529084E-003   3.8019569966694367E-003
   1.9472444373424325E-002  -5.0059821554482298E-003   1.0435306215634821E-003
   2.4740259521912472E-002  -7.2046983415636756E-003   1.1176725767823192E-002
   2.1847117502188540E-002  -6.6069075253976095E-003   1.2086541995697475E-002
   1.8953975482464663E-002  -5.9943408282646382E-003   1.2390834025206465E-002
   1.6060833462740787E-002  -5.3669982501654764E-003   1.2089601856349899E-002
   1.3167691443016855E-002  -4.7248797910995899E-003   1.1182845489127680E-002
   2.1785815280390017E-002  -6.0066481219392953E-003   1.7314852566011243E-002
   1.8557321799118690E-002  -5.3436022064718980E-003   1.8258974338780223E-002
   1.5328828317847432E-002  -4.8621084521180274E-003   1.9137917386820323E-002
   1.2100334836576174E-002  -4.5621668588777080E-003   1.9951681710131123E-002
   8.8718413553049644E-003  -4.4437774267507835E-003   2.0700267308712647E-002
   1.8678891987017721E-002  -4.8085979023154701E-003   2.3616398484540668E-002
   1.5655392517835376E-002  -4.0802968875466306E-003   2.4398497760124593E-002
   1.2631893048652920E-002  -3.7298760759711946E-003   2.5655763784615648E-002
   9.6083935794704922E-003  -3.7573354675899395E-003   2.7388196558013528E-002
   6.5848941102881198E-003  -4.1626750624025322E-003   2.9595796080318260E-002
   2.7786100146526826E-002  -5.2870845197967586E-003  -9.7176772939799871E-003
   2.3357823821103296E-002  -4.2068611600549755E-003  -4.1900252490889578E-003
   1.8929547495679599E-002  -4.7527760718428236E-003   2.6027557152566994E-003
   1.4501271170255930E-002  -6.9248292551629537E-003   1.0660665599057262E-002
   1.0072994844832373E-002  -1.0723020710013742E-002   1.9983704402309677E-002
   1.9472444373424325E-002  -5.0059821554482298E-003   1.0435306215634821E-003
   1.6236753153072048E-002  -4.6907520160973659E-003   6.7383032508239182E-003
   1.3001061932719715E-002  -6.2878604931019266E-003   1.3553117170773565E-002
   9.7653707123675215E-003  -9.7973075864613290E-003   2.1487972381412423E-002
   6.5296794920151058E-003  -1.5219093296177100E-002   3.0542868882739160E-002
   1.3167691443016855E-002  -4.7248797910995899E-003   1.1182845489127680E-002
   1.0979497698970803E-002  -5.1746428721400894E-003   1.6758538357933117E-002
   8.7913039549246258E-003  -7.8229449143603913E-003   2.3309184888662599E-002
   6.6031102108785669E-003  -1.2669785917760489E-002   3.0834785081315527E-002
   4.4149164668324525E-003  -1.9715165882340013E-002   3.9335338935891473E-002
   8.8718413553049644E-003  -4.4437774267507835E-003   2.0700267308712647E-002
   7.5860574587994015E-003  -5.6585337281833126E-003   2.5870680072239138E-002
   6.3002735622940502E-003  -9.3580293356193972E-003   3.1870958868923695E-002
   5.0144896657885896E-003  -1.5542264249059256E-002   3.8701103698766365E-002
   3.7287057692831360E-003  -2.4211238468503593E-002   4.6361114561767391E-002
   6.5848941102881198E-003  -4.1626750624025322E-003   2.9595796080318260E-002
   6.0564324325581009E-003  -6.1424245842257585E-003   3.4074728393741260E-002
   5.5279707548279988E-003  -1.0893113756877820E-002   3.9238439111557055E-002
   4.9995090770978690E-003  -1.8414742580358155E-002   4.5086928233765672E-002
   4.4710473993678779E-003  -2.8707311054666729E-002   5.1620195760366361E-002
   7.3139247252602679E-002  -2.2339997618464169E-002   2.8546145827279601E-002
   7.1382339914432380E-002  -2.1733064240613942E-002   2.9695854103584329E-002
   6.9625432576262025E-002  -2.1115474298657858E-002   3.0412242784513238E-002
   6.7868525238091643E-002  -2.0487227792595961E-002   3.0695311870066286E-002
   6.6111617899921343E-002  -1.9848324722428423E-002   3.0545061360243431E-002
   6.8502986482776029E-002  -2.0474297120786800E-002   3.3841581564664047E-002
   6.6417433521620994E-002  -1.9930938625154881E-002   3.4481770158449221E-002
   6.4331880560465876E-002  -1.9367782799611752E-002   3.4897987101640826E-002
   6.2246327599310827E-002  -1.8784829644157588E-002   3.5090232394238821E-002
   6.0160774638155723E-002  -1.8182079158792164E-002   3.5058506036243053E-002
   6.3237305111030290E-002  -1.8608596623109458E-002   3.9068872036927368E-002
   6.1032454471672631E-002  -1.8128813009695877E-002   3.9208681713998259E-002
   5.8827603832315070E-002  -1.7620091300565778E-002   3.9333867685257935E-002
   5.6622753192957474E-002  -1.7082431495719155E-002   3.9444429950706239E-002
   5.4417902553599830E-002  -1.6515833595155988E-002   3.9540368510342871E-002
   5.7342203137365412E-002  -1.6742896125432102E-002   4.4228017244069773E-002
   5.5227402764587478E-002  -1.6326687394236900E-002   4.3876588770231942E-002
   5.3112602391809538E-002  -1.5872399801519822E-002   4.3719884535365065E-002
   5.0997802019031625E-002  -1.5380033347280726E-002   4.3757904539468907E-002
   4.8883001646253699E-002  -1.4849588031519770E-002   4.3990648782543440E-002
   5.0817680561781486E-002  -1.4877195627754747E-002   4.9319017186090941E-002
   4.9002278400365418E-002  -1.4524561778777867E-002   4.8485491327149688E-002
   4.7186876238949349E-002  -1.4124708302473657E-002   4.8056037651961564E-002
   4.5371474077533280E-002  -1.3677635198842259E-002   4.8030656160526472E-002
   4.3556071916117239E-002  -1.3183342467883552E-002   4.8409346852844259E-002
   6.6111617899921343E-002  -1.9848324722428423E-002   3.0545061360243431E-002
   6.3678558768931276E-002  -1.9180739116032436E-002   2.9644502057095568E-002
   6.1245499637941223E-002  -1.8466445001285345E-002   2.9082500147127405E-002
   5.8812440506951190E-002  -1.7705442378187049E-002   2.8859055630339053E-002
   5.6379381375961157E-002  -1.6897731246737990E-002   2.8974168506730569E-002
   6.0160774638155723E-002  -1.8182079158792164E-002   3.5058506036243053E-002
   5.8041515901553487E-002  -1.7552605326237258E-002   3.4381339847922354E-002
   5.5922257164951264E-002  -1.6889482129214137E-002   3.3993217055197464E-002
   5.3802998428349055E-002  -1.6192709567723309E-002   3.3894137658068528E-002
   5.1683739691746805E-002  -1.5462287641764272E-002   3.4084101656535193E-002
   5.4417902553599830E-002  -1.6515833595155988E-002   3.9540368510342871E-002
   5.2562930213801463E-002  -1.5924471536442095E-002   3.9073536292966518E-002
   5.0707957874003062E-002  -1.5312519257143102E-002   3.8846233473601978E-002
   4.8852985534204682E-002  -1.4679976757259293E-002   3.8858460052249216E-002
   4.6998013194406343E-002  -1.4026844036790387E-002   3.9110216028908462E-002
   4.8883001646253699E-002  -1.4849588031519770E-002   4.3990648782543440E-002
   4.7242801705675172E-002  -1.4296337746646924E-002   4.3721091392228267E-002
   4.5602601765096666E-002  -1.3735556385072064E-002   4.3641549402340732E-002
   4.3962401824518146E-002  -1.3167243946795346E-002   4.3752022812881319E-002
   4.2322201883939634E-002  -1.2591400431816613E-002   4.4052511623849676E-002
   4.3556071916117239E-002  -1.3183342467883552E-002   4.8409346852844259E-002
   4.2081130377174619E-002  -1.2668203956851781E-002   4.8324005145707200E-002
   4.0606188838232027E-002  -1.2158593513000887E-002   4.8379164841414080E-002
   3.9131247299289428E-002  -1.1654511136331515E-002   4.8574825939964900E-002
   3.7656305760346814E-002  -1.1155956826842783E-002   4.8910988441359604E-002
   5.6379381375961157E-002  -1.6897731246737990E-002   2.8974168506730569E-002
   5.3959627814523681E-002  -1.6088493094996215E-002   2.8694261801595844E-002
   5.1539874253086204E-002  -1.5322909411020075E-002   2.8584496789818781E-002
   4.9120120691648742E-002  -1.4600980194809925E-002   2.8644873471399837E-002
   4.6700367130211251E-002  -1.3922705446365202E-002   2.8875391846338916E-002
   5.1683739691746805E-002  -1.5462287641764272E-002   3.4084101656535193E-002
   4.9437628312599249E-002  -1.4728860726200305E-002   3.3781963700694279E-002
   4.7191516933451680E-002  -1.4023073195894326E-002   3.3656968416075295E-002
   4.4945405554304076E-002  -1.3344925050846800E-002   3.3709115802678255E-002
   4.2699294175156555E-002  -1.2694416291057053E-002   3.3938405860503063E-002
   4.6998013194406343E-002  -1.4026844036790387E-002   3.9110216028908462E-002
   4.4932544975412589E-002  -1.3369228357404200E-002   3.8801861904868992E-002
   4.2867076756418883E-002  -1.2723236980768646E-002   3.8677651429915513E-002
   4.0801608537425094E-002  -1.2088869906883400E-002   3.8737584604047741E-002
   3.8736140318431422E-002  -1.1466127135748738E-002   3.8981661427265862E-002
   4.2322201883939634E-002  -1.2591400431816613E-002   4.4052511623849676E-002
   4.0444377802963748E-002  -1.2009595988608249E-002   4.3753956414119624E-002
   3.8566553721987848E-002  -1.1423400765642903E-002   4.3646545831339076E-002
   3.6688729641011927E-002  -1.0832814762920305E-002   4.3730279875508787E-002
   3.4810905560036062E-002  -1.0237837980440506E-002   4.4005158546627836E-002
   3.7656305760346814E-002  -1.1155956826842783E-002   4.8910988441359604E-002
   3.5973126795252719E-002  -1.0649963619812242E-002   4.8638247228446174E-002
   3.4289947830158568E-002  -1.0123564550517189E-002   4.8563651620346482E-002
   3.2606768865064459E-002  -9.5767596189570911E-003   4.8687201617060610E-002
   3.0923589899970322E-002  -9.0095488251322742E-003   4.9008897218588587E-002
   4.6700367130211251E-002  -1.3922705446365202E-002   2.8875391846338916E-002
   4.4441179919860740E-002  -1.3248284747678196E-002   2.8396978535419115E-002
   4.2181992709510230E-002  -1.2537917680740335E-002   2.8042898578392983E-002
   3.9922805499159719E-002  -1.1791604245552041E-002   2.7813151975260325E-002
   3.7663618288809264E-002  -1.1009344442112545E-002   2.7707738726020725E-002
   4.2699294175156555E-002  -1.2694416291057053E-002   3.3938405860503063E-002
   4.0569316301808100E-002  -1.2043994152727139E-002   3.3534493886316463E-002
   3.8439338428459702E-002  -1.1366105872058135E-002   3.3264667232240891E-002
   3.6309360555111247E-002  -1.0660751449050467E-002   3.3128925898275860E-002
   3.4179382681762849E-002  -9.9279308837036950E-003   3.3127269884421440E-002
   3.8736140318431422E-002  -1.1466127135748738E-002   3.8981661427265862E-002
   3.6745123748302522E-002  -1.0839703557775721E-002   3.8643770563900753E-002
   3.4754107178173538E-002  -1.0194294063375811E-002   3.8449716986863711E-002
   3.2763090608044582E-002  -9.5298986525487774E-003   3.8399500696154602E-002
   3.0772074037915709E-002  -8.8465173252946783E-003   3.8493121691774101E-002
   3.4810905560036062E-002  -1.0237837980440506E-002   4.4005158546627836E-002
   3.2968602259343942E-002  -9.6354129628246493E-003   4.3724808568171868E-002
   3.1126298958651821E-002  -9.0224822546934660E-003   4.3598047842261844E-002
   2.9283995657959701E-002  -8.3990458560473120E-003   4.3624876368897142E-002
   2.7441692357267580E-002  -7.7651037668858003E-003   4.3805294148078017E-002
   3.0923589899970322E-002  -9.0095488251322742E-003   4.9008897218588587E-002
   2.9239751834932409E-002  -8.4311223678734115E-003   4.8777607899130437E-002
   2.7555913769894524E-002  -7.8506704460113153E-003   4.8709659798435223E-002
   2.5872075704856626E-002  -7.2681930595456315E-003   4.8805052916502639E-002
   2.4188237639818699E-002  -6.6836902084767003E-003   4.9063787253333047E-002
   3.7663618288809264E-002  -1.1009344442112545E-002   2.7707738726020725E-002
   3.5257112248782085E-002  -1.0222709380120598E-002   2.7121811816663177E-002
   3.2850606208754962E-002  -9.4632701692736187E-003   2.6679390191982122E-002
   3.0444100168727783E-002  -8.7310268095719401E-003   2.6380473851976782E-002
   2.8037594128700660E-002  -8.0259793010152292E-003   2.6225062796647269E-002
   3.4179382681762849E-002  -9.9279308837036950E-003   3.3127269884421440E-002
   3.1919615105451798E-002  -9.1904082218755567E-003   3.2598874217042662E-002
   2.9659847529140693E-002  -8.4709475094233433E-003   3.2220450192420313E-002
   2.7400079952829587E-002  -7.7695487463472768E-003   3.1991997810553993E-002
   2.5140312376518509E-002  -7.0862119326471351E-003   3.1913517071443631E-002
   3.0772074037915709E-002  -8.8465173252946783E-003   3.8493121691774101E-002
   2.8665511283400849E-002  -8.1581070636306263E-003   3.8031391168143414E-002
   2.6558948528885865E-002  -7.4786248495730678E-003   3.7726098645348677E-002
   2.4452385774370936E-002  -6.8080706831226134E-003   3.7577244123390446E-002
   2.2345823019856020E-002  -6.1464445642786525E-003   3.7584827602268306E-002
   2.7441692357267580E-002  -7.7651037668858003E-003   4.3805294148078017E-002
   2.5494800782629019E-002  -7.1258059053857514E-003   4.3419362669964032E-002
   2.3547909207990457E-002  -6.4863021897229034E-003   4.3196335550766782E-002
   2.1601017633351861E-002  -5.8465926198980056E-003   4.3136212790485920E-002
   1.9654126058713271E-002  -5.2066771959102531E-003   4.3238994389121106E-002
   2.4188237639818699E-002  -6.6836902084767003E-003   4.9063787253333047E-002
   2.2407483603136602E-002  -6.0935047471404880E-003   4.8762788722505779E-002
   2.0626729566454505E-002  -5.4939795298725447E-003   4.8631160908674753E-002
   1.8845975529772366E-002  -4.8851145566730717E-003   4.8668903811840553E-002
   1.7065221493090227E-002  -4.2669098275419648E-003   4.8876017432002650E-002
   2.8037594128700660E-002  -8.0259793010152292E-003   2.6225062796647269E-002
   2.5697918593279967E-002  -7.3063057763587125E-003   2.5660828544628811E-002
   2.3358243057859218E-002  -6.5301843683561456E-003   2.5037973075271724E-002
   2.1018567522438414E-002  -5.6976150770085762E-003   2.4356496388575871E-002
   1.8678891987017721E-002  -4.8085979023154701E-003   2.3616398484540668E-002
   2.5140312376518509E-002  -7.0862119326471351E-003   3.1913517071443631E-002
   2.2781359859393807E-002  -6.4053251222380703E-003   3.1526224363648880E-002
   2.0422407342269147E-002  -5.7112763690365664E-003   3.1158998909785407E-002
   1.8063454825144473E-002  -5.0040656730422906E-003   3.0811840709852573E-002
   1.5704502308019785E-002  -4.2836930342546875E-003   3.0484749763850849E-002
   2.2345823019856020E-002  -6.1464445642786525E-003   3.7584827602268306E-002
   2.0046281992297188E-002  -5.5043444681179832E-003   3.7331190498145039E-002
   1.7746740964738286E-002  -4.8923683697167791E-003   3.7176309119222276E-002
   1.5447199937179384E-002  -4.3105162690755643E-003   3.7120183465500091E-002
   1.3147658909620552E-002  -3.7587881661937383E-003   3.7162813536978756E-002
   1.9654126058713271E-002  -5.2066771959102531E-003   4.3238994389121106E-002
   1.7492684991989971E-002  -4.6033638139977295E-003   4.3075726948116372E-002
   1.5331243925266618E-002  -4.0734603703969849E-003   4.3089903703582219E-002
   1.3169802858543290E-002  -3.6169668651087252E-003   4.3281524655518218E-002
   1.1008361791819965E-002  -3.2338832981328169E-003   4.3650589803924750E-002
   1.7065221493090227E-002  -4.2669098275419648E-003   4.8876017432002650E-002
   1.5120568858472183E-002  -3.7023831598772539E-003   4.8759833713563960E-002
   1.3175916223854126E-002  -3.2545523710774682E-003   4.8899782662865321E-002
   1.1231263589236019E-002  -2.9234174611426772E-003   4.9295864279906981E-002
   9.2866109546179687E-003  -2.7089784300720066E-003   4.9948078564688525E-002
   1.8678891987017721E-002  -4.8085979023154701E-003   2.3616398484540668E-002
   1.5655392517835376E-002  -4.0802968875466306E-003   2.4398497760124593E-002
   1.2631893048652920E-002  -3.7298760759711946E-003   2.5655763784615648E-002
   9.6083935794704922E-003  -3.7573354675899395E-003   2.7388196558013528E-002
   6.5848941102881198E-003  -4.1626750624025322E-003   2.9595796080318260E-002
   1.5704502308019785E-002  -4.2836930342546875E-003   3.0484749763850849E-002
   1.3137567670453237E-002  -3.7743730025118771E-003   3.1259219722704013E-002
   1.0570633032886592E-002  -3.7003201276510911E-003   3.2471652595881917E-002
   8.0036983953199956E-003  -4.0615344096725514E-003   3.4122048383384340E-002
   5.4367637577533989E-003  -4.8580158485760361E-003   3.6210407085211060E-002
   1.3147658909620552E-002  -3.7587881661937383E-003   3.7162813536978756E-002
   1.1000085269087315E-002  -3.4684491174770127E-003   3.7872267225413037E-002
   8.8525116285540564E-003  -3.6707641793307655E-003   3.8982479993589780E-002
   6.7049379880208052E-003  -4.3657333517550523E-003   4.0493451841508377E-002
   4.5573643474875608E-003  -5.5533566347497065E-003   4.2405182769169020E-002
   1.1008361791819965E-002  -3.2338832981328169E-003   4.3650589803924750E-002
   9.2429453137375557E-003  -3.1625252324422592E-003   4.4237640268251804E-002
   7.4775288356551707E-003  -3.6412082310104399E-003   4.5188245977738739E-002
   5.7121123575727979E-003  -4.6699322938376087E-003   4.6502406932385339E-002
   3.9466958794904285E-003  -6.2486974209231827E-003   4.8180123132191562E-002
   9.2866109546179687E-003  -2.7089784300720066E-003   4.9948078564688525E-002
   7.8661478044040334E-003  -2.8566013474075058E-003   5.0355338851220455E-002
   6.4456846541900426E-003  -3.6116522826903641E-003   5.1088950548329459E-002
   5.0252215039761072E-003  -4.9741312359202275E-003   5.2148913656015455E-002
   3.6047583537621164E-003  -6.9440382070969919E-003   5.3535228174278582E-002
   6.5848941102881198E-003  -4.1626750624025322E-003   2.9595796080318260E-002
   6.0564324325581009E-003  -6.1424245842257585E-003   3.4074728393741260E-002
   5.5279707548279988E-003  -1.0893113756877820E-002   3.9238439111557055E-002
   4.9995090770978690E-003  -1.8414742580358155E-002   4.5086928233765672E-002
   4.4710473993678779E-003  -2.8707311054666729E-002   5.1620195760366361E-002
   5.4367637577533989E-003  -4.8580158485760361E-003   3.6210407085211060E-002
   5.4893515165676809E-003  -6.9906706854269141E-003   3.8350331728134179E-002
   5.5419392753820046E-003  -1.1360405161290055E-002   4.0967576839753495E-002
   5.5945270341961548E-003  -1.7967219276165167E-002   4.4062142420068479E-002
   5.6471147930105547E-003  -2.6811113030053679E-002   4.7634028469079714E-002
   4.5573643474875608E-003  -5.5533566347497065E-003   4.2405182769169020E-002
   4.9835436071494071E-003  -7.8389167866277920E-003   4.2739959753408330E-002
   5.4097228668113020E-003  -1.1827696565702192E-002   4.3344599270646614E-002
   5.8359021264733010E-003  -1.7519695971973070E-002   4.4219101320884684E-002
   6.2620813861350433E-003  -2.4914915005440186E-002   4.5363465904121436E-002
   3.9466958794904285E-003  -6.2486974209231827E-003   4.8180123132191562E-002
   4.5390087043032656E-003  -8.6871628878286977E-003   4.7243612469562837E-002
   5.1313215291161791E-003  -1.2294987970114045E-002   4.6369506404236829E-002
   5.7236343539289244E-003  -1.7072172667780529E-002   4.5557804936212740E-002
   6.3159471787419263E-003  -2.3018716980826803E-002   4.4808508065491887E-002
   3.6047583537621164E-003  -6.9440382070969919E-003   5.3535228174278582E-002
   4.1557468080292703E-003  -9.5354089890297145E-003   5.1861289876597993E-002
   4.7067352622963132E-003  -1.2762279374526703E-002   5.0042298240523475E-002
   5.2577237165634255E-003  -1.6624649363588019E-002   4.8078253266054610E-002
   5.8087121708304545E-003  -2.1122518956213643E-002   4.5969154953191094E-002
   5.0817680561781486E-002  -1.4877195627754747E-002   4.9319017186090941E-002
   4.9002278400365418E-002  -1.4524561778777867E-002   4.8485491327149688E-002
   4.7186876238949349E-002  -1.4124708302473657E-002   4.8056037651961564E-002
   4.5371474077533280E-002  -1.3677635198842259E-002   4.8030656160526472E-002
   4.3556071916117239E-002  -1.3183342467883552E-002   4.8409346852844259E-002
   4.4075848387448463E-002  -1.2999803841170943E-002   5.2737123196849034E-002
   4.2628903477309660E-002  -1.2688582734229265E-002   5.2105836474110545E-002
   4.1181958567170746E-002  -1.2338475926099934E-002   5.1807392070173597E-002
   3.9735013657031901E-002  -1.1949483416782952E-002   5.1841789985038050E-002
   3.8288068746893042E-002  -1.1521605206278290E-002   5.2209030218703878E-002
   3.7528817617536528E-002  -1.1122412054587083E-002   5.6117983428641702E-002
   3.6379100093723318E-002  -1.0852603689680690E-002   5.5680601915966327E-002
   3.5229382569910095E-002  -1.0552243549726205E-002   5.5504832857140966E-002
   3.4079665046096858E-002  -1.0221331634723616E-002   5.5590676252165364E-002
   3.2929947522283627E-002  -9.8598679446730286E-003   5.5938132101039664E-002
   3.1176588252045626E-002  -9.2450202680032373E-003   5.9461597881468917E-002
   3.0252868249606459E-002  -9.0166246451320736E-003   5.9209787652717102E-002
   2.9329148247167300E-002  -8.7660111733523956E-003   5.9148360012863659E-002
   2.8405428244728147E-002  -8.4931798526643489E-003   5.9277314961908516E-002
   2.7481708242289002E-002  -8.1981306830677947E-003   5.9596652499851598E-002
   2.5019160290975756E-002  -7.3676284814194193E-003   6.2767966555330790E-002
   2.4250207944959107E-002  -7.1806456005835406E-003   6.2693393684362830E-002
   2.3481255598942430E-002  -6.9797787969786973E-003   6.2737973537341674E-002
   2.2712303252925788E-002  -6.7650280706050142E-003   6.2901706114267264E-002
   2.1943350906909131E-002  -6.5363934214625052E-003   6.3184591415139602E-002
   4.3556071916117239E-002  -1.3183342467883552E-002   4.8409346852844259E-002
   4.2081130377174619E-002  -1.2668203956851781E-002   4.8324005145707200E-002
   4.0606188838232027E-002  -1.2158593513000887E-002   4.8379164841414080E-002
   3.9131247299289428E-002  -1.1654511136331515E-002   4.8574825939964900E-002
   3.7656305760346814E-002  -1.1155956826842783E-002   4.8910988441359604E-002
   3.8288068746893042E-002  -1.1521605206278290E-002   5.2209030218703878E-002
   3.6960507663349809E-002  -1.1075288250157744E-002   5.2036681370168480E-002
   3.5632946579806611E-002  -1.0630979503993103E-002   5.2018592029588043E-002
   3.4305385496263358E-002  -1.0188678967784538E-002   5.2154762196962350E-002
   3.2977824412720139E-002  -9.7483866415315479E-003   5.2445191872291685E-002
   3.2929947522283627E-002  -9.8598679446730286E-003   5.5938132101039664E-002
   3.1763524999250684E-002  -9.4823725434637490E-003   5.5682295968331193E-002
   3.0597102476217764E-002  -9.1033654949852078E-003   5.5594477448688548E-002
   2.9430679953184845E-002  -8.7228467992375054E-003   5.5674676542111591E-002
   2.8264257430151901E-002  -8.3408164562204234E-003   5.5922893248600392E-002
   2.7481708242289002E-002  -8.1981306830677947E-003   5.9596652499851598E-002
   2.6490182384877256E-002  -7.8894568367698439E-003   5.9260848940195163E-002
   2.5498656527465559E-002  -7.5757514859773126E-003   5.9106821098715498E-002
   2.4507130670053806E-002  -7.2570146306905562E-003   5.9134568975412478E-002
   2.3515604812642119E-002  -6.9332462709092435E-003   5.9344092570286076E-002
   2.1943350906909131E-002  -6.5363934214625052E-003   6.3184591415139602E-002
   2.1140479820229527E-002  -6.2965411300756891E-003   6.2772340285760508E-002
   2.0337608733549936E-002  -6.0481374769695284E-003   6.2555622979668907E-002
   1.9534737646870332E-002  -5.7911824621435792E-003   6.2534439496864908E-002
   1.8731866560190741E-002  -5.5256760855980636E-003   6.2708789837348511E-002
   3.7656305760346814E-002  -1.1155956826842783E-002   4.8910988441359604E-002
   3.5973126795252719E-002  -1.0649963619812242E-002   4.8638247228446174E-002
   3.4289947830158568E-002  -1.0123564550517189E-002   4.8563651620346482E-002
   3.2606768865064459E-002  -9.5767596189570911E-003   4.8687201617060610E-002
   3.0923589899970322E-002  -9.0095488251322742E-003   4.9008897218588587E-002
   3.2977824412720139E-002  -9.7483866415315479E-003   5.2445191872291685E-002
   3.1494738140691106E-002  -9.3003357826457467E-003   5.2158277681431359E-002
   3.0011651868662025E-002  -8.8347596485377211E-003   5.2073403271887503E-002
   2.8528565596632968E-002  -8.3516582392079361E-003   5.2190568643660021E-002
   2.7045479324603897E-002  -7.8510315546560516E-003   5.2509773796748871E-002
   2.8264257430151901E-002  -8.3408164562204234E-003   5.5922893248600392E-002
   2.6985158027690526E-002  -7.9507079454791130E-003   5.5618925492750632E-002
   2.5706058625229143E-002  -7.5459547465585447E-003   5.5520891694719729E-002
   2.4426959222767771E-002  -7.1265568594587290E-003   5.5628791854507968E-002
   2.3147859820306385E-002  -6.6925142841796070E-003   5.5942625972115023E-002
   2.3515604812642119E-002  -6.9332462709092435E-003   5.9344092570286076E-002
   2.2444386456251027E-002  -6.6010801083125209E-003   5.9020190662403833E-002
   2.1373168099859938E-002  -6.2571498445792503E-003   5.8906116888843382E-002
   2.0301949743468845E-002  -5.9014554797094925E-003   5.9001871249604265E-002
   1.9230731387077756E-002  -5.5339970137031624E-003   5.9307453744686912E-002
   1.8731866560190741E-002  -5.5256760855980636E-003   6.2708789837348511E-002
   1.7872423426372575E-002  -5.2514522711459566E-003   6.2362073190391221E-002
   1.7012980292554394E-002  -4.9683449425999004E-003   6.2229078854258213E-002
   1.6153537158736228E-002  -4.6763540999603392E-003   6.2309806828949432E-002
   1.5294094024918048E-002  -4.3754797432269399E-003   6.2604257114464823E-002
   3.0923589899970322E-002  -9.0095488251322742E-003   4.9008897218588587E-002
   2.9239751834932409E-002  -8.4311223678734115E-003   4.8777607899130437E-002
   2.7555913769894524E-002  -7.8506704460113153E-003   4.8709659798435223E-002
   2.5872075704856626E-002  -7.2681930595456315E-003   4.8805052916502639E-002
   2.4188237639818699E-002  -6.6836902084767003E-003   4.9063787253333047E-002
   2.7045479324603897E-002  -7.8510315546560516E-003   5.2509773796748871E-002
   2.5534145059968094E-002  -7.3399654252641056E-003   5.2270827669529341E-002
   2.4022810795332229E-002  -6.8255456814142745E-003   5.2213547924351122E-002
   2.2511476530696403E-002  -6.3077723231068708E-003   5.2337934561214175E-002
   2.1000142266060562E-002  -5.7866453503413462E-003   5.2643987580118234E-002
   2.3147859820306385E-002  -6.6925142841796070E-003   5.5942625972115023E-002
   2.1827354519350972E-002  -6.2488084826547163E-003   5.5697351186988681E-002
   2.0506849218395608E-002  -5.8004209168173310E-003   5.5652067947182096E-002
   1.9186343917440191E-002  -5.3473515866678291E-003   5.5806776252695013E-002
   1.7865838616484803E-002  -4.8896004922059366E-003   5.6161476103527536E-002
   1.9230731387077756E-002  -5.5339970137031624E-003   5.9307453744686912E-002
   1.8119380213081189E-002  -5.1576515400452577E-003   5.9057178451508367E-002
   1.7008029039084598E-002  -4.7752961522205609E-003   5.9025219866927561E-002
   1.5896677865087996E-002  -4.3869308502288169E-003   5.9211577990944952E-002
   1.4785326691091435E-002  -3.9925556340705548E-003   5.9616252823560138E-002
   1.5294094024918048E-002  -4.3754797432269399E-003   6.2604257114464823E-002
   1.4410222141158668E-002  -4.0664945974359656E-003   6.2350309463088338E-002
   1.3526350257399247E-002  -3.7501713876235410E-003   6.2333003683588073E-002
   1.2642478373639847E-002  -3.4265101137901308E-003   6.2552339775964194E-002
   1.1758606489880447E-002  -3.0955107759350620E-003   6.3008317740216979E-002
   2.4188237639818699E-002  -6.6836902084767003E-003   4.9063787253333047E-002
   2.2407483603136602E-002  -6.0935047471404880E-003   4.8762788722505779E-002
   2.0626729566454505E-002  -5.4939795298725447E-003   4.8631160908674753E-002
   1.8845975529772366E-002  -4.8851145566730717E-003   4.8668903811840553E-002
   1.7065221493090227E-002  -4.2669098275419648E-003   4.8876017432002650E-002
   2.1000142266060562E-002  -5.7866453503413462E-003   5.2643987580118234E-002
   1.9397271880229466E-002  -5.2624576914673815E-003   5.2411347464173641E-002
   1.7794401494398357E-002  -4.7355022748335751E-003   5.2365103932933837E-002
   1.6191531108567261E-002  -4.2057791004399339E-003   5.2505256986400142E-002
   1.4588660722736152E-002  -3.6732881682867147E-003   5.2831806624571320E-002
   1.7865838616484803E-002  -4.8896004922059366E-003   5.6161476103527536E-002
   1.6457877749213631E-002  -4.4314106357940253E-003   5.5990622404293172E-002
   1.5049916881942446E-002  -3.9770250197943696E-003   5.6023191157473270E-002
   1.3641956014671264E-002  -3.5264436442067372E-003   5.6259182363067532E-002
   1.2233995147400097E-002  -3.0796665090315201E-003   5.6698596021076353E-002
   1.4785326691091435E-002  -3.9925556340705548E-003   5.9616252823560138E-002
   1.3589301210089107E-002  -3.6003635801206274E-003   5.9500613542864463E-002
   1.2393275729086779E-002  -3.2185477647553376E-003   5.9605422582292289E-002
   1.1197250248084451E-002  -2.8471081879737920E-003   5.9930679941843243E-002
   1.0001224767082125E-002  -2.4860448497764087E-003   6.0476385621517290E-002
   1.1758606489880447E-002  -3.0955107759350620E-003   6.3008317740216979E-002
   1.0791542262855891E-002  -2.7693165244476181E-003   6.2941320879887908E-002
   9.8244780358313494E-003  -2.4600705097161668E-003   6.3111798207391157E-002
   8.8574138088067800E-003  -2.1677727317405068E-003   6.3519749722726754E-002
   7.8903495817822522E-003  -1.8924231905211863E-003   6.4165175425894505E-002
   1.7065221493090227E-002  -4.2669098275419648E-003   4.8876017432002650E-002
   1.5120568858472183E-002  -3.7023831598772539E-003   4.8759833713563960E-002
   1.3175916223854126E-002  -3.2545523710774682E-003   4.8899782662865321E-002
   1.1231263589236019E-002  -2.9234174611426772E-003   4.9295864279906981E-002
   9.2866109546179687E-003  -2.7089784300720066E-003   4.9948078564688525E-002
   1.4588660722736152E-002  -3.6732881682867147E-003   5.2831806624571320E-002
   1.2899325125322242E-002  -3.1970088189586243E-003   5.2720759069477541E-002
   1.1209989527908332E-002  -2.8359203930403143E-003   5.2864212921052089E-002
   9.5206539304944215E-003  -2.5900228905315487E-003   5.3262168179294550E-002
   7.8313183330805392E-003  -2.4593163114333683E-003   5.3914624844205283E-002
   1.2233995147400097E-002  -3.0796665090315201E-003   5.6698596021076353E-002
   1.0798345326118446E-002  -2.6916344780397727E-003   5.6594189584782267E-002
   9.3626955048367981E-003  -2.4172884150031326E-003   5.6742653294084316E-002
   7.9270456835551593E-003  -2.2566283199213014E-003   5.7143987148982903E-002
   6.4913958622734996E-003  -2.2096541927945079E-003   5.7798191149477401E-002
   1.0001224767082125E-002  -2.4860448497764087E-003   6.0476385621517290E-002
   8.8176294608608274E-003  -2.1862601371211432E-003   6.0380125259477835E-002
   7.6340341546394996E-003  -1.9986564369661314E-003   6.0535103781962855E-002
   6.4504388484181788E-003  -1.9232337493108355E-003   6.0941321188971942E-002
   5.2668435421969022E-003  -1.9599920741557586E-003   6.1598777480505622E-002
   7.8903495817822522E-003  -1.8924231905211863E-003   6.4165175425894505E-002
   6.9571775295493438E-003  -1.6808857962024026E-003   6.4078566093564437E-002
   6.0240054773164492E-003  -1.5800244589286860E-003   6.4241564384686867E-002
   5.0908334250835408E-003  -1.5898391787002308E-003   6.4654170299261848E-002
   4.1576613728506462E-003  -1.7103299555170093E-003   6.5316383837289216E-002
   9.2866109546179687E-003  -2.7089784300720066E-003   4.9948078564688525E-002
   7.8661478044040334E-003  -2.8566013474075058E-003   5.0355338851220455E-002
   6.4456846541900426E-003  -3.6116522826903641E-003   5.1088950548329459E-002
   5.0252215039761072E-003  -4.9741312359202275E-003   5.2148913656015455E-002
   3.6047583537621164E-003  -6.9440382070969919E-003   5.3535228174278582E-002
   7.8313183330805392E-003  -2.4593163114333683E-003   5.3914624844205283E-002
   6.7112548764744762E-003  -2.6430645674962450E-003   5.3850730182067819E-002
   5.5911914198683993E-003  -3.3405315704728433E-003   5.4061283496569301E-002
   4.4711279632623432E-003  -4.5517173203622960E-003   5.4546284787708899E-002
   3.3510645066562872E-003  -6.2766218171654842E-003   5.5305734055487443E-002
   6.4913958622734996E-003  -2.2096541927945079E-003   5.7798191149477401E-002
   5.6198286653367513E-003  -2.4295277875849286E-003   5.7356850809704735E-002
   4.7482614683999683E-003  -3.0694108582549756E-003   5.7138055012632180E-002
   3.8766942714631922E-003  -4.1293034048046941E-003   5.7141803758259467E-002
   3.0051270745264369E-003  -5.6092054272339209E-003   5.7368097046586602E-002
   5.2668435421969022E-003  -1.9599920741557586E-003   6.1598777480505622E-002
   4.5918691709908172E-003  -2.2159910076733624E-003   6.0873700734131043E-002
   3.9168947997847443E-003  -2.7982901460373369E-003   6.0319265096518276E-002
   3.2419204285786870E-003  -3.7068894892470384E-003   5.9935470567666640E-002
   2.5669460573726141E-003  -4.9417890373023854E-003   5.9722317147576566E-002
   4.1576613728506462E-003  -1.7103299555170093E-003   6.5316383837289216E-002
   3.6273763934367154E-003  -2.0024542277623514E-003   6.4401279955347057E-002
   3.0970914140227429E-003  -2.5271694338195039E-003   6.3604913748227465E-002
   2.5668064346087774E-003  -3.2844755736895284E-003   6.2927285215931078E-002
   2.0365214551948119E-003  -4.2743726473709609E-003   6.2368394358457313E-002
   3.6047583537621164E-003  -6.9440382070969919E-003   5.3535228174278582E-002
   4.1557468080292703E-003  -9.5354089890297145E-003   5.1861289876597993E-002
   4.7067352622963132E-003  -1.2762279374526703E-002   5.0042298240523475E-002
   5.2577237165634255E-003  -1.6624649363588019E-002   4.8078253266054610E-002
   5.8087121708304545E-003  -2.1122518956213643E-002   4.5969154953191094E-002
   3.3510645066562872E-003  -6.2766218171654842E-003   5.5305734055487443E-002
   3.7744448491125043E-003  -8.5458038398707470E-003   5.2951829445137932E-002
   4.1978251915686937E-003  -1.1389822167467645E-002   5.0487761949560561E-002
   4.6212055340249594E-003  -1.4808676799956205E-002   4.7913531568756496E-002
   5.0445858764811002E-003  -1.8802367737336123E-002   4.5229138302723459E-002
   3.0051270745264369E-003  -5.6092054272339209E-003   5.7368097046586602E-002
   3.3357897583382312E-003  -7.5561986907123901E-003   5.4394889422241355E-002
   3.6664524421500255E-003  -1.0017364960409017E-002   5.1346409365835025E-002
   3.9971151259617539E-003  -1.2992704236324499E-002   4.8222656877367230E-002
   4.3277778097736141E-003  -1.6482216518458603E-002   4.5023631956838672E-002
   2.5669460573726141E-003  -4.9417890373023854E-003   5.9722317147576566E-002
   2.8397815357064302E-003  -6.5665935415538390E-003   5.6190469807908788E-002
   3.1126170140402150E-003  -8.6449077533502852E-003   5.2618240489345658E-002
   3.3854524923740770E-003  -1.1176731672692961E-002   4.9005629191888202E-002
   3.6582879707078159E-003  -1.4162065299581084E-002   4.5352635915535705E-002
   2.0365214551948119E-003  -4.2743726473709609E-003   6.2368394358457313E-002
   2.2864201812171220E-003  -5.5769883923953989E-003   5.8338570602139206E-002
   2.5363189072393905E-003  -7.2724505462914146E-003   5.4303255320093113E-002
   2.7862176332617075E-003  -9.3607591090609996E-003   5.0262448512318453E-002
   3.0361163592839691E-003  -1.1841914080703564E-002   4.6216150178815418E-002
   2.5019160290975756E-002  -7.3676284814194193E-003   6.2767966555330790E-002
   2.4250207944959107E-002  -7.1806456005835406E-003   6.2693393684362830E-002
   2.3481255598942430E-002  -6.9797787969786973E-003   6.2737973537341674E-002
   2.2712303252925788E-002  -6.7650280706050142E-003   6.2901706114267264E-002
   2.1943350906909131E-002  -6.5363934214625052E-003   6.3184591415139602E-002
   1.8910442317400661E-002  -5.5257211010142915E-003   6.3421048602981200E-002
   1.8278914039901131E-002  -5.3854840536343151E-003   6.3279514095921613E-002
   1.7647385762401636E-002  -5.2348340314842950E-003   6.3293675001949740E-002
   1.7015857484902124E-002  -5.0737710345642485E-003   6.3463531321065317E-002
   1.6384329207402605E-002  -4.9022950628741513E-003   6.3789083053268580E-002
   1.2704342914394116E-002  -3.6838137206091082E-003   6.4029120291174801E-002
   1.2246781394552576E-002  -3.5903225066851313E-003   6.3817153200025081E-002
   1.1789219874711061E-002  -3.4898892659898928E-003   6.3797424211103529E-002
   1.1331658354869533E-002  -3.3825139985234828E-003   6.3969933324410547E-002
   1.0874096835028005E-002  -3.2681967042857973E-003   6.4334680539945788E-002
   6.4008620819560828E-003  -1.8419063402039526E-003   6.4592181619912190E-002
   6.1538100089133917E-003  -1.7951609597358989E-003   6.4306310996672986E-002
   5.9067579358707068E-003  -1.7449445004955183E-003   6.4249221164803194E-002
   5.6597058628280114E-003  -1.6912569624827449E-003   6.4420912124302607E-002
   5.4126537897853239E-003  -1.6340983456974434E-003   6.4821383875171251E-002
  -1.7991338974177040E-010   1.0402012029508967E-009   6.5110232589192740E-002
  -1.1701640351136078E-010   5.8721327800270728E-010   6.4746987485865604E-002
  -5.4119417280951154E-011   2.6499884231423465E-010   6.4649065863048666E-002
   8.7775689494584697E-012   7.3558072827273335E-011   6.4816467720741608E-002
   7.1674551710421142E-011   1.2890910561225155E-011   6.5249193058944777E-002
   2.1943350906909131E-002  -6.5363934214625052E-003   6.3184591415139602E-002
   2.1140479820229527E-002  -6.2965411300756891E-003   6.2772340285760508E-002
   2.0337608733549936E-002  -6.0481374769695284E-003   6.2555622979668907E-002
   1.9534737646870332E-002  -5.7911824621435792E-003   6.2534439496864908E-002
   1.8731866560190741E-002  -5.5256760855980636E-003   6.2708789837348511E-002
   1.6384329207402605E-002  -4.9022950628741513E-003   6.3789083053268580E-002
   1.5778287930336421E-002  -4.7224058432149274E-003   6.3434399678791165E-002
   1.5172246653270233E-002  -4.5361031023873621E-003   6.3277842100252932E-002
   1.4566205376204041E-002  -4.3433868403914347E-003   6.3319410317654062E-002
   1.3960164099137848E-002  -4.1442570572272075E-003   6.3559104330994293E-002
   1.0874096835028005E-002  -3.2681967042857973E-003   6.4334680539945788E-002
   1.0467477340226884E-002  -3.1482705563539576E-003   6.4035427079818866E-002
   1.0060857845425757E-002  -3.0240687278051404E-003   6.3936891388282693E-002
   9.6542383506246290E-003  -2.8955912186392901E-003   6.4039073465337423E-002
   9.2476188558235084E-003  -2.7628380288564069E-003   6.4341973310983125E-002
   5.4126537897853239E-003  -1.6340983456974434E-003   6.4821383875171251E-002
   5.2080480499009218E-003  -1.5741352694929808E-003   6.4575422488843320E-002
   5.0034423100165162E-003  -1.5120343532228908E-003   6.4532770843758011E-002
   4.7988365701321003E-003  -1.4477955968870901E-003   6.4693428939915198E-002
   4.5942308302477069E-003  -1.3814190004855231E-003   6.5057396777315007E-002
   7.1674551710421142E-011   1.2890910561225155E-011   6.5249193058944777E-002
   5.9358521570240796E-011   1.7367829396874868E-011   6.5054385905864820E-002
   4.7042493164783927E-011   2.1359303215007230E-011   6.5065480466678954E-002
   3.4726466494050534E-011   2.4865040582078279E-011   6.5282476741387263E-002
   2.2410434619146713E-011   2.7885305176056363E-011   6.5705374729989829E-002
   1.8731866560190741E-002  -5.5256760855980636E-003   6.2708789837348511E-002
   1.7872423426372575E-002  -5.2514522711459566E-003   6.2362073190391221E-002
   1.7012980292554394E-002  -4.9683449425999004E-003   6.2229078854258213E-002
   1.6153537158736228E-002  -4.6763540999603392E-003   6.2309806828949432E-002
   1.5294094024918048E-002  -4.3754797432269399E-003   6.2604257114464823E-002
   1.3960164099137848E-002  -4.1442570572272075E-003   6.3559104330994293E-002
   1.3314727894508181E-002  -3.9385891966097208E-003   6.3279602594055850E-002
   1.2669291689878508E-002  -3.7262587022538762E-003   6.3214392404670319E-002
   1.2023855485248831E-002  -3.5072655741595418E-003   6.3363473762837602E-002
   1.1378419280619154E-002  -3.2816098123267246E-003   6.3726846668557491E-002
   9.2476188558235084E-003  -2.7628380288564069E-003   6.4341973310983125E-002
   8.8167588171108903E-003  -2.6257261220736100E-003   6.4127465603708217E-002
   8.3858987783982583E-003  -2.4841724619075745E-003   6.4127818680714765E-002
   7.9550387396856367E-003  -2.3381770483585779E-003   6.4343032542002437E-002
   7.5241787009730152E-003  -2.1877398814266202E-003   6.4773107187571649E-002
   4.5942308302477069E-003  -1.3814190004855231E-003   6.5057396777315007E-002
   4.3785161941806740E-003  -1.3128630475373812E-003   6.4905662219348320E-002
   4.1628015581136428E-003  -1.2420862215613282E-003   6.4969357682391496E-002
   3.9470869220466142E-003  -1.1690885225576972E-003   6.5248483166444576E-002
   3.7313722859795787E-003  -1.0938699505263494E-003   6.5743038671507520E-002
   2.2410434619146713E-011   2.7885305176056363E-011   6.5705374729989829E-002
   2.5717553087112321E-011   2.6998764335317560E-011   6.5614192440975994E-002
   2.9024671555077930E-011   1.8784779287628339E-011   6.5739009409700566E-002
   3.2331790023043538E-011   3.2432737051557581E-012   6.6079825636163464E-002
   3.5638908491009147E-011  -1.9626356095869824E-011   6.6636641120364881E-002
   1.5294094024918048E-002  -4.3754797432269399E-003   6.2604257114464823E-002
   1.4410222141158668E-002  -4.0664945974359656E-003   6.2350309463088338E-002
   1.3526350257399247E-002  -3.7501713876235410E-003   6.2333003683588073E-002
   1.2642478373639847E-002  -3.4265101137901308E-003   6.2552339775964194E-002
   1.1758606489880447E-002  -3.0955107759350620E-003   6.3008317740216979E-002
   1.1378419280619154E-002  -3.2816098123267246E-003   6.3726846668557491E-002
   1.0727270793896883E-002  -3.0498709587372941E-003   6.3536835513892359E-002
   1.0076122307174598E-002  -2.8126285553734254E-003   6.3575629281425239E-002
   9.4249738204523169E-003  -2.5698826022348062E-003   6.3843227971155783E-002
   8.7738253337300426E-003  -2.3216330993215406E-003   6.4339631583084367E-002
   7.5241787009730152E-003  -2.1877398814266202E-003   6.4773107187571649E-002
   7.0979166616093499E-003  -2.0332473200389278E-003   6.4645198015371469E-002
   6.6716546222456742E-003  -1.8750857231234347E-003   6.4738256815690551E-002
   6.2453925828820107E-003  -1.7132550906798182E-003   6.5052283588528909E-002
   5.8191305435183333E-003  -1.5477554227081858E-003   6.5587278333886861E-002
   3.7313722859795787E-003  -1.0938699505263494E-003   6.5743038671507520E-002
   3.5221597442960436E-003  -1.0166236813405755E-003   6.5675396967525446E-002
   3.3129472026124885E-003  -9.3754289087338155E-004   6.5820886286384314E-002
   3.1037346609289374E-003  -8.5662757912471736E-004   6.6179506628083848E-002
   2.8945221192453845E-003  -7.7387774609480320E-004   6.6751257992624519E-002
   3.5638908491009147E-011  -1.9626356095869824E-011   6.6636641120364881E-002
   4.1956965679545988E-011  -4.2642001041315325E-011   6.6627432370354345E-002
   4.8275026337529781E-011  -5.8623120247069949E-011   6.6823517693506279E-002
   5.4593083526066621E-011  -6.7569592282490376E-011   6.7224897089820504E-002
   6.0911144184050414E-011  -6.9481309594721097E-011   6.7831570559297005E-002
   1.1758606489880447E-002  -3.0955107759350620E-003   6.3008317740216979E-002
   1.0791542262855891E-002  -2.7693165244476181E-003   6.2941320879887908E-002
   9.8244780358313494E-003  -2.4600705097161668E-003   6.3111798207391157E-002
   8.8574138088067800E-003  -2.1677727317405068E-003   6.3519749722726754E-002
   7.8903495817822522E-003  -1.8924231905211863E-003   6.4165175425894505E-002
   8.7738253337300426E-003  -2.3216330993215406E-003   6.4339631583084367E-002
   8.0453082611851925E-003  -2.0769874098801600E-003   6.4288964348604261E-002
   7.3167911886403564E-003  -1.8450528971577229E-003   6.4477917235251370E-002
   6.5882741160955133E-003  -1.6258295611536674E-003   6.4906490243025625E-002
   5.8597570435506702E-003  -1.4193174018685140E-003   6.5574683371927123E-002
   5.8191305435183333E-003  -1.5477554227081858E-003   6.5587278333886861E-002
   5.3313065587481806E-003  -1.3846582953131181E-003   6.5557177785293158E-002
   4.8434825739780106E-003  -1.2300352845995149E-003   6.5768843291121384E-002
   4.3556585892078510E-003  -1.0838863905669426E-003   6.6222274851371860E-002
   3.8678346044376880E-003  -9.4621161321578606E-004   6.6917472466044597E-002
   2.8945221192453845E-003  -7.7387774609480320E-004   6.6751257992624519E-002
   2.6495371555448604E-003  -6.9232918074592364E-004   6.6745961189954295E-002
   2.4045521918443355E-003  -6.1501767204118901E-004   6.6984576375001270E-002
   2.1595672281438001E-003  -5.4194321998032695E-004   6.7467103547765084E-002
   1.9145822644432865E-003  -4.7310582456308592E-004   6.8193542708246527E-002
   6.0911144184050414E-011  -6.9481309594721097E-011   6.7831570559297005E-002
   5.1575223258826242E-011  -6.6178673652217412E-011   6.7855314562587921E-002
   4.2239298864155117E-011  -5.9482918590703093E-011   6.8125116486890736E-002
   3.2903372734760516E-011  -4.9393336642999941E-011   6.8640976332205728E-002
   2.3567453544259820E-011  -3.5910385776105613E-011   6.9402894098532730E-002
   7.8903495817822522E-003  -1.8924231905211863E-003   6.4165175425894505E-002
   6.9571775295493438E-003  -1.6808857962024026E-003   6.4078566093564437E-002
   6.0240054773164492E-003  -1.5800244589286860E-003   6.4241564384686867E-002
   5.0908334250835408E-003  -1.5898391787002308E-003   6.4654170299261848E-002
   4.1576613728506462E-003  -1.7103299555170093E-003   6.5316383837289216E-002
   5.8597570435506702E-003  -1.4193174018685140E-003   6.5574683371927123E-002
   5.1721139620376291E-003  -1.2606643529260997E-003   6.5425823935477134E-002
   4.4844708805245742E-003  -1.1850183479511778E-003   6.5518414817013981E-002
   3.7968277990115401E-003  -1.1923793869430613E-003   6.5852456016538163E-002
   3.1091847174984782E-003  -1.2827474699022012E-003   6.6427947534049459E-002
   3.8678346044376880E-003  -9.4621161321578606E-004   6.6917472466044597E-002
   3.4175631881792519E-003  -8.4044290964996327E-004   6.6734031938552124E-002
   2.9672917719208262E-003  -7.9001223697322542E-004   6.6783884423581630E-002
   2.5170203556623971E-003  -7.9491959518566968E-004   6.7067029921133128E-002
   2.0667489394039645E-003  -8.5516498428739318E-004   6.7583468431206800E-002
   1.9145822644432865E-003  -4.7310582456308592E-004   6.8193542708246527E-002
   1.6935252079742355E-003  -4.2022146637379909E-004   6.8003190102789712E-002
   1.4724681515051923E-003  -3.9500612599566165E-004   6.8037973204389604E-002
   1.2514110950361517E-003  -3.9745980342838910E-004   6.8297892013046452E-002
   1.0303540385670981E-003  -4.2758249867247411E-004   6.8782946528760019E-002
   2.3567453544259820E-011  -3.5910385776105613E-011   6.9402894098532730E-002
   2.1422572049623057E-011  -2.3097523893511607E-011   6.9233298428189927E-002
   1.9277690554986293E-011  -1.5017653787197105E-011   6.9280681159438251E-002
   1.7132805590902578E-011  -1.1671358324250036E-011   6.9545042292278397E-002
   1.4987927565712766E-011  -1.3057777081826316E-011   7.0026381826709949E-002
   4.1576613728506462E-003  -1.7103299555170093E-003   6.5316383837289216E-002
   3.6273763934367154E-003  -2.0024542277623514E-003   6.4401279955347057E-002
   3.0970914140227429E-003  -2.5271694338195039E-003   6.3604913748227465E-002
   2.5668064346087774E-003  -3.2844755736895284E-003   6.2927285215931078E-002
   2.0365214551948119E-003  -4.2743726473709609E-003   6.2368394358457313E-002
   3.1091847174984782E-003  -1.2827474699022012E-003   6.6427947534049459E-002
   2.7010958052852557E-003  -1.5018406748277258E-003   6.5318825854854268E-002
   2.2930068930720263E-003  -1.8953770797185410E-003   6.4335358635237538E-002
   1.8849179808587933E-003  -2.4633566845748689E-003   6.3477545875199493E-002
   1.4768290686455604E-003  -3.2057794893967095E-003   6.2745387574740130E-002
   2.0667489394039645E-003  -8.5516498428739318E-004   6.7583468431206800E-002
   1.7877728791473105E-003  -1.0012271218929891E-003   6.6338476688604903E-002
   1.5087968188906599E-003  -1.2635847256173421E-003   6.5226056190337459E-002
   1.2298207586340180E-003  -1.6422377954603169E-003   6.4246206936404621E-002
   9.5084469837735525E-004  -2.1371863314219586E-003   6.3398928926806125E-002
   1.0303540385670981E-003  -4.2758249867247411E-004   6.8782946528760019E-002
   8.8740761502289003E-004  -5.0061356895836351E-004   6.7460232456598476E-002
   7.4446119147865333E-004  -6.3179237151609474E-004   6.6277006413527295E-002
   6.0151476793442399E-004  -8.2111890634604424E-004   6.5233268399546268E-002
   4.5856834439019466E-004  -1.0685931734477905E-003   6.4329018414655686E-002
   1.4987927565712766E-011  -1.3057777081826316E-011   7.0026381826709949E-002
   1.2911970104223514E-011  -1.6023682380961191E-011   6.8684093158835391E-002
   1.0836002234393405E-011  -1.7415180408875131E-011   6.7488209304807034E-002
   8.7600413034572000E-012  -1.7231160942543511E-011   6.6438730264624712E-002
   6.6840769030740432E-012  -1.5472956249595882E-011   6.5535656038288481E-002
   2.0365214551948119E-003  -4.2743726473709609E-003   6.2368394358457313E-002
   2.2864201812171220E-003  -5.5769883923953989E-003   5.8338570602139206E-002
   2.5363189072393905E-003  -7.2724505462914146E-003   5.4303255320093113E-002
   2.7862176332617075E-003  -9.3607591090609996E-003   5.0262448512318453E-002
   3.0361163592839691E-003  -1.1841914080703564E-002   4.6216150178815418E-002
   1.4768290686455604E-003  -3.2057794893967095E-003   6.2745387574740130E-002
   1.7069904799536934E-003  -4.1827412977312739E-003   5.8391285437750240E-002
   1.9371518912618610E-003  -5.4543379131268277E-003   5.4003200197060786E-002
   2.1673133025699974E-003  -7.0205693355831905E-003   4.9581131852671684E-002
   2.3974747138781338E-003  -8.8814355651010146E-003   4.5125080404581741E-002
   9.5084469837735525E-004  -2.1371863314219586E-003   6.3398928926806125E-002
   1.1327772169996905E-003  -2.7884942030677595E-003   5.8818760010956872E-002
   1.3147097356220293E-003  -3.6362252799620326E-003   5.4176116413436212E-002
   1.4966422542443836E-003  -4.6803795621055515E-003   4.9470998134243958E-002
   1.6785747728667172E-003  -5.9209570494982433E-003   4.4703405173379451E-002
   4.5856834439019466E-004  -1.0685931734477905E-003   6.4329018414655686E-002
   5.6378039235505453E-004  -1.3942471084041619E-003   5.9620994321758755E-002
   6.6899244031992048E-004  -1.8181126467973416E-003   5.4822003969218200E-002
   7.7420448828477125E-004  -2.3401897886278274E-003   4.9932047357034569E-002
   8.7941653624964630E-004  -2.9604785338955830E-003   4.4951124485206856E-002
   6.6840769030740432E-012  -1.5472956249595882E-011   6.5535656038288481E-002
   6.0197957729712925E-012  -1.3740342197365862E-011   6.0797988370155598E-002
   5.3555111734215899E-012  -1.3632484030523528E-011   5.5940862864407248E-002
   4.6912369822127431E-012  -1.5149950738369000E-011   5.0964279521044376E-002
   4.0269454437691365E-012  -1.8292922732143779E-011   4.5868238340066370E-002
  -1.7991338974177040E-010   1.0402012029508967E-009   6.5110232589192740E-002
  -1.1701640351136078E-010   5.8721327800270728E-010   6.4746987485865604E-002
  -5.4119417280951154E-011   2.6499884231423465E-010   6.4649065863048666E-002
   8.7775689494584697E-012   7.3558072827273335E-011   6.4816467720741608E-002
   7.1674551710421142E-011   1.2890910561225155E-011   6.5249193058944777E-002
  -6.4008624352452151E-003   1.8419076438577764E-003   6.4592180857102943E-002
  -6.1538102401988530E-003   1.7951617382587770E-003   6.4306310446970355E-002
  -5.9067580451524666E-003   1.7449448999830725E-003   6.4249220820626340E-002
  -5.6597058501060976E-003   1.6912571290307772E-003   6.4420911978071177E-002
  -5.4126536550597251E-003   1.6340984254017421E-003   6.4821383919304643E-002
  -1.2704343248070309E-002   3.6838142475143221E-003   6.4029119204127252E-002
  -1.2246781617595974E-002   3.5903228893042483E-003   6.3817152423738935E-002
  -1.1789219987121605E-002   3.4898895349672263E-003   6.3797423730417774E-002
  -1.1331658356647260E-002   3.3825141845033168E-003   6.3969933124163922E-002
  -1.0874096726172908E-002   3.2681968379124626E-003   6.4334680604977351E-002
  -1.8910442618388666E-002   5.5257208511708539E-003   6.3421047630265584E-002
  -1.8278914249207766E-002   5.3854840403497195E-003   6.3279513416171190E-002
  -1.7647385880026848E-002   5.2348341699513905E-003   6.3293674592422716E-002
  -1.7015857510845930E-002   5.0737712399759110E-003   6.3463531159020009E-002
  -1.6384329141665016E-002   4.9022952504232109E-003   6.3789083115963180E-002
  -2.5019160546200292E-002   7.3676274548274412E-003   6.2767966135518050E-002
  -2.4250208135034236E-002   7.1806451913952185E-003   6.2693393424267385E-002
  -2.3481255723868152E-002   6.9797788049355547E-003   6.2737973406641168E-002
  -2.2712303312702076E-002   6.7650282954485608E-003   6.2901706082639369E-002
  -2.1943350901536023E-002   6.5363936629339592E-003   6.3184591452261962E-002
   7.1674551710421142E-011   1.2890910561225155E-011   6.5249193058944777E-002
   5.9358521570240796E-011   1.7367829396874868E-011   6.5054385905864820E-002
   4.7042493164783927E-011   2.1359303215007230E-011   6.5065480466678954E-002
   3.4726466494050534E-011   2.4865040582078279E-011   6.5282476741387263E-002
   2.2410434619146713E-011   2.7885305176056363E-011   6.5705374729989829E-002
  -5.4126536550597251E-003   1.6340984254017421E-003   6.4821383919304643E-002
  -5.2080479373798044E-003   1.5741353364431832E-003   6.4575422518713399E-002
  -5.0034422196998905E-003   1.5120344095022192E-003   6.4532770864219907E-002
  -4.7988365020199750E-003   1.4477956445790620E-003   6.4693428955824042E-002
  -4.5942307843400559E-003   1.3814190416732708E-003   6.5057396793525873E-002
  -1.0874096726172908E-002   3.2681968379124626E-003   6.4334680604977351E-002
  -1.0467477246293566E-002   3.1482706555185647E-003   6.4035427119378166E-002
  -1.0060857766414220E-002   3.0240687976454128E-003   6.3936891412080185E-002
  -9.6542382865348764E-003   2.8955912642930279E-003   6.4039073483083436E-002
  -9.2476188066555332E-003   2.7628380554613197E-003   6.4341973332387697E-002
  -1.6384329141665016E-002   4.9022952504232109E-003   6.3789083115963180E-002
  -1.5778287867382761E-002   4.7224059745937380E-003   6.3434399707859190E-002
  -1.5172246593100512E-002   4.5361031857884676E-003   6.3277842110259774E-002
  -1.4566205318818247E-002   4.3433868840069105E-003   6.3319410323165071E-002
  -1.3960164044535997E-002   4.1442570692494102E-003   6.3559104346575024E-002
  -2.1943350901536023E-002   6.5363936629339592E-003   6.3184591452261962E-002
  -2.1140479800647389E-002   6.2965412936693277E-003   6.2772340284156319E-002
  -2.0337608699758730E-002   6.0481375739315502E-003   6.2555622958758744E-002
  -1.9534737598870092E-002   5.7911825037211054E-003   6.2534439476069376E-002
  -1.8731866497981448E-002   5.5256760830373897E-003   6.2708789836088019E-002
   2.2410434619146713E-011   2.7885305176056363E-011   6.5705374729989829E-002
   2.5717553087112321E-011   2.6998764335317560E-011   6.5614192440975994E-002
   2.9024671555077930E-011   1.8784779287628339E-011   6.5739009409700566E-002
   3.2331790023043538E-011   3.2432737051557581E-012   6.6079825636163464E-002
   3.5638908491009147E-011  -1.9626356095869824E-011   6.6636641120364881E-002
  -4.5942307843400559E-003   1.3814190416732708E-003   6.5057396793525873E-002
  -4.3785161418508269E-003   1.3128630795673224E-003   6.4905662226517835E-002
  -4.1628014993615944E-003   1.2420862370431940E-003   6.4969357680135578E-002
  -3.9470868568723567E-003   1.1690885141010104E-003   6.5248483154379117E-002
  -3.7313722143831329E-003   1.0938699107405636E-003   6.5743038649248575E-002
  -9.2476188066555332E-003   2.7628380554613197E-003   6.4341973332387697E-002
  -8.8167587620968015E-003   2.6257261321357556E-003   6.4127465614294943E-002
  -8.3858987175380838E-003   2.4841724553016503E-003   6.4127818679715357E-002
  -7.9550386729793608E-003   2.3381770249589102E-003   6.4343032528649063E-002
  -7.5241786284206327E-003   2.1877398411075111E-003   6.4773107161095786E-002
  -1.3960164044535997E-002   4.1442570692494102E-003   6.3559104346575024E-002
  -1.3314727835020393E-002   3.9385891847042789E-003   6.3279602604307109E-002
  -1.2669291625504783E-002   3.7262586735599748E-003   6.3214392408439860E-002
  -1.2023855415989184E-002   3.5072655358167840E-003   6.3363473758973096E-002
  -1.1378419206473566E-002   3.2816097714744447E-003   6.3726846655906999E-002
  -1.8731866497981448E-002   5.5256760830373897E-003   6.2708789836088019E-002
  -1.7872423360621580E-002   5.2514522372727190E-003   6.2362073196554568E-002
  -1.7012980223261715E-002   4.9683448918183687E-003   6.2229078866309018E-002
  -1.6153537085901844E-002   4.6763540466745919E-003   6.2309806845351520E-002
  -1.5294093948541983E-002   4.3754797018412672E-003   6.2604257133681784E-002
   3.5638908491009147E-011  -1.9626356095869824E-011   6.6636641120364881E-002
   4.1956965679545988E-011  -4.2642001041315325E-011   6.6627432370354345E-002
   4.8275026337529781E-011  -5.8623120247069949E-011   6.6823517693506279E-002
   5.4593083526066621E-011  -6.7569592282490376E-011   6.7224897089820504E-002
   6.0911144184050414E-011  -6.9481309594721097E-011   6.7831570559297005E-002
  -3.7313722143831329E-003   1.0938699107405636E-003   6.5743038649248575E-002
  -3.5221596604234889E-003   1.0166236113763050E-003   6.5675396957424387E-002
  -3.3129471064638379E-003   9.3754280042253335E-004   6.5820886287721009E-002
  -3.1037345525041955E-003   8.5662747787900242E-004   6.6179506640138330E-002
  -2.8945219985445567E-003   7.7387764374597934E-004   6.6751258014676740E-002
  -7.5241786284206327E-003   2.1877398411075111E-003   6.4773107161095786E-002
  -7.0979165778609406E-003   2.0332472653948330E-003   6.4645198008833574E-002
  -6.6716545273012486E-003   1.8750856594683604E-003   6.4738256827650748E-002
  -6.2453924767415575E-003   1.7132550233275989E-003   6.5052283617547238E-002
  -5.8191304261818785E-003   1.5477553569731572E-003   6.5587278378522823E-002
  -1.1378419206473566E-002   3.2816097714744447E-003   6.3726846655906999E-002
  -1.0727270710355386E-002   3.0498709194133056E-003   6.3536835524582488E-002
  -1.0076122214237204E-002   2.8126285185139897E-003   6.3575629313295703E-002
  -9.4249737181190257E-003   2.5698825687763610E-003   6.3843228022046575E-002
  -8.7738252220008455E-003   2.3216330702003907E-003   6.4339631650835200E-002
  -1.5294093948541983E-002   4.3754797018412672E-003   6.2604257133681784E-002
  -1.4410222057906839E-002   4.0664945734318336E-003   6.2350309504670687E-002
  -1.3526350167271706E-002   3.7501713775598966E-003   6.2333003744655613E-002
  -1.2642478276636568E-002   3.4265101142248594E-003   6.2552339853636757E-002
  -1.1758606386001430E-002   3.0955107834276241E-003   6.3008317831614091E-002
   6.0911144184050414E-011  -6.9481309594721097E-011   6.7831570559297005E-002
   5.1575223258826242E-011  -6.6178673652217412E-011   6.7855314562587921E-002
   4.2239298864155117E-011  -5.9482918590703093E-011   6.8125116486890736E-002
   3.2903372734760516E-011  -4.9393336642999941E-011   6.8640976332205728E-002
   2.3567453544259820E-011  -3.5910385776105613E-011   6.9402894098532730E-002
  -2.8945219985445567E-003   7.7387764374597934E-004   6.6751258014676740E-002
  -2.6495370533924645E-003   6.9232908382305114E-004   6.6745961214963345E-002
  -2.4045521082403775E-003   6.1501758390893058E-004   6.6984576403213814E-002
  -2.1595671630882905E-003   5.4194314400482849E-004   6.7467103579428186E-002
  -1.9145822179361983E-003   4.7310576411019323E-004   6.8193542743606284E-002
  -5.8191304261818785E-003   1.5477553569731572E-003   6.5587278378522823E-002
  -5.3313064595899330E-003   1.3846582338244706E-003   6.5557177832421029E-002
  -4.8434824929980075E-003   1.2300352273011128E-003   6.5768843341235117E-002
  -4.3556585264060647E-003   1.0838863374031046E-003   6.6222274904965059E-002
  -3.8678345598141366E-003   9.4621156413066121E-004   6.6917472523610577E-002
  -8.7738252220008455E-003   2.3216330702003907E-003   6.4339631650835200E-002
  -8.0453081670172084E-003   2.0769873838260428E-003   6.4288964414961305E-002
  -7.3167911120335695E-003   1.8450528706930730E-003   6.4477917300954757E-002
  -6.5882740570499384E-003   1.6258295308012698E-003   6.4906490308816137E-002
  -5.8597570020662943E-003   1.4193173641514067E-003   6.5574683438544848E-002
  -1.1758606386001430E-002   3.0955107834276241E-003   6.3008317831614091E-002
  -1.0791542175674261E-002   2.7693165338277259E-003   6.2941320962583758E-002
  -9.8244779653470851E-003   2.4600705140851720E-003   6.3111798282372900E-002
  -8.8574137550199161E-003   2.1677727241996084E-003   6.3519749790981350E-002
  -7.8903495446927402E-003   1.8924231641718192E-003   6.4165175488409387E-002
   2.3567453544259820E-011  -3.5910385776105613E-011   6.9402894098532730E-002
   2.1422572049623057E-011  -2.3097523893511607E-011   6.9233298428189927E-002
   1.9277690554986293E-011  -1.5017653787197105E-011   6.9280681159438251E-002
   1.7132805590902578E-011  -1.1671358324250036E-011   6.9545042292278397E-002
   1.4987927565712766E-011  -1.3057777081826316E-011   7.0026381826709949E-002
  -1.9145822179361983E-003   4.7310576411019323E-004   6.8193542743606284E-002
  -1.6935251656247687E-003   4.2022142072017932E-004   6.8003190129887647E-002
  -1.4724681133133372E-003   3.9500609033063516E-004   6.8037973223489867E-002
  -1.2514110610019058E-003   3.9745977294151219E-004   6.8297892024413026E-002
  -1.0303540086904761E-003   4.2758246855245652E-004   6.8782946532657430E-002
  -3.8678345598141366E-003   9.4621156413066121E-004   6.6917472523610577E-002
  -3.4175631473168386E-003   8.4044286453788253E-004   6.6734031984249209E-002
  -2.9672917348195355E-003   7.9001219567903513E-004   6.6783884457938619E-002
  -2.5170203223222427E-003   7.9491955755393862E-004   6.7067029944678516E-002
  -2.0667489098249343E-003   8.5516495016302319E-004   6.7583468444469275E-002
  -5.8597570020662943E-003   1.4193173641514067E-003   6.5574683438544848E-002
  -5.1721139236536057E-003   1.2606643083553082E-003   6.5425823991274890E-002
  -4.4844708452408972E-003   1.1850183010271576E-003   6.5518414862784952E-002
  -3.7968277668281990E-003   1.1923793421665316E-003   6.5852456053075131E-002
  -3.1091846884155000E-003   1.2827474317733123E-003   6.6427947562145775E-002
  -7.8903495446927402E-003   1.8924231641718192E-003   6.4165175488409387E-002
  -6.9571774946350848E-003   1.6808857521732334E-003   6.4078566150964189E-002
  -6.0240054445774294E-003   1.5800244063757518E-003   6.4241564438028642E-002
  -5.0908333945197740E-003   1.5898391267791315E-003   6.4654170349602913E-002
  -4.1576613444621185E-003   1.7103299133838235E-003   6.5316383885686835E-002
   1.4987927565712766E-011  -1.3057777081826316E-011   7.0026381826709949E-002
   1.2911970104223514E-011  -1.6023682380961191E-011   6.8684093158835391E-002
   1.0836002234393405E-011  -1.7415180408875131E-011   6.7488209304807034E-002
   8.7600413034572000E-012  -1.7231160942543511E-011   6.6438730264624712E-002
   6.6840769030740432E-012  -1.5472956249595882E-011   6.5535656038288481E-002
  -1.0303540086904761E-003   4.2758246855245652E-004   6.8782946532657430E-002
  -8.8740758938203601E-004   5.0061353743308112E-004   6.7460232462421388E-002
  -7.4446117007361499E-004   6.3179233985183325E-004   6.6277006421107926E-002
  -6.0151475076517923E-004   8.2111887580889331E-004   6.5233268408717057E-002
  -4.5856833145675388E-004   1.0685931453042752E-003   6.4329018425248741E-002
  -2.0667489098249343E-003   8.5516495016302319E-004   6.7583468444469275E-002
  -1.7877728540557167E-003   1.0012270908897614E-003   6.6338476703835525E-002
  -1.5087967982864861E-003   1.2635846971185138E-003   6.5226056207200789E-002
  -1.2298207425172625E-003   1.6422377688491696E-003   6.4246206954565038E-002
  -9.5084468674803795E-004   2.1371863060817287E-003   6.3398928945928357E-002
  -3.1091846884155000E-003   1.2827474317733123E-003   6.6427947562145775E-002
  -2.7010957811090691E-003   1.5018406443465943E-003   6.5318825883077816E-002
  -2.2930068738026450E-003   1.8953770543853610E-003   6.4335358663085207E-002
  -1.8849179664962110E-003   2.4633566618897790E-003   6.3477545902168170E-002
  -1.4768290591897905E-003   3.2057794668591821E-003   6.2745387600326052E-002
  -4.1576613444621185E-003   1.7103299133838235E-003   6.5316383885686835E-002
  -3.6273763705420847E-003   2.0024541978032051E-003   6.4401280000148331E-002
  -3.0970913966220578E-003   2.5271694116522081E-003   6.3604913788761486E-002
  -2.5668064227020275E-003   3.2844755549297222E-003   6.2927285251526577E-002
  -2.0365214487819971E-003   4.2743726276366356E-003   6.2368394388443216E-002
   6.6840769030740432E-012  -1.5472956249595882E-011   6.5535656038288481E-002
   6.0197957729712925E-012  -1.3740342197365862E-011   6.0797988370155598E-002
   5.3555111734215899E-012  -1.3632484030523528E-011   5.5940862864407248E-002
   4.6912369822127431E-012  -1.5149950738369000E-011   5.0964279521044376E-002
   4.0269454437691365E-012  -1.8292922732143779E-011   4.5868238340066370E-002
  -4.5856833145675388E-004   1.0685931453042752E-003   6.4329018425248741E-002
  -5.6378038062741137E-004   1.3942470821545760E-003   5.9620994328847154E-002
  -6.6899242979806713E-004   1.8181126201766151E-003   5.4822003973047873E-002
  -7.7420447896872375E-004   2.3401897593702259E-003   4.9932047357850562E-002
  -8.7941652813938037E-004   2.9604784997354638E-003   4.4951124483255667E-002
  -9.5084468674803795E-004   2.1371863060817287E-003   6.3398928945928357E-002
  -1.1327772062078561E-003   2.7884941780494943E-003   5.8818760024054839E-002
  -1.3147097256676838E-003   3.6362252539857420E-003   5.4176116421000398E-002
  -1.4966422451275071E-003   4.6803795338904094E-003   4.9470998136765559E-002
  -1.6785747645873296E-003   5.9209570177638504E-003   4.4703405171350297E-002
  -1.4768290591897905E-003   3.2057794668591821E-003   6.2745387600326052E-002
  -1.7069904707215848E-003   4.1827412739441905E-003   5.8391285455777917E-002
  -1.9371518822533659E-003   5.4543378877948551E-003   5.4003200208266204E-002
  -2.1673132937851574E-003   7.0205693084108116E-003   4.9581131857791047E-002
  -2.3974747053169413E-003   8.8814355357922370E-003   4.5125080404352702E-002
  -2.0365214487819971E-003   4.2743726276366356E-003   6.2368394388443216E-002
  -2.2864201741685450E-003   5.5769883698393308E-003   5.8338570624017039E-002
  -2.5363188995550859E-003   7.2724505216040791E-003   5.4303255334844369E-002
  -2.7862176249415990E-003   9.3607590829310749E-003   5.0262448520925762E-002
  -3.0361163503281746E-003   1.1841914053820624E-002   4.6216150182260662E-002
  -2.5019160546200292E-002   7.3676274548274412E-003   6.2767966135518050E-002
  -2.4250208135034236E-002   7.1806451913952185E-003   6.2693393424267385E-002
  -2.3481255723868152E-002   6.9797788049355547E-003   6.2737973406641168E-002
  -2.2712303312702076E-002   6.7650282954485608E-003   6.2901706082639369E-002
  -2.1943350901536023E-002   6.5363936629339592E-003   6.3184591452261962E-002
  -3.1176588493896415E-002   9.2450194372433736E-003   5.9461598170758467E-002
  -3.0252868442325519E-002   9.0166243346809227E-003   5.9209787852992496E-002
  -2.9329148390754553E-002   8.7660112131061896E-003   5.9148360122411897E-002
  -2.8405428339183636E-002   8.4931800725190354E-003   5.9277314979016477E-002
  -2.7481708287612719E-002   8.1981309129195712E-003   5.9596652422806429E-002
  -3.7528817923868328E-002   1.1122411419659278E-002   5.6117984314861202E-002
  -3.6379100338331714E-002   1.0852603477966627E-002   5.5680602494595000E-002
  -3.5229382752795066E-002   1.0552243621276686E-002   5.5504833155074998E-002
  -3.4079665167258431E-002   1.0221331849589566E-002   5.5590676296301197E-002
  -3.2929947581721769E-002   9.8598681629050999E-003   5.5938131918273418E-002
  -4.4075848836116101E-002   1.2999803402075183E-002   5.2737124567826088E-002
  -4.2628903823052858E-002   1.2688582621252345E-002   5.2105837349074868E-002
  -4.1181958809989649E-002   1.2338476029447251E-002   5.1807392504630609E-002
  -3.9735013796926448E-002   1.1949483626660151E-002   5.1841790034493296E-002
  -3.8288068783863274E-002   1.1521605412890698E-002   5.2209029938663130E-002
  -5.0817681230639594E-002   1.4877195384491115E-002   4.9319018929653125E-002
  -4.9002278896489004E-002   1.4524561764538091E-002   4.8485492416431908E-002
  -4.7186876562338359E-002   1.4124708437617844E-002   4.8056038171078563E-002
  -4.5371474228187728E-002   1.3677635403730605E-002   4.8030656193592980E-002
  -4.3556071894037138E-002   1.3183342662876241E-002   4.8409346483975269E-002
  -2.1943350901536023E-002   6.5363936629339592E-003   6.3184591452261962E-002
  -2.1140479800647389E-002   6.2965412936693277E-003   6.2772340284156319E-002
  -2.0337608699758730E-002   6.0481375739315502E-003   6.2555622958758744E-002
  -1.9534737598870092E-002   5.7911825037211054E-003   6.2534439476069376E-002
  -1.8731866497981448E-002   5.5256760830373897E-003   6.2708789836088019E-002
  -2.7481708287612719E-002   8.1981309129195712E-003   5.9596652422806429E-002
  -2.6490182402387749E-002   7.8894569958421479E-003   5.9260848865088311E-002
  -2.5498656517162797E-002   7.5757515828213037E-003   5.9106821033334714E-002
  -2.4507130631937851E-002   7.2570146738571550E-003   5.9134568927545504E-002
  -2.3515604746712902E-002   6.9332462689493668E-003   5.9344092547720856E-002
  -3.2929947581721769E-002   9.8598681629050999E-003   5.5938131918273418E-002
  -3.1763525028904178E-002   9.4823726980150652E-003   5.5682295825472398E-002
  -3.0597102476086581E-002   9.1033655917110573E-003   5.5594477341892240E-002
  -2.9430679923268987E-002   8.7228468439931491E-003   5.5674676467532762E-002
  -2.8264257370451400E-002   8.3408164548612607E-003   5.5922893202394283E-002
  -3.8288068783863274E-002   1.1521605412890698E-002   5.2209029938663130E-002
  -3.6960507680196659E-002   1.1075288400188045E-002   5.2036681165308657E-002
  -3.5632946576530052E-002   1.0630979600600866E-002   5.2018591884431364E-002
  -3.4305385472863457E-002   1.0188679014129226E-002   5.2154762096031142E-002
  -3.2977824369196863E-002   9.7483866407731684E-003   5.2445191800108287E-002
  -4.3556071894037138E-002   1.3183342662876241E-002   4.8409346483975269E-002
  -4.2081130356265206E-002   1.2668204102360803E-002   4.8324004884596872E-002
  -4.0606188818493254E-002   1.2158593609490537E-002   4.8379164660951990E-002
  -3.9131247280721315E-002   1.1654511184265352E-002   4.8574825813040748E-002
  -3.7656305742949370E-002   1.1155956826685076E-002   4.8910988340862938E-002
  -1.8731866497981448E-002   5.5256760830373897E-003   6.2708789836088019E-002
  -1.7872423360621580E-002   5.2514522372727190E-003   6.2362073196554568E-002
  -1.7012980223261715E-002   4.9683448918183687E-003   6.2229078866309018E-002
  -1.6153537085901844E-002   4.6763540466745919E-003   6.2309806845351520E-002
  -1.5294093948541983E-002   4.3754797018412672E-003   6.2604257133681784E-002
  -2.3515604746712902E-002   6.9332462689493668E-003   5.9344092547720856E-002
  -2.2444386387048078E-002   6.6010800727114016E-003   5.9020190652994103E-002
  -2.1373168027383264E-002   6.2571497897562500E-003   5.8906116893589169E-002
  -2.0301949667718436E-002   5.9014554200841687E-003   5.9001871269506199E-002
  -1.9230731308053622E-002   5.5339969636946651E-003   5.9307453780745312E-002
  -2.8264257370451400E-002   8.3408164548612607E-003   5.5922893202394283E-002
  -2.6985157962447597E-002   7.9507079081500981E-003   5.5618925465446611E-002
  -2.5706058554443818E-002   7.5459546876941799E-003   5.5520891689854780E-002
  -2.4426959146440025E-002   7.1265567934936328E-003   5.5628791875618894E-002
  -2.3147859738436236E-002   6.6925142255482295E-003   5.5942626022738973E-002
  -3.2977824369196863E-002   9.7483866407731684E-003   5.2445191800108287E-002
  -3.1494738086820115E-002   9.3003357435887876E-003   5.2158277633912058E-002
  -3.0011651804443394E-002   8.8347595856319745E-003   5.2073403255105670E-002
  -2.8528565522066656E-002   8.3516581669029859E-003   5.2190568663689221E-002
  -2.7045479239689953E-002   7.8510314874018217E-003   5.2509773859662962E-002
  -3.7656305742949370E-002   1.1155956826685076E-002   4.8910988340862938E-002
  -3.5973126760165675E-002   1.0649963579027449E-002   4.8638247158390491E-002
  -3.4289947777381993E-002   1.0123564483569991E-002   4.8563651589342061E-002
  -3.2606768794598305E-002   9.5767595403126460E-003   4.8687201633717592E-002
  -3.0923589811814617E-002   9.0095487492552473E-003   4.9008897291517084E-002
  -1.5294093948541983E-002   4.3754797018412672E-003   6.2604257133681784E-002
  -1.4410222057906839E-002   4.0664945734318336E-003   6.2350309504670687E-002
  -1.3526350167271706E-002   3.7501713775598966E-003   6.2333003744655613E-002
  -1.2642478276636568E-002   3.4265101142248594E-003   6.2552339853636757E-002
  -1.1758606386001430E-002   3.0955107834276241E-003   6.3008317831614091E-002
  -1.9230731308053622E-002   5.5339969636946651E-003   5.9307453780745312E-002
  -1.8119380128826978E-002   5.1576515054554128E-003   5.9057178508235747E-002
  -1.7008028949600358E-002   4.7752961302331837E-003   5.9025219943912854E-002
  -1.5896677770373728E-002   4.3869308380282100E-003   5.9211578087776731E-002
  -1.4785326591147098E-002   3.9925556288402664E-003   5.9616252939827585E-002
  -2.3147859738436236E-002   6.6925142255482295E-003   5.5942626022738973E-002
  -2.1827354431427519E-002   6.2488084374790753E-003   5.5697351257210828E-002
  -2.0506849124418788E-002   5.8004208829066928E-003   5.5652068039059810E-002
  -1.9186343817410061E-002   5.3473515618314496E-003   5.5806776368286418E-002
  -1.7865838510401341E-002   4.8896004742530197E-003   5.6161476244890401E-002
  -2.7045479239689953E-002   7.8510314874018217E-003   5.2509773859662962E-002
  -2.5534144965708466E-002   7.3399653695026407E-003   5.2270827751595750E-002
  -2.4022810691726994E-002   6.8255456355801464E-003   5.2213548030096583E-002
  -2.2511476417745514E-002   6.3077722856345227E-003   5.2337934695165469E-002
  -2.1000142143764035E-002   5.7866453196657730E-003   5.2643987746802491E-002
  -3.0923589811814617E-002   9.0095487492552473E-003   4.9008897291517084E-002
  -2.9239751731669775E-002   8.4311223015264281E-003   4.8777607991390748E-002
  -2.7555913651524960E-002   7.8506703882535306E-003   4.8709659917023279E-002
  -2.5872075571380139E-002   7.2681930094378282E-003   4.8805053068414359E-002
  -2.4188237491235304E-002   6.6836901650784153E-003   4.9063787445564166E-002
  -1.1758606386001430E-002   3.0955107834276241E-003   6.3008317831614091E-002
  -1.0791542175674261E-002   2.7693165338277259E-003   6.2941320962583758E-002
  -9.8244779653470851E-003   2.4600705140851720E-003   6.3111798282372900E-002
  -8.8574137550199161E-003   2.1677727241996084E-003   6.3519749790981350E-002
  -7.8903495446927402E-003   1.8924231641718192E-003   6.4165175488409387E-002
  -1.4785326591147098E-002   3.9925556288402664E-003   5.9616252939827585E-002
  -1.3589301128044962E-002   3.6003635778540377E-003   5.9500613652265888E-002
  -1.2393275664942825E-002   3.2185477602535151E-003   5.9605422681434539E-002
  -1.1197250201840698E-002   2.8471081760395242E-003   5.9930680027333733E-002
  -1.0001224738738552E-002   2.4860448252107537E-003   6.0476385689963497E-002
  -1.7865838510401341E-002   4.8896004742530197E-003   5.6161476244890401E-002
  -1.6457877666613205E-002   4.4314106218802940E-003   5.5990622542325869E-002
  -1.5049916822825072E-002   3.9770250064222884E-003   5.6023191284402793E-002
  -1.3641955979036941E-002   3.5264436278786039E-003   5.6259182471121223E-002
  -1.2233995135248834E-002   3.0796664862496326E-003   5.6698596102481208E-002
  -2.1000142143764035E-002   5.7866453196657730E-003   5.2643987746802491E-002
  -1.9397271791378925E-002   5.2624576659067446E-003   5.2411347632763748E-002
  -1.7794401438993825E-002   4.7355022525909576E-003   5.2365104091277634E-002
  -1.6191531086608736E-002   4.2057790797182682E-003   5.2505257122343781E-002
  -1.4588660734223614E-002   3.6732881472884837E-003   5.2831806725962722E-002
  -2.4188237491235304E-002   6.6836901650784153E-003   4.9063787445564166E-002
  -2.2407483502342215E-002   6.0935047099329731E-003   4.8762788923579770E-002
  -2.0626729513449085E-002   5.4939794987594881E-003   4.8631161102058895E-002
  -1.8845975524556004E-002   4.8851145315575648E-003   4.8668903981001682E-002
  -1.7065221535662867E-002   4.2669098083274459E-003   4.8876017560407825E-002
  -7.8903495446927402E-003   1.8924231641718192E-003   6.4165175488409387E-002
  -6.9571774946350848E-003   1.6808857521732334E-003   6.4078566150964189E-002
  -6.0240054445774294E-003   1.5800244063757518E-003   6.4241564438028642E-002
  -5.0908333945197740E-003   1.5898391267791315E-003   6.4654170349602913E-002
  -4.1576613444621185E-003   1.7103299133838235E-003   6.5316383885686835E-002
  -1.0001224738738552E-002   2.4860448252107537E-003   6.0476385689963497E-002
  -8.8176294330232913E-003   2.1862601005790405E-003   6.0380125323806155E-002
  -7.6340341273080300E-003   1.9986563949553615E-003   6.0535103844454180E-002
  -6.4504388215927758E-003   1.9232337083395015E-003   6.0941321251907807E-002
  -5.2668435158775076E-003   1.9599920407312732E-003   6.1598777546166716E-002
  -1.2233995135248834E-002   3.0796664862496326E-003   5.6698596102481208E-002
  -1.0798345311580229E-002   2.6916344489850974E-003   5.6594189660418487E-002
  -9.3626954879116250E-003   2.4172883835351794E-003   5.6742653367456805E-002
  -7.9270456642430050E-003   2.2566282898997571E-003   5.7143987223596530E-002
  -6.4913958405744161E-003   2.2096541680789450E-003   5.7798191228837559E-002
  -1.4588660734223614E-002   3.6732881472884837E-003   5.2831806725962722E-002
  -1.2899325130305889E-002   3.1970087973908629E-003   5.2720759160801274E-002
  -1.1209989526388180E-002   2.8359203721146711E-003   5.2864213007036712E-002
  -9.5206539224704460E-003   2.5900228714601809E-003   5.3262168264669146E-002
  -7.8313183185527400E-003   2.4593162954266723E-003   5.3914624933698724E-002
  -1.7065221535662867E-002   4.2669098083274459E-003   4.8876017560407825E-002
  -1.5120568889200284E-002   3.7023831457970169E-003   4.8759833824954413E-002
  -1.3175916242737729E-002   3.2545523606946902E-003   4.8899782763193733E-002
  -1.1231263596275159E-002   2.9234174530202925E-003   4.9295864375125870E-002
  -9.2866109498125904E-003   2.7089784227741776E-003   4.9948078660750572E-002
  -4.1576613444621185E-003   1.7103299133838235E-003   6.5316383885686835E-002
  -3.6273763705420847E-003   2.0024541978032051E-003   6.4401280000148331E-002
  -3.0970913966220578E-003   2.5271694116522081E-003   6.3604913788761486E-002
  -2.5668064227020275E-003   3.2844755549297222E-003   6.2927285251526577E-002
  -2.0365214487819971E-003   4.2743726276366356E-003   6.2368394388443216E-002
  -5.2668435158775076E-003   1.9599920407312732E-003   6.1598777546166716E-002
  -4.5918691504281337E-003   2.2159909833716074E-003   6.0873700790183394E-002
  -3.9168947849787805E-003   2.7982901275016570E-003   6.0319265143106815E-002
  -3.2419204195294395E-003   3.7068894731204227E-003   5.9935470604937424E-002
  -2.5669460540800534E-003   4.9417890202286818E-003   5.9722317175674555E-002
  -6.4913958405744161E-003   2.2096541680789450E-003   5.7798191228837559E-002
  -5.6198286488406413E-003   2.4295277689400097E-003   5.7356850874469650E-002
  -4.7482614571068820E-003   3.0694108433511058E-003   5.7138055063763543E-002
  -3.8766942653731149E-003   4.1293033913113453E-003   5.7141803796719348E-002
  -3.0051270736393756E-003   5.6092054128212832E-003   5.7368097073337454E-002
  -7.8313183185527400E-003   2.4593162954266723E-003   5.3914624933698724E-002
  -6.7112548657795234E-003   2.6430645545085230E-003   5.3850730253006490E-002
  -5.5911914130063224E-003   3.3405315592002771E-003   5.4061283550731393E-002
  -4.4711279602331335E-003   4.5517173095021568E-003   5.4546284826873306E-002
  -3.3510645074599030E-003   6.2766218054137179E-003   5.5305734081431912E-002
  -9.2866109498125904E-003   2.7089784227741776E-003   4.9948078660750572E-002
  -7.8661478012448660E-003   2.8566013400767587E-003   5.0355338925794357E-002
  -6.4456846526771416E-003   3.6116522750499758E-003   5.1088950604010308E-002
  -5.0252215041094034E-003   4.9741312276927394E-003   5.2148913695398230E-002
  -3.6047583555416929E-003   6.9440381980059307E-003   5.3535228199958151E-002
  -2.0365214487819971E-003   4.2743726276366356E-003   6.2368394388443216E-002
  -2.2864201741685450E-003   5.5769883698393308E-003   5.8338570624017039E-002
  -2.5363188995550859E-003   7.2724505216040791E-003   5.4303255334844369E-002
  -2.7862176249415990E-003   9.3607590829310749E-003   5.0262448520925762E-002
  -3.0361163503281746E-003   1.1841914053820624E-002   4.6216150182260662E-002
  -2.5669460540800534E-003   4.9417890202286818E-003   5.9722317175674555E-002
  -2.8397815309702222E-003   6.5665935221627114E-003   5.6190469829091261E-002
  -3.1126170078603944E-003   8.6449077322578172E-003   5.2618240504246960E-002
  -3.3854524847505459E-003   1.1176731650514062E-002   4.9005629201141598E-002
  -3.6582879616407285E-003   1.4162065276931646E-002   4.5352635919775341E-002
  -3.0051270736393756E-003   5.6092054128212832E-003   5.7368097073337454E-002
  -3.3357897555480343E-003   7.5561986744860921E-003   5.4394889443196287E-002
  -3.6664524374567485E-003   1.0017364942911222E-002   5.1346409381278907E-002
  -3.9971151193654800E-003   1.2992704218096771E-002   4.8222656887585522E-002
  -4.3277778012741457E-003   1.6482216500042446E-002   4.5023631962116561E-002
  -3.3510645074599030E-003   6.2766218054137179E-003   5.5305734081431912E-002
  -3.7744448479020945E-003   8.5458038268094727E-003   5.2951829466331736E-002
  -4.1978251883442582E-003   1.1389822153565238E-002   5.0487761965941055E-002
  -4.6212055287863721E-003   1.4808676785679507E-002   4.7913531580259218E-002
  -5.0445858692285857E-003   1.8802367723153246E-002   4.5229138309286182E-002
  -3.6047583555416929E-003   6.9440381980059307E-003   5.3535228199958151E-002
  -4.1557468080322540E-003   9.5354089791328533E-003   5.1861289898498031E-002
  -4.7067352605227875E-003   1.2762279364218532E-002   5.0042298258232365E-002
  -5.2577237130132931E-003   1.6624649353262397E-002   4.8078253279160377E-002
  -5.8087121655038820E-003   2.1122518946264268E-002   4.5969154961282843E-002
  -5.0817681230639594E-002   1.4877195384491115E-002   4.9319018929653125E-002
  -4.9002278896489004E-002   1.4524561764538091E-002   4.8485492416431908E-002
  -4.7186876562338359E-002   1.4124708437617844E-002   4.8056038171078563E-002
  -4.5371474228187728E-002   1.3677635403730605E-002   4.8030656193592980E-002
  -4.3556071894037138E-002   1.3183342662876241E-002   4.8409346483975269E-002
  -5.7342204054103119E-002   1.6742896393194429E-002   4.4228019216456471E-002
  -5.5227403430996344E-002   1.6326687647986171E-002   4.3876590060868387E-002
  -5.3112602807889542E-002   1.5872400034043277E-002   4.3719885215324966E-002
  -5.0997802184782753E-002   1.5380033551365635E-002   4.3757904679826015E-002
  -4.8883001561675972E-002   1.4849588199953107E-002   4.3990648454371478E-002
  -6.3237306253170866E-002   1.8608597401897686E-002   3.9068873958888722E-002
  -6.1032455298931261E-002   1.8128813531434418E-002   3.9208682999166133E-002
  -5.8827604344691628E-002   1.7620091630468751E-002   3.9333868391664847E-002
  -5.6622753390451953E-002   1.7082431699000606E-002   3.9444430136384719E-002
  -5.4417902436212348E-002   1.6515833737030083E-002   3.9540368233325823E-002
  -6.8502987827842893E-002   2.0474298410600944E-002   3.3841583156949483E-002
  -6.6417434500293721E-002   1.9930939414882609E-002   3.4481771231324787E-002
  -6.4331881172744562E-002   1.9367783226894149E-002   3.4897987700098040E-002
  -6.2246327845195348E-002   1.8784829846635660E-002   3.5090232563269236E-002
  -6.0160774517646218E-002   1.8182079274107033E-002   3.5058505820838158E-002
  -7.3139248778119115E-002   2.2339999419304257E-002   2.8546146810639106E-002
  -7.1382341035083757E-002   2.1733065298330689E-002   2.9695854757344597E-002
  -6.9625433292048400E-002   2.1115474823319672E-002   3.0412243140624712E-002
  -6.7868525549012959E-002   2.0487227994270638E-002   3.0695311960479352E-002
  -6.6111617805977574E-002   1.9848324811183926E-002   3.0545061216908587E-002
  -4.3556071894037138E-002   1.3183342662876241E-002   4.8409346483975269E-002
  -4.2081130356265206E-002   1.2668204102360803E-002   4.8324004884596872E-002
  -4.0606188818493254E-002   1.2158593609490537E-002   4.8379164660951990E-002
  -3.9131247280721315E-002   1.1654511184265352E-002   4.8574825813040748E-002
  -3.7656305742949370E-002   1.1155956826685076E-002   4.8910988340862938E-002
  -4.8883001561675972E-002   1.4849588199953107E-002   4.3990648454371478E-002
  -4.7242801645736597E-002   1.4296337875607135E-002   4.3721091145785818E-002
  -4.5602601729797257E-002   1.3735556474128809E-002   4.3641549217801529E-002
  -4.3962401813857903E-002   1.3167243995518199E-002   4.3752022670418542E-002
  -4.2322201897918535E-002   1.2591400439775247E-002   4.4052511503636732E-002
  -5.4417902436212348E-002   1.6515833737030083E-002   3.9540368233325823E-002
  -5.2562930137237764E-002   1.5924471648853411E-002   3.9073536070755512E-002
  -5.0707957838263214E-002   1.5312519338767080E-002   3.8846233293654261E-002
  -4.8852985539288685E-002   1.4679976806771102E-002   3.8858459902022177E-002
  -4.6998013240314086E-002   1.4026844052865389E-002   3.9110215895859168E-002
  -6.0160774517646218E-002   1.8182079274107033E-002   3.5058505820838158E-002
  -5.8041515830768629E-002   1.7552605422099660E-002   3.4381339659505822E-002
  -5.5922257143891083E-002   1.6889482203405463E-002   3.3993216888510369E-002
  -5.3802998457013550E-002   1.6192709618024034E-002   3.3894137507851883E-002
  -5.1683739770135996E-002   1.5462287665955601E-002   3.4084101517530260E-002
  -6.6111617805977574E-002   1.9848324811183926E-002   3.0545061216908587E-002
  -6.3678558726329243E-002   1.9180739195346047E-002   2.9644501912036769E-002
  -6.1245499646680926E-002   1.8466445068043610E-002   2.9082500002369782E-002
  -5.8812440567032574E-002   1.7705442429277015E-002   2.8859055487907459E-002
  -5.6379381487384250E-002   1.6897731279045702E-002   2.8974168368649689E-002
  -3.7656305742949370E-002   1.1155956826685076E-002   4.8910988340862938E-002
  -3.5973126760165675E-002   1.0649963579027449E-002   4.8638247158390491E-002
  -3.4289947777381993E-002   1.0123564483569991E-002   4.8563651589342061E-002
  -3.2606768794598305E-002   9.5767595403126460E-003   4.8687201633717592E-002
  -3.0923589811814617E-002   9.0095487492552473E-003   4.9008897291517084E-002
  -4.2322201897918535E-002   1.2591400439775247E-002   4.4052511503636732E-002
  -4.0444377790399715E-002   1.2009595960053410E-002   4.3753956335736588E-002
  -3.8566553682880846E-002   1.1423400709506232E-002   4.3646545803882872E-002
  -3.6688729575362025E-002   1.0832814688133803E-002   4.3730279908075383E-002
  -3.4810905467843156E-002   1.0237837895935908E-002   4.4005158648314335E-002
  -4.6998013240314086E-002   1.4026844052865389E-002   3.9110215895859168E-002
  -4.4932544985437715E-002   1.3369228341079439E-002   3.8801861819505817E-002
  -4.2867076730561296E-002   1.2723236935442583E-002   3.8677651401821223E-002
  -4.0801608475684911E-002   1.2088869835955127E-002   3.8737584642805474E-002
  -3.8736140220808506E-002   1.1466127042616653E-002   3.8981661542458371E-002
  -5.1683739770135996E-002   1.5462287665955601E-002   3.4084101517530260E-002
  -4.9437628345279608E-002   1.4728860722105407E-002   3.3781963609698241E-002
  -4.7191516920423206E-002   1.4023073161378852E-002   3.3656968383157349E-002
  -4.4945405495566866E-002   1.3344924983776256E-002   3.3709115837907679E-002
  -4.2699294070710478E-002   1.2694416189297356E-002   3.3938405973949190E-002
  -5.6379381487384250E-002   1.6897731279045702E-002   2.8974168368649689E-002
  -5.3959627869925475E-002   1.6088493103131429E-002   2.8694261706313506E-002
  -5.1539874252466741E-002   1.5322909387315217E-002   2.8584496747891097E-002
  -4.9120120635007973E-002   1.4600980131597757E-002   2.8644873493382031E-002
  -4.6700367017549232E-002   1.3922705335978114E-002   2.8875391942786710E-002
  -3.0923589811814617E-002   9.0095487492552473E-003   4.9008897291517084E-002
  -2.9239751731669775E-002   8.4311223015264281E-003   4.8777607991390748E-002
  -2.7555913651524960E-002   7.8506703882535306E-003   4.8709659917023279E-002
  -2.5872075571380139E-002   7.2681930094378282E-003   4.8805053068414359E-002
  -2.4188237491235304E-002   6.6836901650784153E-003   4.9063787445564166E-002
  -3.4810905467843156E-002   1.0237837895935908E-002   4.4005158648314335E-002
  -3.2968602147923062E-002   9.6354128755277157E-003   4.3724808689698524E-002
  -3.1126298828002927E-002   9.0224821695236435E-003   4.3598047984874488E-002
  -2.9283995508082868E-002   8.3990457779244201E-003   4.3624876533842394E-002
  -2.7441692188162711E-002   7.7651037007293588E-003   4.3805294336602185E-002
  -3.8736140220808506E-002   1.1466127042616653E-002   3.8981661542458371E-002
  -3.6745123633079857E-002   1.0839703449529059E-002   3.8643770705300701E-002
  -3.4754107045351215E-002   1.0194293950793763E-002   3.8449717149968331E-002
  -3.2763090457622525E-002   9.5298985464108473E-003   3.8399500876461018E-002
  -3.0772073869893925E-002   8.8465172363804134E-003   3.8493121884778853E-002
  -4.2699294070710478E-002   1.2694416189297356E-002   3.3938405973949190E-002
  -4.0569316187140089E-002   1.2043994023530374E-002   3.3534494038197818E-002
  -3.8439338303569714E-002   1.1366105732063880E-002   3.3264667412304674E-002
  -3.6309360419999347E-002   1.0660751314897413E-002   3.3128926096270023E-002
  -3.4179382536428903E-002   9.9279307720314680E-003   3.3127270090093607E-002
  -4.6700367017549232E-002   1.3922705335978114E-002   2.8875391942786710E-002
  -4.4441179810103898E-002   1.3248284597531745E-002   2.8396978688389307E-002
  -4.2181992602658466E-002   1.2537917513333982E-002   2.8042898771883679E-002
  -3.9922805395213069E-002   1.1791604083383974E-002   2.7813152193269700E-002
  -3.7663618187767700E-002   1.1009344307682412E-002   2.7707738952547190E-002
  -2.4188237491235304E-002   6.6836901650784153E-003   4.9063787445564166E-002
  -2.2407483502342215E-002   6.0935047099329731E-003   4.8762788923579770E-002
  -2.0626729513449085E-002   5.4939794987594881E-003   4.8631161102058895E-002
  -1.8845975524556004E-002   4.8851145315575648E-003   4.8668903981001682E-002
  -1.7065221535662867E-002   4.2669098083274459E-003   4.8876017560407825E-002
  -2.7441692188162711E-002   7.7651037007293588E-003   4.3805294336602185E-002
  -2.5494800673942219E-002   7.1258058533467117E-003   4.3419362849273779E-002
  -2.3547909159721707E-002   6.4863021511836205E-003   4.3196335712136602E-002
  -2.1601017645501222E-002   5.8465925942405017E-003   4.3136212925190792E-002
  -1.9654126131280703E-002   5.2066771825173275E-003   4.3238994488436322E-002
  -3.0772073869893925E-002   8.8465172363804134E-003   3.8493121884778853E-002
  -2.8665511180618261E-002   8.1581069967600617E-003   3.8031391333354481E-002
  -2.6558948491342573E-002   7.4786248036078778E-003   3.7726098781849141E-002
  -2.4452385802066816E-002   6.8080706569235531E-003   3.7577244230262825E-002
  -2.2345823112791166E-002   6.1464445567073200E-003   3.7584827678595750E-002
  -3.4179382536428903E-002   9.9279307720314680E-003   3.3127270090093607E-002
  -3.1919615022370257E-002   9.1904081401737170E-003   3.2598874375821658E-002
  -2.9659847508311601E-002   8.4709474560317952E-003   3.2220450311196289E-002
  -2.7400079994252983E-002   7.7695487196063808E-003   3.1991997896217893E-002
  -2.5140312480194243E-002   7.0862119308973126E-003   3.1913517130886353E-002
  -3.7663618187767700E-002   1.1009344307682412E-002   2.7707738952547190E-002
  -3.5257112199198332E-002   1.0222709283587039E-002   2.7121811976675514E-002
  -3.2850606210628880E-002   9.4632701084562953E-003   2.6679390300178463E-002
  -3.0444100222059511E-002   8.7310267822896040E-003   2.6380473923055925E-002
  -2.8037594233490060E-002   8.0259793050873052E-003   2.6225062845307900E-002
  -1.7065221535662867E-002   4.2669098083274459E-003   4.8876017560407825E-002
  -1.5120568889200284E-002   3.7023831457970169E-003   4.8759833824954413E-002
  -1.3175916242737729E-002   3.2545523606946902E-003   4.8899782763193733E-002
  -1.1231263596275159E-002   2.9234174530202925E-003   4.9295864375125870E-002
  -9.2866109498125904E-003   2.7089784227741776E-003   4.9948078660750572E-002
  -1.9654126131280703E-002   5.2066771825173275E-003   4.3238994488436322E-002
  -1.7492685047527629E-002   4.6033638104822083E-003   4.3075727036479994E-002
  -1.5331243963774631E-002   4.0734603726031993E-003   4.3089903785412026E-002
  -1.3169802880021623E-002   3.6169668688805640E-003   4.3281524735232321E-002
  -1.1008361796268615E-002   3.2338832993138444E-003   4.3650589885940561E-002
  -2.2345823112791166E-002   6.1464445567073200E-003   3.7584827678595750E-002
  -2.0046282064552237E-002   5.5043444751673720E-003   3.7331190566864930E-002
  -1.7746741016313232E-002   4.8923683845116112E-003   3.7176309183217834E-002
  -1.5447199968074248E-002   4.3105162847403948E-003   3.7120183527654303E-002
  -1.3147658919835298E-002   3.7587881758536779E-003   3.7162813600174621E-002
  -2.5140312480194243E-002   7.0862119308973126E-003   3.1913517130886353E-002
  -2.2781359940273905E-002   6.4053251398524386E-003   3.1526224416108958E-002
  -2.0422407400353594E-002   5.7112763964202382E-003   3.1158998956610975E-002
  -1.8063454860433262E-002   5.0040657006006125E-003   3.0811840752392052E-002
  -1.5704502320512938E-002   4.2836930523934280E-003   3.0484749803451845E-002
  -2.8037594233490060E-002   8.0259793050873052E-003   2.6225062845307900E-002
  -2.5697918674692843E-002   7.3063058045376716E-003   2.5660828584212481E-002
  -2.3358243115895655E-002   6.5301844083285043E-003   2.5037973105591471E-002
  -2.1018567557098425E-002   5.6976151164604902E-003   2.4356496409445400E-002
  -1.8678891998301250E-002   4.8085979289331782E-003   2.3616398495773572E-002
  -9.2866109498125904E-003   2.7089784227741776E-003   4.9948078660750572E-002
  -7.8661478012448660E-003   2.8566013400767587E-003   5.0355338925794357E-002
  -6.4456846526771416E-003   3.6116522750499758E-003   5.1088950604010308E-002
  -5.0252215041094034E-003   4.9741312276927394E-003   5.2148913695398230E-002
  -3.6047583555416929E-003   6.9440381980059307E-003   5.3535228199958151E-002
  -1.1008361796268615E-002   3.2338832993138444E-003   4.3650589885940561E-002
  -9.2429453176345877E-003   3.1625252295467976E-003   4.4237640332324080E-002
  -7.4775288390006092E-003   3.6412082252221534E-003   4.5188246025668205E-002
  -5.7121123603666134E-003   4.6699322863397105E-003   4.6502406965972617E-002
  -3.9466958817326037E-003   6.2486974129003503E-003   4.8180123153238053E-002
  -1.3147658919835298E-002   3.7587881758536779E-003   3.7162813600174621E-002
  -1.1000085277346600E-002   3.4684491190165312E-003   3.7872267275670252E-002
  -8.8525116348579097E-003   3.6707641753944559E-003   3.8982480031914804E-002
  -6.7049379923692122E-003   4.3657333449870182E-003   4.0493451868908313E-002
  -4.5573643498805771E-003   5.5533566277949920E-003   4.2405182786650675E-002
  -1.5704502320512938E-002   4.2836930523934280E-003   3.0484749803451845E-002
  -1.3137567680381053E-002   3.7743730084864729E-003   3.1259219755832408E-002
  -1.0570633040249248E-002   3.7003201255666404E-003   3.2471652622750174E-002
  -8.0036984001173733E-003   4.0615344036342687E-003   3.4122048404205192E-002
  -5.4367637599855578E-003   4.8580158426894116E-003   3.6210407100197878E-002
  -1.8678891998301250E-002   4.8085979289331782E-003   2.3616398495773572E-002
  -1.5655392526737810E-002   4.0802968979562482E-003   2.4398497772810890E-002
  -1.2631893055174426E-002   3.7298760757388805E-003   2.5655763798174080E-002
  -9.6083935836109996E-003   3.7573354622813387E-003   2.7388196571862977E-002
  -6.5848941120476012E-003   4.1626750575840532E-003   2.9595796093877746E-002
  -3.6047583555416929E-003   6.9440381980059307E-003   5.3535228199958151E-002
  -4.1557468080322540E-003   9.5354089791328533E-003   5.1861289898498031E-002
  -4.7067352605227875E-003   1.2762279364218532E-002   5.0042298258232365E-002
  -5.2577237130132931E-003   1.6624649353262397E-002   4.8078253279160377E-002
  -5.8087121655038820E-003   2.1122518946264268E-002   4.5969154961282843E-002
  -3.9466958817326037E-003   6.2486974129003503E-003   4.8180123153238053E-002
  -4.5390087051793288E-003   8.6871628799190526E-003   4.7243612487386344E-002
  -5.1313215286259567E-003   1.2294987962411019E-002   4.6369506418428574E-002
  -5.7236343520726818E-003   1.7072172660377305E-002   4.5557804946364744E-002
  -6.3159471755192542E-003   2.3018716973816966E-002   4.4808508071193964E-002
  -4.5573643498805771E-003   5.5533566277949920E-003   4.2405182786650675E-002
  -4.9835436085838881E-003   7.8389167807046967E-003   4.2739959767923719E-002
  -5.4097228672871714E-003   1.1827696560603979E-002   4.3344599281789686E-002
  -5.8359021259903505E-003   1.7519695967492331E-002   4.4219101328248495E-002
  -6.2620813846937656E-003   2.4914915001369886E-002   4.5363465907301115E-002
  -5.4367637599855578E-003   4.8580158426894116E-003   3.6210407100197878E-002
  -5.4893515182460354E-003   6.9906706814902853E-003   3.8350331740110113E-002
  -5.5419392765064818E-003   1.1360405158796480E-002   4.0967576848315278E-002
  -5.5945270347668866E-003   1.7967219274607298E-002   4.4062142424812836E-002
  -5.6471147930274058E-003   2.6811113028922584E-002   4.7634028469602990E-002
  -6.5848941120476012E-003   4.1626750575840532E-003   2.9595796093877746E-002
  -6.0564324341657871E-003   6.1424245822763179E-003   3.4074728403945764E-002
  -5.5279707562838343E-003   1.0893113756989148E-002   3.9238439118005619E-002
  -4.9995090784019369E-003   1.8414742581722474E-002   4.5086928236057144E-002
  -4.4710474005200673E-003   2.8707311056475504E-002   5.1620195758101506E-002
  -7.3139248778119115E-002   2.2339999419304257E-002   2.8546146810639106E-002
  -7.1382341035083757E-002   2.1733065298330689E-002   2.9695854757344597E-002
  -6.9625433292048400E-002   2.1115474823319672E-002   3.0412243140624712E-002
  -6.7868525549012959E-002   2.0487227994270638E-002   3.0695311960479352E-002
  -6.6111617805977574E-002   1.9848324811183926E-002   3.0545061216908587E-002
  -7.8550219264536564E-002   2.4521170412402482E-002   2.2846542731886188E-002
  -7.6855130267288213E-002   2.3474891978572693E-002   2.2257896974926805E-002
  -7.5160041270039876E-002   2.2577240249530325E-002   2.1978933289818647E-002
  -7.3464952272791567E-002   2.1828215225275473E-002   2.2009651676561964E-002
  -7.1769863275543216E-002   2.1227816905808050E-002   2.2350052135156728E-002
  -8.6140029447632299E-002   2.6702341405500735E-002   1.6627952810864252E-002
  -8.3763757560894186E-002   2.5216718658814558E-002   1.4460236409065047E-002
  -8.1387485674156018E-002   2.4039005675741222E-002   1.3345203714394051E-002
  -7.9011213787417850E-002   2.3169202456280361E-002   1.3282854726851357E-002
  -7.6634941900679682E-002   2.2607309000432230E-002   1.4273189446436768E-002
  -9.5908679327406210E-002   2.8883512398599001E-002   9.8903770475736279E-003
  -9.2108222915901469E-002   2.6958545339056603E-002   6.3028730597598781E-003
  -8.8307766504396701E-002   2.5500771101951970E-002   4.5110544143510626E-003
  -8.4507310092891946E-002   2.4510189687285307E-002   4.5149211113472013E-003
  -8.0706853681387178E-002   2.3986801095056381E-002   6.3144731507485674E-003
 -0.10785616890385841        3.1064683391697212E-002   2.6338154420137982E-003
 -0.10188852633231027        2.8700372019298537E-002  -2.2141930729892567E-003
  -9.5920883760762021E-002   2.6962536528162773E-002  -4.5235146103106416E-003
  -8.9953241189213828E-002   2.5851176918289934E-002  -4.2941491699499956E-003
  -8.3985598617665636E-002   2.5366293189680533E-002  -1.5260967519076241E-003
  -6.6111617805977574E-002   1.9848324811183926E-002   3.0545061216908587E-002
  -6.3678558726329243E-002   1.9180739195346047E-002   2.9644501912036769E-002
  -6.1245499646680926E-002   1.8466445068043610E-002   2.9082500002369782E-002
  -5.8812440567032574E-002   1.7705442429277015E-002   2.8859055487907459E-002
  -5.6379381487384250E-002   1.6897731279045702E-002   2.8974168368649689E-002
  -7.1769863275543216E-002   2.1227816905808050E-002   2.2350052135156728E-002
  -6.9105208020719761E-002   2.0654606351221114E-002   2.2065218611438966E-002
  -6.6440552765896374E-002   1.9987144621607708E-002   2.1905020042866666E-002
  -6.3775897511072932E-002   1.9225431716967677E-002   2.1869456429439875E-002
  -6.1111242256249546E-002   1.8369467637301240E-002   2.1958527771158726E-002
  -7.6634941900679682E-002   2.2607309000432230E-002   1.4273189446436768E-002
  -7.3952612910740428E-002   2.2128473507096250E-002   1.4556539040310915E-002
  -7.1270283920801092E-002   2.1507844175171702E-002   1.4750601149271424E-002
  -6.8587954930861839E-002   2.0745421004658454E-002   1.4855375773318216E-002
  -6.5905625940922502E-002   1.9841203995556889E-002   1.4870862912451183E-002
  -8.0706853681387178E-002   2.3986801095056381E-002   6.3144731507485674E-003
  -7.8220773396391205E-002   2.3602340662971046E-002   7.1184631986526518E-003
  -7.5734693111395232E-002   2.3028543728735664E-002   7.6192433215839777E-003
  -7.3248612826399231E-002   2.2265410292349228E-002   7.8168135195421234E-003
  -7.0762532541403245E-002   2.1312940353812510E-002   7.7111737925276702E-003
  -8.3985598617665636E-002   2.5366293189680533E-002  -1.5260967519076241E-003
  -8.1909689477672187E-002   2.5076207818846341E-002  -2.4900891353563104E-004
  -7.9833780337678628E-002   2.4549243282299515E-002   5.1094655980427062E-004
  -7.7757871197685180E-002   2.3785399580040098E-002   7.5376966811212254E-004
  -7.5681962057691621E-002   2.2784676712068075E-002   4.7946041138791085E-004
  -5.6379381487384250E-002   1.6897731279045702E-002   2.8974168368649689E-002
  -5.3959627869925475E-002   1.6088493103131429E-002   2.8694261706313506E-002
  -5.1539874252466741E-002   1.5322909387315217E-002   2.8584496747891097E-002
  -4.9120120635007973E-002   1.4600980131597757E-002   2.8644873493382031E-002
  -4.6700367017549232E-002   1.3922705335978114E-002   2.8875391942786710E-002
  -6.1111242256249546E-002   1.8369467637301240E-002   2.1958527771158726E-002
  -5.8514426004087017E-002   1.7489157717597431E-002   2.1667626101329940E-002
  -5.5917609751924495E-002   1.6654407292844953E-002   2.1560707996995110E-002
  -5.3320793499762015E-002   1.5865216363044193E-002   2.1637773458154166E-002
  -5.0723977247599430E-002   1.5121584928194987E-002   2.1898822484807179E-002
  -6.5905625940922502E-002   1.9841203995556889E-002   1.4870862912451183E-002
  -6.3117905192475912E-002   1.8889822332063322E-002   1.4570871269983160E-002
  -6.0330184444029239E-002   1.7985905198374751E-002   1.4468705054589463E-002
  -5.7542463695582628E-002   1.7129452594490689E-002   1.4564364266270034E-002
  -5.4754742947135983E-002   1.6320464520411831E-002   1.4857848905024992E-002
  -7.0762532541403245E-002   2.1312940353812510E-002   7.7111737925276702E-003
  -6.7770065435092133E-002   2.0290486946529407E-002   7.4039972122736386E-003
  -6.4777598328780994E-002   1.9317403103904462E-002   7.3084879206743291E-003
  -6.1785131222469869E-002   1.8393688825937709E-002   7.4246459177294581E-003
  -5.8792664116158744E-002   1.7519344112628912E-002   7.7524712034391478E-003
  -7.5681962057691621E-002   2.2784676712068075E-002   4.7946041138791085E-004
  -7.2470906731935625E-002   2.1691151560995270E-002   1.6700392820118148E-004
  -6.9259851406179684E-002   2.0648901009434228E-002   8.0056595249261564E-005
  -6.6048796080423744E-002   1.9657925057384021E-002   2.1861841253232456E-004
  -6.2837740754667748E-002   1.8718223704845549E-002   5.8268938005068271E-004
  -4.6700367017549232E-002   1.3922705335978114E-002   2.8875391942786710E-002
  -4.4441179810103898E-002   1.3248284597531745E-002   2.8396978688389307E-002
  -4.2181992602658466E-002   1.2537917513333982E-002   2.8042898771883679E-002
  -3.9922805395213069E-002   1.1791604083383974E-002   2.7813152193269700E-002
  -3.7663618187767700E-002   1.1009344307682412E-002   2.7707738952547190E-002
  -5.0723977247599430E-002   1.5121584928194987E-002   2.1898822484807179E-002
  -4.8320905593572286E-002   1.4391898937582026E-002   2.1405997393498355E-002
  -4.5917833939544968E-002   1.3644544340489326E-002   2.1076607857461599E-002
  -4.3514762285517747E-002   1.2879521136917451E-002   2.0910653876696855E-002
  -4.1111690631490505E-002   1.2096829326865954E-002   2.0908135451204402E-002
  -5.4754742947135983E-002   1.6320464520411831E-002   1.4857848905024992E-002
  -5.2168684629146388E-002   1.5535513277631835E-002   1.4368889716076791E-002
  -4.9582626311156786E-002   1.4751171167644787E-002   1.4082468299781124E-002
  -4.6996567993167149E-002   1.3967438190450597E-002   1.3998584656138176E-002
  -4.4410509675177554E-002   1.3184314346049497E-002   1.4117238785147951E-002
  -5.8792664116158744E-002   1.7519344112628912E-002   7.7524712034391478E-003
  -5.5984516916826245E-002   1.6679127617681880E-002   7.2856556561244172E-003
  -5.3176369717493774E-002   1.5857797994800468E-002   7.0604800988422877E-003
  -5.0368222518161247E-002   1.5055355243983798E-002   7.0769445315937039E-003
  -4.7560075318828811E-002   1.4271799365233040E-002   7.3350489543781427E-003
  -6.2837740754667748E-002   1.8718223704845549E-002   5.8268938005068271E-004
  -5.9768402456611858E-002   1.7822741957732369E-002   1.5629521364102228E-004
  -5.6699064158556023E-002   1.6964424821955704E-002   1.0643254645448241E-005
  -5.3629725860500188E-002   1.6143272297517192E-002   1.4573350306325283E-004
  -5.0560387562444298E-002   1.5359284384416583E-002   5.6156595889467198E-004
  -3.7663618187767700E-002   1.1009344307682412E-002   2.7707738952547190E-002
  -3.5257112199198332E-002   1.0222709283587039E-002   2.7121811976675514E-002
  -3.2850606210628880E-002   9.4632701084562953E-003   2.6679390300178463E-002
  -3.0444100222059511E-002   8.7310267822896040E-003   2.6380473923055925E-002
  -2.8037594233490060E-002   8.0259793050873052E-003   2.6225062845307900E-002
  -4.1111690631490505E-002   1.2096829326865954E-002   2.0908135451204402E-002
  -3.8582390871685537E-002   1.1310510073339053E-002   2.0469555131475636E-002
  -3.6053091111880542E-002   1.0534604539340492E-002   2.0133057054843612E-002
  -3.3523791352075512E-002   9.7691127248705420E-003   1.9898641221308022E-002
  -3.0994491592270579E-002   9.0140346299291130E-003   1.9766307630868840E-002
  -4.4410509675177554E-002   1.3184314346049497E-002   1.4117238785147951E-002
  -4.1799839200415127E-002   1.2398310863091011E-002   1.3809222992126641E-002
  -3.9189168725652687E-002   1.1605938970225341E-002   1.3561866385923410E-002
  -3.6578498250890296E-002   1.0807198667452087E-002   1.3375168966539071E-002
  -3.3967827776127835E-002   1.0002089954771420E-002   1.3249130733972686E-002
  -4.7560075318828811E-002   1.4271799365233040E-002   7.3350489543781427E-003
  -4.4909457185387094E-002   1.3486111652842941E-002   7.1408155586280761E-003
  -4.2258839051945427E-002   1.2677273401109919E-002   6.9658182934183542E-003
  -3.9608220918503724E-002   1.1845284610032940E-002   6.8100571587482329E-003
  -3.6957602785062049E-002   1.0990145279613422E-002   6.6735321546187235E-003
  -5.0560387562444298E-002   1.5359284384416583E-002   5.6156595889467198E-004
  -4.7911244826601473E-002   1.4573912442595205E-002   4.6433283097990774E-004
  -4.5262102090758649E-002   1.3748607831994275E-002   3.4491277732706660E-004
  -4.2612959354915853E-002   1.2883370552614154E-002   2.0330579793673142E-004
  -3.9963816619073000E-002   1.1978200604455314E-002   3.9511892808041793E-005
  -2.8037594233490060E-002   8.0259793050873052E-003   2.6225062845307900E-002
  -2.5697918674692843E-002   7.3063058045376716E-003   2.5660828584212481E-002
  -2.3358243115895655E-002   6.5301844083285043E-003   2.5037973105591471E-002
  -2.1018567557098425E-002   5.6976151164604902E-003   2.4356496409445400E-002
  -1.8678891998301250E-002   4.8085979289331782E-003   2.3616398495773572E-002
  -3.0994491592270579E-002   9.0140346299291130E-003   1.9766307630868840E-002
  -2.8692322516244442E-002   8.2636695479831879E-003   1.9178031484852531E-002
  -2.6390153440218264E-002   7.5123167724996109E-003   1.8573363590819375E-002
  -2.4087984364192121E-002   6.7599763034784030E-003   1.7952303948769677E-002
  -2.1785815288165949E-002   6.0066481409195571E-003   1.7314852558703353E-002
  -3.3967827776127835E-002   1.0002089954771420E-002   1.3249130733972686E-002
  -3.1660935713363980E-002   9.2210332914287318E-003   1.2692272905156871E-002
  -2.9354043650600188E-002   8.4944491366706204E-003   1.2161252797833325E-002
  -2.7047151587836344E-002   7.8223374904964303E-003   1.1656070412001888E-002
  -2.4740259525072542E-002   7.2046983529062691E-003   1.1176725747662347E-002
  -3.6957602785062049E-002   1.0990145279613422E-002   6.6735321546187235E-003
  -3.4603758266051790E-002   1.0178397034874484E-002   6.2035528451255609E-003
  -3.2249913747041448E-002   9.4765815008415119E-003   5.8016407266332781E-003
  -2.9896069228031182E-002   8.8846986775142339E-003   5.4677957991417416E-003
  -2.7542224709020850E-002   8.4027485648928701E-003   5.2020180626510676E-003
  -3.9963816619073000E-002   1.1978200604455314E-002   3.9511892808041793E-005
  -3.7520790174307539E-002   1.1135760778319903E-002  -2.8812869524103002E-004
  -3.5077763729542077E-002   1.0458713865012625E-002  -5.0547262278027860E-004
  -3.2634737284776644E-002   9.9470598645322317E-003  -6.1251988981055050E-004
  -3.0191710840011154E-002   9.6007987768791381E-003  -6.0927049633097141E-004
  -1.8678891998301250E-002   4.8085979289331782E-003   2.3616398495773572E-002
  -1.5655392526737810E-002   4.0802968979562482E-003   2.4398497772810890E-002
  -1.2631893055174426E-002   3.7298760757388805E-003   2.5655763798174080E-002
  -9.6083935836109996E-003   3.7573354622813387E-003   2.7388196571862977E-002
  -6.5848941120476012E-003   4.1626750575840532E-003   2.9595796093877746E-002
  -2.1785815288165949E-002   6.0066481409195571E-003   1.7314852558703353E-002
  -1.8557321805357865E-002   5.3436022140818662E-003   1.8258974338487222E-002
  -1.5328828322549698E-002   4.8621084522230129E-003   1.9137917392434783E-002
  -1.2100334839741524E-002   4.5621668553433026E-003   1.9951681720546136E-002
  -8.8718413569334464E-003   4.4437774234431515E-003   2.0700267322820820E-002
  -2.4740259525072542E-002   7.2046983529062691E-003   1.1176725747662347E-002
  -2.1847117505181826E-002   6.6069075302074010E-003   1.2086541986412569E-002
  -1.8953975485291222E-002   5.9943408287068400E-003   1.2390834025163860E-002
  -1.6060833465400531E-002   5.3669982484054954E-003   1.2089601863916846E-002
  -1.3167691445509902E-002   4.7248797893026939E-003   1.1182845502671290E-002
  -2.7542224709020850E-002   8.4027485648928701E-003   5.2020180626510676E-003
  -2.5524779626209932E-002   7.8702128463326998E-003   5.8812007165866959E-003
  -2.3507334543398963E-002   7.1265732051915415E-003   5.4145136963610688E-003
  -2.1489889460588014E-002   6.1718296414674627E-003   3.8019570019750155E-003
  -1.9472444377777072E-002   5.0059821551624584E-003   1.0435306334283662E-003
  -3.0191710840011154E-002   9.6007987768791381E-003  -6.0927049633097141E-004
  -2.9590308168441992E-002   9.1335181624586648E-003  -3.5704947099046702E-004
  -2.8988905496872941E-002   8.2588055816753547E-003  -1.7910435939731406E-003
  -2.8387502825303806E-002   6.9766610345300129E-003  -4.9112528652783677E-003
  -2.7786100153734727E-002   5.2870845210217787E-003  -9.7176772849076887E-003
  -6.5848941120476012E-003   4.1626750575840532E-003   2.9595796093877746E-002
  -6.0564324341657871E-003   6.1424245822763179E-003   3.4074728403945764E-002
  -5.5279707562838343E-003   1.0893113756989148E-002   3.9238439118005619E-002
  -4.9995090784019369E-003   1.8414742581722474E-002   4.5086928236057144E-002
  -4.4710474005200673E-003   2.8707311056475504E-002   5.1620195758101506E-002
  -8.8718413569334464E-003   4.4437774234431515E-003   2.0700267322820820E-002
  -7.5860574603601877E-003   5.6585337267865965E-003   2.5870680081661490E-002
  -6.3002735637869706E-003   9.3580293356381739E-003   3.1870958873892796E-002
  -5.0144896672137534E-003   1.5542264249997453E-002   3.8701103699514433E-002
  -3.7287057706406057E-003   2.4211238469864504E-002   4.6361114558526983E-002
  -1.3167691445509902E-002   4.7248797893026939E-003   1.1182845502671290E-002
  -1.0979497700846837E-002   5.1746428712974302E-003   1.6758538365772152E-002
  -8.7913039561837089E-003   7.8229449142868945E-003   2.3309184891662255E-002
  -6.6031102115207199E-003   1.2669785918272607E-002   3.0834785080341362E-002
  -4.4149164668575158E-003   1.9715165883253505E-002   3.9335338931809738E-002
  -1.9472444377777072E-002   5.0059821551624584E-003   1.0435306334283662E-003
  -1.6236753155625477E-002   4.6907520158075422E-003   6.7383032562770284E-003
  -1.3001061933473942E-002   6.2878604929358789E-003   1.3553117171313640E-002
  -9.7653707113224946E-003   9.7973075865478952E-003   2.1487972378538400E-002
  -6.5296794891708185E-003   1.5219093296642172E-002   3.0542868877950047E-002
  -2.7786100153734727E-002   5.2870845210217787E-003  -9.7176772849076887E-003
  -2.3357823824696200E-002   4.2068611603185424E-003  -4.1900252468226595E-003
  -1.8929547495657784E-002   4.7527760715845302E-003   2.6027557128481260E-003
  -1.4501271166619339E-002   6.9248292548231560E-003   1.0660665594105376E-002
  -1.0072994837580840E-002   1.0723020710031506E-002   1.9983704396948854E-002
 </DataArray>
 </PointData>
 </Piece>
 </UnstructuredGrid>
 </VTKFile>
