 <VTKFile type="UnstructuredGrid"  version="0.1"   >
 <UnstructuredGrid>
 <Piece  NumberOfPoints="          1600 "  NumberOfCells="         1024 ">
 <Points>
 <DataArray  type="Float64" NumberOfComponents="3"  format="ascii" >
   0.0000000000000000        0.0000000000000000        0.0000000000000000     
   3.1250000000000000E-002   0.0000000000000000        0.0000000000000000     
   6.2500000000000000E-002   0.0000000000000000        0.0000000000000000     
   9.3750000000000000E-002   0.0000000000000000        0.0000000000000000     
  0.12500000000000000        0.0000000000000000        0.0000000000000000     
   0.0000000000000000        3.1250000000000000E-002   0.0000000000000000     
   3.1250000000000000E-002   3.1250000000000000E-002   0.0000000000000000     
   6.2500000000000000E-002   3.1250000000000000E-002   0.0000000000000000     
   9.3750000000000000E-002   3.1250000000000000E-002   0.0000000000000000     
  0.12500000000000000        3.1250000000000000E-002   0.0000000000000000     
   0.0000000000000000        6.2500000000000000E-002   0.0000000000000000     
   3.1250000000000000E-002   6.2500000000000000E-002   0.0000000000000000     
   6.2500000000000000E-002   6.2500000000000000E-002   0.0000000000000000     
   9.3750000000000000E-002   6.2500000000000000E-002   0.0000000000000000     
  0.12500000000000000        6.2500000000000000E-002   0.0000000000000000     
   0.0000000000000000        9.3750000000000000E-002   0.0000000000000000     
   3.1250000000000000E-002   9.3750000000000000E-002   0.0000000000000000     
   6.2500000000000000E-002   9.3750000000000000E-002   0.0000000000000000     
   9.3750000000000000E-002   9.3750000000000000E-002   0.0000000000000000     
  0.12500000000000000        9.3750000000000000E-002   0.0000000000000000     
   0.0000000000000000       0.12500000000000000        0.0000000000000000     
   3.1250000000000000E-002  0.12500000000000000        0.0000000000000000     
   6.2500000000000000E-002  0.12500000000000000        0.0000000000000000     
   9.3750000000000000E-002  0.12500000000000000        0.0000000000000000     
  0.12500000000000000       0.12500000000000000        0.0000000000000000     
  0.12500000000000000        0.0000000000000000        0.0000000000000000     
  0.15625000000000000        0.0000000000000000        0.0000000000000000     
  0.18750000000000000        0.0000000000000000        0.0000000000000000     
  0.21875000000000000        0.0000000000000000        0.0000000000000000     
  0.25000000000000000        0.0000000000000000        0.0000000000000000     
  0.12500000000000000        3.1250000000000000E-002   0.0000000000000000     
  0.15625000000000000        3.1250000000000000E-002   0.0000000000000000     
  0.18750000000000000        3.1250000000000000E-002   0.0000000000000000     
  0.21875000000000000        3.1250000000000000E-002   0.0000000000000000     
  0.25000000000000000        3.1250000000000000E-002   0.0000000000000000     
  0.12500000000000000        6.2500000000000000E-002   0.0000000000000000     
  0.15625000000000000        6.2500000000000000E-002   0.0000000000000000     
  0.18750000000000000        6.2500000000000000E-002   0.0000000000000000     
  0.21875000000000000        6.2500000000000000E-002   0.0000000000000000     
  0.25000000000000000        6.2500000000000000E-002   0.0000000000000000     
  0.12500000000000000        9.3750000000000000E-002   0.0000000000000000     
  0.15625000000000000        9.3750000000000000E-002   0.0000000000000000     
  0.18750000000000000        9.3750000000000000E-002   0.0000000000000000     
  0.21875000000000000        9.3750000000000000E-002   0.0000000000000000     
  0.25000000000000000        9.3750000000000000E-002   0.0000000000000000     
  0.12500000000000000       0.12500000000000000        0.0000000000000000     
  0.15625000000000000       0.12500000000000000        0.0000000000000000     
  0.18750000000000000       0.12500000000000000        0.0000000000000000     
  0.21875000000000000       0.12500000000000000        0.0000000000000000     
  0.25000000000000000       0.12500000000000000        0.0000000000000000     
  0.25000000000000000        0.0000000000000000        0.0000000000000000     
  0.28125000000000000        0.0000000000000000        0.0000000000000000     
  0.31250000000000000        0.0000000000000000        0.0000000000000000     
  0.34375000000000000        0.0000000000000000        0.0000000000000000     
  0.37500000000000000        0.0000000000000000        0.0000000000000000     
  0.25000000000000000        3.1250000000000000E-002   0.0000000000000000     
  0.28125000000000000        3.1250000000000000E-002   0.0000000000000000     
  0.31250000000000000        3.1250000000000000E-002   0.0000000000000000     
  0.34375000000000000        3.1250000000000000E-002   0.0000000000000000     
  0.37500000000000000        3.1250000000000000E-002   0.0000000000000000     
  0.25000000000000000        6.2500000000000000E-002   0.0000000000000000     
  0.28125000000000000        6.2500000000000000E-002   0.0000000000000000     
  0.31250000000000000        6.2500000000000000E-002   0.0000000000000000     
  0.34375000000000000        6.2500000000000000E-002   0.0000000000000000     
  0.37500000000000000        6.2500000000000000E-002   0.0000000000000000     
  0.25000000000000000        9.3750000000000000E-002   0.0000000000000000     
  0.28125000000000000        9.3750000000000000E-002   0.0000000000000000     
  0.31250000000000000        9.3750000000000000E-002   0.0000000000000000     
  0.34375000000000000        9.3750000000000000E-002   0.0000000000000000     
  0.37500000000000000        9.3750000000000000E-002   0.0000000000000000     
  0.25000000000000000       0.12500000000000000        0.0000000000000000     
  0.28125000000000000       0.12500000000000000        0.0000000000000000     
  0.31250000000000000       0.12500000000000000        0.0000000000000000     
  0.34375000000000000       0.12500000000000000        0.0000000000000000     
  0.37500000000000000       0.12500000000000000        0.0000000000000000     
  0.37500000000000000        0.0000000000000000        0.0000000000000000     
  0.40625000000000000        0.0000000000000000        0.0000000000000000     
  0.43750000000000000        0.0000000000000000        0.0000000000000000     
  0.46875000000000000        0.0000000000000000        0.0000000000000000     
  0.50000000000000000        0.0000000000000000        0.0000000000000000     
  0.37500000000000000        3.1250000000000000E-002   0.0000000000000000     
  0.40625000000000000        3.1250000000000000E-002   0.0000000000000000     
  0.43750000000000000        3.1250000000000000E-002   0.0000000000000000     
  0.46875000000000000        3.1250000000000000E-002   0.0000000000000000     
  0.50000000000000000        3.1250000000000000E-002   0.0000000000000000     
  0.37500000000000000        6.2500000000000000E-002   0.0000000000000000     
  0.40625000000000000        6.2500000000000000E-002   0.0000000000000000     
  0.43750000000000000        6.2500000000000000E-002   0.0000000000000000     
  0.46875000000000000        6.2500000000000000E-002   0.0000000000000000     
  0.50000000000000000        6.2500000000000000E-002   0.0000000000000000     
  0.37500000000000000        9.3750000000000000E-002   0.0000000000000000     
  0.40625000000000000        9.3750000000000000E-002   0.0000000000000000     
  0.43750000000000000        9.3750000000000000E-002   0.0000000000000000     
  0.46875000000000000        9.3750000000000000E-002   0.0000000000000000     
  0.50000000000000000        9.3750000000000000E-002   0.0000000000000000     
  0.37500000000000000       0.12500000000000000        0.0000000000000000     
  0.40625000000000000       0.12500000000000000        0.0000000000000000     
  0.43750000000000000       0.12500000000000000        0.0000000000000000     
  0.46875000000000000       0.12500000000000000        0.0000000000000000     
  0.50000000000000000       0.12500000000000000        0.0000000000000000     
  0.50000000000000000        0.0000000000000000        0.0000000000000000     
  0.53125000000000000        0.0000000000000000        0.0000000000000000     
  0.56250000000000000        0.0000000000000000        0.0000000000000000     
  0.59375000000000000        0.0000000000000000        0.0000000000000000     
  0.62500000000000000        0.0000000000000000        0.0000000000000000     
  0.50000000000000000        3.1250000000000000E-002   0.0000000000000000     
  0.53125000000000000        3.1250000000000000E-002   0.0000000000000000     
  0.56250000000000000        3.1250000000000000E-002   0.0000000000000000     
  0.59375000000000000        3.1250000000000000E-002   0.0000000000000000     
  0.62500000000000000        3.1250000000000000E-002   0.0000000000000000     
  0.50000000000000000        6.2500000000000000E-002   0.0000000000000000     
  0.53125000000000000        6.2500000000000000E-002   0.0000000000000000     
  0.56250000000000000        6.2500000000000000E-002   0.0000000000000000     
  0.59375000000000000        6.2500000000000000E-002   0.0000000000000000     
  0.62500000000000000        6.2500000000000000E-002   0.0000000000000000     
  0.50000000000000000        9.3750000000000000E-002   0.0000000000000000     
  0.53125000000000000        9.3750000000000000E-002   0.0000000000000000     
  0.56250000000000000        9.3750000000000000E-002   0.0000000000000000     
  0.59375000000000000        9.3750000000000000E-002   0.0000000000000000     
  0.62500000000000000        9.3750000000000000E-002   0.0000000000000000     
  0.50000000000000000       0.12500000000000000        0.0000000000000000     
  0.53125000000000000       0.12500000000000000        0.0000000000000000     
  0.56250000000000000       0.12500000000000000        0.0000000000000000     
  0.59375000000000000       0.12500000000000000        0.0000000000000000     
  0.62500000000000000       0.12500000000000000        0.0000000000000000     
  0.62500000000000000        0.0000000000000000        0.0000000000000000     
  0.65625000000000000        0.0000000000000000        0.0000000000000000     
  0.68750000000000000        0.0000000000000000        0.0000000000000000     
  0.71875000000000000        0.0000000000000000        0.0000000000000000     
  0.75000000000000000        0.0000000000000000        0.0000000000000000     
  0.62500000000000000        3.1250000000000000E-002   0.0000000000000000     
  0.65625000000000000        3.1250000000000000E-002   0.0000000000000000     
  0.68750000000000000        3.1250000000000000E-002   0.0000000000000000     
  0.71875000000000000        3.1250000000000000E-002   0.0000000000000000     
  0.75000000000000000        3.1250000000000000E-002   0.0000000000000000     
  0.62500000000000000        6.2500000000000000E-002   0.0000000000000000     
  0.65625000000000000        6.2500000000000000E-002   0.0000000000000000     
  0.68750000000000000        6.2500000000000000E-002   0.0000000000000000     
  0.71875000000000000        6.2500000000000000E-002   0.0000000000000000     
  0.75000000000000000        6.2500000000000000E-002   0.0000000000000000     
  0.62500000000000000        9.3750000000000000E-002   0.0000000000000000     
  0.65625000000000000        9.3750000000000000E-002   0.0000000000000000     
  0.68750000000000000        9.3750000000000000E-002   0.0000000000000000     
  0.71875000000000000        9.3750000000000000E-002   0.0000000000000000     
  0.75000000000000000        9.3750000000000000E-002   0.0000000000000000     
  0.62500000000000000       0.12500000000000000        0.0000000000000000     
  0.65625000000000000       0.12500000000000000        0.0000000000000000     
  0.68750000000000000       0.12500000000000000        0.0000000000000000     
  0.71875000000000000       0.12500000000000000        0.0000000000000000     
  0.75000000000000000       0.12500000000000000        0.0000000000000000     
  0.75000000000000000        0.0000000000000000        0.0000000000000000     
  0.78125000000000000        0.0000000000000000        0.0000000000000000     
  0.81250000000000000        0.0000000000000000        0.0000000000000000     
  0.84375000000000000        0.0000000000000000        0.0000000000000000     
  0.87500000000000000        0.0000000000000000        0.0000000000000000     
  0.75000000000000000        3.1250000000000000E-002   0.0000000000000000     
  0.78125000000000000        3.1250000000000000E-002   0.0000000000000000     
  0.81250000000000000        3.1250000000000000E-002   0.0000000000000000     
  0.84375000000000000        3.1250000000000000E-002   0.0000000000000000     
  0.87500000000000000        3.1250000000000000E-002   0.0000000000000000     
  0.75000000000000000        6.2500000000000000E-002   0.0000000000000000     
  0.78125000000000000        6.2500000000000000E-002   0.0000000000000000     
  0.81250000000000000        6.2500000000000000E-002   0.0000000000000000     
  0.84375000000000000        6.2500000000000000E-002   0.0000000000000000     
  0.87500000000000000        6.2500000000000000E-002   0.0000000000000000     
  0.75000000000000000        9.3750000000000000E-002   0.0000000000000000     
  0.78125000000000000        9.3750000000000000E-002   0.0000000000000000     
  0.81250000000000000        9.3750000000000000E-002   0.0000000000000000     
  0.84375000000000000        9.3750000000000000E-002   0.0000000000000000     
  0.87500000000000000        9.3750000000000000E-002   0.0000000000000000     
  0.75000000000000000       0.12500000000000000        0.0000000000000000     
  0.78125000000000000       0.12500000000000000        0.0000000000000000     
  0.81250000000000000       0.12500000000000000        0.0000000000000000     
  0.84375000000000000       0.12500000000000000        0.0000000000000000     
  0.87500000000000000       0.12500000000000000        0.0000000000000000     
  0.87500000000000000        0.0000000000000000        0.0000000000000000     
  0.90625000000000000        0.0000000000000000        0.0000000000000000     
  0.93750000000000000        0.0000000000000000        0.0000000000000000     
  0.96875000000000000        0.0000000000000000        0.0000000000000000     
   1.0000000000000000        0.0000000000000000        0.0000000000000000     
  0.87500000000000000        3.1250000000000000E-002   0.0000000000000000     
  0.90625000000000000        3.1250000000000000E-002   0.0000000000000000     
  0.93750000000000000        3.1250000000000000E-002   0.0000000000000000     
  0.96875000000000000        3.1250000000000000E-002   0.0000000000000000     
   1.0000000000000000        3.1250000000000000E-002   0.0000000000000000     
  0.87500000000000000        6.2500000000000000E-002   0.0000000000000000     
  0.90625000000000000        6.2500000000000000E-002   0.0000000000000000     
  0.93750000000000000        6.2500000000000000E-002   0.0000000000000000     
  0.96875000000000000        6.2500000000000000E-002   0.0000000000000000     
   1.0000000000000000        6.2500000000000000E-002   0.0000000000000000     
  0.87500000000000000        9.3750000000000000E-002   0.0000000000000000     
  0.90625000000000000        9.3750000000000000E-002   0.0000000000000000     
  0.93750000000000000        9.3750000000000000E-002   0.0000000000000000     
  0.96875000000000000        9.3750000000000000E-002   0.0000000000000000     
   1.0000000000000000        9.3750000000000000E-002   0.0000000000000000     
  0.87500000000000000       0.12500000000000000        0.0000000000000000     
  0.90625000000000000       0.12500000000000000        0.0000000000000000     
  0.93750000000000000       0.12500000000000000        0.0000000000000000     
  0.96875000000000000       0.12500000000000000        0.0000000000000000     
   1.0000000000000000       0.12500000000000000        0.0000000000000000     
   0.0000000000000000       0.12500000000000000        0.0000000000000000     
   3.1250000000000000E-002  0.12500000000000000        0.0000000000000000     
   6.2500000000000000E-002  0.12500000000000000        0.0000000000000000     
   9.3750000000000000E-002  0.12500000000000000        0.0000000000000000     
  0.12500000000000000       0.12500000000000000        0.0000000000000000     
   0.0000000000000000       0.15625000000000000        0.0000000000000000     
   3.1250000000000000E-002  0.15625000000000000        0.0000000000000000     
   6.2500000000000000E-002  0.15625000000000000        0.0000000000000000     
   9.3750000000000000E-002  0.15625000000000000        0.0000000000000000     
  0.12500000000000000       0.15625000000000000        0.0000000000000000     
   0.0000000000000000       0.18750000000000000        0.0000000000000000     
   3.1250000000000000E-002  0.18750000000000000        0.0000000000000000     
   6.2500000000000000E-002  0.18750000000000000        0.0000000000000000     
   9.3750000000000000E-002  0.18750000000000000        0.0000000000000000     
  0.12500000000000000       0.18750000000000000        0.0000000000000000     
   0.0000000000000000       0.21875000000000000        0.0000000000000000     
   3.1250000000000000E-002  0.21875000000000000        0.0000000000000000     
   6.2500000000000000E-002  0.21875000000000000        0.0000000000000000     
   9.3750000000000000E-002  0.21875000000000000        0.0000000000000000     
  0.12500000000000000       0.21875000000000000        0.0000000000000000     
   0.0000000000000000       0.25000000000000000        0.0000000000000000     
   3.1250000000000000E-002  0.25000000000000000        0.0000000000000000     
   6.2500000000000000E-002  0.25000000000000000        0.0000000000000000     
   9.3750000000000000E-002  0.25000000000000000        0.0000000000000000     
  0.12500000000000000       0.25000000000000000        0.0000000000000000     
  0.12500000000000000       0.12500000000000000        0.0000000000000000     
  0.15625000000000000       0.12500000000000000        0.0000000000000000     
  0.18750000000000000       0.12500000000000000        0.0000000000000000     
  0.21875000000000000       0.12500000000000000        0.0000000000000000     
  0.25000000000000000       0.12500000000000000        0.0000000000000000     
  0.12500000000000000       0.15625000000000000        0.0000000000000000     
  0.15625000000000000       0.15625000000000000        0.0000000000000000     
  0.18750000000000000       0.15625000000000000        0.0000000000000000     
  0.21875000000000000       0.15625000000000000        0.0000000000000000     
  0.25000000000000000       0.15625000000000000        0.0000000000000000     
  0.12500000000000000       0.18750000000000000        0.0000000000000000     
  0.15625000000000000       0.18750000000000000        0.0000000000000000     
  0.18750000000000000       0.18750000000000000        0.0000000000000000     
  0.21875000000000000       0.18750000000000000        0.0000000000000000     
  0.25000000000000000       0.18750000000000000        0.0000000000000000     
  0.12500000000000000       0.21875000000000000        0.0000000000000000     
  0.15625000000000000       0.21875000000000000        0.0000000000000000     
  0.18750000000000000       0.21875000000000000        0.0000000000000000     
  0.21875000000000000       0.21875000000000000        0.0000000000000000     
  0.25000000000000000       0.21875000000000000        0.0000000000000000     
  0.12500000000000000       0.25000000000000000        0.0000000000000000     
  0.15625000000000000       0.25000000000000000        0.0000000000000000     
  0.18750000000000000       0.25000000000000000        0.0000000000000000     
  0.21875000000000000       0.25000000000000000        0.0000000000000000     
  0.25000000000000000       0.25000000000000000        0.0000000000000000     
  0.25000000000000000       0.12500000000000000        0.0000000000000000     
  0.28125000000000000       0.12500000000000000        0.0000000000000000     
  0.31250000000000000       0.12500000000000000        0.0000000000000000     
  0.34375000000000000       0.12500000000000000        0.0000000000000000     
  0.37500000000000000       0.12500000000000000        0.0000000000000000     
  0.25000000000000000       0.15625000000000000        0.0000000000000000     
  0.28125000000000000       0.15625000000000000        0.0000000000000000     
  0.31250000000000000       0.15625000000000000        0.0000000000000000     
  0.34375000000000000       0.15625000000000000        0.0000000000000000     
  0.37500000000000000       0.15625000000000000        0.0000000000000000     
  0.25000000000000000       0.18750000000000000        0.0000000000000000     
  0.28125000000000000       0.18750000000000000        0.0000000000000000     
  0.31250000000000000       0.18750000000000000        0.0000000000000000     
  0.34375000000000000       0.18750000000000000        0.0000000000000000     
  0.37500000000000000       0.18750000000000000        0.0000000000000000     
  0.25000000000000000       0.21875000000000000        0.0000000000000000     
  0.28125000000000000       0.21875000000000000        0.0000000000000000     
  0.31250000000000000       0.21875000000000000        0.0000000000000000     
  0.34375000000000000       0.21875000000000000        0.0000000000000000     
  0.37500000000000000       0.21875000000000000        0.0000000000000000     
  0.25000000000000000       0.25000000000000000        0.0000000000000000     
  0.28125000000000000       0.25000000000000000        0.0000000000000000     
  0.31250000000000000       0.25000000000000000        0.0000000000000000     
  0.34375000000000000       0.25000000000000000        0.0000000000000000     
  0.37500000000000000       0.25000000000000000        0.0000000000000000     
  0.37500000000000000       0.12500000000000000        0.0000000000000000     
  0.40625000000000000       0.12500000000000000        0.0000000000000000     
  0.43750000000000000       0.12500000000000000        0.0000000000000000     
  0.46875000000000000       0.12500000000000000        0.0000000000000000     
  0.50000000000000000       0.12500000000000000        0.0000000000000000     
  0.37500000000000000       0.15625000000000000        0.0000000000000000     
  0.40625000000000000       0.15625000000000000        0.0000000000000000     
  0.43750000000000000       0.15625000000000000        0.0000000000000000     
  0.46875000000000000       0.15625000000000000        0.0000000000000000     
  0.50000000000000000       0.15625000000000000        0.0000000000000000     
  0.37500000000000000       0.18750000000000000        0.0000000000000000     
  0.40625000000000000       0.18750000000000000        0.0000000000000000     
  0.43750000000000000       0.18750000000000000        0.0000000000000000     
  0.46875000000000000       0.18750000000000000        0.0000000000000000     
  0.50000000000000000       0.18750000000000000        0.0000000000000000     
  0.37500000000000000       0.21875000000000000        0.0000000000000000     
  0.40625000000000000       0.21875000000000000        0.0000000000000000     
  0.43750000000000000       0.21875000000000000        0.0000000000000000     
  0.46875000000000000       0.21875000000000000        0.0000000000000000     
  0.50000000000000000       0.21875000000000000        0.0000000000000000     
  0.37500000000000000       0.25000000000000000        0.0000000000000000     
  0.40625000000000000       0.25000000000000000        0.0000000000000000     
  0.43750000000000000       0.25000000000000000        0.0000000000000000     
  0.46875000000000000       0.25000000000000000        0.0000000000000000     
  0.50000000000000000       0.25000000000000000        0.0000000000000000     
  0.50000000000000000       0.12500000000000000        0.0000000000000000     
  0.53125000000000000       0.12500000000000000        0.0000000000000000     
  0.56250000000000000       0.12500000000000000        0.0000000000000000     
  0.59375000000000000       0.12500000000000000        0.0000000000000000     
  0.62500000000000000       0.12500000000000000        0.0000000000000000     
  0.50000000000000000       0.15625000000000000        0.0000000000000000     
  0.53125000000000000       0.15625000000000000        0.0000000000000000     
  0.56250000000000000       0.15625000000000000        0.0000000000000000     
  0.59375000000000000       0.15625000000000000        0.0000000000000000     
  0.62500000000000000       0.15625000000000000        0.0000000000000000     
  0.50000000000000000       0.18750000000000000        0.0000000000000000     
  0.53125000000000000       0.18750000000000000        0.0000000000000000     
  0.56250000000000000       0.18750000000000000        0.0000000000000000     
  0.59375000000000000       0.18750000000000000        0.0000000000000000     
  0.62500000000000000       0.18750000000000000        0.0000000000000000     
  0.50000000000000000       0.21875000000000000        0.0000000000000000     
  0.53125000000000000       0.21875000000000000        0.0000000000000000     
  0.56250000000000000       0.21875000000000000        0.0000000000000000     
  0.59375000000000000       0.21875000000000000        0.0000000000000000     
  0.62500000000000000       0.21875000000000000        0.0000000000000000     
  0.50000000000000000       0.25000000000000000        0.0000000000000000     
  0.53125000000000000       0.25000000000000000        0.0000000000000000     
  0.56250000000000000       0.25000000000000000        0.0000000000000000     
  0.59375000000000000       0.25000000000000000        0.0000000000000000     
  0.62500000000000000       0.25000000000000000        0.0000000000000000     
  0.62500000000000000       0.12500000000000000        0.0000000000000000     
  0.65625000000000000       0.12500000000000000        0.0000000000000000     
  0.68750000000000000       0.12500000000000000        0.0000000000000000     
  0.71875000000000000       0.12500000000000000        0.0000000000000000     
  0.75000000000000000       0.12500000000000000        0.0000000000000000     
  0.62500000000000000       0.15625000000000000        0.0000000000000000     
  0.65625000000000000       0.15625000000000000        0.0000000000000000     
  0.68750000000000000       0.15625000000000000        0.0000000000000000     
  0.71875000000000000       0.15625000000000000        0.0000000000000000     
  0.75000000000000000       0.15625000000000000        0.0000000000000000     
  0.62500000000000000       0.18750000000000000        0.0000000000000000     
  0.65625000000000000       0.18750000000000000        0.0000000000000000     
  0.68750000000000000       0.18750000000000000        0.0000000000000000     
  0.71875000000000000       0.18750000000000000        0.0000000000000000     
  0.75000000000000000       0.18750000000000000        0.0000000000000000     
  0.62500000000000000       0.21875000000000000        0.0000000000000000     
  0.65625000000000000       0.21875000000000000        0.0000000000000000     
  0.68750000000000000       0.21875000000000000        0.0000000000000000     
  0.71875000000000000       0.21875000000000000        0.0000000000000000     
  0.75000000000000000       0.21875000000000000        0.0000000000000000     
  0.62500000000000000       0.25000000000000000        0.0000000000000000     
  0.65625000000000000       0.25000000000000000        0.0000000000000000     
  0.68750000000000000       0.25000000000000000        0.0000000000000000     
  0.71875000000000000       0.25000000000000000        0.0000000000000000     
  0.75000000000000000       0.25000000000000000        0.0000000000000000     
  0.75000000000000000       0.12500000000000000        0.0000000000000000     
  0.78125000000000000       0.12500000000000000        0.0000000000000000     
  0.81250000000000000       0.12500000000000000        0.0000000000000000     
  0.84375000000000000       0.12500000000000000        0.0000000000000000     
  0.87500000000000000       0.12500000000000000        0.0000000000000000     
  0.75000000000000000       0.15625000000000000        0.0000000000000000     
  0.78125000000000000       0.15625000000000000        0.0000000000000000     
  0.81250000000000000       0.15625000000000000        0.0000000000000000     
  0.84375000000000000       0.15625000000000000        0.0000000000000000     
  0.87500000000000000       0.15625000000000000        0.0000000000000000     
  0.75000000000000000       0.18750000000000000        0.0000000000000000     
  0.78125000000000000       0.18750000000000000        0.0000000000000000     
  0.81250000000000000       0.18750000000000000        0.0000000000000000     
  0.84375000000000000       0.18750000000000000        0.0000000000000000     
  0.87500000000000000       0.18750000000000000        0.0000000000000000     
  0.75000000000000000       0.21875000000000000        0.0000000000000000     
  0.78125000000000000       0.21875000000000000        0.0000000000000000     
  0.81250000000000000       0.21875000000000000        0.0000000000000000     
  0.84375000000000000       0.21875000000000000        0.0000000000000000     
  0.87500000000000000       0.21875000000000000        0.0000000000000000     
  0.75000000000000000       0.25000000000000000        0.0000000000000000     
  0.78125000000000000       0.25000000000000000        0.0000000000000000     
  0.81250000000000000       0.25000000000000000        0.0000000000000000     
  0.84375000000000000       0.25000000000000000        0.0000000000000000     
  0.87500000000000000       0.25000000000000000        0.0000000000000000     
  0.87500000000000000       0.12500000000000000        0.0000000000000000     
  0.90625000000000000       0.12500000000000000        0.0000000000000000     
  0.93750000000000000       0.12500000000000000        0.0000000000000000     
  0.96875000000000000       0.12500000000000000        0.0000000000000000     
   1.0000000000000000       0.12500000000000000        0.0000000000000000     
  0.87500000000000000       0.15625000000000000        0.0000000000000000     
  0.90625000000000000       0.15625000000000000        0.0000000000000000     
  0.93750000000000000       0.15625000000000000        0.0000000000000000     
  0.96875000000000000       0.15625000000000000        0.0000000000000000     
   1.0000000000000000       0.15625000000000000        0.0000000000000000     
  0.87500000000000000       0.18750000000000000        0.0000000000000000     
  0.90625000000000000       0.18750000000000000        0.0000000000000000     
  0.93750000000000000       0.18750000000000000        0.0000000000000000     
  0.96875000000000000       0.18750000000000000        0.0000000000000000     
   1.0000000000000000       0.18750000000000000        0.0000000000000000     
  0.87500000000000000       0.21875000000000000        0.0000000000000000     
  0.90625000000000000       0.21875000000000000        0.0000000000000000     
  0.93750000000000000       0.21875000000000000        0.0000000000000000     
  0.96875000000000000       0.21875000000000000        0.0000000000000000     
   1.0000000000000000       0.21875000000000000        0.0000000000000000     
  0.87500000000000000       0.25000000000000000        0.0000000000000000     
  0.90625000000000000       0.25000000000000000        0.0000000000000000     
  0.93750000000000000       0.25000000000000000        0.0000000000000000     
  0.96875000000000000       0.25000000000000000        0.0000000000000000     
   1.0000000000000000       0.25000000000000000        0.0000000000000000     
   0.0000000000000000       0.25000000000000000        0.0000000000000000     
   3.1250000000000000E-002  0.25000000000000000        0.0000000000000000     
   6.2500000000000000E-002  0.25000000000000000        0.0000000000000000     
   9.3750000000000000E-002  0.25000000000000000        0.0000000000000000     
  0.12500000000000000       0.25000000000000000        0.0000000000000000     
   0.0000000000000000       0.28125000000000000        0.0000000000000000     
   3.1250000000000000E-002  0.28125000000000000        0.0000000000000000     
   6.2500000000000000E-002  0.28125000000000000        0.0000000000000000     
   9.3750000000000000E-002  0.28125000000000000        0.0000000000000000     
  0.12500000000000000       0.28125000000000000        0.0000000000000000     
   0.0000000000000000       0.31250000000000000        0.0000000000000000     
   3.1250000000000000E-002  0.31250000000000000        0.0000000000000000     
   6.2500000000000000E-002  0.31250000000000000        0.0000000000000000     
   9.3750000000000000E-002  0.31250000000000000        0.0000000000000000     
  0.12500000000000000       0.31250000000000000        0.0000000000000000     
   0.0000000000000000       0.34375000000000000        0.0000000000000000     
   3.1250000000000000E-002  0.34375000000000000        0.0000000000000000     
   6.2500000000000000E-002  0.34375000000000000        0.0000000000000000     
   9.3750000000000000E-002  0.34375000000000000        0.0000000000000000     
  0.12500000000000000       0.34375000000000000        0.0000000000000000     
   0.0000000000000000       0.37500000000000000        0.0000000000000000     
   3.1250000000000000E-002  0.37500000000000000        0.0000000000000000     
   6.2500000000000000E-002  0.37500000000000000        0.0000000000000000     
   9.3750000000000000E-002  0.37500000000000000        0.0000000000000000     
  0.12500000000000000       0.37500000000000000        0.0000000000000000     
  0.12500000000000000       0.25000000000000000        0.0000000000000000     
  0.15625000000000000       0.25000000000000000        0.0000000000000000     
  0.18750000000000000       0.25000000000000000        0.0000000000000000     
  0.21875000000000000       0.25000000000000000        0.0000000000000000     
  0.25000000000000000       0.25000000000000000        0.0000000000000000     
  0.12500000000000000       0.28125000000000000        0.0000000000000000     
  0.15625000000000000       0.28125000000000000        0.0000000000000000     
  0.18750000000000000       0.28125000000000000        0.0000000000000000     
  0.21875000000000000       0.28125000000000000        0.0000000000000000     
  0.25000000000000000       0.28125000000000000        0.0000000000000000     
  0.12500000000000000       0.31250000000000000        0.0000000000000000     
  0.15625000000000000       0.31250000000000000        0.0000000000000000     
  0.18750000000000000       0.31250000000000000        0.0000000000000000     
  0.21875000000000000       0.31250000000000000        0.0000000000000000     
  0.25000000000000000       0.31250000000000000        0.0000000000000000     
  0.12500000000000000       0.34375000000000000        0.0000000000000000     
  0.15625000000000000       0.34375000000000000        0.0000000000000000     
  0.18750000000000000       0.34375000000000000        0.0000000000000000     
  0.21875000000000000       0.34375000000000000        0.0000000000000000     
  0.25000000000000000       0.34375000000000000        0.0000000000000000     
  0.12500000000000000       0.37500000000000000        0.0000000000000000     
  0.15625000000000000       0.37500000000000000        0.0000000000000000     
  0.18750000000000000       0.37500000000000000        0.0000000000000000     
  0.21875000000000000       0.37500000000000000        0.0000000000000000     
  0.25000000000000000       0.37500000000000000        0.0000000000000000     
  0.25000000000000000       0.25000000000000000        0.0000000000000000     
  0.28125000000000000       0.25000000000000000        0.0000000000000000     
  0.31250000000000000       0.25000000000000000        0.0000000000000000     
  0.34375000000000000       0.25000000000000000        0.0000000000000000     
  0.37500000000000000       0.25000000000000000        0.0000000000000000     
  0.25000000000000000       0.28125000000000000        0.0000000000000000     
  0.28125000000000000       0.28125000000000000        0.0000000000000000     
  0.31250000000000000       0.28125000000000000        0.0000000000000000     
  0.34375000000000000       0.28125000000000000        0.0000000000000000     
  0.37500000000000000       0.28125000000000000        0.0000000000000000     
  0.25000000000000000       0.31250000000000000        0.0000000000000000     
  0.28125000000000000       0.31250000000000000        0.0000000000000000     
  0.31250000000000000       0.31250000000000000        0.0000000000000000     
  0.34375000000000000       0.31250000000000000        0.0000000000000000     
  0.37500000000000000       0.31250000000000000        0.0000000000000000     
  0.25000000000000000       0.34375000000000000        0.0000000000000000     
  0.28125000000000000       0.34375000000000000        0.0000000000000000     
  0.31250000000000000       0.34375000000000000        0.0000000000000000     
  0.34375000000000000       0.34375000000000000        0.0000000000000000     
  0.37500000000000000       0.34375000000000000        0.0000000000000000     
  0.25000000000000000       0.37500000000000000        0.0000000000000000     
  0.28125000000000000       0.37500000000000000        0.0000000000000000     
  0.31250000000000000       0.37500000000000000        0.0000000000000000     
  0.34375000000000000       0.37500000000000000        0.0000000000000000     
  0.37500000000000000       0.37500000000000000        0.0000000000000000     
  0.37500000000000000       0.25000000000000000        0.0000000000000000     
  0.40625000000000000       0.25000000000000000        0.0000000000000000     
  0.43750000000000000       0.25000000000000000        0.0000000000000000     
  0.46875000000000000       0.25000000000000000        0.0000000000000000     
  0.50000000000000000       0.25000000000000000        0.0000000000000000     
  0.37500000000000000       0.28125000000000000        0.0000000000000000     
  0.40625000000000000       0.28125000000000000        0.0000000000000000     
  0.43750000000000000       0.28125000000000000        0.0000000000000000     
  0.46875000000000000       0.28125000000000000        0.0000000000000000     
  0.50000000000000000       0.28125000000000000        0.0000000000000000     
  0.37500000000000000       0.31250000000000000        0.0000000000000000     
  0.40625000000000000       0.31250000000000000        0.0000000000000000     
  0.43750000000000000       0.31250000000000000        0.0000000000000000     
  0.46875000000000000       0.31250000000000000        0.0000000000000000     
  0.50000000000000000       0.31250000000000000        0.0000000000000000     
  0.37500000000000000       0.34375000000000000        0.0000000000000000     
  0.40625000000000000       0.34375000000000000        0.0000000000000000     
  0.43750000000000000       0.34375000000000000        0.0000000000000000     
  0.46875000000000000       0.34375000000000000        0.0000000000000000     
  0.50000000000000000       0.34375000000000000        0.0000000000000000     
  0.37500000000000000       0.37500000000000000        0.0000000000000000     
  0.40625000000000000       0.37500000000000000        0.0000000000000000     
  0.43750000000000000       0.37500000000000000        0.0000000000000000     
  0.46875000000000000       0.37500000000000000        0.0000000000000000     
  0.50000000000000000       0.37500000000000000        0.0000000000000000     
  0.50000000000000000       0.25000000000000000        0.0000000000000000     
  0.53125000000000000       0.25000000000000000        0.0000000000000000     
  0.56250000000000000       0.25000000000000000        0.0000000000000000     
  0.59375000000000000       0.25000000000000000        0.0000000000000000     
  0.62500000000000000       0.25000000000000000        0.0000000000000000     
  0.50000000000000000       0.28125000000000000        0.0000000000000000     
  0.53125000000000000       0.28125000000000000        0.0000000000000000     
  0.56250000000000000       0.28125000000000000        0.0000000000000000     
  0.59375000000000000       0.28125000000000000        0.0000000000000000     
  0.62500000000000000       0.28125000000000000        0.0000000000000000     
  0.50000000000000000       0.31250000000000000        0.0000000000000000     
  0.53125000000000000       0.31250000000000000        0.0000000000000000     
  0.56250000000000000       0.31250000000000000        0.0000000000000000     
  0.59375000000000000       0.31250000000000000        0.0000000000000000     
  0.62500000000000000       0.31250000000000000        0.0000000000000000     
  0.50000000000000000       0.34375000000000000        0.0000000000000000     
  0.53125000000000000       0.34375000000000000        0.0000000000000000     
  0.56250000000000000       0.34375000000000000        0.0000000000000000     
  0.59375000000000000       0.34375000000000000        0.0000000000000000     
  0.62500000000000000       0.34375000000000000        0.0000000000000000     
  0.50000000000000000       0.37500000000000000        0.0000000000000000     
  0.53125000000000000       0.37500000000000000        0.0000000000000000     
  0.56250000000000000       0.37500000000000000        0.0000000000000000     
  0.59375000000000000       0.37500000000000000        0.0000000000000000     
  0.62500000000000000       0.37500000000000000        0.0000000000000000     
  0.62500000000000000       0.25000000000000000        0.0000000000000000     
  0.65625000000000000       0.25000000000000000        0.0000000000000000     
  0.68750000000000000       0.25000000000000000        0.0000000000000000     
  0.71875000000000000       0.25000000000000000        0.0000000000000000     
  0.75000000000000000       0.25000000000000000        0.0000000000000000     
  0.62500000000000000       0.28125000000000000        0.0000000000000000     
  0.65625000000000000       0.28125000000000000        0.0000000000000000     
  0.68750000000000000       0.28125000000000000        0.0000000000000000     
  0.71875000000000000       0.28125000000000000        0.0000000000000000     
  0.75000000000000000       0.28125000000000000        0.0000000000000000     
  0.62500000000000000       0.31250000000000000        0.0000000000000000     
  0.65625000000000000       0.31250000000000000        0.0000000000000000     
  0.68750000000000000       0.31250000000000000        0.0000000000000000     
  0.71875000000000000       0.31250000000000000        0.0000000000000000     
  0.75000000000000000       0.31250000000000000        0.0000000000000000     
  0.62500000000000000       0.34375000000000000        0.0000000000000000     
  0.65625000000000000       0.34375000000000000        0.0000000000000000     
  0.68750000000000000       0.34375000000000000        0.0000000000000000     
  0.71875000000000000       0.34375000000000000        0.0000000000000000     
  0.75000000000000000       0.34375000000000000        0.0000000000000000     
  0.62500000000000000       0.37500000000000000        0.0000000000000000     
  0.65625000000000000       0.37500000000000000        0.0000000000000000     
  0.68750000000000000       0.37500000000000000        0.0000000000000000     
  0.71875000000000000       0.37500000000000000        0.0000000000000000     
  0.75000000000000000       0.37500000000000000        0.0000000000000000     
  0.75000000000000000       0.25000000000000000        0.0000000000000000     
  0.78125000000000000       0.25000000000000000        0.0000000000000000     
  0.81250000000000000       0.25000000000000000        0.0000000000000000     
  0.84375000000000000       0.25000000000000000        0.0000000000000000     
  0.87500000000000000       0.25000000000000000        0.0000000000000000     
  0.75000000000000000       0.28125000000000000        0.0000000000000000     
  0.78125000000000000       0.28125000000000000        0.0000000000000000     
  0.81250000000000000       0.28125000000000000        0.0000000000000000     
  0.84375000000000000       0.28125000000000000        0.0000000000000000     
  0.87500000000000000       0.28125000000000000        0.0000000000000000     
  0.75000000000000000       0.31250000000000000        0.0000000000000000     
  0.78125000000000000       0.31250000000000000        0.0000000000000000     
  0.81250000000000000       0.31250000000000000        0.0000000000000000     
  0.84375000000000000       0.31250000000000000        0.0000000000000000     
  0.87500000000000000       0.31250000000000000        0.0000000000000000     
  0.75000000000000000       0.34375000000000000        0.0000000000000000     
  0.78125000000000000       0.34375000000000000        0.0000000000000000     
  0.81250000000000000       0.34375000000000000        0.0000000000000000     
  0.84375000000000000       0.34375000000000000        0.0000000000000000     
  0.87500000000000000       0.34375000000000000        0.0000000000000000     
  0.75000000000000000       0.37500000000000000        0.0000000000000000     
  0.78125000000000000       0.37500000000000000        0.0000000000000000     
  0.81250000000000000       0.37500000000000000        0.0000000000000000     
  0.84375000000000000       0.37500000000000000        0.0000000000000000     
  0.87500000000000000       0.37500000000000000        0.0000000000000000     
  0.87500000000000000       0.25000000000000000        0.0000000000000000     
  0.90625000000000000       0.25000000000000000        0.0000000000000000     
  0.93750000000000000       0.25000000000000000        0.0000000000000000     
  0.96875000000000000       0.25000000000000000        0.0000000000000000     
   1.0000000000000000       0.25000000000000000        0.0000000000000000     
  0.87500000000000000       0.28125000000000000        0.0000000000000000     
  0.90625000000000000       0.28125000000000000        0.0000000000000000     
  0.93750000000000000       0.28125000000000000        0.0000000000000000     
  0.96875000000000000       0.28125000000000000        0.0000000000000000     
   1.0000000000000000       0.28125000000000000        0.0000000000000000     
  0.87500000000000000       0.31250000000000000        0.0000000000000000     
  0.90625000000000000       0.31250000000000000        0.0000000000000000     
  0.93750000000000000       0.31250000000000000        0.0000000000000000     
  0.96875000000000000       0.31250000000000000        0.0000000000000000     
   1.0000000000000000       0.31250000000000000        0.0000000000000000     
  0.87500000000000000       0.34375000000000000        0.0000000000000000     
  0.90625000000000000       0.34375000000000000        0.0000000000000000     
  0.93750000000000000       0.34375000000000000        0.0000000000000000     
  0.96875000000000000       0.34375000000000000        0.0000000000000000     
   1.0000000000000000       0.34375000000000000        0.0000000000000000     
  0.87500000000000000       0.37500000000000000        0.0000000000000000     
  0.90625000000000000       0.37500000000000000        0.0000000000000000     
  0.93750000000000000       0.37500000000000000        0.0000000000000000     
  0.96875000000000000       0.37500000000000000        0.0000000000000000     
   1.0000000000000000       0.37500000000000000        0.0000000000000000     
   0.0000000000000000       0.37500000000000000        0.0000000000000000     
   3.1250000000000000E-002  0.37500000000000000        0.0000000000000000     
   6.2500000000000000E-002  0.37500000000000000        0.0000000000000000     
   9.3750000000000000E-002  0.37500000000000000        0.0000000000000000     
  0.12500000000000000       0.37500000000000000        0.0000000000000000     
   0.0000000000000000       0.40625000000000000        0.0000000000000000     
   3.1250000000000000E-002  0.40625000000000000        0.0000000000000000     
   6.2500000000000000E-002  0.40625000000000000        0.0000000000000000     
   9.3750000000000000E-002  0.40625000000000000        0.0000000000000000     
  0.12500000000000000       0.40625000000000000        0.0000000000000000     
   0.0000000000000000       0.43750000000000000        0.0000000000000000     
   3.1250000000000000E-002  0.43750000000000000        0.0000000000000000     
   6.2500000000000000E-002  0.43750000000000000        0.0000000000000000     
   9.3750000000000000E-002  0.43750000000000000        0.0000000000000000     
  0.12500000000000000       0.43750000000000000        0.0000000000000000     
   0.0000000000000000       0.46875000000000000        0.0000000000000000     
   3.1250000000000000E-002  0.46875000000000000        0.0000000000000000     
   6.2500000000000000E-002  0.46875000000000000        0.0000000000000000     
   9.3750000000000000E-002  0.46875000000000000        0.0000000000000000     
  0.12500000000000000       0.46875000000000000        0.0000000000000000     
   0.0000000000000000       0.50000000000000000        0.0000000000000000     
   3.1250000000000000E-002  0.50000000000000000        0.0000000000000000     
   6.2500000000000000E-002  0.50000000000000000        0.0000000000000000     
   9.3750000000000000E-002  0.50000000000000000        0.0000000000000000     
  0.12500000000000000       0.50000000000000000        0.0000000000000000     
  0.12500000000000000       0.37500000000000000        0.0000000000000000     
  0.15625000000000000       0.37500000000000000        0.0000000000000000     
  0.18750000000000000       0.37500000000000000        0.0000000000000000     
  0.21875000000000000       0.37500000000000000        0.0000000000000000     
  0.25000000000000000       0.37500000000000000        0.0000000000000000     
  0.12500000000000000       0.40625000000000000        0.0000000000000000     
  0.15625000000000000       0.40625000000000000        0.0000000000000000     
  0.18750000000000000       0.40625000000000000        0.0000000000000000     
  0.21875000000000000       0.40625000000000000        0.0000000000000000     
  0.25000000000000000       0.40625000000000000        0.0000000000000000     
  0.12500000000000000       0.43750000000000000        0.0000000000000000     
  0.15625000000000000       0.43750000000000000        0.0000000000000000     
  0.18750000000000000       0.43750000000000000        0.0000000000000000     
  0.21875000000000000       0.43750000000000000        0.0000000000000000     
  0.25000000000000000       0.43750000000000000        0.0000000000000000     
  0.12500000000000000       0.46875000000000000        0.0000000000000000     
  0.15625000000000000       0.46875000000000000        0.0000000000000000     
  0.18750000000000000       0.46875000000000000        0.0000000000000000     
  0.21875000000000000       0.46875000000000000        0.0000000000000000     
  0.25000000000000000       0.46875000000000000        0.0000000000000000     
  0.12500000000000000       0.50000000000000000        0.0000000000000000     
  0.15625000000000000       0.50000000000000000        0.0000000000000000     
  0.18750000000000000       0.50000000000000000        0.0000000000000000     
  0.21875000000000000       0.50000000000000000        0.0000000000000000     
  0.25000000000000000       0.50000000000000000        0.0000000000000000     
  0.25000000000000000       0.37500000000000000        0.0000000000000000     
  0.28125000000000000       0.37500000000000000        0.0000000000000000     
  0.31250000000000000       0.37500000000000000        0.0000000000000000     
  0.34375000000000000       0.37500000000000000        0.0000000000000000     
  0.37500000000000000       0.37500000000000000        0.0000000000000000     
  0.25000000000000000       0.40625000000000000        0.0000000000000000     
  0.28125000000000000       0.40625000000000000        0.0000000000000000     
  0.31250000000000000       0.40625000000000000        0.0000000000000000     
  0.34375000000000000       0.40625000000000000        0.0000000000000000     
  0.37500000000000000       0.40625000000000000        0.0000000000000000     
  0.25000000000000000       0.43750000000000000        0.0000000000000000     
  0.28125000000000000       0.43750000000000000        0.0000000000000000     
  0.31250000000000000       0.43750000000000000        0.0000000000000000     
  0.34375000000000000       0.43750000000000000        0.0000000000000000     
  0.37500000000000000       0.43750000000000000        0.0000000000000000     
  0.25000000000000000       0.46875000000000000        0.0000000000000000     
  0.28125000000000000       0.46875000000000000        0.0000000000000000     
  0.31250000000000000       0.46875000000000000        0.0000000000000000     
  0.34375000000000000       0.46875000000000000        0.0000000000000000     
  0.37500000000000000       0.46875000000000000        0.0000000000000000     
  0.25000000000000000       0.50000000000000000        0.0000000000000000     
  0.28125000000000000       0.50000000000000000        0.0000000000000000     
  0.31250000000000000       0.50000000000000000        0.0000000000000000     
  0.34375000000000000       0.50000000000000000        0.0000000000000000     
  0.37500000000000000       0.50000000000000000        0.0000000000000000     
  0.37500000000000000       0.37500000000000000        0.0000000000000000     
  0.40625000000000000       0.37500000000000000        0.0000000000000000     
  0.43750000000000000       0.37500000000000000        0.0000000000000000     
  0.46875000000000000       0.37500000000000000        0.0000000000000000     
  0.50000000000000000       0.37500000000000000        0.0000000000000000     
  0.37500000000000000       0.40625000000000000        0.0000000000000000     
  0.40625000000000000       0.40625000000000000        0.0000000000000000     
  0.43750000000000000       0.40625000000000000        0.0000000000000000     
  0.46875000000000000       0.40625000000000000        0.0000000000000000     
  0.50000000000000000       0.40625000000000000        0.0000000000000000     
  0.37500000000000000       0.43750000000000000        0.0000000000000000     
  0.40625000000000000       0.43750000000000000        0.0000000000000000     
  0.43750000000000000       0.43750000000000000        0.0000000000000000     
  0.46875000000000000       0.43750000000000000        0.0000000000000000     
  0.50000000000000000       0.43750000000000000        0.0000000000000000     
  0.37500000000000000       0.46875000000000000        0.0000000000000000     
  0.40625000000000000       0.46875000000000000        0.0000000000000000     
  0.43750000000000000       0.46875000000000000        0.0000000000000000     
  0.46875000000000000       0.46875000000000000        0.0000000000000000     
  0.50000000000000000       0.46875000000000000        0.0000000000000000     
  0.37500000000000000       0.50000000000000000        0.0000000000000000     
  0.40625000000000000       0.50000000000000000        0.0000000000000000     
  0.43750000000000000       0.50000000000000000        0.0000000000000000     
  0.46875000000000000       0.50000000000000000        0.0000000000000000     
  0.50000000000000000       0.50000000000000000        0.0000000000000000     
  0.50000000000000000       0.37500000000000000        0.0000000000000000     
  0.53125000000000000       0.37500000000000000        0.0000000000000000     
  0.56250000000000000       0.37500000000000000        0.0000000000000000     
  0.59375000000000000       0.37500000000000000        0.0000000000000000     
  0.62500000000000000       0.37500000000000000        0.0000000000000000     
  0.50000000000000000       0.40625000000000000        0.0000000000000000     
  0.53125000000000000       0.40625000000000000        0.0000000000000000     
  0.56250000000000000       0.40625000000000000        0.0000000000000000     
  0.59375000000000000       0.40625000000000000        0.0000000000000000     
  0.62500000000000000       0.40625000000000000        0.0000000000000000     
  0.50000000000000000       0.43750000000000000        0.0000000000000000     
  0.53125000000000000       0.43750000000000000        0.0000000000000000     
  0.56250000000000000       0.43750000000000000        0.0000000000000000     
  0.59375000000000000       0.43750000000000000        0.0000000000000000     
  0.62500000000000000       0.43750000000000000        0.0000000000000000     
  0.50000000000000000       0.46875000000000000        0.0000000000000000     
  0.53125000000000000       0.46875000000000000        0.0000000000000000     
  0.56250000000000000       0.46875000000000000        0.0000000000000000     
  0.59375000000000000       0.46875000000000000        0.0000000000000000     
  0.62500000000000000       0.46875000000000000        0.0000000000000000     
  0.50000000000000000       0.50000000000000000        0.0000000000000000     
  0.53125000000000000       0.50000000000000000        0.0000000000000000     
  0.56250000000000000       0.50000000000000000        0.0000000000000000     
  0.59375000000000000       0.50000000000000000        0.0000000000000000     
  0.62500000000000000       0.50000000000000000        0.0000000000000000     
  0.62500000000000000       0.37500000000000000        0.0000000000000000     
  0.65625000000000000       0.37500000000000000        0.0000000000000000     
  0.68750000000000000       0.37500000000000000        0.0000000000000000     
  0.71875000000000000       0.37500000000000000        0.0000000000000000     
  0.75000000000000000       0.37500000000000000        0.0000000000000000     
  0.62500000000000000       0.40625000000000000        0.0000000000000000     
  0.65625000000000000       0.40625000000000000        0.0000000000000000     
  0.68750000000000000       0.40625000000000000        0.0000000000000000     
  0.71875000000000000       0.40625000000000000        0.0000000000000000     
  0.75000000000000000       0.40625000000000000        0.0000000000000000     
  0.62500000000000000       0.43750000000000000        0.0000000000000000     
  0.65625000000000000       0.43750000000000000        0.0000000000000000     
  0.68750000000000000       0.43750000000000000        0.0000000000000000     
  0.71875000000000000       0.43750000000000000        0.0000000000000000     
  0.75000000000000000       0.43750000000000000        0.0000000000000000     
  0.62500000000000000       0.46875000000000000        0.0000000000000000     
  0.65625000000000000       0.46875000000000000        0.0000000000000000     
  0.68750000000000000       0.46875000000000000        0.0000000000000000     
  0.71875000000000000       0.46875000000000000        0.0000000000000000     
  0.75000000000000000       0.46875000000000000        0.0000000000000000     
  0.62500000000000000       0.50000000000000000        0.0000000000000000     
  0.65625000000000000       0.50000000000000000        0.0000000000000000     
  0.68750000000000000       0.50000000000000000        0.0000000000000000     
  0.71875000000000000       0.50000000000000000        0.0000000000000000     
  0.75000000000000000       0.50000000000000000        0.0000000000000000     
  0.75000000000000000       0.37500000000000000        0.0000000000000000     
  0.78125000000000000       0.37500000000000000        0.0000000000000000     
  0.81250000000000000       0.37500000000000000        0.0000000000000000     
  0.84375000000000000       0.37500000000000000        0.0000000000000000     
  0.87500000000000000       0.37500000000000000        0.0000000000000000     
  0.75000000000000000       0.40625000000000000        0.0000000000000000     
  0.78125000000000000       0.40625000000000000        0.0000000000000000     
  0.81250000000000000       0.40625000000000000        0.0000000000000000     
  0.84375000000000000       0.40625000000000000        0.0000000000000000     
  0.87500000000000000       0.40625000000000000        0.0000000000000000     
  0.75000000000000000       0.43750000000000000        0.0000000000000000     
  0.78125000000000000       0.43750000000000000        0.0000000000000000     
  0.81250000000000000       0.43750000000000000        0.0000000000000000     
  0.84375000000000000       0.43750000000000000        0.0000000000000000     
  0.87500000000000000       0.43750000000000000        0.0000000000000000     
  0.75000000000000000       0.46875000000000000        0.0000000000000000     
  0.78125000000000000       0.46875000000000000        0.0000000000000000     
  0.81250000000000000       0.46875000000000000        0.0000000000000000     
  0.84375000000000000       0.46875000000000000        0.0000000000000000     
  0.87500000000000000       0.46875000000000000        0.0000000000000000     
  0.75000000000000000       0.50000000000000000        0.0000000000000000     
  0.78125000000000000       0.50000000000000000        0.0000000000000000     
  0.81250000000000000       0.50000000000000000        0.0000000000000000     
  0.84375000000000000       0.50000000000000000        0.0000000000000000     
  0.87500000000000000       0.50000000000000000        0.0000000000000000     
  0.87500000000000000       0.37500000000000000        0.0000000000000000     
  0.90625000000000000       0.37500000000000000        0.0000000000000000     
  0.93750000000000000       0.37500000000000000        0.0000000000000000     
  0.96875000000000000       0.37500000000000000        0.0000000000000000     
   1.0000000000000000       0.37500000000000000        0.0000000000000000     
  0.87500000000000000       0.40625000000000000        0.0000000000000000     
  0.90625000000000000       0.40625000000000000        0.0000000000000000     
  0.93750000000000000       0.40625000000000000        0.0000000000000000     
  0.96875000000000000       0.40625000000000000        0.0000000000000000     
   1.0000000000000000       0.40625000000000000        0.0000000000000000     
  0.87500000000000000       0.43750000000000000        0.0000000000000000     
  0.90625000000000000       0.43750000000000000        0.0000000000000000     
  0.93750000000000000       0.43750000000000000        0.0000000000000000     
  0.96875000000000000       0.43750000000000000        0.0000000000000000     
   1.0000000000000000       0.43750000000000000        0.0000000000000000     
  0.87500000000000000       0.46875000000000000        0.0000000000000000     
  0.90625000000000000       0.46875000000000000        0.0000000000000000     
  0.93750000000000000       0.46875000000000000        0.0000000000000000     
  0.96875000000000000       0.46875000000000000        0.0000000000000000     
   1.0000000000000000       0.46875000000000000        0.0000000000000000     
  0.87500000000000000       0.50000000000000000        0.0000000000000000     
  0.90625000000000000       0.50000000000000000        0.0000000000000000     
  0.93750000000000000       0.50000000000000000        0.0000000000000000     
  0.96875000000000000       0.50000000000000000        0.0000000000000000     
   1.0000000000000000       0.50000000000000000        0.0000000000000000     
   0.0000000000000000       0.50000000000000000        0.0000000000000000     
   3.1250000000000000E-002  0.50000000000000000        0.0000000000000000     
   6.2500000000000000E-002  0.50000000000000000        0.0000000000000000     
   9.3750000000000000E-002  0.50000000000000000        0.0000000000000000     
  0.12500000000000000       0.50000000000000000        0.0000000000000000     
   0.0000000000000000       0.53125000000000000        0.0000000000000000     
   3.1250000000000000E-002  0.53125000000000000        0.0000000000000000     
   6.2500000000000000E-002  0.53125000000000000        0.0000000000000000     
   9.3750000000000000E-002  0.53125000000000000        0.0000000000000000     
  0.12500000000000000       0.53125000000000000        0.0000000000000000     
   0.0000000000000000       0.56250000000000000        0.0000000000000000     
   3.1250000000000000E-002  0.56250000000000000        0.0000000000000000     
   6.2500000000000000E-002  0.56250000000000000        0.0000000000000000     
   9.3750000000000000E-002  0.56250000000000000        0.0000000000000000     
  0.12500000000000000       0.56250000000000000        0.0000000000000000     
   0.0000000000000000       0.59375000000000000        0.0000000000000000     
   3.1250000000000000E-002  0.59375000000000000        0.0000000000000000     
   6.2500000000000000E-002  0.59375000000000000        0.0000000000000000     
   9.3750000000000000E-002  0.59375000000000000        0.0000000000000000     
  0.12500000000000000       0.59375000000000000        0.0000000000000000     
   0.0000000000000000       0.62500000000000000        0.0000000000000000     
   3.1250000000000000E-002  0.62500000000000000        0.0000000000000000     
   6.2500000000000000E-002  0.62500000000000000        0.0000000000000000     
   9.3750000000000000E-002  0.62500000000000000        0.0000000000000000     
  0.12500000000000000       0.62500000000000000        0.0000000000000000     
  0.12500000000000000       0.50000000000000000        0.0000000000000000     
  0.15625000000000000       0.50000000000000000        0.0000000000000000     
  0.18750000000000000       0.50000000000000000        0.0000000000000000     
  0.21875000000000000       0.50000000000000000        0.0000000000000000     
  0.25000000000000000       0.50000000000000000        0.0000000000000000     
  0.12500000000000000       0.53125000000000000        0.0000000000000000     
  0.15625000000000000       0.53125000000000000        0.0000000000000000     
  0.18750000000000000       0.53125000000000000        0.0000000000000000     
  0.21875000000000000       0.53125000000000000        0.0000000000000000     
  0.25000000000000000       0.53125000000000000        0.0000000000000000     
  0.12500000000000000       0.56250000000000000        0.0000000000000000     
  0.15625000000000000       0.56250000000000000        0.0000000000000000     
  0.18750000000000000       0.56250000000000000        0.0000000000000000     
  0.21875000000000000       0.56250000000000000        0.0000000000000000     
  0.25000000000000000       0.56250000000000000        0.0000000000000000     
  0.12500000000000000       0.59375000000000000        0.0000000000000000     
  0.15625000000000000       0.59375000000000000        0.0000000000000000     
  0.18750000000000000       0.59375000000000000        0.0000000000000000     
  0.21875000000000000       0.59375000000000000        0.0000000000000000     
  0.25000000000000000       0.59375000000000000        0.0000000000000000     
  0.12500000000000000       0.62500000000000000        0.0000000000000000     
  0.15625000000000000       0.62500000000000000        0.0000000000000000     
  0.18750000000000000       0.62500000000000000        0.0000000000000000     
  0.21875000000000000       0.62500000000000000        0.0000000000000000     
  0.25000000000000000       0.62500000000000000        0.0000000000000000     
  0.25000000000000000       0.50000000000000000        0.0000000000000000     
  0.28125000000000000       0.50000000000000000        0.0000000000000000     
  0.31250000000000000       0.50000000000000000        0.0000000000000000     
  0.34375000000000000       0.50000000000000000        0.0000000000000000     
  0.37500000000000000       0.50000000000000000        0.0000000000000000     
  0.25000000000000000       0.53125000000000000        0.0000000000000000     
  0.28125000000000000       0.53125000000000000        0.0000000000000000     
  0.31250000000000000       0.53125000000000000        0.0000000000000000     
  0.34375000000000000       0.53125000000000000        0.0000000000000000     
  0.37500000000000000       0.53125000000000000        0.0000000000000000     
  0.25000000000000000       0.56250000000000000        0.0000000000000000     
  0.28125000000000000       0.56250000000000000        0.0000000000000000     
  0.31250000000000000       0.56250000000000000        0.0000000000000000     
  0.34375000000000000       0.56250000000000000        0.0000000000000000     
  0.37500000000000000       0.56250000000000000        0.0000000000000000     
  0.25000000000000000       0.59375000000000000        0.0000000000000000     
  0.28125000000000000       0.59375000000000000        0.0000000000000000     
  0.31250000000000000       0.59375000000000000        0.0000000000000000     
  0.34375000000000000       0.59375000000000000        0.0000000000000000     
  0.37500000000000000       0.59375000000000000        0.0000000000000000     
  0.25000000000000000       0.62500000000000000        0.0000000000000000     
  0.28125000000000000       0.62500000000000000        0.0000000000000000     
  0.31250000000000000       0.62500000000000000        0.0000000000000000     
  0.34375000000000000       0.62500000000000000        0.0000000000000000     
  0.37500000000000000       0.62500000000000000        0.0000000000000000     
  0.37500000000000000       0.50000000000000000        0.0000000000000000     
  0.40625000000000000       0.50000000000000000        0.0000000000000000     
  0.43750000000000000       0.50000000000000000        0.0000000000000000     
  0.46875000000000000       0.50000000000000000        0.0000000000000000     
  0.50000000000000000       0.50000000000000000        0.0000000000000000     
  0.37500000000000000       0.53125000000000000        0.0000000000000000     
  0.40625000000000000       0.53125000000000000        0.0000000000000000     
  0.43750000000000000       0.53125000000000000        0.0000000000000000     
  0.46875000000000000       0.53125000000000000        0.0000000000000000     
  0.50000000000000000       0.53125000000000000        0.0000000000000000     
  0.37500000000000000       0.56250000000000000        0.0000000000000000     
  0.40625000000000000       0.56250000000000000        0.0000000000000000     
  0.43750000000000000       0.56250000000000000        0.0000000000000000     
  0.46875000000000000       0.56250000000000000        0.0000000000000000     
  0.50000000000000000       0.56250000000000000        0.0000000000000000     
  0.37500000000000000       0.59375000000000000        0.0000000000000000     
  0.40625000000000000       0.59375000000000000        0.0000000000000000     
  0.43750000000000000       0.59375000000000000        0.0000000000000000     
  0.46875000000000000       0.59375000000000000        0.0000000000000000     
  0.50000000000000000       0.59375000000000000        0.0000000000000000     
  0.37500000000000000       0.62500000000000000        0.0000000000000000     
  0.40625000000000000       0.62500000000000000        0.0000000000000000     
  0.43750000000000000       0.62500000000000000        0.0000000000000000     
  0.46875000000000000       0.62500000000000000        0.0000000000000000     
  0.50000000000000000       0.62500000000000000        0.0000000000000000     
  0.50000000000000000       0.50000000000000000        0.0000000000000000     
  0.53125000000000000       0.50000000000000000        0.0000000000000000     
  0.56250000000000000       0.50000000000000000        0.0000000000000000     
  0.59375000000000000       0.50000000000000000        0.0000000000000000     
  0.62500000000000000       0.50000000000000000        0.0000000000000000     
  0.50000000000000000       0.53125000000000000        0.0000000000000000     
  0.53125000000000000       0.53125000000000000        0.0000000000000000     
  0.56250000000000000       0.53125000000000000        0.0000000000000000     
  0.59375000000000000       0.53125000000000000        0.0000000000000000     
  0.62500000000000000       0.53125000000000000        0.0000000000000000     
  0.50000000000000000       0.56250000000000000        0.0000000000000000     
  0.53125000000000000       0.56250000000000000        0.0000000000000000     
  0.56250000000000000       0.56250000000000000        0.0000000000000000     
  0.59375000000000000       0.56250000000000000        0.0000000000000000     
  0.62500000000000000       0.56250000000000000        0.0000000000000000     
  0.50000000000000000       0.59375000000000000        0.0000000000000000     
  0.53125000000000000       0.59375000000000000        0.0000000000000000     
  0.56250000000000000       0.59375000000000000        0.0000000000000000     
  0.59375000000000000       0.59375000000000000        0.0000000000000000     
  0.62500000000000000       0.59375000000000000        0.0000000000000000     
  0.50000000000000000       0.62500000000000000        0.0000000000000000     
  0.53125000000000000       0.62500000000000000        0.0000000000000000     
  0.56250000000000000       0.62500000000000000        0.0000000000000000     
  0.59375000000000000       0.62500000000000000        0.0000000000000000     
  0.62500000000000000       0.62500000000000000        0.0000000000000000     
  0.62500000000000000       0.50000000000000000        0.0000000000000000     
  0.65625000000000000       0.50000000000000000        0.0000000000000000     
  0.68750000000000000       0.50000000000000000        0.0000000000000000     
  0.71875000000000000       0.50000000000000000        0.0000000000000000     
  0.75000000000000000       0.50000000000000000        0.0000000000000000     
  0.62500000000000000       0.53125000000000000        0.0000000000000000     
  0.65625000000000000       0.53125000000000000        0.0000000000000000     
  0.68750000000000000       0.53125000000000000        0.0000000000000000     
  0.71875000000000000       0.53125000000000000        0.0000000000000000     
  0.75000000000000000       0.53125000000000000        0.0000000000000000     
  0.62500000000000000       0.56250000000000000        0.0000000000000000     
  0.65625000000000000       0.56250000000000000        0.0000000000000000     
  0.68750000000000000       0.56250000000000000        0.0000000000000000     
  0.71875000000000000       0.56250000000000000        0.0000000000000000     
  0.75000000000000000       0.56250000000000000        0.0000000000000000     
  0.62500000000000000       0.59375000000000000        0.0000000000000000     
  0.65625000000000000       0.59375000000000000        0.0000000000000000     
  0.68750000000000000       0.59375000000000000        0.0000000000000000     
  0.71875000000000000       0.59375000000000000        0.0000000000000000     
  0.75000000000000000       0.59375000000000000        0.0000000000000000     
  0.62500000000000000       0.62500000000000000        0.0000000000000000     
  0.65625000000000000       0.62500000000000000        0.0000000000000000     
  0.68750000000000000       0.62500000000000000        0.0000000000000000     
  0.71875000000000000       0.62500000000000000        0.0000000000000000     
  0.75000000000000000       0.62500000000000000        0.0000000000000000     
  0.75000000000000000       0.50000000000000000        0.0000000000000000     
  0.78125000000000000       0.50000000000000000        0.0000000000000000     
  0.81250000000000000       0.50000000000000000        0.0000000000000000     
  0.84375000000000000       0.50000000000000000        0.0000000000000000     
  0.87500000000000000       0.50000000000000000        0.0000000000000000     
  0.75000000000000000       0.53125000000000000        0.0000000000000000     
  0.78125000000000000       0.53125000000000000        0.0000000000000000     
  0.81250000000000000       0.53125000000000000        0.0000000000000000     
  0.84375000000000000       0.53125000000000000        0.0000000000000000     
  0.87500000000000000       0.53125000000000000        0.0000000000000000     
  0.75000000000000000       0.56250000000000000        0.0000000000000000     
  0.78125000000000000       0.56250000000000000        0.0000000000000000     
  0.81250000000000000       0.56250000000000000        0.0000000000000000     
  0.84375000000000000       0.56250000000000000        0.0000000000000000     
  0.87500000000000000       0.56250000000000000        0.0000000000000000     
  0.75000000000000000       0.59375000000000000        0.0000000000000000     
  0.78125000000000000       0.59375000000000000        0.0000000000000000     
  0.81250000000000000       0.59375000000000000        0.0000000000000000     
  0.84375000000000000       0.59375000000000000        0.0000000000000000     
  0.87500000000000000       0.59375000000000000        0.0000000000000000     
  0.75000000000000000       0.62500000000000000        0.0000000000000000     
  0.78125000000000000       0.62500000000000000        0.0000000000000000     
  0.81250000000000000       0.62500000000000000        0.0000000000000000     
  0.84375000000000000       0.62500000000000000        0.0000000000000000     
  0.87500000000000000       0.62500000000000000        0.0000000000000000     
  0.87500000000000000       0.50000000000000000        0.0000000000000000     
  0.90625000000000000       0.50000000000000000        0.0000000000000000     
  0.93750000000000000       0.50000000000000000        0.0000000000000000     
  0.96875000000000000       0.50000000000000000        0.0000000000000000     
   1.0000000000000000       0.50000000000000000        0.0000000000000000     
  0.87500000000000000       0.53125000000000000        0.0000000000000000     
  0.90625000000000000       0.53125000000000000        0.0000000000000000     
  0.93750000000000000       0.53125000000000000        0.0000000000000000     
  0.96875000000000000       0.53125000000000000        0.0000000000000000     
   1.0000000000000000       0.53125000000000000        0.0000000000000000     
  0.87500000000000000       0.56250000000000000        0.0000000000000000     
  0.90625000000000000       0.56250000000000000        0.0000000000000000     
  0.93750000000000000       0.56250000000000000        0.0000000000000000     
  0.96875000000000000       0.56250000000000000        0.0000000000000000     
   1.0000000000000000       0.56250000000000000        0.0000000000000000     
  0.87500000000000000       0.59375000000000000        0.0000000000000000     
  0.90625000000000000       0.59375000000000000        0.0000000000000000     
  0.93750000000000000       0.59375000000000000        0.0000000000000000     
  0.96875000000000000       0.59375000000000000        0.0000000000000000     
   1.0000000000000000       0.59375000000000000        0.0000000000000000     
  0.87500000000000000       0.62500000000000000        0.0000000000000000     
  0.90625000000000000       0.62500000000000000        0.0000000000000000     
  0.93750000000000000       0.62500000000000000        0.0000000000000000     
  0.96875000000000000       0.62500000000000000        0.0000000000000000     
   1.0000000000000000       0.62500000000000000        0.0000000000000000     
   0.0000000000000000       0.62500000000000000        0.0000000000000000     
   3.1250000000000000E-002  0.62500000000000000        0.0000000000000000     
   6.2500000000000000E-002  0.62500000000000000        0.0000000000000000     
   9.3750000000000000E-002  0.62500000000000000        0.0000000000000000     
  0.12500000000000000       0.62500000000000000        0.0000000000000000     
   0.0000000000000000       0.65625000000000000        0.0000000000000000     
   3.1250000000000000E-002  0.65625000000000000        0.0000000000000000     
   6.2500000000000000E-002  0.65625000000000000        0.0000000000000000     
   9.3750000000000000E-002  0.65625000000000000        0.0000000000000000     
  0.12500000000000000       0.65625000000000000        0.0000000000000000     
   0.0000000000000000       0.68750000000000000        0.0000000000000000     
   3.1250000000000000E-002  0.68750000000000000        0.0000000000000000     
   6.2500000000000000E-002  0.68750000000000000        0.0000000000000000     
   9.3750000000000000E-002  0.68750000000000000        0.0000000000000000     
  0.12500000000000000       0.68750000000000000        0.0000000000000000     
   0.0000000000000000       0.71875000000000000        0.0000000000000000     
   3.1250000000000000E-002  0.71875000000000000        0.0000000000000000     
   6.2500000000000000E-002  0.71875000000000000        0.0000000000000000     
   9.3750000000000000E-002  0.71875000000000000        0.0000000000000000     
  0.12500000000000000       0.71875000000000000        0.0000000000000000     
   0.0000000000000000       0.75000000000000000        0.0000000000000000     
   3.1250000000000000E-002  0.75000000000000000        0.0000000000000000     
   6.2500000000000000E-002  0.75000000000000000        0.0000000000000000     
   9.3750000000000000E-002  0.75000000000000000        0.0000000000000000     
  0.12500000000000000       0.75000000000000000        0.0000000000000000     
  0.12500000000000000       0.62500000000000000        0.0000000000000000     
  0.15625000000000000       0.62500000000000000        0.0000000000000000     
  0.18750000000000000       0.62500000000000000        0.0000000000000000     
  0.21875000000000000       0.62500000000000000        0.0000000000000000     
  0.25000000000000000       0.62500000000000000        0.0000000000000000     
  0.12500000000000000       0.65625000000000000        0.0000000000000000     
  0.15625000000000000       0.65625000000000000        0.0000000000000000     
  0.18750000000000000       0.65625000000000000        0.0000000000000000     
  0.21875000000000000       0.65625000000000000        0.0000000000000000     
  0.25000000000000000       0.65625000000000000        0.0000000000000000     
  0.12500000000000000       0.68750000000000000        0.0000000000000000     
  0.15625000000000000       0.68750000000000000        0.0000000000000000     
  0.18750000000000000       0.68750000000000000        0.0000000000000000     
  0.21875000000000000       0.68750000000000000        0.0000000000000000     
  0.25000000000000000       0.68750000000000000        0.0000000000000000     
  0.12500000000000000       0.71875000000000000        0.0000000000000000     
  0.15625000000000000       0.71875000000000000        0.0000000000000000     
  0.18750000000000000       0.71875000000000000        0.0000000000000000     
  0.21875000000000000       0.71875000000000000        0.0000000000000000     
  0.25000000000000000       0.71875000000000000        0.0000000000000000     
  0.12500000000000000       0.75000000000000000        0.0000000000000000     
  0.15625000000000000       0.75000000000000000        0.0000000000000000     
  0.18750000000000000       0.75000000000000000        0.0000000000000000     
  0.21875000000000000       0.75000000000000000        0.0000000000000000     
  0.25000000000000000       0.75000000000000000        0.0000000000000000     
  0.25000000000000000       0.62500000000000000        0.0000000000000000     
  0.28125000000000000       0.62500000000000000        0.0000000000000000     
  0.31250000000000000       0.62500000000000000        0.0000000000000000     
  0.34375000000000000       0.62500000000000000        0.0000000000000000     
  0.37500000000000000       0.62500000000000000        0.0000000000000000     
  0.25000000000000000       0.65625000000000000        0.0000000000000000     
  0.28125000000000000       0.65625000000000000        0.0000000000000000     
  0.31250000000000000       0.65625000000000000        0.0000000000000000     
  0.34375000000000000       0.65625000000000000        0.0000000000000000     
  0.37500000000000000       0.65625000000000000        0.0000000000000000     
  0.25000000000000000       0.68750000000000000        0.0000000000000000     
  0.28125000000000000       0.68750000000000000        0.0000000000000000     
  0.31250000000000000       0.68750000000000000        0.0000000000000000     
  0.34375000000000000       0.68750000000000000        0.0000000000000000     
  0.37500000000000000       0.68750000000000000        0.0000000000000000     
  0.25000000000000000       0.71875000000000000        0.0000000000000000     
  0.28125000000000000       0.71875000000000000        0.0000000000000000     
  0.31250000000000000       0.71875000000000000        0.0000000000000000     
  0.34375000000000000       0.71875000000000000        0.0000000000000000     
  0.37500000000000000       0.71875000000000000        0.0000000000000000     
  0.25000000000000000       0.75000000000000000        0.0000000000000000     
  0.28125000000000000       0.75000000000000000        0.0000000000000000     
  0.31250000000000000       0.75000000000000000        0.0000000000000000     
  0.34375000000000000       0.75000000000000000        0.0000000000000000     
  0.37500000000000000       0.75000000000000000        0.0000000000000000     
  0.37500000000000000       0.62500000000000000        0.0000000000000000     
  0.40625000000000000       0.62500000000000000        0.0000000000000000     
  0.43750000000000000       0.62500000000000000        0.0000000000000000     
  0.46875000000000000       0.62500000000000000        0.0000000000000000     
  0.50000000000000000       0.62500000000000000        0.0000000000000000     
  0.37500000000000000       0.65625000000000000        0.0000000000000000     
  0.40625000000000000       0.65625000000000000        0.0000000000000000     
  0.43750000000000000       0.65625000000000000        0.0000000000000000     
  0.46875000000000000       0.65625000000000000        0.0000000000000000     
  0.50000000000000000       0.65625000000000000        0.0000000000000000     
  0.37500000000000000       0.68750000000000000        0.0000000000000000     
  0.40625000000000000       0.68750000000000000        0.0000000000000000     
  0.43750000000000000       0.68750000000000000        0.0000000000000000     
  0.46875000000000000       0.68750000000000000        0.0000000000000000     
  0.50000000000000000       0.68750000000000000        0.0000000000000000     
  0.37500000000000000       0.71875000000000000        0.0000000000000000     
  0.40625000000000000       0.71875000000000000        0.0000000000000000     
  0.43750000000000000       0.71875000000000000        0.0000000000000000     
  0.46875000000000000       0.71875000000000000        0.0000000000000000     
  0.50000000000000000       0.71875000000000000        0.0000000000000000     
  0.37500000000000000       0.75000000000000000        0.0000000000000000     
  0.40625000000000000       0.75000000000000000        0.0000000000000000     
  0.43750000000000000       0.75000000000000000        0.0000000000000000     
  0.46875000000000000       0.75000000000000000        0.0000000000000000     
  0.50000000000000000       0.75000000000000000        0.0000000000000000     
  0.50000000000000000       0.62500000000000000        0.0000000000000000     
  0.53125000000000000       0.62500000000000000        0.0000000000000000     
  0.56250000000000000       0.62500000000000000        0.0000000000000000     
  0.59375000000000000       0.62500000000000000        0.0000000000000000     
  0.62500000000000000       0.62500000000000000        0.0000000000000000     
  0.50000000000000000       0.65625000000000000        0.0000000000000000     
  0.53125000000000000       0.65625000000000000        0.0000000000000000     
  0.56250000000000000       0.65625000000000000        0.0000000000000000     
  0.59375000000000000       0.65625000000000000        0.0000000000000000     
  0.62500000000000000       0.65625000000000000        0.0000000000000000     
  0.50000000000000000       0.68750000000000000        0.0000000000000000     
  0.53125000000000000       0.68750000000000000        0.0000000000000000     
  0.56250000000000000       0.68750000000000000        0.0000000000000000     
  0.59375000000000000       0.68750000000000000        0.0000000000000000     
  0.62500000000000000       0.68750000000000000        0.0000000000000000     
  0.50000000000000000       0.71875000000000000        0.0000000000000000     
  0.53125000000000000       0.71875000000000000        0.0000000000000000     
  0.56250000000000000       0.71875000000000000        0.0000000000000000     
  0.59375000000000000       0.71875000000000000        0.0000000000000000     
  0.62500000000000000       0.71875000000000000        0.0000000000000000     
  0.50000000000000000       0.75000000000000000        0.0000000000000000     
  0.53125000000000000       0.75000000000000000        0.0000000000000000     
  0.56250000000000000       0.75000000000000000        0.0000000000000000     
  0.59375000000000000       0.75000000000000000        0.0000000000000000     
  0.62500000000000000       0.75000000000000000        0.0000000000000000     
  0.62500000000000000       0.62500000000000000        0.0000000000000000     
  0.65625000000000000       0.62500000000000000        0.0000000000000000     
  0.68750000000000000       0.62500000000000000        0.0000000000000000     
  0.71875000000000000       0.62500000000000000        0.0000000000000000     
  0.75000000000000000       0.62500000000000000        0.0000000000000000     
  0.62500000000000000       0.65625000000000000        0.0000000000000000     
  0.65625000000000000       0.65625000000000000        0.0000000000000000     
  0.68750000000000000       0.65625000000000000        0.0000000000000000     
  0.71875000000000000       0.65625000000000000        0.0000000000000000     
  0.75000000000000000       0.65625000000000000        0.0000000000000000     
  0.62500000000000000       0.68750000000000000        0.0000000000000000     
  0.65625000000000000       0.68750000000000000        0.0000000000000000     
  0.68750000000000000       0.68750000000000000        0.0000000000000000     
  0.71875000000000000       0.68750000000000000        0.0000000000000000     
  0.75000000000000000       0.68750000000000000        0.0000000000000000     
  0.62500000000000000       0.71875000000000000        0.0000000000000000     
  0.65625000000000000       0.71875000000000000        0.0000000000000000     
  0.68750000000000000       0.71875000000000000        0.0000000000000000     
  0.71875000000000000       0.71875000000000000        0.0000000000000000     
  0.75000000000000000       0.71875000000000000        0.0000000000000000     
  0.62500000000000000       0.75000000000000000        0.0000000000000000     
  0.65625000000000000       0.75000000000000000        0.0000000000000000     
  0.68750000000000000       0.75000000000000000        0.0000000000000000     
  0.71875000000000000       0.75000000000000000        0.0000000000000000     
  0.75000000000000000       0.75000000000000000        0.0000000000000000     
  0.75000000000000000       0.62500000000000000        0.0000000000000000     
  0.78125000000000000       0.62500000000000000        0.0000000000000000     
  0.81250000000000000       0.62500000000000000        0.0000000000000000     
  0.84375000000000000       0.62500000000000000        0.0000000000000000     
  0.87500000000000000       0.62500000000000000        0.0000000000000000     
  0.75000000000000000       0.65625000000000000        0.0000000000000000     
  0.78125000000000000       0.65625000000000000        0.0000000000000000     
  0.81250000000000000       0.65625000000000000        0.0000000000000000     
  0.84375000000000000       0.65625000000000000        0.0000000000000000     
  0.87500000000000000       0.65625000000000000        0.0000000000000000     
  0.75000000000000000       0.68750000000000000        0.0000000000000000     
  0.78125000000000000       0.68750000000000000        0.0000000000000000     
  0.81250000000000000       0.68750000000000000        0.0000000000000000     
  0.84375000000000000       0.68750000000000000        0.0000000000000000     
  0.87500000000000000       0.68750000000000000        0.0000000000000000     
  0.75000000000000000       0.71875000000000000        0.0000000000000000     
  0.78125000000000000       0.71875000000000000        0.0000000000000000     
  0.81250000000000000       0.71875000000000000        0.0000000000000000     
  0.84375000000000000       0.71875000000000000        0.0000000000000000     
  0.87500000000000000       0.71875000000000000        0.0000000000000000     
  0.75000000000000000       0.75000000000000000        0.0000000000000000     
  0.78125000000000000       0.75000000000000000        0.0000000000000000     
  0.81250000000000000       0.75000000000000000        0.0000000000000000     
  0.84375000000000000       0.75000000000000000        0.0000000000000000     
  0.87500000000000000       0.75000000000000000        0.0000000000000000     
  0.87500000000000000       0.62500000000000000        0.0000000000000000     
  0.90625000000000000       0.62500000000000000        0.0000000000000000     
  0.93750000000000000       0.62500000000000000        0.0000000000000000     
  0.96875000000000000       0.62500000000000000        0.0000000000000000     
   1.0000000000000000       0.62500000000000000        0.0000000000000000     
  0.87500000000000000       0.65625000000000000        0.0000000000000000     
  0.90625000000000000       0.65625000000000000        0.0000000000000000     
  0.93750000000000000       0.65625000000000000        0.0000000000000000     
  0.96875000000000000       0.65625000000000000        0.0000000000000000     
   1.0000000000000000       0.65625000000000000        0.0000000000000000     
  0.87500000000000000       0.68750000000000000        0.0000000000000000     
  0.90625000000000000       0.68750000000000000        0.0000000000000000     
  0.93750000000000000       0.68750000000000000        0.0000000000000000     
  0.96875000000000000       0.68750000000000000        0.0000000000000000     
   1.0000000000000000       0.68750000000000000        0.0000000000000000     
  0.87500000000000000       0.71875000000000000        0.0000000000000000     
  0.90625000000000000       0.71875000000000000        0.0000000000000000     
  0.93750000000000000       0.71875000000000000        0.0000000000000000     
  0.96875000000000000       0.71875000000000000        0.0000000000000000     
   1.0000000000000000       0.71875000000000000        0.0000000000000000     
  0.87500000000000000       0.75000000000000000        0.0000000000000000     
  0.90625000000000000       0.75000000000000000        0.0000000000000000     
  0.93750000000000000       0.75000000000000000        0.0000000000000000     
  0.96875000000000000       0.75000000000000000        0.0000000000000000     
   1.0000000000000000       0.75000000000000000        0.0000000000000000     
   0.0000000000000000       0.75000000000000000        0.0000000000000000     
   3.1250000000000000E-002  0.75000000000000000        0.0000000000000000     
   6.2500000000000000E-002  0.75000000000000000        0.0000000000000000     
   9.3750000000000000E-002  0.75000000000000000        0.0000000000000000     
  0.12500000000000000       0.75000000000000000        0.0000000000000000     
   0.0000000000000000       0.78125000000000000        0.0000000000000000     
   3.1250000000000000E-002  0.78125000000000000        0.0000000000000000     
   6.2500000000000000E-002  0.78125000000000000        0.0000000000000000     
   9.3750000000000000E-002  0.78125000000000000        0.0000000000000000     
  0.12500000000000000       0.78125000000000000        0.0000000000000000     
   0.0000000000000000       0.81250000000000000        0.0000000000000000     
   3.1250000000000000E-002  0.81250000000000000        0.0000000000000000     
   6.2500000000000000E-002  0.81250000000000000        0.0000000000000000     
   9.3750000000000000E-002  0.81250000000000000        0.0000000000000000     
  0.12500000000000000       0.81250000000000000        0.0000000000000000     
   0.0000000000000000       0.84375000000000000        0.0000000000000000     
   3.1250000000000000E-002  0.84375000000000000        0.0000000000000000     
   6.2500000000000000E-002  0.84375000000000000        0.0000000000000000     
   9.3750000000000000E-002  0.84375000000000000        0.0000000000000000     
  0.12500000000000000       0.84375000000000000        0.0000000000000000     
   0.0000000000000000       0.87500000000000000        0.0000000000000000     
   3.1250000000000000E-002  0.87500000000000000        0.0000000000000000     
   6.2500000000000000E-002  0.87500000000000000        0.0000000000000000     
   9.3750000000000000E-002  0.87500000000000000        0.0000000000000000     
  0.12500000000000000       0.87500000000000000        0.0000000000000000     
  0.12500000000000000       0.75000000000000000        0.0000000000000000     
  0.15625000000000000       0.75000000000000000        0.0000000000000000     
  0.18750000000000000       0.75000000000000000        0.0000000000000000     
  0.21875000000000000       0.75000000000000000        0.0000000000000000     
  0.25000000000000000       0.75000000000000000        0.0000000000000000     
  0.12500000000000000       0.78125000000000000        0.0000000000000000     
  0.15625000000000000       0.78125000000000000        0.0000000000000000     
  0.18750000000000000       0.78125000000000000        0.0000000000000000     
  0.21875000000000000       0.78125000000000000        0.0000000000000000     
  0.25000000000000000       0.78125000000000000        0.0000000000000000     
  0.12500000000000000       0.81250000000000000        0.0000000000000000     
  0.15625000000000000       0.81250000000000000        0.0000000000000000     
  0.18750000000000000       0.81250000000000000        0.0000000000000000     
  0.21875000000000000       0.81250000000000000        0.0000000000000000     
  0.25000000000000000       0.81250000000000000        0.0000000000000000     
  0.12500000000000000       0.84375000000000000        0.0000000000000000     
  0.15625000000000000       0.84375000000000000        0.0000000000000000     
  0.18750000000000000       0.84375000000000000        0.0000000000000000     
  0.21875000000000000       0.84375000000000000        0.0000000000000000     
  0.25000000000000000       0.84375000000000000        0.0000000000000000     
  0.12500000000000000       0.87500000000000000        0.0000000000000000     
  0.15625000000000000       0.87500000000000000        0.0000000000000000     
  0.18750000000000000       0.87500000000000000        0.0000000000000000     
  0.21875000000000000       0.87500000000000000        0.0000000000000000     
  0.25000000000000000       0.87500000000000000        0.0000000000000000     
  0.25000000000000000       0.75000000000000000        0.0000000000000000     
  0.28125000000000000       0.75000000000000000        0.0000000000000000     
  0.31250000000000000       0.75000000000000000        0.0000000000000000     
  0.34375000000000000       0.75000000000000000        0.0000000000000000     
  0.37500000000000000       0.75000000000000000        0.0000000000000000     
  0.25000000000000000       0.78125000000000000        0.0000000000000000     
  0.28125000000000000       0.78125000000000000        0.0000000000000000     
  0.31250000000000000       0.78125000000000000        0.0000000000000000     
  0.34375000000000000       0.78125000000000000        0.0000000000000000     
  0.37500000000000000       0.78125000000000000        0.0000000000000000     
  0.25000000000000000       0.81250000000000000        0.0000000000000000     
  0.28125000000000000       0.81250000000000000        0.0000000000000000     
  0.31250000000000000       0.81250000000000000        0.0000000000000000     
  0.34375000000000000       0.81250000000000000        0.0000000000000000     
  0.37500000000000000       0.81250000000000000        0.0000000000000000     
  0.25000000000000000       0.84375000000000000        0.0000000000000000     
  0.28125000000000000       0.84375000000000000        0.0000000000000000     
  0.31250000000000000       0.84375000000000000        0.0000000000000000     
  0.34375000000000000       0.84375000000000000        0.0000000000000000     
  0.37500000000000000       0.84375000000000000        0.0000000000000000     
  0.25000000000000000       0.87500000000000000        0.0000000000000000     
  0.28125000000000000       0.87500000000000000        0.0000000000000000     
  0.31250000000000000       0.87500000000000000        0.0000000000000000     
  0.34375000000000000       0.87500000000000000        0.0000000000000000     
  0.37500000000000000       0.87500000000000000        0.0000000000000000     
  0.37500000000000000       0.75000000000000000        0.0000000000000000     
  0.40625000000000000       0.75000000000000000        0.0000000000000000     
  0.43750000000000000       0.75000000000000000        0.0000000000000000     
  0.46875000000000000       0.75000000000000000        0.0000000000000000     
  0.50000000000000000       0.75000000000000000        0.0000000000000000     
  0.37500000000000000       0.78125000000000000        0.0000000000000000     
  0.40625000000000000       0.78125000000000000        0.0000000000000000     
  0.43750000000000000       0.78125000000000000        0.0000000000000000     
  0.46875000000000000       0.78125000000000000        0.0000000000000000     
  0.50000000000000000       0.78125000000000000        0.0000000000000000     
  0.37500000000000000       0.81250000000000000        0.0000000000000000     
  0.40625000000000000       0.81250000000000000        0.0000000000000000     
  0.43750000000000000       0.81250000000000000        0.0000000000000000     
  0.46875000000000000       0.81250000000000000        0.0000000000000000     
  0.50000000000000000       0.81250000000000000        0.0000000000000000     
  0.37500000000000000       0.84375000000000000        0.0000000000000000     
  0.40625000000000000       0.84375000000000000        0.0000000000000000     
  0.43750000000000000       0.84375000000000000        0.0000000000000000     
  0.46875000000000000       0.84375000000000000        0.0000000000000000     
  0.50000000000000000       0.84375000000000000        0.0000000000000000     
  0.37500000000000000       0.87500000000000000        0.0000000000000000     
  0.40625000000000000       0.87500000000000000        0.0000000000000000     
  0.43750000000000000       0.87500000000000000        0.0000000000000000     
  0.46875000000000000       0.87500000000000000        0.0000000000000000     
  0.50000000000000000       0.87500000000000000        0.0000000000000000     
  0.50000000000000000       0.75000000000000000        0.0000000000000000     
  0.53125000000000000       0.75000000000000000        0.0000000000000000     
  0.56250000000000000       0.75000000000000000        0.0000000000000000     
  0.59375000000000000       0.75000000000000000        0.0000000000000000     
  0.62500000000000000       0.75000000000000000        0.0000000000000000     
  0.50000000000000000       0.78125000000000000        0.0000000000000000     
  0.53125000000000000       0.78125000000000000        0.0000000000000000     
  0.56250000000000000       0.78125000000000000        0.0000000000000000     
  0.59375000000000000       0.78125000000000000        0.0000000000000000     
  0.62500000000000000       0.78125000000000000        0.0000000000000000     
  0.50000000000000000       0.81250000000000000        0.0000000000000000     
  0.53125000000000000       0.81250000000000000        0.0000000000000000     
  0.56250000000000000       0.81250000000000000        0.0000000000000000     
  0.59375000000000000       0.81250000000000000        0.0000000000000000     
  0.62500000000000000       0.81250000000000000        0.0000000000000000     
  0.50000000000000000       0.84375000000000000        0.0000000000000000     
  0.53125000000000000       0.84375000000000000        0.0000000000000000     
  0.56250000000000000       0.84375000000000000        0.0000000000000000     
  0.59375000000000000       0.84375000000000000        0.0000000000000000     
  0.62500000000000000       0.84375000000000000        0.0000000000000000     
  0.50000000000000000       0.87500000000000000        0.0000000000000000     
  0.53125000000000000       0.87500000000000000        0.0000000000000000     
  0.56250000000000000       0.87500000000000000        0.0000000000000000     
  0.59375000000000000       0.87500000000000000        0.0000000000000000     
  0.62500000000000000       0.87500000000000000        0.0000000000000000     
  0.62500000000000000       0.75000000000000000        0.0000000000000000     
  0.65625000000000000       0.75000000000000000        0.0000000000000000     
  0.68750000000000000       0.75000000000000000        0.0000000000000000     
  0.71875000000000000       0.75000000000000000        0.0000000000000000     
  0.75000000000000000       0.75000000000000000        0.0000000000000000     
  0.62500000000000000       0.78125000000000000        0.0000000000000000     
  0.65625000000000000       0.78125000000000000        0.0000000000000000     
  0.68750000000000000       0.78125000000000000        0.0000000000000000     
  0.71875000000000000       0.78125000000000000        0.0000000000000000     
  0.75000000000000000       0.78125000000000000        0.0000000000000000     
  0.62500000000000000       0.81250000000000000        0.0000000000000000     
  0.65625000000000000       0.81250000000000000        0.0000000000000000     
  0.68750000000000000       0.81250000000000000        0.0000000000000000     
  0.71875000000000000       0.81250000000000000        0.0000000000000000     
  0.75000000000000000       0.81250000000000000        0.0000000000000000     
  0.62500000000000000       0.84375000000000000        0.0000000000000000     
  0.65625000000000000       0.84375000000000000        0.0000000000000000     
  0.68750000000000000       0.84375000000000000        0.0000000000000000     
  0.71875000000000000       0.84375000000000000        0.0000000000000000     
  0.75000000000000000       0.84375000000000000        0.0000000000000000     
  0.62500000000000000       0.87500000000000000        0.0000000000000000     
  0.65625000000000000       0.87500000000000000        0.0000000000000000     
  0.68750000000000000       0.87500000000000000        0.0000000000000000     
  0.71875000000000000       0.87500000000000000        0.0000000000000000     
  0.75000000000000000       0.87500000000000000        0.0000000000000000     
  0.75000000000000000       0.75000000000000000        0.0000000000000000     
  0.78125000000000000       0.75000000000000000        0.0000000000000000     
  0.81250000000000000       0.75000000000000000        0.0000000000000000     
  0.84375000000000000       0.75000000000000000        0.0000000000000000     
  0.87500000000000000       0.75000000000000000        0.0000000000000000     
  0.75000000000000000       0.78125000000000000        0.0000000000000000     
  0.78125000000000000       0.78125000000000000        0.0000000000000000     
  0.81250000000000000       0.78125000000000000        0.0000000000000000     
  0.84375000000000000       0.78125000000000000        0.0000000000000000     
  0.87500000000000000       0.78125000000000000        0.0000000000000000     
  0.75000000000000000       0.81250000000000000        0.0000000000000000     
  0.78125000000000000       0.81250000000000000        0.0000000000000000     
  0.81250000000000000       0.81250000000000000        0.0000000000000000     
  0.84375000000000000       0.81250000000000000        0.0000000000000000     
  0.87500000000000000       0.81250000000000000        0.0000000000000000     
  0.75000000000000000       0.84375000000000000        0.0000000000000000     
  0.78125000000000000       0.84375000000000000        0.0000000000000000     
  0.81250000000000000       0.84375000000000000        0.0000000000000000     
  0.84375000000000000       0.84375000000000000        0.0000000000000000     
  0.87500000000000000       0.84375000000000000        0.0000000000000000     
  0.75000000000000000       0.87500000000000000        0.0000000000000000     
  0.78125000000000000       0.87500000000000000        0.0000000000000000     
  0.81250000000000000       0.87500000000000000        0.0000000000000000     
  0.84375000000000000       0.87500000000000000        0.0000000000000000     
  0.87500000000000000       0.87500000000000000        0.0000000000000000     
  0.87500000000000000       0.75000000000000000        0.0000000000000000     
  0.90625000000000000       0.75000000000000000        0.0000000000000000     
  0.93750000000000000       0.75000000000000000        0.0000000000000000     
  0.96875000000000000       0.75000000000000000        0.0000000000000000     
   1.0000000000000000       0.75000000000000000        0.0000000000000000     
  0.87500000000000000       0.78125000000000000        0.0000000000000000     
  0.90625000000000000       0.78125000000000000        0.0000000000000000     
  0.93750000000000000       0.78125000000000000        0.0000000000000000     
  0.96875000000000000       0.78125000000000000        0.0000000000000000     
   1.0000000000000000       0.78125000000000000        0.0000000000000000     
  0.87500000000000000       0.81250000000000000        0.0000000000000000     
  0.90625000000000000       0.81250000000000000        0.0000000000000000     
  0.93750000000000000       0.81250000000000000        0.0000000000000000     
  0.96875000000000000       0.81250000000000000        0.0000000000000000     
   1.0000000000000000       0.81250000000000000        0.0000000000000000     
  0.87500000000000000       0.84375000000000000        0.0000000000000000     
  0.90625000000000000       0.84375000000000000        0.0000000000000000     
  0.93750000000000000       0.84375000000000000        0.0000000000000000     
  0.96875000000000000       0.84375000000000000        0.0000000000000000     
   1.0000000000000000       0.84375000000000000        0.0000000000000000     
  0.87500000000000000       0.87500000000000000        0.0000000000000000     
  0.90625000000000000       0.87500000000000000        0.0000000000000000     
  0.93750000000000000       0.87500000000000000        0.0000000000000000     
  0.96875000000000000       0.87500000000000000        0.0000000000000000     
   1.0000000000000000       0.87500000000000000        0.0000000000000000     
   0.0000000000000000       0.87500000000000000        0.0000000000000000     
   3.1250000000000000E-002  0.87500000000000000        0.0000000000000000     
   6.2500000000000000E-002  0.87500000000000000        0.0000000000000000     
   9.3750000000000000E-002  0.87500000000000000        0.0000000000000000     
  0.12500000000000000       0.87500000000000000        0.0000000000000000     
   0.0000000000000000       0.90625000000000000        0.0000000000000000     
   3.1250000000000000E-002  0.90625000000000000        0.0000000000000000     
   6.2500000000000000E-002  0.90625000000000000        0.0000000000000000     
   9.3750000000000000E-002  0.90625000000000000        0.0000000000000000     
  0.12500000000000000       0.90625000000000000        0.0000000000000000     
   0.0000000000000000       0.93750000000000000        0.0000000000000000     
   3.1250000000000000E-002  0.93750000000000000        0.0000000000000000     
   6.2500000000000000E-002  0.93750000000000000        0.0000000000000000     
   9.3750000000000000E-002  0.93750000000000000        0.0000000000000000     
  0.12500000000000000       0.93750000000000000        0.0000000000000000     
   0.0000000000000000       0.96875000000000000        0.0000000000000000     
   3.1250000000000000E-002  0.96875000000000000        0.0000000000000000     
   6.2500000000000000E-002  0.96875000000000000        0.0000000000000000     
   9.3750000000000000E-002  0.96875000000000000        0.0000000000000000     
  0.12500000000000000       0.96875000000000000        0.0000000000000000     
   0.0000000000000000        1.0000000000000000        0.0000000000000000     
   3.1250000000000000E-002   1.0000000000000000        0.0000000000000000     
   6.2500000000000000E-002   1.0000000000000000        0.0000000000000000     
   9.3750000000000000E-002   1.0000000000000000        0.0000000000000000     
  0.12500000000000000        1.0000000000000000        0.0000000000000000     
  0.12500000000000000       0.87500000000000000        0.0000000000000000     
  0.15625000000000000       0.87500000000000000        0.0000000000000000     
  0.18750000000000000       0.87500000000000000        0.0000000000000000     
  0.21875000000000000       0.87500000000000000        0.0000000000000000     
  0.25000000000000000       0.87500000000000000        0.0000000000000000     
  0.12500000000000000       0.90625000000000000        0.0000000000000000     
  0.15625000000000000       0.90625000000000000        0.0000000000000000     
  0.18750000000000000       0.90625000000000000        0.0000000000000000     
  0.21875000000000000       0.90625000000000000        0.0000000000000000     
  0.25000000000000000       0.90625000000000000        0.0000000000000000     
  0.12500000000000000       0.93750000000000000        0.0000000000000000     
  0.15625000000000000       0.93750000000000000        0.0000000000000000     
  0.18750000000000000       0.93750000000000000        0.0000000000000000     
  0.21875000000000000       0.93750000000000000        0.0000000000000000     
  0.25000000000000000       0.93750000000000000        0.0000000000000000     
  0.12500000000000000       0.96875000000000000        0.0000000000000000     
  0.15625000000000000       0.96875000000000000        0.0000000000000000     
  0.18750000000000000       0.96875000000000000        0.0000000000000000     
  0.21875000000000000       0.96875000000000000        0.0000000000000000     
  0.25000000000000000       0.96875000000000000        0.0000000000000000     
  0.12500000000000000        1.0000000000000000        0.0000000000000000     
  0.15625000000000000        1.0000000000000000        0.0000000000000000     
  0.18750000000000000        1.0000000000000000        0.0000000000000000     
  0.21875000000000000        1.0000000000000000        0.0000000000000000     
  0.25000000000000000        1.0000000000000000        0.0000000000000000     
  0.25000000000000000       0.87500000000000000        0.0000000000000000     
  0.28125000000000000       0.87500000000000000        0.0000000000000000     
  0.31250000000000000       0.87500000000000000        0.0000000000000000     
  0.34375000000000000       0.87500000000000000        0.0000000000000000     
  0.37500000000000000       0.87500000000000000        0.0000000000000000     
  0.25000000000000000       0.90625000000000000        0.0000000000000000     
  0.28125000000000000       0.90625000000000000        0.0000000000000000     
  0.31250000000000000       0.90625000000000000        0.0000000000000000     
  0.34375000000000000       0.90625000000000000        0.0000000000000000     
  0.37500000000000000       0.90625000000000000        0.0000000000000000     
  0.25000000000000000       0.93750000000000000        0.0000000000000000     
  0.28125000000000000       0.93750000000000000        0.0000000000000000     
  0.31250000000000000       0.93750000000000000        0.0000000000000000     
  0.34375000000000000       0.93750000000000000        0.0000000000000000     
  0.37500000000000000       0.93750000000000000        0.0000000000000000     
  0.25000000000000000       0.96875000000000000        0.0000000000000000     
  0.28125000000000000       0.96875000000000000        0.0000000000000000     
  0.31250000000000000       0.96875000000000000        0.0000000000000000     
  0.34375000000000000       0.96875000000000000        0.0000000000000000     
  0.37500000000000000       0.96875000000000000        0.0000000000000000     
  0.25000000000000000        1.0000000000000000        0.0000000000000000     
  0.28125000000000000        1.0000000000000000        0.0000000000000000     
  0.31250000000000000        1.0000000000000000        0.0000000000000000     
  0.34375000000000000        1.0000000000000000        0.0000000000000000     
  0.37500000000000000        1.0000000000000000        0.0000000000000000     
  0.37500000000000000       0.87500000000000000        0.0000000000000000     
  0.40625000000000000       0.87500000000000000        0.0000000000000000     
  0.43750000000000000       0.87500000000000000        0.0000000000000000     
  0.46875000000000000       0.87500000000000000        0.0000000000000000     
  0.50000000000000000       0.87500000000000000        0.0000000000000000     
  0.37500000000000000       0.90625000000000000        0.0000000000000000     
  0.40625000000000000       0.90625000000000000        0.0000000000000000     
  0.43750000000000000       0.90625000000000000        0.0000000000000000     
  0.46875000000000000       0.90625000000000000        0.0000000000000000     
  0.50000000000000000       0.90625000000000000        0.0000000000000000     
  0.37500000000000000       0.93750000000000000        0.0000000000000000     
  0.40625000000000000       0.93750000000000000        0.0000000000000000     
  0.43750000000000000       0.93750000000000000        0.0000000000000000     
  0.46875000000000000       0.93750000000000000        0.0000000000000000     
  0.50000000000000000       0.93750000000000000        0.0000000000000000     
  0.37500000000000000       0.96875000000000000        0.0000000000000000     
  0.40625000000000000       0.96875000000000000        0.0000000000000000     
  0.43750000000000000       0.96875000000000000        0.0000000000000000     
  0.46875000000000000       0.96875000000000000        0.0000000000000000     
  0.50000000000000000       0.96875000000000000        0.0000000000000000     
  0.37500000000000000        1.0000000000000000        0.0000000000000000     
  0.40625000000000000        1.0000000000000000        0.0000000000000000     
  0.43750000000000000        1.0000000000000000        0.0000000000000000     
  0.46875000000000000        1.0000000000000000        0.0000000000000000     
  0.50000000000000000        1.0000000000000000        0.0000000000000000     
  0.50000000000000000       0.87500000000000000        0.0000000000000000     
  0.53125000000000000       0.87500000000000000        0.0000000000000000     
  0.56250000000000000       0.87500000000000000        0.0000000000000000     
  0.59375000000000000       0.87500000000000000        0.0000000000000000     
  0.62500000000000000       0.87500000000000000        0.0000000000000000     
  0.50000000000000000       0.90625000000000000        0.0000000000000000     
  0.53125000000000000       0.90625000000000000        0.0000000000000000     
  0.56250000000000000       0.90625000000000000        0.0000000000000000     
  0.59375000000000000       0.90625000000000000        0.0000000000000000     
  0.62500000000000000       0.90625000000000000        0.0000000000000000     
  0.50000000000000000       0.93750000000000000        0.0000000000000000     
  0.53125000000000000       0.93750000000000000        0.0000000000000000     
  0.56250000000000000       0.93750000000000000        0.0000000000000000     
  0.59375000000000000       0.93750000000000000        0.0000000000000000     
  0.62500000000000000       0.93750000000000000        0.0000000000000000     
  0.50000000000000000       0.96875000000000000        0.0000000000000000     
  0.53125000000000000       0.96875000000000000        0.0000000000000000     
  0.56250000000000000       0.96875000000000000        0.0000000000000000     
  0.59375000000000000       0.96875000000000000        0.0000000000000000     
  0.62500000000000000       0.96875000000000000        0.0000000000000000     
  0.50000000000000000        1.0000000000000000        0.0000000000000000     
  0.53125000000000000        1.0000000000000000        0.0000000000000000     
  0.56250000000000000        1.0000000000000000        0.0000000000000000     
  0.59375000000000000        1.0000000000000000        0.0000000000000000     
  0.62500000000000000        1.0000000000000000        0.0000000000000000     
  0.62500000000000000       0.87500000000000000        0.0000000000000000     
  0.65625000000000000       0.87500000000000000        0.0000000000000000     
  0.68750000000000000       0.87500000000000000        0.0000000000000000     
  0.71875000000000000       0.87500000000000000        0.0000000000000000     
  0.75000000000000000       0.87500000000000000        0.0000000000000000     
  0.62500000000000000       0.90625000000000000        0.0000000000000000     
  0.65625000000000000       0.90625000000000000        0.0000000000000000     
  0.68750000000000000       0.90625000000000000        0.0000000000000000     
  0.71875000000000000       0.90625000000000000        0.0000000000000000     
  0.75000000000000000       0.90625000000000000        0.0000000000000000     
  0.62500000000000000       0.93750000000000000        0.0000000000000000     
  0.65625000000000000       0.93750000000000000        0.0000000000000000     
  0.68750000000000000       0.93750000000000000        0.0000000000000000     
  0.71875000000000000       0.93750000000000000        0.0000000000000000     
  0.75000000000000000       0.93750000000000000        0.0000000000000000     
  0.62500000000000000       0.96875000000000000        0.0000000000000000     
  0.65625000000000000       0.96875000000000000        0.0000000000000000     
  0.68750000000000000       0.96875000000000000        0.0000000000000000     
  0.71875000000000000       0.96875000000000000        0.0000000000000000     
  0.75000000000000000       0.96875000000000000        0.0000000000000000     
  0.62500000000000000        1.0000000000000000        0.0000000000000000     
  0.65625000000000000        1.0000000000000000        0.0000000000000000     
  0.68750000000000000        1.0000000000000000        0.0000000000000000     
  0.71875000000000000        1.0000000000000000        0.0000000000000000     
  0.75000000000000000        1.0000000000000000        0.0000000000000000     
  0.75000000000000000       0.87500000000000000        0.0000000000000000     
  0.78125000000000000       0.87500000000000000        0.0000000000000000     
  0.81250000000000000       0.87500000000000000        0.0000000000000000     
  0.84375000000000000       0.87500000000000000        0.0000000000000000     
  0.87500000000000000       0.87500000000000000        0.0000000000000000     
  0.75000000000000000       0.90625000000000000        0.0000000000000000     
  0.78125000000000000       0.90625000000000000        0.0000000000000000     
  0.81250000000000000       0.90625000000000000        0.0000000000000000     
  0.84375000000000000       0.90625000000000000        0.0000000000000000     
  0.87500000000000000       0.90625000000000000        0.0000000000000000     
  0.75000000000000000       0.93750000000000000        0.0000000000000000     
  0.78125000000000000       0.93750000000000000        0.0000000000000000     
  0.81250000000000000       0.93750000000000000        0.0000000000000000     
  0.84375000000000000       0.93750000000000000        0.0000000000000000     
  0.87500000000000000       0.93750000000000000        0.0000000000000000     
  0.75000000000000000       0.96875000000000000        0.0000000000000000     
  0.78125000000000000       0.96875000000000000        0.0000000000000000     
  0.81250000000000000       0.96875000000000000        0.0000000000000000     
  0.84375000000000000       0.96875000000000000        0.0000000000000000     
  0.87500000000000000       0.96875000000000000        0.0000000000000000     
  0.75000000000000000        1.0000000000000000        0.0000000000000000     
  0.78125000000000000        1.0000000000000000        0.0000000000000000     
  0.81250000000000000        1.0000000000000000        0.0000000000000000     
  0.84375000000000000        1.0000000000000000        0.0000000000000000     
  0.87500000000000000        1.0000000000000000        0.0000000000000000     
  0.87500000000000000       0.87500000000000000        0.0000000000000000     
  0.90625000000000000       0.87500000000000000        0.0000000000000000     
  0.93750000000000000       0.87500000000000000        0.0000000000000000     
  0.96875000000000000       0.87500000000000000        0.0000000000000000     
   1.0000000000000000       0.87500000000000000        0.0000000000000000     
  0.87500000000000000       0.90625000000000000        0.0000000000000000     
  0.90625000000000000       0.90625000000000000        0.0000000000000000     
  0.93750000000000000       0.90625000000000000        0.0000000000000000     
  0.96875000000000000       0.90625000000000000        0.0000000000000000     
   1.0000000000000000       0.90625000000000000        0.0000000000000000     
  0.87500000000000000       0.93750000000000000        0.0000000000000000     
  0.90625000000000000       0.93750000000000000        0.0000000000000000     
  0.93750000000000000       0.93750000000000000        0.0000000000000000     
  0.96875000000000000       0.93750000000000000        0.0000000000000000     
   1.0000000000000000       0.93750000000000000        0.0000000000000000     
  0.87500000000000000       0.96875000000000000        0.0000000000000000     
  0.90625000000000000       0.96875000000000000        0.0000000000000000     
  0.93750000000000000       0.96875000000000000        0.0000000000000000     
  0.96875000000000000       0.96875000000000000        0.0000000000000000     
   1.0000000000000000       0.96875000000000000        0.0000000000000000     
  0.87500000000000000        1.0000000000000000        0.0000000000000000     
  0.90625000000000000        1.0000000000000000        0.0000000000000000     
  0.93750000000000000        1.0000000000000000        0.0000000000000000     
  0.96875000000000000        1.0000000000000000        0.0000000000000000     
   1.0000000000000000        1.0000000000000000        0.0000000000000000     
 </DataArray>
 </Points>
 <Cells>
 <DataArray  type="Int32"  Name="connectivity"  format="ascii">
           0           1           6           5
           1           2           7           6
           2           3           8           7
           3           4           9           8
           5           6          11          10
           6           7          12          11
           7           8          13          12
           8           9          14          13
          10          11          16          15
          11          12          17          16
          12          13          18          17
          13          14          19          18
          15          16          21          20
          16          17          22          21
          17          18          23          22
          18          19          24          23
          25          26          31          30
          26          27          32          31
          27          28          33          32
          28          29          34          33
          30          31          36          35
          31          32          37          36
          32          33          38          37
          33          34          39          38
          35          36          41          40
          36          37          42          41
          37          38          43          42
          38          39          44          43
          40          41          46          45
          41          42          47          46
          42          43          48          47
          43          44          49          48
          50          51          56          55
          51          52          57          56
          52          53          58          57
          53          54          59          58
          55          56          61          60
          56          57          62          61
          57          58          63          62
          58          59          64          63
          60          61          66          65
          61          62          67          66
          62          63          68          67
          63          64          69          68
          65          66          71          70
          66          67          72          71
          67          68          73          72
          68          69          74          73
          75          76          81          80
          76          77          82          81
          77          78          83          82
          78          79          84          83
          80          81          86          85
          81          82          87          86
          82          83          88          87
          83          84          89          88
          85          86          91          90
          86          87          92          91
          87          88          93          92
          88          89          94          93
          90          91          96          95
          91          92          97          96
          92          93          98          97
          93          94          99          98
         100         101         106         105
         101         102         107         106
         102         103         108         107
         103         104         109         108
         105         106         111         110
         106         107         112         111
         107         108         113         112
         108         109         114         113
         110         111         116         115
         111         112         117         116
         112         113         118         117
         113         114         119         118
         115         116         121         120
         116         117         122         121
         117         118         123         122
         118         119         124         123
         125         126         131         130
         126         127         132         131
         127         128         133         132
         128         129         134         133
         130         131         136         135
         131         132         137         136
         132         133         138         137
         133         134         139         138
         135         136         141         140
         136         137         142         141
         137         138         143         142
         138         139         144         143
         140         141         146         145
         141         142         147         146
         142         143         148         147
         143         144         149         148
         150         151         156         155
         151         152         157         156
         152         153         158         157
         153         154         159         158
         155         156         161         160
         156         157         162         161
         157         158         163         162
         158         159         164         163
         160         161         166         165
         161         162         167         166
         162         163         168         167
         163         164         169         168
         165         166         171         170
         166         167         172         171
         167         168         173         172
         168         169         174         173
         175         176         181         180
         176         177         182         181
         177         178         183         182
         178         179         184         183
         180         181         186         185
         181         182         187         186
         182         183         188         187
         183         184         189         188
         185         186         191         190
         186         187         192         191
         187         188         193         192
         188         189         194         193
         190         191         196         195
         191         192         197         196
         192         193         198         197
         193         194         199         198
         200         201         206         205
         201         202         207         206
         202         203         208         207
         203         204         209         208
         205         206         211         210
         206         207         212         211
         207         208         213         212
         208         209         214         213
         210         211         216         215
         211         212         217         216
         212         213         218         217
         213         214         219         218
         215         216         221         220
         216         217         222         221
         217         218         223         222
         218         219         224         223
         225         226         231         230
         226         227         232         231
         227         228         233         232
         228         229         234         233
         230         231         236         235
         231         232         237         236
         232         233         238         237
         233         234         239         238
         235         236         241         240
         236         237         242         241
         237         238         243         242
         238         239         244         243
         240         241         246         245
         241         242         247         246
         242         243         248         247
         243         244         249         248
         250         251         256         255
         251         252         257         256
         252         253         258         257
         253         254         259         258
         255         256         261         260
         256         257         262         261
         257         258         263         262
         258         259         264         263
         260         261         266         265
         261         262         267         266
         262         263         268         267
         263         264         269         268
         265         266         271         270
         266         267         272         271
         267         268         273         272
         268         269         274         273
         275         276         281         280
         276         277         282         281
         277         278         283         282
         278         279         284         283
         280         281         286         285
         281         282         287         286
         282         283         288         287
         283         284         289         288
         285         286         291         290
         286         287         292         291
         287         288         293         292
         288         289         294         293
         290         291         296         295
         291         292         297         296
         292         293         298         297
         293         294         299         298
         300         301         306         305
         301         302         307         306
         302         303         308         307
         303         304         309         308
         305         306         311         310
         306         307         312         311
         307         308         313         312
         308         309         314         313
         310         311         316         315
         311         312         317         316
         312         313         318         317
         313         314         319         318
         315         316         321         320
         316         317         322         321
         317         318         323         322
         318         319         324         323
         325         326         331         330
         326         327         332         331
         327         328         333         332
         328         329         334         333
         330         331         336         335
         331         332         337         336
         332         333         338         337
         333         334         339         338
         335         336         341         340
         336         337         342         341
         337         338         343         342
         338         339         344         343
         340         341         346         345
         341         342         347         346
         342         343         348         347
         343         344         349         348
         350         351         356         355
         351         352         357         356
         352         353         358         357
         353         354         359         358
         355         356         361         360
         356         357         362         361
         357         358         363         362
         358         359         364         363
         360         361         366         365
         361         362         367         366
         362         363         368         367
         363         364         369         368
         365         366         371         370
         366         367         372         371
         367         368         373         372
         368         369         374         373
         375         376         381         380
         376         377         382         381
         377         378         383         382
         378         379         384         383
         380         381         386         385
         381         382         387         386
         382         383         388         387
         383         384         389         388
         385         386         391         390
         386         387         392         391
         387         388         393         392
         388         389         394         393
         390         391         396         395
         391         392         397         396
         392         393         398         397
         393         394         399         398
         400         401         406         405
         401         402         407         406
         402         403         408         407
         403         404         409         408
         405         406         411         410
         406         407         412         411
         407         408         413         412
         408         409         414         413
         410         411         416         415
         411         412         417         416
         412         413         418         417
         413         414         419         418
         415         416         421         420
         416         417         422         421
         417         418         423         422
         418         419         424         423
         425         426         431         430
         426         427         432         431
         427         428         433         432
         428         429         434         433
         430         431         436         435
         431         432         437         436
         432         433         438         437
         433         434         439         438
         435         436         441         440
         436         437         442         441
         437         438         443         442
         438         439         444         443
         440         441         446         445
         441         442         447         446
         442         443         448         447
         443         444         449         448
         450         451         456         455
         451         452         457         456
         452         453         458         457
         453         454         459         458
         455         456         461         460
         456         457         462         461
         457         458         463         462
         458         459         464         463
         460         461         466         465
         461         462         467         466
         462         463         468         467
         463         464         469         468
         465         466         471         470
         466         467         472         471
         467         468         473         472
         468         469         474         473
         475         476         481         480
         476         477         482         481
         477         478         483         482
         478         479         484         483
         480         481         486         485
         481         482         487         486
         482         483         488         487
         483         484         489         488
         485         486         491         490
         486         487         492         491
         487         488         493         492
         488         489         494         493
         490         491         496         495
         491         492         497         496
         492         493         498         497
         493         494         499         498
         500         501         506         505
         501         502         507         506
         502         503         508         507
         503         504         509         508
         505         506         511         510
         506         507         512         511
         507         508         513         512
         508         509         514         513
         510         511         516         515
         511         512         517         516
         512         513         518         517
         513         514         519         518
         515         516         521         520
         516         517         522         521
         517         518         523         522
         518         519         524         523
         525         526         531         530
         526         527         532         531
         527         528         533         532
         528         529         534         533
         530         531         536         535
         531         532         537         536
         532         533         538         537
         533         534         539         538
         535         536         541         540
         536         537         542         541
         537         538         543         542
         538         539         544         543
         540         541         546         545
         541         542         547         546
         542         543         548         547
         543         544         549         548
         550         551         556         555
         551         552         557         556
         552         553         558         557
         553         554         559         558
         555         556         561         560
         556         557         562         561
         557         558         563         562
         558         559         564         563
         560         561         566         565
         561         562         567         566
         562         563         568         567
         563         564         569         568
         565         566         571         570
         566         567         572         571
         567         568         573         572
         568         569         574         573
         575         576         581         580
         576         577         582         581
         577         578         583         582
         578         579         584         583
         580         581         586         585
         581         582         587         586
         582         583         588         587
         583         584         589         588
         585         586         591         590
         586         587         592         591
         587         588         593         592
         588         589         594         593
         590         591         596         595
         591         592         597         596
         592         593         598         597
         593         594         599         598
         600         601         606         605
         601         602         607         606
         602         603         608         607
         603         604         609         608
         605         606         611         610
         606         607         612         611
         607         608         613         612
         608         609         614         613
         610         611         616         615
         611         612         617         616
         612         613         618         617
         613         614         619         618
         615         616         621         620
         616         617         622         621
         617         618         623         622
         618         619         624         623
         625         626         631         630
         626         627         632         631
         627         628         633         632
         628         629         634         633
         630         631         636         635
         631         632         637         636
         632         633         638         637
         633         634         639         638
         635         636         641         640
         636         637         642         641
         637         638         643         642
         638         639         644         643
         640         641         646         645
         641         642         647         646
         642         643         648         647
         643         644         649         648
         650         651         656         655
         651         652         657         656
         652         653         658         657
         653         654         659         658
         655         656         661         660
         656         657         662         661
         657         658         663         662
         658         659         664         663
         660         661         666         665
         661         662         667         666
         662         663         668         667
         663         664         669         668
         665         666         671         670
         666         667         672         671
         667         668         673         672
         668         669         674         673
         675         676         681         680
         676         677         682         681
         677         678         683         682
         678         679         684         683
         680         681         686         685
         681         682         687         686
         682         683         688         687
         683         684         689         688
         685         686         691         690
         686         687         692         691
         687         688         693         692
         688         689         694         693
         690         691         696         695
         691         692         697         696
         692         693         698         697
         693         694         699         698
         700         701         706         705
         701         702         707         706
         702         703         708         707
         703         704         709         708
         705         706         711         710
         706         707         712         711
         707         708         713         712
         708         709         714         713
         710         711         716         715
         711         712         717         716
         712         713         718         717
         713         714         719         718
         715         716         721         720
         716         717         722         721
         717         718         723         722
         718         719         724         723
         725         726         731         730
         726         727         732         731
         727         728         733         732
         728         729         734         733
         730         731         736         735
         731         732         737         736
         732         733         738         737
         733         734         739         738
         735         736         741         740
         736         737         742         741
         737         738         743         742
         738         739         744         743
         740         741         746         745
         741         742         747         746
         742         743         748         747
         743         744         749         748
         750         751         756         755
         751         752         757         756
         752         753         758         757
         753         754         759         758
         755         756         761         760
         756         757         762         761
         757         758         763         762
         758         759         764         763
         760         761         766         765
         761         762         767         766
         762         763         768         767
         763         764         769         768
         765         766         771         770
         766         767         772         771
         767         768         773         772
         768         769         774         773
         775         776         781         780
         776         777         782         781
         777         778         783         782
         778         779         784         783
         780         781         786         785
         781         782         787         786
         782         783         788         787
         783         784         789         788
         785         786         791         790
         786         787         792         791
         787         788         793         792
         788         789         794         793
         790         791         796         795
         791         792         797         796
         792         793         798         797
         793         794         799         798
         800         801         806         805
         801         802         807         806
         802         803         808         807
         803         804         809         808
         805         806         811         810
         806         807         812         811
         807         808         813         812
         808         809         814         813
         810         811         816         815
         811         812         817         816
         812         813         818         817
         813         814         819         818
         815         816         821         820
         816         817         822         821
         817         818         823         822
         818         819         824         823
         825         826         831         830
         826         827         832         831
         827         828         833         832
         828         829         834         833
         830         831         836         835
         831         832         837         836
         832         833         838         837
         833         834         839         838
         835         836         841         840
         836         837         842         841
         837         838         843         842
         838         839         844         843
         840         841         846         845
         841         842         847         846
         842         843         848         847
         843         844         849         848
         850         851         856         855
         851         852         857         856
         852         853         858         857
         853         854         859         858
         855         856         861         860
         856         857         862         861
         857         858         863         862
         858         859         864         863
         860         861         866         865
         861         862         867         866
         862         863         868         867
         863         864         869         868
         865         866         871         870
         866         867         872         871
         867         868         873         872
         868         869         874         873
         875         876         881         880
         876         877         882         881
         877         878         883         882
         878         879         884         883
         880         881         886         885
         881         882         887         886
         882         883         888         887
         883         884         889         888
         885         886         891         890
         886         887         892         891
         887         888         893         892
         888         889         894         893
         890         891         896         895
         891         892         897         896
         892         893         898         897
         893         894         899         898
         900         901         906         905
         901         902         907         906
         902         903         908         907
         903         904         909         908
         905         906         911         910
         906         907         912         911
         907         908         913         912
         908         909         914         913
         910         911         916         915
         911         912         917         916
         912         913         918         917
         913         914         919         918
         915         916         921         920
         916         917         922         921
         917         918         923         922
         918         919         924         923
         925         926         931         930
         926         927         932         931
         927         928         933         932
         928         929         934         933
         930         931         936         935
         931         932         937         936
         932         933         938         937
         933         934         939         938
         935         936         941         940
         936         937         942         941
         937         938         943         942
         938         939         944         943
         940         941         946         945
         941         942         947         946
         942         943         948         947
         943         944         949         948
         950         951         956         955
         951         952         957         956
         952         953         958         957
         953         954         959         958
         955         956         961         960
         956         957         962         961
         957         958         963         962
         958         959         964         963
         960         961         966         965
         961         962         967         966
         962         963         968         967
         963         964         969         968
         965         966         971         970
         966         967         972         971
         967         968         973         972
         968         969         974         973
         975         976         981         980
         976         977         982         981
         977         978         983         982
         978         979         984         983
         980         981         986         985
         981         982         987         986
         982         983         988         987
         983         984         989         988
         985         986         991         990
         986         987         992         991
         987         988         993         992
         988         989         994         993
         990         991         996         995
         991         992         997         996
         992         993         998         997
         993         994         999         998
        1000        1001        1006        1005
        1001        1002        1007        1006
        1002        1003        1008        1007
        1003        1004        1009        1008
        1005        1006        1011        1010
        1006        1007        1012        1011
        1007        1008        1013        1012
        1008        1009        1014        1013
        1010        1011        1016        1015
        1011        1012        1017        1016
        1012        1013        1018        1017
        1013        1014        1019        1018
        1015        1016        1021        1020
        1016        1017        1022        1021
        1017        1018        1023        1022
        1018        1019        1024        1023
        1025        1026        1031        1030
        1026        1027        1032        1031
        1027        1028        1033        1032
        1028        1029        1034        1033
        1030        1031        1036        1035
        1031        1032        1037        1036
        1032        1033        1038        1037
        1033        1034        1039        1038
        1035        1036        1041        1040
        1036        1037        1042        1041
        1037        1038        1043        1042
        1038        1039        1044        1043
        1040        1041        1046        1045
        1041        1042        1047        1046
        1042        1043        1048        1047
        1043        1044        1049        1048
        1050        1051        1056        1055
        1051        1052        1057        1056
        1052        1053        1058        1057
        1053        1054        1059        1058
        1055        1056        1061        1060
        1056        1057        1062        1061
        1057        1058        1063        1062
        1058        1059        1064        1063
        1060        1061        1066        1065
        1061        1062        1067        1066
        1062        1063        1068        1067
        1063        1064        1069        1068
        1065        1066        1071        1070
        1066        1067        1072        1071
        1067        1068        1073        1072
        1068        1069        1074        1073
        1075        1076        1081        1080
        1076        1077        1082        1081
        1077        1078        1083        1082
        1078        1079        1084        1083
        1080        1081        1086        1085
        1081        1082        1087        1086
        1082        1083        1088        1087
        1083        1084        1089        1088
        1085        1086        1091        1090
        1086        1087        1092        1091
        1087        1088        1093        1092
        1088        1089        1094        1093
        1090        1091        1096        1095
        1091        1092        1097        1096
        1092        1093        1098        1097
        1093        1094        1099        1098
        1100        1101        1106        1105
        1101        1102        1107        1106
        1102        1103        1108        1107
        1103        1104        1109        1108
        1105        1106        1111        1110
        1106        1107        1112        1111
        1107        1108        1113        1112
        1108        1109        1114        1113
        1110        1111        1116        1115
        1111        1112        1117        1116
        1112        1113        1118        1117
        1113        1114        1119        1118
        1115        1116        1121        1120
        1116        1117        1122        1121
        1117        1118        1123        1122
        1118        1119        1124        1123
        1125        1126        1131        1130
        1126        1127        1132        1131
        1127        1128        1133        1132
        1128        1129        1134        1133
        1130        1131        1136        1135
        1131        1132        1137        1136
        1132        1133        1138        1137
        1133        1134        1139        1138
        1135        1136        1141        1140
        1136        1137        1142        1141
        1137        1138        1143        1142
        1138        1139        1144        1143
        1140        1141        1146        1145
        1141        1142        1147        1146
        1142        1143        1148        1147
        1143        1144        1149        1148
        1150        1151        1156        1155
        1151        1152        1157        1156
        1152        1153        1158        1157
        1153        1154        1159        1158
        1155        1156        1161        1160
        1156        1157        1162        1161
        1157        1158        1163        1162
        1158        1159        1164        1163
        1160        1161        1166        1165
        1161        1162        1167        1166
        1162        1163        1168        1167
        1163        1164        1169        1168
        1165        1166        1171        1170
        1166        1167        1172        1171
        1167        1168        1173        1172
        1168        1169        1174        1173
        1175        1176        1181        1180
        1176        1177        1182        1181
        1177        1178        1183        1182
        1178        1179        1184        1183
        1180        1181        1186        1185
        1181        1182        1187        1186
        1182        1183        1188        1187
        1183        1184        1189        1188
        1185        1186        1191        1190
        1186        1187        1192        1191
        1187        1188        1193        1192
        1188        1189        1194        1193
        1190        1191        1196        1195
        1191        1192        1197        1196
        1192        1193        1198        1197
        1193        1194        1199        1198
        1200        1201        1206        1205
        1201        1202        1207        1206
        1202        1203        1208        1207
        1203        1204        1209        1208
        1205        1206        1211        1210
        1206        1207        1212        1211
        1207        1208        1213        1212
        1208        1209        1214        1213
        1210        1211        1216        1215
        1211        1212        1217        1216
        1212        1213        1218        1217
        1213        1214        1219        1218
        1215        1216        1221        1220
        1216        1217        1222        1221
        1217        1218        1223        1222
        1218        1219        1224        1223
        1225        1226        1231        1230
        1226        1227        1232        1231
        1227        1228        1233        1232
        1228        1229        1234        1233
        1230        1231        1236        1235
        1231        1232        1237        1236
        1232        1233        1238        1237
        1233        1234        1239        1238
        1235        1236        1241        1240
        1236        1237        1242        1241
        1237        1238        1243        1242
        1238        1239        1244        1243
        1240        1241        1246        1245
        1241        1242        1247        1246
        1242        1243        1248        1247
        1243        1244        1249        1248
        1250        1251        1256        1255
        1251        1252        1257        1256
        1252        1253        1258        1257
        1253        1254        1259        1258
        1255        1256        1261        1260
        1256        1257        1262        1261
        1257        1258        1263        1262
        1258        1259        1264        1263
        1260        1261        1266        1265
        1261        1262        1267        1266
        1262        1263        1268        1267
        1263        1264        1269        1268
        1265        1266        1271        1270
        1266        1267        1272        1271
        1267        1268        1273        1272
        1268        1269        1274        1273
        1275        1276        1281        1280
        1276        1277        1282        1281
        1277        1278        1283        1282
        1278        1279        1284        1283
        1280        1281        1286        1285
        1281        1282        1287        1286
        1282        1283        1288        1287
        1283        1284        1289        1288
        1285        1286        1291        1290
        1286        1287        1292        1291
        1287        1288        1293        1292
        1288        1289        1294        1293
        1290        1291        1296        1295
        1291        1292        1297        1296
        1292        1293        1298        1297
        1293        1294        1299        1298
        1300        1301        1306        1305
        1301        1302        1307        1306
        1302        1303        1308        1307
        1303        1304        1309        1308
        1305        1306        1311        1310
        1306        1307        1312        1311
        1307        1308        1313        1312
        1308        1309        1314        1313
        1310        1311        1316        1315
        1311        1312        1317        1316
        1312        1313        1318        1317
        1313        1314        1319        1318
        1315        1316        1321        1320
        1316        1317        1322        1321
        1317        1318        1323        1322
        1318        1319        1324        1323
        1325        1326        1331        1330
        1326        1327        1332        1331
        1327        1328        1333        1332
        1328        1329        1334        1333
        1330        1331        1336        1335
        1331        1332        1337        1336
        1332        1333        1338        1337
        1333        1334        1339        1338
        1335        1336        1341        1340
        1336        1337        1342        1341
        1337        1338        1343        1342
        1338        1339        1344        1343
        1340        1341        1346        1345
        1341        1342        1347        1346
        1342        1343        1348        1347
        1343        1344        1349        1348
        1350        1351        1356        1355
        1351        1352        1357        1356
        1352        1353        1358        1357
        1353        1354        1359        1358
        1355        1356        1361        1360
        1356        1357        1362        1361
        1357        1358        1363        1362
        1358        1359        1364        1363
        1360        1361        1366        1365
        1361        1362        1367        1366
        1362        1363        1368        1367
        1363        1364        1369        1368
        1365        1366        1371        1370
        1366        1367        1372        1371
        1367        1368        1373        1372
        1368        1369        1374        1373
        1375        1376        1381        1380
        1376        1377        1382        1381
        1377        1378        1383        1382
        1378        1379        1384        1383
        1380        1381        1386        1385
        1381        1382        1387        1386
        1382        1383        1388        1387
        1383        1384        1389        1388
        1385        1386        1391        1390
        1386        1387        1392        1391
        1387        1388        1393        1392
        1388        1389        1394        1393
        1390        1391        1396        1395
        1391        1392        1397        1396
        1392        1393        1398        1397
        1393        1394        1399        1398
        1400        1401        1406        1405
        1401        1402        1407        1406
        1402        1403        1408        1407
        1403        1404        1409        1408
        1405        1406        1411        1410
        1406        1407        1412        1411
        1407        1408        1413        1412
        1408        1409        1414        1413
        1410        1411        1416        1415
        1411        1412        1417        1416
        1412        1413        1418        1417
        1413        1414        1419        1418
        1415        1416        1421        1420
        1416        1417        1422        1421
        1417        1418        1423        1422
        1418        1419        1424        1423
        1425        1426        1431        1430
        1426        1427        1432        1431
        1427        1428        1433        1432
        1428        1429        1434        1433
        1430        1431        1436        1435
        1431        1432        1437        1436
        1432        1433        1438        1437
        1433        1434        1439        1438
        1435        1436        1441        1440
        1436        1437        1442        1441
        1437        1438        1443        1442
        1438        1439        1444        1443
        1440        1441        1446        1445
        1441        1442        1447        1446
        1442        1443        1448        1447
        1443        1444        1449        1448
        1450        1451        1456        1455
        1451        1452        1457        1456
        1452        1453        1458        1457
        1453        1454        1459        1458
        1455        1456        1461        1460
        1456        1457        1462        1461
        1457        1458        1463        1462
        1458        1459        1464        1463
        1460        1461        1466        1465
        1461        1462        1467        1466
        1462        1463        1468        1467
        1463        1464        1469        1468
        1465        1466        1471        1470
        1466        1467        1472        1471
        1467        1468        1473        1472
        1468        1469        1474        1473
        1475        1476        1481        1480
        1476        1477        1482        1481
        1477        1478        1483        1482
        1478        1479        1484        1483
        1480        1481        1486        1485
        1481        1482        1487        1486
        1482        1483        1488        1487
        1483        1484        1489        1488
        1485        1486        1491        1490
        1486        1487        1492        1491
        1487        1488        1493        1492
        1488        1489        1494        1493
        1490        1491        1496        1495
        1491        1492        1497        1496
        1492        1493        1498        1497
        1493        1494        1499        1498
        1500        1501        1506        1505
        1501        1502        1507        1506
        1502        1503        1508        1507
        1503        1504        1509        1508
        1505        1506        1511        1510
        1506        1507        1512        1511
        1507        1508        1513        1512
        1508        1509        1514        1513
        1510        1511        1516        1515
        1511        1512        1517        1516
        1512        1513        1518        1517
        1513        1514        1519        1518
        1515        1516        1521        1520
        1516        1517        1522        1521
        1517        1518        1523        1522
        1518        1519        1524        1523
        1525        1526        1531        1530
        1526        1527        1532        1531
        1527        1528        1533        1532
        1528        1529        1534        1533
        1530        1531        1536        1535
        1531        1532        1537        1536
        1532        1533        1538        1537
        1533        1534        1539        1538
        1535        1536        1541        1540
        1536        1537        1542        1541
        1537        1538        1543        1542
        1538        1539        1544        1543
        1540        1541        1546        1545
        1541        1542        1547        1546
        1542        1543        1548        1547
        1543        1544        1549        1548
        1550        1551        1556        1555
        1551        1552        1557        1556
        1552        1553        1558        1557
        1553        1554        1559        1558
        1555        1556        1561        1560
        1556        1557        1562        1561
        1557        1558        1563        1562
        1558        1559        1564        1563
        1560        1561        1566        1565
        1561        1562        1567        1566
        1562        1563        1568        1567
        1563        1564        1569        1568
        1565        1566        1571        1570
        1566        1567        1572        1571
        1567        1568        1573        1572
        1568        1569        1574        1573
        1575        1576        1581        1580
        1576        1577        1582        1581
        1577        1578        1583        1582
        1578        1579        1584        1583
        1580        1581        1586        1585
        1581        1582        1587        1586
        1582        1583        1588        1587
        1583        1584        1589        1588
        1585        1586        1591        1590
        1586        1587        1592        1591
        1587        1588        1593        1592
        1588        1589        1594        1593
        1590        1591        1596        1595
        1591        1592        1597        1596
        1592        1593        1598        1597
        1593        1594        1599        1598
 </DataArray>
 <DataArray  type="Int32"  Name="offsets"  format="ascii"> 
           4
           8
          12
          16
          20
          24
          28
          32
          36
          40
          44
          48
          52
          56
          60
          64
          68
          72
          76
          80
          84
          88
          92
          96
         100
         104
         108
         112
         116
         120
         124
         128
         132
         136
         140
         144
         148
         152
         156
         160
         164
         168
         172
         176
         180
         184
         188
         192
         196
         200
         204
         208
         212
         216
         220
         224
         228
         232
         236
         240
         244
         248
         252
         256
         260
         264
         268
         272
         276
         280
         284
         288
         292
         296
         300
         304
         308
         312
         316
         320
         324
         328
         332
         336
         340
         344
         348
         352
         356
         360
         364
         368
         372
         376
         380
         384
         388
         392
         396
         400
         404
         408
         412
         416
         420
         424
         428
         432
         436
         440
         444
         448
         452
         456
         460
         464
         468
         472
         476
         480
         484
         488
         492
         496
         500
         504
         508
         512
         516
         520
         524
         528
         532
         536
         540
         544
         548
         552
         556
         560
         564
         568
         572
         576
         580
         584
         588
         592
         596
         600
         604
         608
         612
         616
         620
         624
         628
         632
         636
         640
         644
         648
         652
         656
         660
         664
         668
         672
         676
         680
         684
         688
         692
         696
         700
         704
         708
         712
         716
         720
         724
         728
         732
         736
         740
         744
         748
         752
         756
         760
         764
         768
         772
         776
         780
         784
         788
         792
         796
         800
         804
         808
         812
         816
         820
         824
         828
         832
         836
         840
         844
         848
         852
         856
         860
         864
         868
         872
         876
         880
         884
         888
         892
         896
         900
         904
         908
         912
         916
         920
         924
         928
         932
         936
         940
         944
         948
         952
         956
         960
         964
         968
         972
         976
         980
         984
         988
         992
         996
        1000
        1004
        1008
        1012
        1016
        1020
        1024
        1028
        1032
        1036
        1040
        1044
        1048
        1052
        1056
        1060
        1064
        1068
        1072
        1076
        1080
        1084
        1088
        1092
        1096
        1100
        1104
        1108
        1112
        1116
        1120
        1124
        1128
        1132
        1136
        1140
        1144
        1148
        1152
        1156
        1160
        1164
        1168
        1172
        1176
        1180
        1184
        1188
        1192
        1196
        1200
        1204
        1208
        1212
        1216
        1220
        1224
        1228
        1232
        1236
        1240
        1244
        1248
        1252
        1256
        1260
        1264
        1268
        1272
        1276
        1280
        1284
        1288
        1292
        1296
        1300
        1304
        1308
        1312
        1316
        1320
        1324
        1328
        1332
        1336
        1340
        1344
        1348
        1352
        1356
        1360
        1364
        1368
        1372
        1376
        1380
        1384
        1388
        1392
        1396
        1400
        1404
        1408
        1412
        1416
        1420
        1424
        1428
        1432
        1436
        1440
        1444
        1448
        1452
        1456
        1460
        1464
        1468
        1472
        1476
        1480
        1484
        1488
        1492
        1496
        1500
        1504
        1508
        1512
        1516
        1520
        1524
        1528
        1532
        1536
        1540
        1544
        1548
        1552
        1556
        1560
        1564
        1568
        1572
        1576
        1580
        1584
        1588
        1592
        1596
        1600
        1604
        1608
        1612
        1616
        1620
        1624
        1628
        1632
        1636
        1640
        1644
        1648
        1652
        1656
        1660
        1664
        1668
        1672
        1676
        1680
        1684
        1688
        1692
        1696
        1700
        1704
        1708
        1712
        1716
        1720
        1724
        1728
        1732
        1736
        1740
        1744
        1748
        1752
        1756
        1760
        1764
        1768
        1772
        1776
        1780
        1784
        1788
        1792
        1796
        1800
        1804
        1808
        1812
        1816
        1820
        1824
        1828
        1832
        1836
        1840
        1844
        1848
        1852
        1856
        1860
        1864
        1868
        1872
        1876
        1880
        1884
        1888
        1892
        1896
        1900
        1904
        1908
        1912
        1916
        1920
        1924
        1928
        1932
        1936
        1940
        1944
        1948
        1952
        1956
        1960
        1964
        1968
        1972
        1976
        1980
        1984
        1988
        1992
        1996
        2000
        2004
        2008
        2012
        2016
        2020
        2024
        2028
        2032
        2036
        2040
        2044
        2048
        2052
        2056
        2060
        2064
        2068
        2072
        2076
        2080
        2084
        2088
        2092
        2096
        2100
        2104
        2108
        2112
        2116
        2120
        2124
        2128
        2132
        2136
        2140
        2144
        2148
        2152
        2156
        2160
        2164
        2168
        2172
        2176
        2180
        2184
        2188
        2192
        2196
        2200
        2204
        2208
        2212
        2216
        2220
        2224
        2228
        2232
        2236
        2240
        2244
        2248
        2252
        2256
        2260
        2264
        2268
        2272
        2276
        2280
        2284
        2288
        2292
        2296
        2300
        2304
        2308
        2312
        2316
        2320
        2324
        2328
        2332
        2336
        2340
        2344
        2348
        2352
        2356
        2360
        2364
        2368
        2372
        2376
        2380
        2384
        2388
        2392
        2396
        2400
        2404
        2408
        2412
        2416
        2420
        2424
        2428
        2432
        2436
        2440
        2444
        2448
        2452
        2456
        2460
        2464
        2468
        2472
        2476
        2480
        2484
        2488
        2492
        2496
        2500
        2504
        2508
        2512
        2516
        2520
        2524
        2528
        2532
        2536
        2540
        2544
        2548
        2552
        2556
        2560
        2564
        2568
        2572
        2576
        2580
        2584
        2588
        2592
        2596
        2600
        2604
        2608
        2612
        2616
        2620
        2624
        2628
        2632
        2636
        2640
        2644
        2648
        2652
        2656
        2660
        2664
        2668
        2672
        2676
        2680
        2684
        2688
        2692
        2696
        2700
        2704
        2708
        2712
        2716
        2720
        2724
        2728
        2732
        2736
        2740
        2744
        2748
        2752
        2756
        2760
        2764
        2768
        2772
        2776
        2780
        2784
        2788
        2792
        2796
        2800
        2804
        2808
        2812
        2816
        2820
        2824
        2828
        2832
        2836
        2840
        2844
        2848
        2852
        2856
        2860
        2864
        2868
        2872
        2876
        2880
        2884
        2888
        2892
        2896
        2900
        2904
        2908
        2912
        2916
        2920
        2924
        2928
        2932
        2936
        2940
        2944
        2948
        2952
        2956
        2960
        2964
        2968
        2972
        2976
        2980
        2984
        2988
        2992
        2996
        3000
        3004
        3008
        3012
        3016
        3020
        3024
        3028
        3032
        3036
        3040
        3044
        3048
        3052
        3056
        3060
        3064
        3068
        3072
        3076
        3080
        3084
        3088
        3092
        3096
        3100
        3104
        3108
        3112
        3116
        3120
        3124
        3128
        3132
        3136
        3140
        3144
        3148
        3152
        3156
        3160
        3164
        3168
        3172
        3176
        3180
        3184
        3188
        3192
        3196
        3200
        3204
        3208
        3212
        3216
        3220
        3224
        3228
        3232
        3236
        3240
        3244
        3248
        3252
        3256
        3260
        3264
        3268
        3272
        3276
        3280
        3284
        3288
        3292
        3296
        3300
        3304
        3308
        3312
        3316
        3320
        3324
        3328
        3332
        3336
        3340
        3344
        3348
        3352
        3356
        3360
        3364
        3368
        3372
        3376
        3380
        3384
        3388
        3392
        3396
        3400
        3404
        3408
        3412
        3416
        3420
        3424
        3428
        3432
        3436
        3440
        3444
        3448
        3452
        3456
        3460
        3464
        3468
        3472
        3476
        3480
        3484
        3488
        3492
        3496
        3500
        3504
        3508
        3512
        3516
        3520
        3524
        3528
        3532
        3536
        3540
        3544
        3548
        3552
        3556
        3560
        3564
        3568
        3572
        3576
        3580
        3584
        3588
        3592
        3596
        3600
        3604
        3608
        3612
        3616
        3620
        3624
        3628
        3632
        3636
        3640
        3644
        3648
        3652
        3656
        3660
        3664
        3668
        3672
        3676
        3680
        3684
        3688
        3692
        3696
        3700
        3704
        3708
        3712
        3716
        3720
        3724
        3728
        3732
        3736
        3740
        3744
        3748
        3752
        3756
        3760
        3764
        3768
        3772
        3776
        3780
        3784
        3788
        3792
        3796
        3800
        3804
        3808
        3812
        3816
        3820
        3824
        3828
        3832
        3836
        3840
        3844
        3848
        3852
        3856
        3860
        3864
        3868
        3872
        3876
        3880
        3884
        3888
        3892
        3896
        3900
        3904
        3908
        3912
        3916
        3920
        3924
        3928
        3932
        3936
        3940
        3944
        3948
        3952
        3956
        3960
        3964
        3968
        3972
        3976
        3980
        3984
        3988
        3992
        3996
        4000
        4004
        4008
        4012
        4016
        4020
        4024
        4028
        4032
        4036
        4040
        4044
        4048
        4052
        4056
        4060
        4064
        4068
        4072
        4076
        4080
        4084
        4088
        4092
        4096
 </DataArray>
 <DataArray  type="UInt8"  Name="types"  format="ascii">
 9
 9
 9
 9
 9
 9
 9
 9
 9
 9
 9
 9
 9
 9
 9
 9
 9
 9
 9
 9
 9
 9
 9
 9
 9
 9
 9
 9
 9
 9
 9
 9
 9
 9
 9
 9
 9
 9
 9
 9
 9
 9
 9
 9
 9
 9
 9
 9
 9
 9
 9
 9
 9
 9
 9
 9
 9
 9
 9
 9
 9
 9
 9
 9
 9
 9
 9
 9
 9
 9
 9
 9
 9
 9
 9
 9
 9
 9
 9
 9
 9
 9
 9
 9
 9
 9
 9
 9
 9
 9
 9
 9
 9
 9
 9
 9
 9
 9
 9
 9
 9
 9
 9
 9
 9
 9
 9
 9
 9
 9
 9
 9
 9
 9
 9
 9
 9
 9
 9
 9
 9
 9
 9
 9
 9
 9
 9
 9
 9
 9
 9
 9
 9
 9
 9
 9
 9
 9
 9
 9
 9
 9
 9
 9
 9
 9
 9
 9
 9
 9
 9
 9
 9
 9
 9
 9
 9
 9
 9
 9
 9
 9
 9
 9
 9
 9
 9
 9
 9
 9
 9
 9
 9
 9
 9
 9
 9
 9
 9
 9
 9
 9
 9
 9
 9
 9
 9
 9
 9
 9
 9
 9
 9
 9
 9
 9
 9
 9
 9
 9
 9
 9
 9
 9
 9
 9
 9
 9
 9
 9
 9
 9
 9
 9
 9
 9
 9
 9
 9
 9
 9
 9
 9
 9
 9
 9
 9
 9
 9
 9
 9
 9
 9
 9
 9
 9
 9
 9
 9
 9
 9
 9
 9
 9
 9
 9
 9
 9
 9
 9
 9
 9
 9
 9
 9
 9
 9
 9
 9
 9
 9
 9
 9
 9
 9
 9
 9
 9
 9
 9
 9
 9
 9
 9
 9
 9
 9
 9
 9
 9
 9
 9
 9
 9
 9
 9
 9
 9
 9
 9
 9
 9
 9
 9
 9
 9
 9
 9
 9
 9
 9
 9
 9
 9
 9
 9
 9
 9
 9
 9
 9
 9
 9
 9
 9
 9
 9
 9
 9
 9
 9
 9
 9
 9
 9
 9
 9
 9
 9
 9
 9
 9
 9
 9
 9
 9
 9
 9
 9
 9
 9
 9
 9
 9
 9
 9
 9
 9
 9
 9
 9
 9
 9
 9
 9
 9
 9
 9
 9
 9
 9
 9
 9
 9
 9
 9
 9
 9
 9
 9
 9
 9
 9
 9
 9
 9
 9
 9
 9
 9
 9
 9
 9
 9
 9
 9
 9
 9
 9
 9
 9
 9
 9
 9
 9
 9
 9
 9
 9
 9
 9
 9
 9
 9
 9
 9
 9
 9
 9
 9
 9
 9
 9
 9
 9
 9
 9
 9
 9
 9
 9
 9
 9
 9
 9
 9
 9
 9
 9
 9
 9
 9
 9
 9
 9
 9
 9
 9
 9
 9
 9
 9
 9
 9
 9
 9
 9
 9
 9
 9
 9
 9
 9
 9
 9
 9
 9
 9
 9
 9
 9
 9
 9
 9
 9
 9
 9
 9
 9
 9
 9
 9
 9
 9
 9
 9
 9
 9
 9
 9
 9
 9
 9
 9
 9
 9
 9
 9
 9
 9
 9
 9
 9
 9
 9
 9
 9
 9
 9
 9
 9
 9
 9
 9
 9
 9
 9
 9
 9
 9
 9
 9
 9
 9
 9
 9
 9
 9
 9
 9
 9
 9
 9
 9
 9
 9
 9
 9
 9
 9
 9
 9
 9
 9
 9
 9
 9
 9
 9
 9
 9
 9
 9
 9
 9
 9
 9
 9
 9
 9
 9
 9
 9
 9
 9
 9
 9
 9
 9
 9
 9
 9
 9
 9
 9
 9
 9
 9
 9
 9
 9
 9
 9
 9
 9
 9
 9
 9
 9
 9
 9
 9
 9
 9
 9
 9
 9
 9
 9
 9
 9
 9
 9
 9
 9
 9
 9
 9
 9
 9
 9
 9
 9
 9
 9
 9
 9
 9
 9
 9
 9
 9
 9
 9
 9
 9
 9
 9
 9
 9
 9
 9
 9
 9
 9
 9
 9
 9
 9
 9
 9
 9
 9
 9
 9
 9
 9
 9
 9
 9
 9
 9
 9
 9
 9
 9
 9
 9
 9
 9
 9
 9
 9
 9
 9
 9
 9
 9
 9
 9
 9
 9
 9
 9
 9
 9
 9
 9
 9
 9
 9
 9
 9
 9
 9
 9
 9
 9
 9
 9
 9
 9
 9
 9
 9
 9
 9
 9
 9
 9
 9
 9
 9
 9
 9
 9
 9
 9
 9
 9
 9
 9
 9
 9
 9
 9
 9
 9
 9
 9
 9
 9
 9
 9
 9
 9
 9
 9
 9
 9
 9
 9
 9
 9
 9
 9
 9
 9
 9
 9
 9
 9
 9
 9
 9
 9
 9
 9
 9
 9
 9
 9
 9
 9
 9
 9
 9
 9
 9
 9
 9
 9
 9
 9
 9
 9
 9
 9
 9
 9
 9
 9
 9
 9
 9
 9
 9
 9
 9
 9
 9
 9
 9
 9
 9
 9
 9
 9
 9
 9
 9
 9
 9
 9
 9
 9
 9
 9
 9
 9
 9
 9
 9
 9
 9
 9
 9
 9
 9
 9
 9
 9
 9
 9
 9
 9
 9
 9
 9
 9
 9
 9
 9
 9
 9
 9
 9
 9
 9
 9
 9
 9
 9
 9
 9
 9
 9
 9
 9
 9
 9
 9
 9
 9
 9
 9
 9
 9
 9
 9
 9
 9
 9
 9
 9
 9
 9
 9
 9
 9
 9
 9
 9
 9
 9
 9
 9
 9
 9
 9
 9
 9
 9
 9
 9
 9
 9
 9
 9
 9
 9
 9
 9
 9
 9
 9
 9
 9
 9
 9
 9
 9
 9
 9
 9
 9
 9
 9
 9
 9
 9
 9
 9
 9
 9
 9
 9
 9
 9
 9
 9
 9
 9
 9
 9
 9
 9
 9
 9
 9
 9
 9
 9
 9
 9
 9
 9
 9
 9
 9
 9
 9
 9
 9
 9
 9
 9
 9
 9
 9
 9
 9
 9
 9
 9
 9
 9
 9
 9
 9
 9
 9
 9
 9
 9
 9
 9
 9
 9
 9
 9
 9
 9
 9
 9
 9
 9
 9
 9
 9
 9
 9
 9
 9
 9
 9
 9
 9
 9
 9
 9
 9
 9
 9
 9
 9
 9
 9
 9
 9
 9
 9
 9
 9
 9
 9
 9
 9
 9
 9
 9
 9
 9
 9
 9
 9
 9
 9
 9
 9
 9
 9
 9
 9
 9
 9
 9
 9
 9
 9
 9
 9
 9
 9
 9
 9
 9
 9
 9
 9
 9
 9
 9
 9
 </DataArray>
 </Cells> 
 <PointData>
 <DataArray  type="Float64" Name="disp" NumberOfComponents="3" format="ascii">
   0.0000000000000000        0.0000000000000000        0.0000000000000000     
   6.0959871691408018E-003   3.7906342456623418E-003   0.0000000000000000     
   1.1665957469581392E-002   7.3242023348088787E-003   0.0000000000000000     
   1.6709910901321772E-002   1.0600704267439608E-002   0.0000000000000000     
   2.1227847464361939E-002   1.3620140043554531E-002   0.0000000000000000     
   0.0000000000000000        0.0000000000000000        0.0000000000000000     
   4.8911137838395114E-003   3.0223516455297464E-003   0.0000000000000000     
   9.5735067666746863E-003   6.0609131604284130E-003   0.0000000000000000     
   1.4047178948505525E-002   9.1156845446959990E-003   0.0000000000000000     
   1.8312130329332023E-002   1.2186665798332507E-002   0.0000000000000000     
   0.0000000000000000        0.0000000000000000        0.0000000000000000     
   3.9534999328380690E-003   2.4253207020613781E-003   0.0000000000000000     
   7.9104636643661762E-003   5.0632797063043609E-003   0.0000000000000000     
   1.1870891194584326E-002   7.9138770127289461E-003   0.0000000000000000     
   1.5834782523492512E-002   1.0977112621335139E-002   0.0000000000000000     
   0.0000000000000000        0.0000000000000000        0.0000000000000000     
   3.2831456161364725E-003   1.9995414152572384E-003   0.0000000000000000     
   6.6768281626558654E-003   4.3313019724367215E-003   0.0000000000000000     
   1.0181047639558178E-002   6.9952816715384506E-003   0.0000000000000000     
   1.3795804046843409E-002   9.9914805125624236E-003   0.0000000000000000     
   0.0000000000000000        0.0000000000000000        0.0000000000000000     
   2.8800508337347226E-003   1.7450137851173272E-003   0.0000000000000000     
   5.8726002615437489E-003   3.8649799588254966E-003   0.0000000000000000     
   8.9776482834270799E-003   6.3598985211245074E-003   0.0000000000000000     
   1.2195194899384715E-002   9.2297694720143621E-003   0.0000000000000000     
   2.1227847464361939E-002   1.3620140043554531E-002   0.0000000000000000     
   2.5432691742154939E-002   1.6613189143204199E-002   0.0000000000000000     
   2.9537368318153803E-002   1.9810531046439168E-002   0.0000000000000000     
   3.3541877192358550E-002   2.3212165753259430E-002   0.0000000000000000     
   3.7446218364769149E-002   2.6818093263664994E-002   0.0000000000000000     
   1.8312130329332023E-002   1.2186665798332507E-002   0.0000000000000000     
   2.2406576081561345E-002   1.5342265766286577E-002   0.0000000000000000     
   2.6368731377600672E-002   1.8650893293506849E-002   0.0000000000000000     
   3.0198596217450000E-002   2.2112548379993317E-002   0.0000000000000000     
   3.3896170601109318E-002   2.5727231025745992E-002   0.0000000000000000     
   1.5834782523492512E-002   1.0977112621335139E-002   0.0000000000000000     
   1.9730343613670064E-002   1.4211844751050728E-002   0.0000000000000000     
   2.3485780427696321E-002   1.7576931620803517E-002   0.0000000000000000     
   2.7101092965571269E-002   2.1072373230593505E-002   0.0000000000000000     
   3.0576281227294919E-002   2.4698169580420683E-002   0.0000000000000000     
   1.3795804046843409E-002   9.9914805125624236E-003   0.0000000000000000     
   1.7403994338481089E-002   1.3221926097496658E-002   0.0000000000000000     
   2.0888515468440734E-002   1.6588646028329178E-002   0.0000000000000000     
   2.4249367436722354E-002   2.0091640305059975E-002   0.0000000000000000     
   2.7486550243325948E-002   2.3730908927689056E-002   0.0000000000000000     
   1.2195194899384715E-002   9.2297694720143621E-003   0.0000000000000000     
   1.5427528255994411E-002   1.2372509805624368E-002   0.0000000000000000     
   1.8576936499833926E-002   1.5686036516083829E-002   0.0000000000000000     
   2.1643419630903257E-002   1.9170349603392752E-002   0.0000000000000000     
   2.4626977649202408E-002   2.2825449067551129E-002   0.0000000000000000     
   3.7446218364769149E-002   2.6818093263664994E-002   0.0000000000000000     
   4.1254375931276344E-002   3.0623449130182182E-002   0.0000000000000000     
   4.4970333987770852E-002   3.4623368905337341E-002   0.0000000000000000     
   4.8594092534252661E-002   3.8817852589130467E-002   0.0000000000000000     
   5.2125651570721770E-002   4.3206900181561550E-002   0.0000000000000000     
   3.3896170601109318E-002   2.5727231025745992E-002   0.0000000000000000     
   3.7484448175448194E-002   2.9523627164709514E-002   0.0000000000000000     
   4.0986422587336174E-002   3.3530422730828541E-002   0.0000000000000000     
   4.4402093836773265E-002   3.7747617724103066E-002   0.0000000000000000     
   4.7731461923759461E-002   4.2175212144533084E-002   0.0000000000000000     
   3.0576281227294919E-002   2.4698169580420683E-002   0.0000000000000000     
   3.3940708317646034E-002   2.8498793666372930E-002   0.0000000000000000     
   3.7223737341403433E-002   3.2518718484538127E-002   0.0000000000000000     
   4.0425368298567070E-002   3.6757944034916244E-002   0.0000000000000000     
   4.3545601189136973E-002   4.1216470317507303E-002   0.0000000000000000     
   2.7486550243325948E-002   2.3730908927689056E-002   0.0000000000000000     
   3.0623156357869899E-002   2.7548948635172429E-002   0.0000000000000000     
   3.3682278249972622E-002   3.1588256166466072E-002   0.0000000000000000     
   3.6663915919634082E-002   3.5848831521570021E-002   0.0000000000000000     
   3.9568069366854315E-002   4.0330674700484223E-002   0.0000000000000000     
   2.4626977649202408E-002   2.2825449067551129E-002   0.0000000000000000     
   2.7531792296119774E-002   2.6674092071108005E-002   0.0000000000000000     
   3.0362045313043741E-002   3.0739035776612411E-002   0.0000000000000000     
   3.3117736699974323E-002   3.5020280184064355E-002   0.0000000000000000     
   3.5798866456911500E-002   3.9517825293463822E-002   0.0000000000000000     
   5.2125651570721770E-002   4.3206900181561550E-002   0.0000000000000000     
   5.5563455592275685E-002   4.7795070522136010E-002   0.0000000000000000     
   5.8905949094011881E-002   5.2586922450359230E-002   0.0000000000000000     
   6.2153132075930359E-002   5.7582455966231218E-002   0.0000000000000000     
   6.5305004538031133E-002   6.2781671069751993E-002   0.0000000000000000     
   4.7731461923759461E-002   4.2175212144533084E-002   0.0000000000000000     
   5.0970670672388599E-002   4.6806601891436539E-002   0.0000000000000000     
   5.4115863906754498E-002   5.1635182864131365E-002   0.0000000000000000     
   5.7167041626857172E-002   5.6660955062617577E-002   0.0000000000000000     
   6.0124203832696607E-002   6.1883918486895152E-002   0.0000000000000000     
   4.3545601189136973E-002   4.1216470317507303E-002   0.0000000000000000     
   4.6580041698105305E-002   4.5881579997558354E-002   0.0000000000000000     
   4.9524295510464215E-002   5.0740555740316447E-002   0.0000000000000000     
   5.2378362626213718E-002   5.5793397545781581E-002   0.0000000000000000     
   5.5142243045353818E-002   6.1040105413953744E-002   0.0000000000000000     
   3.9568069366854315E-002   4.0330674700484223E-002   0.0000000000000000     
   4.2391568669425811E-002   4.5020004840501462E-002   0.0000000000000000     
   4.5131243905141040E-002   4.9903041078914460E-002   0.0000000000000000     
   4.7787095074000030E-002   5.4979783415723231E-002   0.0000000000000000     
   5.0359122176002753E-002   6.0250231850927781E-002   0.0000000000000000     
   3.5798866456911500E-002   3.9517825293463822E-002   0.0000000000000000     
   3.8405251586350109E-002   4.4221876420265843E-002   0.0000000000000000     
   4.0936709090784971E-002   4.9122638879925407E-002   0.0000000000000000     
   4.3393238970216068E-002   5.4220112672442540E-002   0.0000000000000000     
   4.5774841224643426E-002   5.9514297797817223E-002   0.0000000000000000     
   6.5305004538031133E-002   6.2781671069751993E-002   0.0000000000000000     
   6.8363360007348842E-002   6.8172111811146810E-002   0.0000000000000000     
   7.1329992010918178E-002   7.3741322240640977E-002   0.0000000000000000     
   7.4204900548739128E-002   7.9489302358234495E-002   0.0000000000000000     
   7.6988085620811691E-002   8.5416052163927364E-002   0.0000000000000000     
   6.0124203832696607E-002   6.1883918486895152E-002   0.0000000000000000     
   6.2991587291942250E-002   6.7296159561382046E-002   0.0000000000000000     
   6.5773428772263540E-002   7.2889764710496144E-002   0.0000000000000000     
   6.8469728273660477E-002   7.8664733934237507E-002   0.0000000000000000     
   7.1080485796133047E-002   8.4621067232606081E-002   0.0000000000000000     
   5.5142243045353818E-002   6.1040105413953744E-002   0.0000000000000000     
   5.7820980797880540E-002   6.6475239213379486E-002   0.0000000000000000     
   6.0419619913789913E-002   7.2093358812605327E-002   0.0000000000000000     
   6.2938160393081977E-002   7.7894464211631292E-002   0.0000000000000000     
   6.5376602235756684E-002   8.3878555410457328E-002   0.0000000000000000     
   5.0359122176002753E-002   6.0250231850927781E-002   0.0000000000000000     
   5.2851540525163700E-002   6.5709350767139171E-002   0.0000000000000000     
   5.5268565435497317E-002   7.1352104546968526E-002   0.0000000000000000     
   5.7610196907003607E-002   7.7178493190415823E-002   0.0000000000000000     
   5.9876434939682581E-002   8.3188516697481091E-002   0.0000000000000000     
   4.5774841224643426E-002   5.9514297797817223E-002   0.0000000000000000     
   4.8083266473791735E-002   6.4998494222661074E-002   0.0000000000000000     
   5.0320265337385719E-002   7.0666001913585727E-002   0.0000000000000000     
   5.2485837815425380E-002   7.6516820870591154E-002   0.0000000000000000     
   5.4579983907910710E-002   8.2550951093677383E-002   0.0000000000000000     
   7.6988085620811691E-002   8.5416052163927364E-002   0.0000000000000000     
   7.9670020094352645E-002   9.1508155613442319E-002   0.0000000000000000     
   8.2241176836578805E-002   9.7752196662502039E-002   0.0000000000000000     
   8.4701555847490159E-002  0.10414817531110659        0.0000000000000000     
   8.7051157127086706E-002  0.11069609155925589        0.0000000000000000     
   7.1080485796133047E-002   8.4621067232606081E-002   0.0000000000000000     
   7.3595956395081374E-002   9.0743783064073380E-002   0.0000000000000000     
   7.6006395125905568E-002   9.7017899887110848E-002   0.0000000000000000     
   7.8311801988605600E-002  0.10344341770171851        0.0000000000000000     
   8.0512176983181499E-002  0.11002033650789635        0.0000000000000000     
   6.5376602235756684E-002   8.3878555410457328E-002   0.0000000000000000     
   6.7725643182687506E-002   9.0029408890484094E-002   0.0000000000000000     
   6.9975980974747873E-002   9.6330801133112196E-002   0.0000000000000000     
   7.2127615611937812E-002  0.10278273213834165        0.0000000000000000     
   7.4180547094257296E-002  0.10938520190617243        0.0000000000000000     
   5.9876434939682581E-002   8.3188516697481091E-002   0.0000000000000000     
   6.2059080457171012E-002   8.9365033092674462E-002   0.0000000000000000     
   6.4149934383105733E-002   9.5690900400506082E-002   0.0000000000000000     
   6.6148996717486780E-002  0.10216611862097597        0.0000000000000000     
   6.8056267460314096E-002  0.10879068775408414        0.0000000000000000     
   5.4579983907910710E-002   8.2550951093677383E-002   0.0000000000000000     
   5.6596268218531913E-002   8.8750655670644468E-002   0.0000000000000000     
   5.8528255350979178E-002   9.5098197689292521E-002   0.0000000000000000     
   6.0375945305252504E-002  0.10159357714962151        0.0000000000000000     
   6.2139338081351900E-002  0.10823679405163152        0.0000000000000000     
   8.7051157127086706E-002  0.11069609155925589        0.0000000000000000     
   8.9314296640554819E-002  0.11739479157132422        0.0000000000000000     
   9.1515290353080855E-002  0.12424312151168575        0.0000000000000000     
   9.3654138264664830E-002  0.13124108138034049        0.0000000000000000     
   9.5730840375306742E-002  0.13838867117728845        0.0000000000000000     
   8.0512176983181499E-002  0.11002033650789635        0.0000000000000000     
   8.2629283408580584E-002  0.11674732234479930        0.0000000000000000     
   8.4684884563750229E-002  0.12362304125158230        0.0000000000000000     
   8.6678980448690421E-002  0.13064749322824534        0.0000000000000000     
   8.8611571063401173E-002  0.13782067827478842        0.0000000000000000     
   7.4180547094257296E-002  0.10938520190617243        0.0000000000000000     
   7.6154549737202509E-002  0.11613753997319434        0.0000000000000000     
   7.8069397856269637E-002  0.12303907587599709        0.0000000000000000     
   7.9925091451458680E-002  0.13008980961458075        0.0000000000000000     
   8.1721630522769664E-002  0.13728974118894524        0.0000000000000000     
   6.8056267460314096E-002  0.10879068775408414        0.0000000000000000     
   6.9890095626420567E-002  0.11556544445650929        0.0000000000000000     
   7.1668830230639080E-002  0.12249122538493014        0.0000000000000000     
   7.3392471272969634E-002  0.12956803053934671        0.0000000000000000     
   7.5061018753412229E-002  0.13679585991975893        0.0000000000000000     
   6.2139338081351900E-002  0.10823679405163152        0.0000000000000000     
   6.3835921076234786E-002  0.11503103579474422        0.0000000000000000     
   6.5483181686858585E-002  0.12197948977838145        0.0000000000000000     
   6.7081119913223269E-002  0.12908215600254322        0.0000000000000000     
   6.8629735755328866E-002  0.13633903446722948        0.0000000000000000     
   9.5730840375306742E-002  0.13838867117728845        0.0000000000000000     
   9.7713264660489407E-002  0.14565781941802558        0.0000000000000000     
   9.9569279095695684E-002  0.15302045461804786        0.0000000000000000     
  0.10129888368092552       0.16047657677735525        0.0000000000000000     
  0.10290207841617897       0.16802618589594778        0.0000000000000000     
   8.8611571063401173E-002  0.13782067827478842        0.0000000000000000     
   9.0453555780009645E-002  0.14511498697753772        0.0000000000000000     
   9.2175833970643023E-002  0.15250280992281942        0.0000000000000000     
   9.3778405635301348E-002  0.15998414711063355        0.0000000000000000     
   9.5261270773984566E-002  0.16755899854098005        0.0000000000000000     
   8.1721630522769664E-002  0.13728974118894524        0.0000000000000000     
   8.3432229394814067E-002  0.14461059679459548        0.0000000000000000     
   8.5030102392203433E-002  0.15202410262703631        0.0000000000000000     
   8.6515249514937761E-002  0.15953025868626777        0.0000000000000000     
   8.7887670763017026E-002  0.16712906497228983        0.0000000000000000     
   7.5061018753412229E-002  0.13679585991975893        0.0000000000000000     
   7.6649285504902687E-002  0.14414464886919887        0.0000000000000000     
   7.8132084360376858E-002  0.15158433273069857        0.0000000000000000     
   7.9509415319834742E-002  0.15911491150425794        0.0000000000000000     
   8.0781278383276339E-002  0.16673638518987710        0.0000000000000000     
   6.8629735755328866E-002  0.13633903446722948        0.0000000000000000     
   7.0104724110275504E-002  0.14371714320134790        0.0000000000000000     
   7.1481779875163326E-002  0.15118350023380611        0.0000000000000000     
   7.2760903049992345E-002  0.15873810556460408        0.0000000000000000     
   7.3942093634762535E-002  0.16638095919374185        0.0000000000000000     
   0.0000000000000000        0.0000000000000000        0.0000000000000000     
   2.8800508337347226E-003   1.7450137851173272E-003   0.0000000000000000     
   5.8726002615437489E-003   3.8649799588254966E-003   0.0000000000000000     
   8.9776482834270799E-003   6.3598985211245074E-003   0.0000000000000000     
   1.2195194899384715E-002   9.2297694720143621E-003   0.0000000000000000     
   0.0000000000000000        0.0000000000000000        0.0000000000000000     
   2.6103492966760814E-003   1.5890794677963080E-003   0.0000000000000000     
   5.2897654126627513E-003   3.5570009641505435E-003   0.0000000000000000     
   8.0382483479600111E-003   5.9037644890627058E-003   0.0000000000000000     
   1.0855798102567860E-002   8.6293700425327958E-003   0.0000000000000000     
   0.0000000000000000        0.0000000000000000        0.0000000000000000     
   2.3401747160038113E-003   1.4590801194488451E-003   0.0000000000000000     
   4.7203090676457941E-003   3.3000522870917214E-003   0.0000000000000000     
   7.1404030549259484E-003   5.5229165029286285E-003   0.0000000000000000     
   9.6004566778442723E-003   8.1276727669595660E-003   0.0000000000000000     
   0.0000000000000000        0.0000000000000000        0.0000000000000000     
   2.0695270917179130E-003   1.3550157400749386E-003   0.0000000000000000     
   4.1642312264928748E-003   3.0941339276490299E-003   0.0000000000000000     
   6.2841124043248875E-003   5.2173545627222746E-003   0.0000000000000000     
   8.4291706252139515E-003   7.7246776452946720E-003   0.0000000000000000     
   0.0000000000000000        0.0000000000000000        0.0000000000000000     
   1.7984064238183851E-003   1.2768863296745881E-003   0.0000000000000000     
   3.6215318892039968E-003   2.9392458858224701E-003   0.0000000000000000     
   5.4693763961568363E-003   4.9870786684436457E-003   0.0000000000000000     
   7.3419399446769014E-003   7.4203846775381154E-003   0.0000000000000000     
   1.2195194899384715E-002   9.2297694720143621E-003   0.0000000000000000     
   1.5427528255994411E-002   1.2372509805624368E-002   0.0000000000000000     
   1.8576936499833926E-002   1.5686036516083829E-002   0.0000000000000000     
   2.1643419630903257E-002   1.9170349603392752E-002   0.0000000000000000     
   2.4626977649202408E-002   2.2825449067551129E-002   0.0000000000000000     
   1.0855798102567860E-002   8.6293700425327958E-003   0.0000000000000000     
   1.3689137901112629E-002   1.1651524621498549E-002   0.0000000000000000     
   1.6484990968220651E-002   1.4887935222897707E-002   0.0000000000000000     
   1.9243357303891928E-002   1.8338601846730269E-002   0.0000000000000000     
   2.1964236908126461E-002   2.2003524492996231E-002   0.0000000000000000     
   9.6004566778442723E-003   8.1276727669595660E-003   0.0000000000000000     
   1.2077015808738326E-002   1.1046899291183916E-002   0.0000000000000000     
   1.4546626319945674E-002   1.4213174287601056E-002   0.0000000000000000     
   1.7009288211466314E-002   1.7626497756210988E-002   0.0000000000000000     
   1.9465001483300246E-002   2.1286869697013711E-002   0.0000000000000000     
   8.4291706252139515E-003   7.7246776452946720E-003   0.0000000000000000     
   1.0591161978871510E-002   1.0558633814680460E-002   0.0000000000000000     
   1.2761842555008994E-002   1.3661753710193871E-002   0.0000000000000000     
   1.4941212353626419E-002   1.7034037331834902E-002   0.0000000000000000     
   1.7129271374723771E-002   2.0675484679603562E-002   0.0000000000000000     
   7.3419399446769014E-003   7.4203846775381154E-003   0.0000000000000000     
   9.2315764115121698E-003   1.0186728191988181E-002   0.0000000000000000     
   1.1130639673410615E-002   1.3233673490676154E-002   0.0000000000000000     
   1.3039129730372238E-002   1.6561220573602022E-002   0.0000000000000000     
   1.4957046582397042E-002   2.0169369440765791E-002   0.0000000000000000     
   2.4626977649202408E-002   2.2825449067551129E-002   0.0000000000000000     
   2.7531792296119774E-002   2.6674092071108005E-002   0.0000000000000000     
   3.0362045313043741E-002   3.0739035776612411E-002   0.0000000000000000     
   3.3117736699974323E-002   3.5020280184064355E-002   0.0000000000000000     
   3.5798866456911500E-002   3.9517825293463822E-002   0.0000000000000000     
   2.1964236908126461E-002   2.2003524492996231E-002   0.0000000000000000     
   2.4631045113502066E-002   2.5880788918593856E-002   0.0000000000000000     
   2.7227197252596581E-002   2.9968480880421398E-002   0.0000000000000000     
   2.9752693325409991E-002   3.4266600378478854E-002   0.0000000000000000     
   3.2207533331942304E-002   3.8775147412766227E-002   0.0000000000000000     
   1.9465001483300246E-002   2.1286869697013711E-002   0.0000000000000000     
   2.1885343791123200E-002   2.5175604122044164E-002   0.0000000000000000     
   2.4241892790610897E-002   2.9274015043337289E-002   0.0000000000000000     
   2.6534648481763345E-002   3.3582102460893083E-002   0.0000000000000000     
   2.8763610864580538E-002   3.8099866374711543E-002   0.0000000000000000     
   1.7129271374723771E-002   2.0675484679603562E-002   0.0000000000000000     
   1.9294688328983168E-002   2.4558537681458929E-002   0.0000000000000000     
   2.1406131927086704E-002   2.8655638265360089E-002   0.0000000000000000     
   2.3463602169034377E-002   3.2966786431307037E-002   0.0000000000000000     
   2.5467099054826192E-002   3.7491982179299770E-002   0.0000000000000000     
   1.4957046582397042E-002   2.0169369440765791E-002   0.0000000000000000     
   1.6859078727081974E-002   2.4029589596838156E-002   0.0000000000000000     
   1.8719914662023992E-002   2.8113350546489797E-002   0.0000000000000000     
   2.0539554387223095E-002   3.2420652289720700E-002   0.0000000000000000     
   2.2317997902679285E-002   3.6951494826530894E-002   0.0000000000000000     
   3.5798866456911500E-002   3.9517825293463822E-002   0.0000000000000000     
   3.8405251586350109E-002   4.4221876420265843E-002   0.0000000000000000     
   4.0936709090784971E-002   4.9122638879925407E-002   0.0000000000000000     
   4.3393238970216068E-002   5.4220112672442540E-002   0.0000000000000000     
   4.5774841224643426E-002   5.9514297797817223E-002   0.0000000000000000     
   3.2207533331942304E-002   3.8775147412766227E-002   0.0000000000000000     
   3.4594277058779363E-002   4.3489262723271055E-002   0.0000000000000000     
   3.6915484292506996E-002   4.8404087049980844E-002   0.0000000000000000     
   3.9171155033125203E-002   5.3519620392895616E-002   0.0000000000000000     
   4.1361289280633998E-002   5.8835862752015348E-002   0.0000000000000000     
   2.8763610864580538E-002   3.8099866374711543E-002   0.0000000000000000     
   3.0931831696614721E-002   4.2824231735936635E-002   0.0000000000000000     
   3.3042362735418135E-002   4.7752123495712312E-002   0.0000000000000000     
   3.5095203980990787E-002   5.2883541654038572E-002   0.0000000000000000     
   3.7090355433332653E-002   5.8218486210915403E-002   0.0000000000000000     
   2.5467099054826192E-002   3.7491982179299770E-002   0.0000000000000000     
   2.7417915499856189E-002   4.2226783458262591E-002   0.0000000000000000     
   2.9317344419518391E-002   4.7166748217119803E-002   0.0000000000000000     
   3.1165385813812788E-002   5.2311876455871396E-002   0.0000000000000000     
   3.2962039682739398E-002   5.7662168174517379E-002   0.0000000000000000     
   2.2317997902679285E-002   3.6951494826530894E-002   0.0000000000000000     
   2.4052528468503764E-002   4.1696917890248909E-002   0.0000000000000000     
   2.5740429344807747E-002   4.6647961214203310E-002   0.0000000000000000     
   2.7381700531591231E-002   5.1804624798394101E-002   0.0000000000000000     
   2.8976342028854216E-002   5.7166908642821271E-002   0.0000000000000000     
   4.5774841224643426E-002   5.9514297797817223E-002   0.0000000000000000     
   4.8083266473791735E-002   6.4998494222661074E-002   0.0000000000000000     
   5.0320265337385719E-002   7.0666001913585727E-002   0.0000000000000000     
   5.2485837815425380E-002   7.6516820870591154E-002   0.0000000000000000     
   5.4579983907910710E-002   8.2550951093677383E-002   0.0000000000000000     
   4.1361289280633998E-002   5.8835862752015348E-002   0.0000000000000000     
   4.3485022899819703E-002   6.4343838185339841E-002   0.0000000000000000     
   4.5541491755468635E-002   7.0034570750868871E-002   0.0000000000000000     
   4.7530695847580809E-002   7.5908060448602432E-002   0.0000000000000000     
   4.9452635176156216E-002   8.1964307278540538E-002   0.0000000000000000     
   3.7090355433332653E-002   5.8218486210915403E-002   0.0000000000000000     
   3.9025674059302622E-002   6.3746551260570092E-002   0.0000000000000000     
   4.0899016825759534E-002   6.9457330897229927E-002   0.0000000000000000     
   4.2710383732703389E-002   7.5350825120894846E-002   0.0000000000000000     
   4.4459774780134187E-002   8.1427033931564960E-002   0.0000000000000000     
   3.2962039682739398E-002   5.7662168174517379E-002   0.0000000000000000     
   3.4705219952240504E-002   6.3206633448351826E-002   0.0000000000000000     
   3.6392840548258421E-002   6.8934282352668852E-002   0.0000000000000000     
   3.8024901470793120E-002   7.4845114887468436E-002   0.0000000000000000     
   3.9601402719844629E-002   8.0939131052750593E-002   0.0000000000000000     
   2.8976342028854216E-002   5.7166908642821271E-002   0.0000000000000000     
   3.0523660578633351E-002   6.2724084748685058E-002   0.0000000000000000     
   3.2022962922965276E-002   6.8465425117185702E-002   0.0000000000000000     
   3.3474249061850009E-002   7.4390929748323162E-002   0.0000000000000000     
   3.4877518995287543E-002   8.0500598642097479E-002   0.0000000000000000     
   5.4579983907910710E-002   8.2550951093677383E-002   0.0000000000000000     
   5.6596268218531913E-002   8.8750655670644468E-002   0.0000000000000000     
   5.8528255350979178E-002   9.5098197689292521E-002   0.0000000000000000     
   6.0375945305252504E-002  0.10159357714962151        0.0000000000000000     
   6.2139338081351900E-002  0.10823679405163152        0.0000000000000000     
   4.9452635176156216E-002   8.1964307278540538E-002   0.0000000000000000     
   5.1302571999225617E-002   8.8185165356769873E-002   0.0000000000000000     
   5.3075768574819805E-002   9.4552488799377110E-002   0.0000000000000000     
   5.4772224902938767E-002  0.10106627760636225        0.0000000000000000     
   5.6391940983582481E-002  0.10772653177772532        0.0000000000000000     
   4.4459774780134187E-002   8.1427033931564960E-002   0.0000000000000000     
   4.6143357331707602E-002   8.7667450883426395E-002   0.0000000000000000     
   4.7757298751079306E-002   9.4053569530665446E-002   0.0000000000000000     
   4.9301599038249294E-002  0.10058538987328210        0.0000000000000000     
   5.0776258193217585E-002  0.10726291191127635        0.0000000000000000     
   3.9601402719844629E-002   8.0939131052750593E-002   0.0000000000000000     
   4.1118624215977853E-002   8.7197512250614048E-002   0.0000000000000000     
   4.2572845879757681E-002   9.3601439883157528E-002   0.0000000000000000     
   4.3964067711184142E-002  0.10015091395038107        0.0000000000000000     
   4.5292289710257200E-002  0.10684593445228466        0.0000000000000000     
   3.4877518995287543E-002   8.0500598642097479E-002   0.0000000000000000     
   3.6228372652036350E-002   8.6775349458332846E-002   0.0000000000000000     
   3.7522409960854923E-002   9.3196099856853412E-002   0.0000000000000000     
   3.8759630921743261E-002   9.9762849837659179E-002   0.0000000000000000     
   3.9940035534701351E-002  0.10647559940075019        0.0000000000000000     
   6.2139338081351900E-002  0.10823679405163152        0.0000000000000000     
   6.3835921076234786E-002  0.11503103579474422        0.0000000000000000     
   6.5483181686858585E-002  0.12197948977838145        0.0000000000000000     
   6.7081119913223269E-002  0.12908215600254322        0.0000000000000000     
   6.8629735755328866E-002  0.13633903446722948        0.0000000000000000     
   5.6391940983582481E-002  0.10772653177772532        0.0000000000000000     
   5.7951543992906987E-002  0.11453875551107134        0.0000000000000000     
   5.9467661107068262E-002  0.12150845300400545        0.0000000000000000     
   6.0940292326066327E-002  0.12863562425652766        0.0000000000000000     
   6.2369437649901160E-002  0.13592026926863793        0.0000000000000000     
   5.0776258193217585E-002  0.10726291191127635        0.0000000000000000     
   5.2196482282698971E-002  0.11409304512866293        0.0000000000000000     
   5.3577477373408275E-002  0.12108269900945662        0.0000000000000000     
   5.4919243465345519E-002  0.12823187355365739        0.0000000000000000     
   5.6221780558510695E-002  0.13554056876126525        0.0000000000000000     
   4.5292289710257200E-002  0.10684593445228466        0.0000000000000000     
   4.6570735945610758E-002  0.11369390464751901        0.0000000000000000     
   4.7812630485878645E-002  0.12070222779473491        0.0000000000000000     
   4.9017973331060886E-002  0.12787090389393241        0.0000000000000000     
   5.0186764481157456E-002  0.13519993294511151        0.0000000000000000     
   3.9940035534701351E-002  0.10647559940075019        0.0000000000000000     
   4.1074304981642329E-002  0.11334133406763955        0.0000000000000000     
   4.2173120444479351E-002  0.12036703935984039        0.0000000000000000     
   4.3236481923212382E-002  0.12755271527735274        0.0000000000000000     
   4.4264389417841443E-002  0.13489836182017659        0.0000000000000000     
   6.8629735755328866E-002  0.13633903446722948        0.0000000000000000     
   7.0104724110275504E-002  0.14371714320134790        0.0000000000000000     
   7.1481779875163326E-002  0.15118350023380611        0.0000000000000000     
   7.2760903049992345E-002  0.15873810556460408        0.0000000000000000     
   7.3942093634762535E-002  0.16638095919374185        0.0000000000000000     
   6.2369437649901160E-002  0.13592026926863793        0.0000000000000000     
   6.3731769073438027E-002  0.14332653880053764        0.0000000000000000     
   6.5003958591542177E-002  0.15081858361242825        0.0000000000000000     
   6.6186006204213624E-002  0.15839640370430969        0.0000000000000000     
   6.7277911911452326E-002  0.16605999907618202        0.0000000000000000     
   5.6221780558510695E-002  0.13554056876126525        0.0000000000000000     
   5.7463644256895784E-002  0.14297129467626318        0.0000000000000000     
   5.8623390164492778E-002  0.15048656134263419        0.0000000000000000     
   5.9701018281301699E-002  0.15808636876037829        0.0000000000000000     
   6.0696528607322539E-002  0.16577071692949547        0.0000000000000000     
   5.0186764481157456E-002  0.13519993294511151        0.0000000000000000     
   5.1300349660648739E-002  0.14265141082852453        0.0000000000000000     
   5.2340074594015108E-002  0.15018743342442398        0.0000000000000000     
   5.3305939281256570E-002  0.15780800073280987        0.0000000000000000     
   5.4197943722373111E-002  0.16551311275368219        0.0000000000000000     
   4.4264389417841443E-002  0.13489836182017659        0.0000000000000000     
   4.5241885284696914E-002  0.14236688725732166        0.0000000000000000     
   4.6154011880109189E-002  0.14992119985779762        0.0000000000000000     
   4.7000769204078245E-002  0.15756129962160448        0.0000000000000000     
   4.7782157256604091E-002  0.16528718654874219        0.0000000000000000     
   0.0000000000000000        0.0000000000000000        0.0000000000000000     
   1.7984064238183851E-003   1.2768863296745881E-003   0.0000000000000000     
   3.6215318892039968E-003   2.9392458858224701E-003   0.0000000000000000     
   5.4693763961568363E-003   4.9870786684436457E-003   0.0000000000000000     
   7.3419399446769014E-003   7.4203846775381154E-003   0.0000000000000000     
   0.0000000000000000        0.0000000000000000        0.0000000000000000     
   1.5350983317836471E-003   1.2175742282175047E-003   0.0000000000000000     
   3.0995744021143209E-003   2.8208778582232258E-003   0.0000000000000000     
   4.6934282109920202E-003   4.8099108900171638E-003   0.0000000000000000     
   6.3166597584167483E-003   7.1846733235993191E-003   0.0000000000000000     
   0.0000000000000000        0.0000000000000000        0.0000000000000000     
   1.2878884350921171E-003   1.1699617756733985E-003   0.0000000000000000     
   2.6057221115590094E-003   2.7245195414624833E-003   0.0000000000000000     
   3.9535010294006762E-003   4.6636732973672542E-003   0.0000000000000000     
   5.3312251886171178E-003   6.9874230433877105E-003   0.0000000000000000     
   0.0000000000000000        0.0000000000000000        0.0000000000000000     
   1.0567767337437957E-003   1.1340489720422697E-003   0.0000000000000000     
   2.1399750175380627E-003   2.6501709355402411E-003   0.0000000000000000     
   3.2495948513828017E-003   4.5483658904939142E-003   0.0000000000000000     
   4.3856362352780115E-003   6.8286338369032903E-003   0.0000000000000000     
   0.0000000000000000        0.0000000000000000        0.0000000000000000     
   8.4176322773868223E-004   1.1098358173241181E-003   0.0000000000000000     
   1.7023331200514812E-003   2.5978320404565006E-003   0.0000000000000000     
   2.5817096769383970E-003   4.4639886693971466E-003   0.0000000000000000     
   3.4798928983994300E-003   6.7083057041460560E-003   0.0000000000000000     
   7.3419399446769014E-003   7.4203846775381154E-003   0.0000000000000000     
   9.2315764115121698E-003   1.0186728191988181E-002   0.0000000000000000     
   1.1130639673410615E-002   1.3233673490676154E-002   0.0000000000000000     
   1.3039129730372238E-002   1.6561220573602022E-002   0.0000000000000000     
   1.4957046582397042E-002   2.0169369440765791E-002   0.0000000000000000     
   6.3166597584167483E-003   7.1846733235993191E-003   0.0000000000000000     
   7.9565540100961750E-003   9.8956018697611888E-003   0.0000000000000000     
   9.6003959317379744E-003   1.2893133239294264E-002   0.0000000000000000     
   1.1248185523342150E-002   1.6177267432198553E-002   0.0000000000000000     
   1.2899922784908696E-002   1.9748004448474053E-002   0.0000000000000000     
   5.3312251886171178E-003   6.9874230433877105E-003   0.0000000000000000     
   6.7243896780593820E-003   9.6496742946535763E-003   0.0000000000000000     
   8.1184895865785162E-003   1.2604332566294578E-002   0.0000000000000000     
   9.5135249141745180E-003   1.5851397858310710E-002   0.0000000000000000     
   1.0909495660847391E-002   1.9390870170701985E-002   0.0000000000000000     
   4.3856362352780115E-003   6.8286338369032903E-003   0.0000000000000000     
   5.5350834154017916E-003   9.4489454666653525E-003   0.0000000000000000     
   6.6849206379322361E-003   1.2367271471677087E-002   0.0000000000000000     
   7.8351479028693459E-003   1.5583611851938500E-002   0.0000000000000000     
   8.9857652102131227E-003   1.9097966607449578E-002   0.0000000000000000     
   3.4798928983994300E-003   6.7083057041460560E-003   0.0000000000000000     
   4.3886352221234022E-003   9.2934153857965138E-003   0.0000000000000000     
   5.2996890857991367E-003   1.2181949955441798E-002   0.0000000000000000     
   6.2130544894266337E-003   1.5373909413081912E-002   0.0000000000000000     
   7.1287314330058926E-003   1.8869293758716855E-002   0.0000000000000000     
   1.4957046582397042E-002   2.0169369440765791E-002   0.0000000000000000     
   1.6859078727081974E-002   2.4029589596838156E-002   0.0000000000000000     
   1.8719914662023992E-002   2.8113350546489797E-002   0.0000000000000000     
   2.0539554387223095E-002   3.2420652289720700E-002   0.0000000000000000     
   2.2317997902679285E-002   3.6951494826530894E-002   0.0000000000000000     
   1.2899922784908696E-002   1.9748004448474053E-002   0.0000000000000000     
   1.4539332568925556E-002   2.3579217727312692E-002   0.0000000000000000     
   1.6150139727880666E-002   2.7644780707906415E-002   0.0000000000000000     
   1.7732344261774030E-002   3.1944693390255213E-002   0.0000000000000000     
   1.9285946170605639E-002   3.6478955774359091E-002   0.0000000000000000     
   1.0909495660847391E-002   1.9390870170701985E-002   0.0000000000000000     
   1.2296267438019853E-002   2.3197879932013388E-002   0.0000000000000000     
   1.3663705857114626E-002   2.7247557570789945E-002   0.0000000000000000     
   1.5011810918131712E-002   3.1539903087031661E-002   0.0000000000000000     
   1.6340582621071107E-002   3.6074916480738517E-002   0.0000000000000000     
   8.9857652102131227E-003   1.9097966607449578E-002   0.0000000000000000     
   1.0129883334364865E-002   2.2885576210940249E-002   0.0000000000000000     
   1.1260613049725872E-002   2.6921681135140405E-002   0.0000000000000000     
   1.2377954356296142E-002   3.1206281380050049E-002   0.0000000000000000     
   1.3481907254075677E-002   3.5739376945669185E-002   0.0000000000000000     
   7.1287314330058926E-003   1.8869293758716855E-002   0.0000000000000000     
   8.0401802579605879E-003   2.2642306564093263E-002   0.0000000000000000     
   8.9408613057143996E-003   2.6667151400957771E-002   0.0000000000000000     
   9.8307745762673225E-003   3.0943828269310376E-002   0.0000000000000000     
   1.0709920069619360E-002   3.5472337169151082E-002   0.0000000000000000     
   2.2317997902679285E-002   3.6951494826530894E-002   0.0000000000000000     
   2.4052528468503764E-002   4.1696917890248909E-002   0.0000000000000000     
   2.5740429344807747E-002   4.6647961214203310E-002   0.0000000000000000     
   2.7381700531591231E-002   5.1804624798394101E-002   0.0000000000000000     
   2.8976342028854216E-002   5.7166908642821271E-002   0.0000000000000000     
   1.9285946170605639E-002   3.6478955774359091E-002   0.0000000000000000     
   2.0804174813029288E-002   4.1233313097843921E-002   0.0000000000000000     
   2.2280259547698751E-002   4.6193510598335596E-002   0.0000000000000000     
   2.3714200374614035E-002   5.1359548275834103E-002   0.0000000000000000     
   2.5105997293775131E-002   5.6731426130339449E-002   0.0000000000000000     
   1.6340582621071107E-002   3.6074916480738517E-002   0.0000000000000000     
   1.7641358743904583E-002   4.0834647146995959E-002   0.0000000000000000     
   1.8905477064603920E-002   4.5801144480889393E-002   0.0000000000000000     
   2.0132937583169107E-002   5.0974408482418833E-002   0.0000000000000000     
   2.1323740299600158E-002   5.6354439151584272E-002   0.0000000000000000     
   1.3481907254075677E-002   3.5739376945669185E-002   0.0000000000000000     
   1.4564080261129658E-002   4.0500920037704995E-002   0.0000000000000000     
   1.5616081895523253E-002   4.5470862861864698E-002   0.0000000000000000     
   1.6637912157256466E-002   5.0649205418148283E-002   0.0000000000000000     
   1.7629571046329298E-002   5.6035947706555740E-002   0.0000000000000000     
   1.0709920069619360E-002   3.5472337169151082E-002   0.0000000000000000     
   1.1572339364704505E-002   4.0232131769971070E-002   0.0000000000000000     
   1.2412074040456751E-002   4.5202665741261527E-002   0.0000000000000000     
   1.3229124096876098E-002   5.0383939083022453E-002   0.0000000000000000     
   1.4023489533962541E-002   5.5775951795253853E-002   0.0000000000000000     
   2.8976342028854216E-002   5.7166908642821271E-002   0.0000000000000000     
   3.0523660578633351E-002   6.2724084748685058E-002   0.0000000000000000     
   3.2022962922965276E-002   6.8465425117185702E-002   0.0000000000000000     
   3.3474249061850009E-002   7.4390929748323162E-002   0.0000000000000000     
   3.4877518995287543E-002   8.0500598642097479E-002   0.0000000000000000     
   2.5105997293775131E-002   5.6731426130339449E-002   0.0000000000000000     
   2.6456541766206768E-002   6.2298873025722561E-002   0.0000000000000000     
   2.7766725252933649E-002   6.8051617825854394E-002   0.0000000000000000     
   2.9036547753955786E-002   7.3989660530734927E-002   0.0000000000000000     
   3.0266009269273170E-002   8.0113001140364168E-002   0.0000000000000000     
   2.1323740299600158E-002   5.6354439151584272E-002   0.0000000000000000     
   2.2479409342686364E-002   6.1930966143617157E-002   0.0000000000000000     
   2.3601468841217041E-002   6.7693719113748940E-002   0.0000000000000000     
   2.4689918795192171E-002   7.3642698061979622E-002   0.0000000000000000     
   2.5744759204611768E-002   7.9777902988309182E-002   0.0000000000000000     
   1.7629571046329298E-002   5.6035947706555740E-002   0.0000000000000000     
   1.8592263308072156E-002   6.1620364102368833E-002   0.0000000000000000     
   1.9527193687815442E-002   6.7391728980869342E-002   0.0000000000000000     
   2.0434362185559173E-002   7.3350042342057234E-002   0.0000000000000000     
   2.1313768801303340E-002   7.9495304185932536E-002   0.0000000000000000     
   1.4023489533962541E-002   5.5775951795253853E-002   0.0000000000000000     
   1.4795103662364122E-002   6.1367066901977609E-002   0.0000000000000000     
   1.5543899792728867E-002   6.7145647427215571E-002   0.0000000000000000     
   1.6269877925056783E-002   7.3111693370967776E-002   0.0000000000000000     
   1.6973038059347870E-002   7.9265204733234229E-002   0.0000000000000000     
   3.4877518995287543E-002   8.0500598642097479E-002   0.0000000000000000     
   3.6228372652036350E-002   8.6775349458332846E-002   0.0000000000000000     
   3.7522409960854923E-002   9.3196099856853412E-002   0.0000000000000000     
   3.8759630921743261E-002   9.9762849837659179E-002   0.0000000000000000     
   3.9940035534701351E-002  0.10647559940075019        0.0000000000000000     
   3.0266009269273170E-002   8.0113001140364168E-002   0.0000000000000000     
   3.1449956955877705E-002   8.6402330709733327E-002   0.0000000000000000     
   3.2583237970761306E-002   9.2838340293833602E-002   0.0000000000000000     
   3.3665852313923952E-002   9.9421029892665019E-002   0.0000000000000000     
   3.4697799985365659E-002  0.10615039950622757        0.0000000000000000     
   2.5744759204611768E-002   7.9777902988309182E-002   0.0000000000000000     
   2.6760731443496517E-002   8.6079824207966060E-002   0.0000000000000000     
   2.7732576885867097E-002   9.2528952036178738E-002   0.0000000000000000     
   2.8660295531723518E-002   9.9125286472947133E-002   0.0000000000000000     
   2.9543887381065774E-002  0.10586882751827134        0.0000000000000000     
   2.1313768801303340E-002   7.9495304185932536E-002   0.0000000000000000     
   2.2160696114892769E-002   8.5807829953031114E-002   0.0000000000000000     
   2.2970426706172310E-002   9.2267935083888794E-002   0.0000000000000000     
   2.3742960575141952E-002   9.8875619578505602E-002   0.0000000000000000     
   2.4478297721801712E-002  0.10563088343688155        0.0000000000000000     
   1.6973038059347870E-002   7.9265204733234229E-002   0.0000000000000000     
   1.7649850970066470E-002   8.5586347944928379E-002   0.0000000000000000     
   1.8296787431676932E-002   9.2055289436963755E-002   0.0000000000000000     
   1.8913847444179264E-002   9.8672029209340345E-002   0.0000000000000000     
   1.9501031007573458E-002  0.10543656726205816        0.0000000000000000     
   3.9940035534701351E-002  0.10647559940075019        0.0000000000000000     
   4.1074304981642329E-002  0.11334133406763955        0.0000000000000000     
   4.2173120444479351E-002  0.12036703935984039        0.0000000000000000     
   4.3236481923212382E-002  0.12755271527735274        0.0000000000000000     
   4.4264389417841443E-002  0.13489836182017659        0.0000000000000000     
   3.4697799985365659E-002  0.10615039950622757        0.0000000000000000     
   3.5687322044357553E-002  0.11303269541877599        0.0000000000000000     
   3.6642659550170771E-002  0.12007416391456513        0.0000000000000000     
   3.7563812502805327E-002  0.12727480499359492        0.0000000000000000     
   3.8450780902261207E-002  0.13463461865586546        0.0000000000000000     
   2.9543887381065774E-002  0.10586882751827134        0.0000000000000000     
   3.0389919787320255E-002  0.11276535073067986        0.0000000000000000     
   3.1204960103913326E-002  0.11982063166870127        0.0000000000000000     
   3.1989008330844990E-002  0.12703467033233556        0.0000000000000000     
   3.2742064468115270E-002  0.13440746672158277        0.0000000000000000     
   2.4478297721801712E-002  0.10563088343688155        0.0000000000000000     
   2.5182098210530437E-002  0.11253930000335111        0.0000000000000000     
   2.5860022105706995E-002  0.11960644262224882        0.0000000000000000     
   2.6512069407331390E-002  0.12683231129357464        0.0000000000000000     
   2.7138240115403618E-002  0.13421690601732864        0.0000000000000000     
   1.9501031007573458E-002  0.10543656726205816        0.0000000000000000     
   2.0063857313988104E-002  0.11235454323678976        0.0000000000000000     
   2.0607845555551785E-002  0.11943159677520777        0.0000000000000000     
   2.1132995732264504E-002  0.12666772787731218        0.0000000000000000     
   2.1639307844126269E-002  0.13406293654310300        0.0000000000000000     
   4.4264389417841443E-002  0.13489836182017659        0.0000000000000000     
   4.5241885284696914E-002  0.14236688725732166        0.0000000000000000     
   4.6154011880109189E-002  0.14992119985779762        0.0000000000000000     
   4.7000769204078245E-002  0.15756129962160448        0.0000000000000000     
   4.7782157256604091E-002  0.16528718654874219        0.0000000000000000     
   3.8450780902261207E-002  0.13463461865586546        0.0000000000000000     
   3.9292130837833492E-002  0.14211769734047172        0.0000000000000000     
   4.0076428398817275E-002  0.14968813348650895        0.0000000000000000     
   4.0803673585212537E-002  0.15734592709397710        0.0000000000000000     
   4.1473866397019291E-002  0.16509107816287616        0.0000000000000000     
   3.2742064468115270E-002  0.13440746672158277        0.0000000000000000     
   3.3454966028851653E-002  0.14190381445579189        0.0000000000000000     
   3.4118550526181658E-002  0.14948850715431197        0.0000000000000000     
   3.4732817960105300E-002  0.15716154481714292        0.0000000000000000     
   3.5297768330622578E-002  0.16492292744428486        0.0000000000000000     
   2.7138240115403618E-002  0.13421690601732864        0.0000000000000000     
   2.7730390857751371E-002  0.14172523860328215        0.0000000000000000     
   2.8280378262202345E-002  0.14932232086120656        0.0000000000000000     
   2.8788202328756531E-002  0.15700815279110192        0.0000000000000000     
   2.9253863057413940E-002  0.16478273439296826        0.0000000000000000     
   2.1639307844126269E-002  0.13406293654310300        0.0000000000000000     
   2.2118405324532672E-002  0.14158196978294246        0.0000000000000000     
   2.2561911606879325E-002  0.14918957460719282        0.0000000000000000     
   2.2969826691166227E-002  0.15688575101585414        0.0000000000000000     
   2.3342150577393379E-002  0.16467049900892633        0.0000000000000000     
   0.0000000000000000        0.0000000000000000        0.0000000000000000     
   8.4176322773868223E-004   1.1098358173241181E-003   0.0000000000000000     
   1.7023331200514812E-003   2.5978320404565006E-003   0.0000000000000000     
   2.5817096769383970E-003   4.4639886693971466E-003   0.0000000000000000     
   3.4798928983994300E-003   6.7083057041460560E-003   0.0000000000000000     
   0.0000000000000000        0.0000000000000000        0.0000000000000000     
   6.3392971976556213E-004   1.0937679033358803E-003   0.0000000000000000     
   1.2782453256586068E-003   2.5616647557313316E-003   0.0000000000000000     
   1.9329468176791343E-003   4.4036905571863535E-003   0.0000000000000000     
   2.5980341958271444E-003   6.6198453077009447E-003   0.0000000000000000     
   0.0000000000000000        0.0000000000000000        0.0000000000000000     
   4.2435801251322050E-004   1.0822908218944922E-003   0.0000000000000000     
   8.5316054091878182E-004   2.5358309808848050E-003   0.0000000000000000     
   1.2864075852166842E-003   4.3606204769709384E-003   0.0000000000000000     
   1.7240991454069276E-003   6.5566593101528932E-003   0.0000000000000000     
   0.0000000000000000        0.0000000000000000        0.0000000000000000     
   2.1304810598165734E-004   1.0754045729999535E-003   0.0000000000000000     
   4.2707876583200643E-004   2.5203307159169211E-003   0.0000000000000000     
   6.4209197955104706E-004   4.3347784287509038E-003   0.0000000000000000     
   8.5808774713877955E-004   6.5187477115019000E-003   0.0000000000000000     
   0.0000000000000000        0.0000000000000000        0.0000000000000000     
   1.7087270183860359E-013   1.0731091566522646E-003   0.0000000000000000     
   3.9828031280983445E-013   2.5151639608276804E-003   0.0000000000000000     
   6.8222283291369257E-013   4.3261644125262479E-003   0.0000000000000000     
   1.0227002350451236E-012   6.5061105117479659E-003   0.0000000000000000     
   3.4798928983994300E-003   6.7083057041460560E-003   0.0000000000000000     
   4.3886352221234022E-003   9.2934153857965138E-003   0.0000000000000000     
   5.2996890857991367E-003   1.2181949955441798E-002   0.0000000000000000     
   6.2130544894266337E-003   1.5373909413081912E-002   0.0000000000000000     
   7.1287314330058926E-003   1.8869293758716855E-002   0.0000000000000000     
   2.5980341958271444E-003   6.6198453077009447E-003   0.0000000000000000     
   3.2705811518871342E-003   9.1771010168551596E-003   0.0000000000000000     
   3.9476613776436003E-003   1.2042429694229044E-002   0.0000000000000000     
   4.6292748730965413E-003   1.5215831339822603E-002   0.0000000000000000     
   5.3154216382459612E-003   1.8697305953635834E-002   0.0000000000000000     
   1.7240991454069276E-003   6.5566593101528932E-003   0.0000000000000000     
   2.1664572583559045E-003   9.0940193246493942E-003   0.0000000000000000     
   2.6137039609300072E-003   1.1942772364679171E-002   0.0000000000000000     
   3.0658392531292362E-003   1.5102918430242217E-002   0.0000000000000000     
   3.5228631349535910E-003   1.8574457521338534E-002   0.0000000000000000     
   8.5808774713877955E-004   6.5187477115019000E-003   0.0000000000000000     
   1.0762635415297133E-003   9.0441703091792211E-003   0.0000000000000000     
   1.2978168356583581E-003   1.1882977966792170E-002   0.0000000000000000     
   1.5227476295247139E-003   1.5035170684340753E-002   0.0000000000000000     
   1.7510559231287807E-003   1.8500748461824972E-002   0.0000000000000000     
   1.0227002350451236E-012   6.5061105117479659E-003   0.0000000000000000     
   1.4085607951287021E-012   9.0275539704446333E-003   0.0000000000000000     
   1.8286529720481191E-012   1.1863046500568051E-002   0.0000000000000000     
   2.2829764252961298E-012   1.5012588102118215E-002   0.0000000000000000     
   2.7715312683751492E-012   1.8476178775095130E-002   0.0000000000000000     
   7.1287314330058926E-003   1.8869293758716855E-002   0.0000000000000000     
   8.0401802579605879E-003   2.2642306564093263E-002   0.0000000000000000     
   8.9408613057143996E-003   2.6667151400957771E-002   0.0000000000000000     
   9.8307745762673225E-003   3.0943828269310376E-002   0.0000000000000000     
   1.0709920069619360E-002   3.5472337169151082E-002   0.0000000000000000     
   5.3154216382459612E-003   1.8697305953635834E-002   0.0000000000000000     
   5.9991470699578995E-003   2.2459648030537939E-002   0.0000000000000000     
   6.6734965650984005E-003   2.6475652065398134E-002   0.0000000000000000     
   7.3384701236674623E-003   3.0745318058216418E-002   0.0000000000000000     
   7.9940677456650875E-003   3.5268646008992793E-002   0.0000000000000000     
   3.5228631349535910E-003   1.8574457521338534E-002   0.0000000000000000     
   3.9787726315076676E-003   2.2329177649339775E-002   0.0000000000000000     
   4.4275647678960603E-003   2.6338866825617577E-002   0.0000000000000000     
   4.8692395441187700E-003   3.0603525050171949E-002   0.0000000000000000     
   5.3037969601757969E-003   3.5123152323002886E-002   0.0000000000000000     
   1.7510559231287807E-003   1.8500748461824972E-002   0.0000000000000000     
   1.9790569426098919E-003   2.2250895420498764E-002   0.0000000000000000     
   2.2030659141073798E-003   2.6256795681616096E-002   0.0000000000000000     
   2.4230828376212458E-003   3.0518449245176965E-002   0.0000000000000000     
   2.6391077131514879E-003   3.5035856111181374E-002   0.0000000000000000     
   2.7715312683751492E-012   1.8476178775095130E-002   0.0000000000000000     
   3.2645732363049962E-012   2.2224801344014916E-002   0.0000000000000000     
   3.7323592025177710E-012   2.6229438633393696E-002   0.0000000000000000     
   4.1748876897880136E-012   3.0490090643231473E-002   0.0000000000000000     
   4.5921604192866727E-012   3.5006757373528243E-002   0.0000000000000000     
   1.0709920069619360E-002   3.5472337169151082E-002   0.0000000000000000     
   1.1572339364704505E-002   4.0232131769971070E-002   0.0000000000000000     
   1.2412074040456751E-002   4.5202665741261527E-002   0.0000000000000000     
   1.3229124096876098E-002   5.0383939083022453E-002   0.0000000000000000     
   1.4023489533962541E-002   5.5775951795253853E-002   0.0000000000000000     
   7.9940677456650875E-003   3.5268646008992793E-002   0.0000000000000000     
   8.6373390772882599E-003   4.0025352778797312E-002   0.0000000000000000     
   9.2653337647339643E-003   4.4995155228700040E-002   0.0000000000000000     
   9.8780518080021987E-003   5.0178053358700979E-002   0.0000000000000000     
   1.0475493207092963E-002   5.5574047168800142E-002   0.0000000000000000     
   5.3037969601757969E-003   3.5123152323002886E-002   0.0000000000000000     
   5.7302824215400517E-003   3.9877653499186878E-002   0.0000000000000000     
   6.1477413336844412E-003   4.4846933433800411E-002   0.0000000000000000     
   6.5561736966089695E-003   5.0030992126843504E-002   0.0000000000000000     
   6.9555795103136316E-003   5.5429829578316138E-002   0.0000000000000000     
   2.6391077131514879E-003   3.5035856111181374E-002   0.0000000000000000     
   2.8511693974598773E-003   3.9789033931139771E-002   0.0000000000000000     
   3.0592967473081832E-003   4.4758000356562654E-002   0.0000000000000000     
   3.2634897626964061E-003   4.9942755387450008E-002   0.0000000000000000     
   3.4637484436245442E-003   5.5343299023801834E-002   0.0000000000000000     
   4.5921604192866727E-012   3.5006757373528243E-002   0.0000000000000000     
   5.0477400037607367E-012   3.9759494074656010E-002   0.0000000000000000     
   5.6051894896380627E-012   4.4728355996986754E-002   0.0000000000000000     
   6.2645101779612578E-012   4.9913343140520504E-002   0.0000000000000000     
   7.0257005508472803E-012   5.5314455505257230E-002   0.0000000000000000     
   1.4023489533962541E-002   5.5775951795253853E-002   0.0000000000000000     
   1.4795103662364122E-002   6.1367066901977609E-002   0.0000000000000000     
   1.5543899792728867E-002   6.7145647427215571E-002   0.0000000000000000     
   1.6269877925056783E-002   7.3111693370967776E-002   0.0000000000000000     
   1.6973038059347870E-002   7.9265204733234229E-002   0.0000000000000000     
   1.0475493207092963E-002   5.5574047168800142E-002   0.0000000000000000     
   1.1056284845527401E-002   6.1170502719453068E-002   0.0000000000000000     
   1.1619053606826649E-002   6.6954786071115310E-002   0.0000000000000000     
   1.2163799490990706E-002   7.2926897223786896E-002   0.0000000000000000     
   1.2690522498019571E-002   7.9086836177467812E-002   0.0000000000000000     
   6.9555795103136316E-003   5.5429829578316138E-002   0.0000000000000000     
   7.3441612975271194E-003   6.1030099731804857E-002   0.0000000000000000     
   7.7201215809781180E-003   6.6818456530896228E-002   0.0000000000000000     
   8.0834603606666292E-003   7.2794899975590244E-002   0.0000000000000000     
   8.4341776365926494E-003   7.8959430065886890E-002   0.0000000000000000     
   3.4637484436245442E-003   5.5343299023801834E-002   0.0000000000000000     
   3.6587330183632766E-003   6.0945857939032975E-002   0.0000000000000000     
   3.8471037151832799E-003   6.6736658806558283E-002   0.0000000000000000     
   4.0288605340845539E-003   7.2715701626377791E-002   0.0000000000000000     
   4.2040034750670989E-003   7.8882986398491450E-002   0.0000000000000000     
   7.0257005508472803E-012   5.5314455505257230E-002   0.0000000000000000     
   8.0358711221709123E-012   6.0917777341137423E-002   0.0000000000000000     
   9.4421315384451976E-012   6.6709392898101516E-002   0.0000000000000000     
   1.1244481582829702E-011   7.2689302176149551E-002   0.0000000000000000     
   1.3442921038483990E-011   7.8857505175281464E-002   0.0000000000000000     
   1.6973038059347870E-002   7.9265204733234229E-002   0.0000000000000000     
   1.7649850970066470E-002   8.5586347944928379E-002   0.0000000000000000     
   1.8296787431676932E-002   9.2055289436963755E-002   0.0000000000000000     
   1.8913847444179264E-002   9.8672029209340345E-002   0.0000000000000000     
   1.9501031007573458E-002  0.10543656726205816        0.0000000000000000     
   1.2690522498019571E-002   7.9086836177467812E-002   0.0000000000000000     
   1.3197047745718017E-002   8.5414650295667624E-002   0.0000000000000000     
   1.3681200351890802E-002   9.1890386941895857E-002   0.0000000000000000     
   1.4142980316537926E-002   9.8514046116152512E-002   0.0000000000000000     
   1.4582387639659390E-002  0.10528562781843760        0.0000000000000000     
   8.4341776365926494E-003   7.8959430065886890E-002   0.0000000000000000     
   8.7711381785478115E-003   8.5292009117258455E-002   0.0000000000000000     
   9.0932067563237375E-003   9.1772599445177211E-002   0.0000000000000000     
   9.4003833699204328E-003   9.8401201049643172E-002   0.0000000000000000     
   9.6926680193378939E-003  0.10517781393065631        0.0000000000000000     
   4.2040034750670989E-003   7.8882986398491450E-002   0.0000000000000000     
   4.3721222685558512E-003   8.5218424409700941E-002   0.0000000000000000     
   4.5328066449757459E-003   9.1701926946807885E-002   0.0000000000000000     
   4.6860566043267823E-003   9.8333494009812353E-002   0.0000000000000000     
   4.8318721466089629E-003  0.10511312559871425        0.0000000000000000     
   1.3442921038483990E-011   7.8857505175281464E-002   0.0000000000000000     
   1.5742139796576238E-011   8.5193896172995012E-002   0.0000000000000000     
   1.7846824766718644E-011   9.1678369446787852E-002   0.0000000000000000     
   1.9756978076657973E-011   9.8310924996659999E-002   0.0000000000000000     
   2.1472599739946752E-011  0.10509156282261146        0.0000000000000000     
   1.9501031007573458E-002  0.10543656726205816        0.0000000000000000     
   2.0063857313988104E-002  0.11235454323678976        0.0000000000000000     
   2.0607845555551785E-002  0.11943159677520777        0.0000000000000000     
   2.1132995732264504E-002  0.12666772787731218        0.0000000000000000     
   2.1639307844126269E-002  0.13406293654310300        0.0000000000000000     
   1.4582387639659390E-002  0.10528562781843760        0.0000000000000000     
   1.5004778315980334E-002  0.11221094717432938        0.0000000000000000     
   1.5415508340225891E-002  0.11929581930940612        0.0000000000000000     
   1.5814577712396059E-002  0.12654024422366780        0.0000000000000000     
   1.6201986432490843E-002  0.13394422191711444        0.0000000000000000     
   9.6926680193378939E-003  0.10517781393065631        0.0000000000000000     
   9.9744424347942198E-003  0.11210837855930356        0.0000000000000000     
   1.0250088346507508E-002  0.11919883540667182        0.0000000000000000     
   1.0519605754477758E-002  0.12644918447276116        0.0000000000000000     
   1.0782994658704970E-002  0.13385942575757151        0.0000000000000000     
   4.8318721466089629E-003  0.10511312559871425        0.0000000000000000     
   4.9728496704297565E-003  0.11204683739171223        0.0000000000000000     
   5.1115855743966345E-003  0.11914064506700492        0.0000000000000000     
   5.2480798585096003E-003  0.12639454862459221        0.0000000000000000     
   5.3823325227686479E-003  0.13380854806447423        0.0000000000000000     
   2.1472599739946752E-011  0.10509156282261146        0.0000000000000000     
   2.2886945593922348E-011  0.11202632367155549        0.0000000000000000     
   2.3893274186427560E-011  0.11912124829040534        0.0000000000000000     
   2.4491584460365270E-011  0.12637633667916104        0.0000000000000000     
   2.4681878069143792E-011  0.13379158883782255        0.0000000000000000     
   2.1639307844126269E-002  0.13406293654310300        0.0000000000000000     
   2.2118405324532672E-002  0.14158196978294246        0.0000000000000000     
   2.2561911606879325E-002  0.14918957460719282        0.0000000000000000     
   2.2969826691166227E-002  0.15688575101585414        0.0000000000000000     
   2.3342150577393379E-002  0.16467049900892633        0.0000000000000000     
   1.6201986432490843E-002  0.13394422191711444        0.0000000000000000     
   1.6569236957130345E-002  0.14147205639279259        0.0000000000000000     
   1.6907831742934667E-002  0.14908805165374886        0.0000000000000000     
   1.7217770789903816E-002  0.15679220769998331        0.0000000000000000     
   1.7499054098037786E-002  0.16458452453149580        0.0000000000000000     
   1.0782994658704970E-002  0.13385942575757151        0.0000000000000000     
   1.1033113283479182E-002  0.14139354683085226        0.0000000000000000     
   1.1262819853090432E-002  0.14901553526235287        0.0000000000000000     
   1.1472114367538720E-002  0.15672539105207325        0.0000000000000000     
   1.1660996826824047E-002  0.16452311420001345        0.0000000000000000     
   5.3823325227686479E-003  0.13380854806447423        0.0000000000000000     
   5.5100343035791857E-003  0.14134644109712149        0.0000000000000000     
   5.6268759373466178E-003  0.14897202543300478        0.0000000000000000     
   5.7328574240709433E-003  0.15668530107212400        0.0000000000000000     
   5.8279787637521624E-003  0.16448626801447916        0.0000000000000000     
   2.4681878069143792E-011  0.13379158883782255        0.0000000000000000     
   1.7430357070885583E-011  0.14133073919160027        0.0000000000000000     
  -4.2967744163027732E-012  0.14895752216570460        0.0000000000000000     
  -4.0499514901643288E-011  0.15667193776013552        0.0000000000000000     
  -9.1177867339586882E-011  0.16447398597489304        0.0000000000000000     
   0.0000000000000000        0.0000000000000000        0.0000000000000000     
   1.7087270183860359E-013   1.0731091566522646E-003   0.0000000000000000     
   3.9828031280983445E-013   2.5151639608276804E-003   0.0000000000000000     
   6.8222283291369257E-013   4.3261644125262479E-003   0.0000000000000000     
   1.0227002350451236E-012   6.5061105117479659E-003   0.0000000000000000     
   0.0000000000000000        0.0000000000000000        0.0000000000000000     
  -2.1304810564437348E-004   1.0754045728515712E-003   0.0000000000000000     
  -4.2707876504617030E-004   2.5203307156189438E-003   0.0000000000000000     
  -6.4209197820539019E-004   4.3347784283021178E-003   0.0000000000000000     
  -8.5808774512203373E-004   6.5187477109010942E-003   0.0000000000000000     
   0.0000000000000000        0.0000000000000000        0.0000000000000000     
  -4.2435801218932112E-004   1.0822908215980186E-003   0.0000000000000000     
  -8.5316054016511907E-004   2.5358309802925726E-003   0.0000000000000000     
  -1.2864075839273937E-003   4.3606204760836629E-003   0.0000000000000000     
  -1.7240991434761452E-003   6.5566593089712881E-003   0.0000000000000000     
   0.0000000000000000        0.0000000000000000        0.0000000000000000     
  -6.3392971946397026E-004   1.0937679028916070E-003   0.0000000000000000     
  -1.2782453249585663E-003   2.5616647548485682E-003   0.0000000000000000     
  -1.9329468164837880E-003   4.4036905558708815E-003   0.0000000000000000     
  -2.5980341940396346E-003   6.6198453059585485E-003   0.0000000000000000     
   0.0000000000000000        0.0000000000000000        0.0000000000000000     
  -8.4176322746832080E-004   1.1098358167323367E-003   0.0000000000000000     
  -1.7023331194265115E-003   2.5978320392869283E-003   0.0000000000000000     
  -2.5817096758745722E-003   4.4639886676637753E-003   0.0000000000000000     
  -3.4798928968125028E-003   6.7083057018628781E-003   0.0000000000000000     
   1.0227002350451236E-012   6.5061105117479659E-003   0.0000000000000000     
   1.4085607951287021E-012   9.0275539704446333E-003   0.0000000000000000     
   1.8286529720481191E-012   1.1863046500568051E-002   0.0000000000000000     
   2.2829764252961298E-012   1.5012588102118215E-002   0.0000000000000000     
   2.7715312683751492E-012   1.8476178775095130E-002   0.0000000000000000     
  -8.5808774512203373E-004   6.5187477109010942E-003   0.0000000000000000     
  -1.0762635387499258E-003   9.0441703084559073E-003   0.0000000000000000     
  -1.2978168320428921E-003   1.1882977966006592E-002   0.0000000000000000     
  -1.5227476250009324E-003   1.5035170683553150E-002   0.0000000000000000     
  -1.7510559176240478E-003   1.8500748461095583E-002   0.0000000000000000     
  -1.7240991434761452E-003   6.5566593089712881E-003   0.0000000000000000     
  -2.1664572556881192E-003   9.0940193232233076E-003   0.0000000000000000     
  -2.6137039574400606E-003   1.1942772363107581E-002   0.0000000000000000     
  -3.0658392487319694E-003   1.5102918428624112E-002   0.0000000000000000     
  -3.5228631295638468E-003   1.8574457519772897E-002   0.0000000000000000     
  -2.5980341940396346E-003   6.6198453059585485E-003   0.0000000000000000     
  -3.2705811494060195E-003   9.1771010147468392E-003   0.0000000000000000     
  -3.9476613743628531E-003   1.2042429691871021E-002   0.0000000000000000     
  -4.6292748689101349E-003   1.5215831337331100E-002   0.0000000000000000     
  -5.3154216330478649E-003   1.8697305951127063E-002   0.0000000000000000     
  -3.4798928968125028E-003   6.7083057018628781E-003   0.0000000000000000     
  -4.3886352199036267E-003   9.2934153830265005E-003   0.0000000000000000     
  -5.2996890828112680E-003   1.2181949952296911E-002   0.0000000000000000     
  -6.2130544855354269E-003   1.5373909409674107E-002   0.0000000000000000     
  -7.1287314280761033E-003   1.8869293755158095E-002   0.0000000000000000     
   2.7715312683751492E-012   1.8476178775095130E-002   0.0000000000000000     
   3.2645732363049962E-012   2.2224801344014916E-002   0.0000000000000000     
   3.7323592025177710E-012   2.6229438633393696E-002   0.0000000000000000     
   4.1748876897880136E-012   3.0490090643231473E-002   0.0000000000000000     
   4.5921604192866727E-012   3.5006757373528243E-002   0.0000000000000000     
  -1.7510559176240478E-003   1.8500748461095583E-002   0.0000000000000000     
  -1.9790569361063429E-003   2.2250895419807078E-002   0.0000000000000000     
  -2.2030659066419262E-003   2.6256795680860832E-002   0.0000000000000000     
  -2.4230828292307960E-003   3.0518449244256847E-002   0.0000000000000000     
  -2.6391077038729533E-003   3.5035856109995121E-002   0.0000000000000000     
  -3.5228631295638468E-003   1.8574457519772897E-002   0.0000000000000000     
  -3.9787726250809152E-003   2.2329177647794123E-002   0.0000000000000000     
  -4.4275647604284018E-003   2.6338866823927984E-002   0.0000000000000000     
  -4.8692395356063015E-003   3.0603525048174481E-002   0.0000000000000000     
  -5.3037969506146213E-003   3.5123152320533611E-002   0.0000000000000000     
  -5.3154216330478649E-003   1.8697305951127063E-002   0.0000000000000000     
  -5.9991470636591429E-003   2.2459648027976037E-002   0.0000000000000000     
  -6.6734965576270636E-003   2.6475652062595147E-002   0.0000000000000000     
  -7.3384701149516304E-003   3.0745318054984375E-002   0.0000000000000000     
  -7.9940677356328399E-003   3.5268646005143733E-002   0.0000000000000000     
  -7.1287314280761033E-003   1.8869293755158095E-002   0.0000000000000000     
  -8.0401802518410212E-003   2.2642306560352841E-002   0.0000000000000000     
  -8.9408612982379183E-003   2.6667151396862321E-002   0.0000000000000000     
  -9.8307745672667791E-003   3.0943828264686533E-002   0.0000000000000000     
  -1.0709920058927616E-002   3.5472337163825474E-002   0.0000000000000000     
   4.5921604192866727E-012   3.5006757373528243E-002   0.0000000000000000     
   5.0477400037607367E-012   3.9759494074656010E-002   0.0000000000000000     
   5.6051894896380627E-012   4.4728355996986754E-002   0.0000000000000000     
   6.2645101779612578E-012   4.9913343140520504E-002   0.0000000000000000     
   7.0257005508472803E-012   5.5314455505257230E-002   0.0000000000000000     
  -2.6391077038729533E-003   3.5035856109995121E-002   0.0000000000000000     
  -2.8511693872015800E-003   3.9789033929702816E-002   0.0000000000000000     
  -3.0592967358498632E-003   4.4758000355007113E-002   0.0000000000000000     
  -3.2634897498178008E-003   4.9942755385908026E-002   0.0000000000000000     
  -3.4637484291053927E-003   5.5343299022405520E-002   0.0000000000000000     
  -5.3037969506146213E-003   3.5123152320533611E-002   0.0000000000000000     
  -5.7302824107933036E-003   3.9877653496247473E-002   0.0000000000000000     
  -6.1477413214822991E-003   4.4846933430558136E-002   0.0000000000000000     
  -6.5561736826816102E-003   5.0030992123465602E-002   0.0000000000000000     
  -6.9555794943912310E-003   5.5429829574969877E-002   0.0000000000000000     
  -7.9940677356328399E-003   3.5268646005143733E-002   0.0000000000000000     
  -8.6373390657274243E-003   4.0025352774289959E-002   0.0000000000000000     
  -9.2653337512921159E-003   4.4995155223639789E-002   0.0000000000000000     
  -9.8780517923269130E-003   5.0178053353193246E-002   0.0000000000000000     
  -1.0475493188831814E-002   5.5574047162950307E-002   0.0000000000000000     
  -1.0709920058927616E-002   3.5472337163825474E-002   0.0000000000000000     
  -1.1572339352003951E-002   4.0232131763830288E-002   0.0000000000000000     
  -1.2412074025279317E-002   4.5202665734252107E-002   0.0000000000000000     
  -1.3229124078753717E-002   5.0383939075090936E-002   0.0000000000000000     
  -1.4023489512427142E-002   5.5775951786346784E-002   0.0000000000000000     
   7.0257005508472803E-012   5.5314455505257230E-002   0.0000000000000000     
   8.0358711221709123E-012   6.0917777341137423E-002   0.0000000000000000     
   9.4421315384451976E-012   6.6709392898101516E-002   0.0000000000000000     
   1.1244481582829702E-011   7.2689302176149551E-002   0.0000000000000000     
   1.3442921038483990E-011   7.8857505175281464E-002   0.0000000000000000     
  -3.4637484291053927E-003   5.5343299022405520E-002   0.0000000000000000     
  -3.6587330017208309E-003   6.0945857937731412E-002   0.0000000000000000     
  -3.8471036956723068E-003   6.6736658805117449E-002   0.0000000000000000     
  -4.0288605109598200E-003   7.2715701624563658E-002   0.0000000000000000     
  -4.2040034475833710E-003   7.8882986396070040E-002   0.0000000000000000     
  -6.9555794943912310E-003   5.5429829574969877E-002   0.0000000000000000     
  -7.3441612791725671E-003   6.1030099728428162E-002   0.0000000000000000     
  -7.7201215595870199E-003   6.6818456527197631E-002   0.0000000000000000     
  -8.0834603356345815E-003   7.2794899971278290E-002   0.0000000000000000     
  -8.4341776073152616E-003   7.8959430060670188E-002   0.0000000000000000     
  -1.0475493188831814E-002   5.5574047162950307E-002   0.0000000000000000     
  -1.1056284824319340E-002   6.1170502713227666E-002   0.0000000000000000     
  -1.1619053582302002E-002   6.6954786064342062E-002   0.0000000000000000     
  -1.2163799462779807E-002   7.2926897216293474E-002   0.0000000000000000     
  -1.2690522465752753E-002   7.9086836169081937E-002   0.0000000000000000     
  -1.4023489512427142E-002   5.5775951786346784E-002   0.0000000000000000     
  -1.4795103637161140E-002   6.1367066892129944E-002   0.0000000000000000     
  -1.5543899763817258E-002   6.7145647416550741E-002   0.0000000000000000     
  -1.6269877892395489E-002   7.3111693359609181E-002   0.0000000000000000     
  -1.6973038022895844E-002   7.9265204721305271E-002   0.0000000000000000     
   1.3442921038483990E-011   7.8857505175281464E-002   0.0000000000000000     
   1.5742139796576238E-011   8.5193896172995012E-002   0.0000000000000000     
   1.7846824766718644E-011   9.1678369446787852E-002   0.0000000000000000     
   1.9756978076657973E-011   9.8310924996659999E-002   0.0000000000000000     
   2.1472599739946752E-011  0.10509156282261146        0.0000000000000000     
  -4.2040034475833710E-003   7.8882986396070040E-002   0.0000000000000000     
  -4.3721222364970702E-003   8.5218424407069962E-002   0.0000000000000000     
  -4.5328066086550304E-003   9.1701926944996862E-002   0.0000000000000000     
  -4.6860565640572489E-003   9.8333494009850697E-002   0.0000000000000000     
  -4.8318721027037284E-003  0.10511312560163154        0.0000000000000000     
  -8.4341776073152616E-003   7.8959430060670188E-002   0.0000000000000000     
  -8.7711381447655203E-003   8.5292009111855027E-002   0.0000000000000000     
  -9.0932067181218219E-003   9.1772599441314620E-002   0.0000000000000000     
  -9.4003833273841667E-003   9.8401201049048995E-002   0.0000000000000000     
  -9.6926679725525544E-003  0.10517781393505807        0.0000000000000000     
  -1.2690522465752753E-002   7.9086836169081937E-002   0.0000000000000000     
  -1.3197047709063213E-002   8.5414650287350222E-002   0.0000000000000000     
  -1.3681200310553551E-002   9.1890386935741170E-002   0.0000000000000000     
  -1.4142980270223775E-002   9.8514046114254780E-002   0.0000000000000000     
  -1.4582387588073880E-002  0.10528562782289110        0.0000000000000000     
  -1.6973038022895844E-002   7.9265204721305271E-002   0.0000000000000000     
  -1.7649850929390143E-002   8.5586347933555518E-002   0.0000000000000000     
  -1.8296787385950218E-002   9.2055289428276482E-002   0.0000000000000000     
  -1.8913847392576073E-002   9.8672029205468192E-002   0.0000000000000000     
  -1.9501030949267702E-002  0.10543656726513059        0.0000000000000000     
   2.1472599739946752E-011  0.10509156282261146        0.0000000000000000     
   2.2886945593922348E-011  0.11202632367155549        0.0000000000000000     
   2.3893274186427560E-011  0.11912124829040534        0.0000000000000000     
   2.4491584460365270E-011  0.12637633667916104        0.0000000000000000     
   2.4681878069143792E-011  0.13379158883782255        0.0000000000000000     
  -4.8318721027037284E-003  0.10511312560163154        0.0000000000000000     
  -4.9728496234076325E-003  0.11204683739784002        0.0000000000000000     
  -5.1115855249821221E-003  0.11914064507597699        0.0000000000000000     
  -5.2480798074271981E-003  0.12639454863604238        0.0000000000000000     
  -5.3823324707428632E-003  0.13380854807803616        0.0000000000000000     
  -9.6926679725525544E-003  0.10517781393505807        0.0000000000000000     
  -9.9744423840273985E-003  0.11210837856957273        0.0000000000000000     
  -1.0250088292209100E-002  0.11919883542282371        0.0000000000000000     
  -1.0519605697097667E-002  0.12644918449481105        0.0000000000000000     
  -1.0782994598693096E-002  0.13385942578553472        0.0000000000000000     
  -1.4582387588073880E-002  0.10528562782289110        0.0000000000000000     
  -1.5004778258972350E-002  0.11221094718675349        0.0000000000000000     
  -1.5415508277787661E-002  0.11929581933094550        0.0000000000000000     
  -1.5814577644519823E-002  0.12654024425546706        0.0000000000000000     
  -1.6201986359168825E-002  0.13394422196031819        0.0000000000000000     
  -1.9501030949267702E-002  0.10543656726513059        0.0000000000000000     
  -2.0063857248242487E-002  0.11235454324938243        0.0000000000000000     
  -2.0607845481717808E-002  0.11943159680034238        0.0000000000000000     
  -2.1132995649693655E-002  0.12666772791801045        0.0000000000000000     
  -2.1639307752170045E-002  0.13406293660238661        0.0000000000000000     
   2.4681878069143792E-011  0.13379158883782255        0.0000000000000000     
   1.7430357070885583E-011  0.14133073919160027        0.0000000000000000     
  -4.2967744163027732E-012  0.14895752216570460        0.0000000000000000     
  -4.0499514901643288E-011  0.15667193776013552        0.0000000000000000     
  -9.1177867339586882E-011  0.16447398597489304        0.0000000000000000     
  -5.3823324707428632E-003  0.13380854807803616        0.0000000000000000     
  -5.5100342644992251E-003  0.14134644111551176        0.0000000000000000     
  -5.6268759382663951E-003  0.14897202546202240        0.0000000000000000     
  -5.7328574920443775E-003  0.15668530111756809        0.0000000000000000     
  -5.8279789258331681E-003  0.16448626808214892        0.0000000000000000     
  -1.0782994598693096E-002  0.13385942578553472        0.0000000000000000     
  -1.1033113231741474E-002  0.14139354687007896        0.0000000000000000     
  -1.1262819830988900E-002  0.14901553532352804        0.0000000000000000     
  -1.1472114396435362E-002  0.15672539114588196        0.0000000000000000     
  -1.1660996928080869E-002  0.16452311433714070        0.0000000000000000     
  -1.6201986359168825E-002  0.13394422196031819        0.0000000000000000     
  -1.6569236884296401E-002  0.14147205645530203        0.0000000000000000     
  -1.6907831682464281E-002  0.14908805175022166        0.0000000000000000     
  -1.7217770753672468E-002  0.15679220784507708        0.0000000000000000     
  -1.7499054097920966E-002  0.16458452473986840        0.0000000000000000     
  -2.1639307752170045E-002  0.13406293660238661        0.0000000000000000     
  -2.2118405222163993E-002  0.14158196987118085        0.0000000000000000     
  -2.2561911492692550E-002  0.14918957474210318        0.0000000000000000     
  -2.2969826563755708E-002  0.15688575121515355        0.0000000000000000     
  -2.3342150435353461E-002  0.16467049929033201        0.0000000000000000     
   0.0000000000000000        0.0000000000000000        0.0000000000000000     
  -8.4176322746832080E-004   1.1098358167323367E-003   0.0000000000000000     
  -1.7023331194265115E-003   2.5978320392869283E-003   0.0000000000000000     
  -2.5817096758745722E-003   4.4639886676637753E-003   0.0000000000000000     
  -3.4798928968125028E-003   6.7083057018628781E-003   0.0000000000000000     
   0.0000000000000000        0.0000000000000000        0.0000000000000000     
  -1.0567767335179928E-003   1.1340489713095316E-003   0.0000000000000000     
  -2.1399750170160805E-003   2.6501709341005494E-003   0.0000000000000000     
  -3.2495948504942633E-003   4.5483658883730535E-003   0.0000000000000000     
  -4.3856362339525414E-003   6.8286338341270441E-003   0.0000000000000000     
   0.0000000000000000        0.0000000000000000        0.0000000000000000     
  -1.2878884349286062E-003   1.1699617748125168E-003   0.0000000000000000     
  -2.6057221111743991E-003   2.7245195397823259E-003   0.0000000000000000     
  -3.9535010287373778E-003   4.6636732949094277E-003   0.0000000000000000     
  -5.3312251876175432E-003   6.9874230401938209E-003   0.0000000000000000     
   0.0000000000000000        0.0000000000000000        0.0000000000000000     
  -1.5350983317001608E-003   1.2175742272412917E-003   0.0000000000000000     
  -3.0995744019014660E-003   2.8208778563322571E-003   0.0000000000000000     
  -4.6934282106039166E-003   4.8099108872728964E-003   0.0000000000000000     
  -6.3166597578075108E-003   7.1846733200632076E-003   0.0000000000000000     
   0.0000000000000000        0.0000000000000000        0.0000000000000000     
  -1.7984064238326567E-003   1.2768863285958568E-003   0.0000000000000000     
  -3.6215318891972825E-003   2.9392458837503429E-003   0.0000000000000000     
  -5.4693763960938779E-003   4.9870786654634602E-003   0.0000000000000000     
  -7.3419399445224416E-003   7.4203846737352069E-003   0.0000000000000000     
  -3.4798928968125028E-003   6.7083057018628781E-003   0.0000000000000000     
  -4.3886352199036267E-003   9.2934153830265005E-003   0.0000000000000000     
  -5.2996890828112680E-003   1.2181949952296911E-002   0.0000000000000000     
  -6.2130544855354269E-003   1.5373909409674107E-002   0.0000000000000000     
  -7.1287314280761033E-003   1.8869293755158095E-002   0.0000000000000000     
  -4.3856362339525414E-003   6.8286338341270441E-003   0.0000000000000000     
  -5.5350834135261106E-003   9.4489454632918548E-003   0.0000000000000000     
  -6.6849206353501662E-003   1.2367271467796825E-002   0.0000000000000000     
  -7.8351478994247124E-003   1.5583611847641947E-002   0.0000000000000000     
  -8.9857652057497416E-003   1.9097966602827234E-002   0.0000000000000000     
  -5.3312251876175432E-003   6.9874230401938209E-003   0.0000000000000000     
  -6.7243896766186412E-003   9.6496742907724708E-003   0.0000000000000000     
  -8.1184895845444090E-003   1.2604332561782337E-002   0.0000000000000000     
  -9.5135249113948543E-003   1.5851397853223419E-002   0.0000000000000000     
  -1.0909495657169973E-002   1.9390870165095719E-002   0.0000000000000000     
  -6.3166597578075108E-003   7.1846733200632076E-003   0.0000000000000000     
  -7.9565540091812159E-003   9.8956018654683415E-003   0.0000000000000000     
  -9.6003959303939956E-003   1.2893133234253448E-002   0.0000000000000000     
  -1.1248185521445851E-002   1.6177267426418514E-002   0.0000000000000000     
  -1.2899922782336783E-002   1.9748004441963563E-002   0.0000000000000000     
  -7.3419399445224416E-003   7.4203846737352069E-003   0.0000000000000000     
  -9.2315764112138373E-003   1.0186728187379476E-002   0.0000000000000000     
  -1.1130639672898925E-002   1.3233673485210158E-002   0.0000000000000000     
  -1.3039129729577709E-002   1.6561220567227253E-002   0.0000000000000000     
  -1.4957046581250183E-002   2.0169369433430760E-002   0.0000000000000000     
  -7.1287314280761033E-003   1.8869293755158095E-002   0.0000000000000000     
  -8.0401802518410212E-003   2.2642306560352841E-002   0.0000000000000000     
  -8.9408612982379183E-003   2.6667151396862321E-002   0.0000000000000000     
  -9.8307745672667791E-003   3.0943828264686533E-002   0.0000000000000000     
  -1.0709920058927616E-002   3.5472337163825474E-002   0.0000000000000000     
  -8.9857652057497416E-003   1.9097966602827234E-002   0.0000000000000000     
  -1.0129883328678091E-002   2.2885576205974298E-002   0.0000000000000000     
  -1.1260613042562585E-002   2.6921681129704774E-002   0.0000000000000000     
  -1.2377954347403219E-002   3.1206281374018655E-002   0.0000000000000000     
  -1.3481907243200003E-002   3.5739376938915948E-002   0.0000000000000000     
  -1.0909495657169973E-002   1.9390870165095719E-002   0.0000000000000000     
  -1.2296267433221880E-002   2.3197879925890189E-002   0.0000000000000000     
  -1.3663705850902697E-002   2.7247557564097767E-002   0.0000000000000000     
  -1.5011810910212427E-002   3.1539903079718462E-002   0.0000000000000000     
  -1.6340582611151060E-002   3.6074916472752259E-002   0.0000000000000000     
  -1.2899922782336783E-002   1.9748004441963563E-002   0.0000000000000000     
  -1.4539332565472384E-002   2.3579217720100513E-002   0.0000000000000000     
  -1.6150139723258253E-002   2.7644780700041307E-002   0.0000000000000000     
  -1.7732344255694393E-002   3.1944693381785946E-002   0.0000000000000000     
  -1.9285946162780794E-002   3.6478955765334435E-002   0.0000000000000000     
  -1.4957046581250183E-002   2.0169369433430760E-002   0.0000000000000000     
  -1.6859078725429608E-002   2.4029589588605276E-002   0.0000000000000000     
  -1.8719914659629258E-002   2.8113350537535397E-002   0.0000000000000000     
  -2.0539554383849121E-002   3.2420652280221118E-002   0.0000000000000000     
  -2.2317997898089199E-002   3.6951494816662447E-002   0.0000000000000000     
  -1.0709920058927616E-002   3.5472337163825474E-002   0.0000000000000000     
  -1.1572339352003951E-002   4.0232131763830288E-002   0.0000000000000000     
  -1.2412074025279317E-002   4.5202665734252107E-002   0.0000000000000000     
  -1.3229124078753717E-002   5.0383939075090936E-002   0.0000000000000000     
  -1.4023489512427142E-002   5.5775951786346784E-002   0.0000000000000000     
  -1.3481907243200003E-002   3.5739376938915948E-002   0.0000000000000000     
  -1.4564080247884779E-002   4.0500920030053053E-002   0.0000000000000000     
  -1.5616081879389405E-002   4.5470862853086380E-002   0.0000000000000000     
  -1.6637912137713873E-002   5.0649205408015936E-002   0.0000000000000000     
  -1.7629571022858191E-002   5.6035947694841694E-002   0.0000000000000000     
  -1.6340582611151060E-002   3.6074916472752259E-002   0.0000000000000000     
  -1.7641358731631814E-002   4.0834647138142860E-002   0.0000000000000000     
  -1.8905477049567871E-002   4.5801144470833915E-002   0.0000000000000000     
  -2.0132937564959250E-002   5.0974408470825447E-002   0.0000000000000000     
  -2.1323740277805942E-002   5.6354439138117426E-002   0.0000000000000000     
  -1.9285946162780794E-002   3.6478955765334435E-002   0.0000000000000000     
  -2.0804174803245042E-002   4.1233313088099716E-002   0.0000000000000000     
  -2.2280259535814733E-002   4.6193510587494727E-002   0.0000000000000000     
  -2.3714200360489848E-002   5.1359548263519489E-002   0.0000000000000000     
  -2.5105997277270389E-002   5.6731426116173995E-002   0.0000000000000000     
  -2.2317997898089199E-002   3.6951494816662447E-002   0.0000000000000000     
  -2.4052528462724487E-002   4.1696917879923599E-002   0.0000000000000000     
  -2.5740429338129974E-002   4.6647961203068807E-002   0.0000000000000000     
  -2.7381700524305660E-002   5.1804624786098055E-002   0.0000000000000000     
  -2.8976342021251544E-002   5.7166908629011345E-002   0.0000000000000000     
  -1.4023489512427142E-002   5.5775951786346784E-002   0.0000000000000000     
  -1.4795103637161140E-002   6.1367066892129944E-002   0.0000000000000000     
  -1.5543899763817258E-002   6.7145647416550741E-002   0.0000000000000000     
  -1.6269877892395489E-002   7.3111693359609181E-002   0.0000000000000000     
  -1.6973038022895844E-002   7.9265204721305271E-002   0.0000000000000000     
  -1.7629571022858191E-002   5.6035947694841694E-002   0.0000000000000000     
  -1.8592263280524799E-002   6.1620364089178113E-002   0.0000000000000000     
  -1.9527193656416132E-002   6.7391728966639544E-002   0.0000000000000000     
  -2.0434362150532206E-002   7.3350042327226000E-002   0.0000000000000000     
  -2.1313768762873005E-002   7.9495304170937517E-002   0.0000000000000000     
  -2.1323740277805942E-002   5.6354439138117426E-002   0.0000000000000000     
  -2.2479409317237124E-002   6.1930966128415268E-002   0.0000000000000000     
  -2.3601468812381978E-002   6.7693719097424304E-002   0.0000000000000000     
  -2.4689918763240507E-002   7.3642698045144575E-002   0.0000000000000000     
  -2.5744759169812712E-002   7.9777902971576040E-002   0.0000000000000000     
  -2.5105997277270389E-002   5.6731426116173995E-002   0.0000000000000000     
  -2.6456541747298123E-002   6.2298873009841445E-002   0.0000000000000000     
  -2.7766725231714792E-002   6.8051617808905049E-002   0.0000000000000000     
  -2.9036547730520407E-002   7.3989660513364836E-002   0.0000000000000000     
  -3.0266009243714954E-002   8.0113001123220812E-002   0.0000000000000000     
  -2.8976342021251544E-002   5.7166908629011345E-002   0.0000000000000000     
  -3.0523660570707795E-002   6.2724084733456614E-002   0.0000000000000000     
  -3.2022962914414581E-002   6.8465425101081764E-002   0.0000000000000000     
  -3.3474249052371896E-002   7.4390929731886851E-002   0.0000000000000000     
  -3.4877518984579747E-002   8.0500598625871819E-002   0.0000000000000000     
  -1.6973038022895844E-002   7.9265204721305271E-002   0.0000000000000000     
  -1.7649850929390143E-002   8.5586347933555518E-002   0.0000000000000000     
  -1.8296787385950218E-002   9.2055289428276482E-002   0.0000000000000000     
  -1.8913847392576073E-002   9.8672029205468192E-002   0.0000000000000000     
  -1.9501030949267702E-002  0.10543656726513059        0.0000000000000000     
  -2.1313768762873005E-002   7.9495304170937517E-002   0.0000000000000000     
  -2.2160696072564344E-002   8.5807829939105310E-002   0.0000000000000000     
  -2.2970426658732022E-002   9.2267935073060636E-002   0.0000000000000000     
  -2.3742960521376043E-002   9.8875619572803511E-002   0.0000000000000000     
  -2.4478297660496411E-002  0.10563088343833392        0.0000000000000000     
  -2.5744759169812712E-002   7.9777902971576040E-002   0.0000000000000000     
  -2.6760731405403842E-002   8.6079824192633977E-002   0.0000000000000000     
  -2.7732576843319173E-002   9.2528952024233710E-002   0.0000000000000000     
  -2.8660295483558688E-002   9.9125286466375181E-002   0.0000000000000000     
  -2.9543887326122398E-002  0.10586882751905842        0.0000000000000000     
  -3.0266009243714954E-002   8.0113001123220812E-002   0.0000000000000000     
  -3.1449956927908633E-002   8.6402330694141549E-002   0.0000000000000000     
  -3.2583237939711657E-002   9.2838340281795662E-002   0.0000000000000000     
  -3.3665852279123991E-002   9.9421029886183190E-002   0.0000000000000000     
  -3.4697799946145663E-002  0.10615039950730412        0.0000000000000000     
  -3.4877518984579747E-002   8.0500598625871819E-002   0.0000000000000000     
  -3.6228372640078735E-002   8.6775349443627969E-002   0.0000000000000000     
  -3.7522409947909473E-002   9.3196099845746533E-002   0.0000000000000000     
  -3.8759630908071968E-002   9.9762849832227538E-002   0.0000000000000000     
  -3.9940035520566200E-002  0.10647559940307097        0.0000000000000000     
  -1.9501030949267702E-002  0.10543656726513059        0.0000000000000000     
  -2.0063857248242487E-002  0.11235454324938243        0.0000000000000000     
  -2.0607845481717808E-002  0.11943159680034238        0.0000000000000000     
  -2.1132995649693655E-002  0.12666772791801045        0.0000000000000000     
  -2.1639307752170045E-002  0.13406293660238661        0.0000000000000000     
  -2.4478297660496411E-002  0.10563088343833392        0.0000000000000000     
  -2.5182098140588867E-002  0.11253930001543953        0.0000000000000000     
  -2.5860022026149166E-002  0.11960644264990804        0.0000000000000000     
  -2.6512069317177308E-002  0.12683231134173936        0.0000000000000000     
  -2.7138240013673286E-002  0.13421690609093362        0.0000000000000000     
  -2.9543887326122398E-002  0.10586882751905842        0.0000000000000000     
  -3.0389919724762543E-002  0.11276535074290493        0.0000000000000000     
  -3.1204960033231369E-002  0.11982063169853616        0.0000000000000000     
  -3.1989008251528887E-002  0.12703467038595218        0.0000000000000000     
  -3.2742064379655086E-002  0.13440746680515289        0.0000000000000000     
  -3.4697799946145663E-002  0.10615039950730412        0.0000000000000000     
  -3.5687322000763515E-002  0.11303269543177859        0.0000000000000000     
  -3.6642659502964428E-002  0.12007416394622682        0.0000000000000000     
  -3.7563812452748403E-002  0.12727480505064875        0.0000000000000000     
  -3.8450780850115440E-002  0.13463461874504445        0.0000000000000000     
  -3.9940035520566200E-002  0.10647559940307097        0.0000000000000000     
  -4.1074304968591789E-002  0.11334133408206054        0.0000000000000000     
  -4.2173120435348342E-002  0.12036703939297995        0.0000000000000000     
  -4.3236481920835866E-002  0.12755271533582921        0.0000000000000000     
  -4.4264389425054347E-002  0.13489836191060828        0.0000000000000000     
  -2.1639307752170045E-002  0.13406293660238661        0.0000000000000000     
  -2.2118405222163993E-002  0.14158196987118085        0.0000000000000000     
  -2.2561911492692550E-002  0.14918957474210318        0.0000000000000000     
  -2.2969826563755708E-002  0.15688575121515355        0.0000000000000000     
  -2.3342150435353461E-002  0.16467049929033201        0.0000000000000000     
  -2.7138240013673286E-002  0.13421690609093362        0.0000000000000000     
  -2.7730390736799351E-002  0.14172523871359610        0.0000000000000000     
  -2.8280378107717736E-002  0.14932232102583226        0.0000000000000000     
  -2.8788202126428443E-002  0.15700815302764204        0.0000000000000000     
  -2.9253862792931466E-002  0.16478273471902549        0.0000000000000000     
  -3.2742064379655086E-002  0.13440746680515289        0.0000000000000000     
  -3.3454965919657555E-002  0.14190381457842835        0.0000000000000000     
  -3.4118550373583877E-002  0.14948850732806845        0.0000000000000000     
  -3.4732817741434052E-002  0.15716154505407331        0.0000000000000000     
  -3.5297768023208081E-002  0.16492292775644282        0.0000000000000000     
  -3.8450780850115440E-002  0.13463461874504445        0.0000000000000000     
  -3.9292130770738606E-002  0.14211769746567757        0.0000000000000000     
  -4.0076428290290969E-002  0.14968813364881192        0.0000000000000000     
  -4.0803673408772549E-002  0.15734592729444735        0.0000000000000000     
  -4.1473866126183319E-002  0.16509107840258402        0.0000000000000000     
  -4.4264389425054347E-002  0.13489836191060828        0.0000000000000000     
  -4.5241885290042499E-002  0.14236688737534384        0.0000000000000000     
  -4.6154011857839010E-002  0.14992119998806250        0.0000000000000000     
  -4.7000769128443906E-002  0.15756129974876421        0.0000000000000000     
  -4.7782157101857174E-002  0.16528718665744907        0.0000000000000000     
   0.0000000000000000        0.0000000000000000        0.0000000000000000     
  -1.7984064238326567E-003   1.2768863285958568E-003   0.0000000000000000     
  -3.6215318891972825E-003   2.9392458837503429E-003   0.0000000000000000     
  -5.4693763960938779E-003   4.9870786654634602E-003   0.0000000000000000     
  -7.3419399445224416E-003   7.4203846737352069E-003   0.0000000000000000     
   0.0000000000000000        0.0000000000000000        0.0000000000000000     
  -2.0695270918352779E-003   1.3550157389251353E-003   0.0000000000000000     
  -4.1642312267031450E-003   3.0941339254506850E-003   0.0000000000000000     
  -6.2841124046036003E-003   5.2173545595766511E-003   0.0000000000000000     
  -8.4291706255366430E-003   7.7246776413030308E-003   0.0000000000000000     
   0.0000000000000000        0.0000000000000000        0.0000000000000000     
  -2.3401747162172101E-003   1.4590801182780507E-003   0.0000000000000000     
  -4.7203090680603514E-003   3.3000522848473835E-003   0.0000000000000000     
  -7.1404030555294205E-003   5.5229164997079982E-003   0.0000000000000000     
  -9.6004566786244191E-003   8.1276727628598940E-003   0.0000000000000000     
   0.0000000000000000        0.0000000000000000        0.0000000000000000     
  -2.6103492969784532E-003   1.5890794666546034E-003   0.0000000000000000     
  -5.2897654132688992E-003   3.5570009619404373E-003   0.0000000000000000     
  -8.0382483488713411E-003   5.9037644858575024E-003   0.0000000000000000     
  -1.0855798103785775E-002   8.6293700384057967E-003   0.0000000000000000     
   0.0000000000000000        0.0000000000000000        0.0000000000000000     
  -2.8800508341190064E-003   1.7450137840547930E-003   0.0000000000000000     
  -5.8726002623287928E-003   3.8649799567298470E-003   0.0000000000000000     
  -8.9776482846293595E-003   6.3598985180251628E-003   0.0000000000000000     
  -1.2195194901020705E-002   9.2297694679407405E-003   0.0000000000000000     
  -7.3419399445224416E-003   7.4203846737352069E-003   0.0000000000000000     
  -9.2315764112138373E-003   1.0186728187379476E-002   0.0000000000000000     
  -1.1130639672898925E-002   1.3233673485210158E-002   0.0000000000000000     
  -1.3039129729577709E-002   1.6561220567227253E-002   0.0000000000000000     
  -1.4957046581250183E-002   2.0169369433430760E-002   0.0000000000000000     
  -8.4291706255366430E-003   7.7246776413030308E-003   0.0000000000000000     
  -1.0591161979220337E-002   1.0558633809843069E-002   0.0000000000000000     
  -1.2761842555372750E-002   1.3661753704410010E-002   0.0000000000000000     
  -1.4941212353993878E-002   1.7034037325003856E-002   0.0000000000000000     
  -1.7129271375083726E-002   2.0675484671624597E-002   0.0000000000000000     
  -9.6004566786244191E-003   8.1276727628598940E-003   0.0000000000000000     
  -1.2077015809704555E-002   1.1046899286196326E-002   0.0000000000000000     
  -1.4546626321129024E-002   1.4213174281610549E-002   0.0000000000000000     
  -1.7009288212897832E-002   1.7626497749102563E-002   0.0000000000000000     
  -1.9465001485010971E-002   2.1286869688672362E-002   0.0000000000000000     
  -1.0855798103785775E-002   8.6293700384057967E-003   0.0000000000000000     
  -1.3689137902666482E-002   1.1651524616439247E-002   0.0000000000000000     
  -1.6484990970167743E-002   1.4887935216811773E-002   0.0000000000000000     
  -1.9243357306289548E-002   1.8338601839523377E-002   0.0000000000000000     
  -2.1964236911031915E-002   2.2003524484574054E-002   0.0000000000000000     
  -1.2195194901020705E-002   9.2297694679407405E-003   0.0000000000000000     
  -1.5427528258106126E-002   1.2372509800571830E-002   0.0000000000000000     
  -1.8576936502488910E-002   1.5686036510013684E-002   0.0000000000000000     
  -2.1643419634169055E-002   1.9170349596266296E-002   0.0000000000000000     
  -2.4626977653146566E-002   2.2825449059329674E-002   0.0000000000000000     
  -1.4957046581250183E-002   2.0169369433430760E-002   0.0000000000000000     
  -1.6859078725429608E-002   2.4029589588605276E-002   0.0000000000000000     
  -1.8719914659629258E-002   2.8113350537535397E-002   0.0000000000000000     
  -2.0539554383849121E-002   3.2420652280221118E-002   0.0000000000000000     
  -2.2317997898089199E-002   3.6951494816662447E-002   0.0000000000000000     
  -1.7129271375083726E-002   2.0675484671624597E-002   0.0000000000000000     
  -1.9294688329256432E-002   2.4558537672428896E-002   0.0000000000000000     
  -2.1406131927126159E-002   2.8655638255573386E-002   0.0000000000000000     
  -2.3463602168692893E-002   3.2966786421058082E-002   0.0000000000000000     
  -2.5467099053956645E-002   3.7491982168882963E-002   0.0000000000000000     
  -1.9465001485010971E-002   2.1286869688672362E-002   0.0000000000000000     
  -2.1885343793115738E-002   2.5175604112595777E-002   0.0000000000000000     
  -2.4241892792859408E-002   2.9274015033148634E-002   0.0000000000000000     
  -2.6534648484241998E-002   3.3582102450330914E-002   0.0000000000000000     
  -2.8763610867263496E-002   3.8099866364142643E-002   0.0000000000000000     
  -2.1964236911031915E-002   2.2003524484574054E-002   0.0000000000000000     
  -2.4631045117007505E-002   2.5880788909105931E-002   0.0000000000000000     
  -2.7227197256829015E-002   2.9968480870261129E-002   0.0000000000000000     
  -2.9752693330496429E-002   3.4266600368039649E-002   0.0000000000000000     
  -3.2207533338009756E-002   3.8775147402441486E-002   0.0000000000000000     
  -2.4626977653146566E-002   2.2825449059329674E-002   0.0000000000000000     
  -2.7531792300931765E-002   2.6674092061959358E-002   0.0000000000000000     
  -3.0362045319034969E-002   3.0739035766910883E-002   0.0000000000000000     
  -3.3117736707456186E-002   3.5020280174184251E-002   0.0000000000000000     
  -3.5798866466195414E-002   3.9517825283779472E-002   0.0000000000000000     
  -2.2317997898089199E-002   3.6951494816662447E-002   0.0000000000000000     
  -2.4052528462724487E-002   4.1696917879923599E-002   0.0000000000000000     
  -2.5740429338129974E-002   4.6647961203068807E-002   0.0000000000000000     
  -2.7381700524305660E-002   5.1804624786098055E-002   0.0000000000000000     
  -2.8976342021251544E-002   5.7166908629011345E-002   0.0000000000000000     
  -2.5467099053956645E-002   3.7491982168882963E-002   0.0000000000000000     
  -2.7417915498722887E-002   4.2226783447675324E-002   0.0000000000000000     
  -2.9317344418797093E-002   4.7166748206062398E-002   0.0000000000000000     
  -3.1165385814179256E-002   5.2311876444044204E-002   0.0000000000000000     
  -3.2962039684869389E-002   5.7662168161620730E-002   0.0000000000000000     
  -2.8763610867263496E-002   3.8099866364142643E-002   0.0000000000000000     
  -3.0931831699892991E-002   4.2824231725415642E-002   0.0000000000000000     
  -3.3042362740099557E-002   4.7752123484981771E-002   0.0000000000000000     
  -3.5095203987883204E-002   5.2883541642841009E-002   0.0000000000000000     
  -3.7090355443243926E-002   5.8218486198993349E-002   0.0000000000000000     
  -3.2207533338009756E-002   3.8775147402441486E-002   0.0000000000000000     
  -3.4594277066234795E-002   4.3489262713144586E-002   0.0000000000000000     
  -3.6915484302037373E-002   4.8404087039826911E-002   0.0000000000000000     
  -3.9171155045417488E-002   5.3519620382488461E-002   0.0000000000000000     
  -4.1361289296375156E-002   5.8835862741129230E-002   0.0000000000000000     
  -3.5798866466195414E-002   3.9517825283779472E-002   0.0000000000000000     
  -3.8405251597748317E-002   4.4221876410862129E-002   0.0000000000000000     
  -4.0936709104610565E-002   4.9122638870597833E-002   0.0000000000000000     
  -4.3393238986782129E-002   5.4220112662986562E-002   0.0000000000000000     
  -4.5774841244263058E-002   5.9514297788028338E-002   0.0000000000000000     
  -2.8976342021251544E-002   5.7166908629011345E-002   0.0000000000000000     
  -3.0523660570707795E-002   6.2724084733456614E-002   0.0000000000000000     
  -3.2022962914414581E-002   6.8465425101081764E-002   0.0000000000000000     
  -3.3474249052371896E-002   7.4390929731886851E-002   0.0000000000000000     
  -3.4877518984579747E-002   8.0500598625871819E-002   0.0000000000000000     
  -3.2962039684869389E-002   5.7662168161620730E-002   0.0000000000000000     
  -3.4705219956136305E-002   6.3206633434439094E-002   0.0000000000000000     
  -3.6392840553248818E-002   6.8934282338146441E-002   0.0000000000000000     
  -3.8024901476206928E-002   7.4845114872742757E-002   0.0000000000000000     
  -3.9601402725010636E-002   8.0939131038228043E-002   0.0000000000000000     
  -3.7090355443243926E-002   5.8218486198993349E-002   0.0000000000000000     
  -3.9025674072253824E-002   6.3746551247967242E-002   0.0000000000000000     
  -4.0899016840985014E-002   6.9457330884291027E-002   0.0000000000000000     
  -4.2710383749437468E-002   7.5350825107964745E-002   0.0000000000000000     
  -4.4459774797611207E-002   8.1427033918988409E-002   0.0000000000000000     
  -4.1361289296375156E-002   5.8835862741129230E-002   0.0000000000000000     
  -4.3485022919060354E-002   6.4343838174040990E-002   0.0000000000000000     
  -4.5541491777623143E-002   7.0034570739515523E-002   0.0000000000000000     
  -4.7530695872063503E-002   7.5908060437552827E-002   0.0000000000000000     
  -4.9452635202381440E-002   8.1964307268152931E-002   0.0000000000000000     
  -4.5774841244263058E-002   5.9514297788028338E-002   0.0000000000000000     
  -4.8083266496555900E-002   6.4998494212660379E-002   0.0000000000000000     
  -5.0320265363163225E-002   7.0666001903819928E-002   0.0000000000000000     
  -5.2485837844085038E-002   7.6516820861507018E-002   0.0000000000000000     
  -5.4579983939321342E-002   8.2550951085721594E-002   0.0000000000000000     
  -3.4877518984579747E-002   8.0500598625871819E-002   0.0000000000000000     
  -3.6228372640078735E-002   8.6775349443627969E-002   0.0000000000000000     
  -3.7522409947909473E-002   9.3196099845746533E-002   0.0000000000000000     
  -3.8759630908071968E-002   9.9762849832227538E-002   0.0000000000000000     
  -3.9940035520566200E-002  0.10647559940307097        0.0000000000000000     
  -3.9601402725010636E-002   8.0939131038228043E-002   0.0000000000000000     
  -4.1118624221178193E-002   8.7197512237600597E-002   0.0000000000000000     
  -4.2572845886227818E-002   9.3601439873858744E-002   0.0000000000000000     
  -4.3964067720159532E-002  0.10015091394700248        0.0000000000000000     
  -4.5292289722973320E-002  0.10684593445703179        0.0000000000000000     
  -4.4459774797611207E-002   8.1427033918988409E-002   0.0000000000000000     
  -4.6143357350471051E-002   8.7667450872566791E-002   0.0000000000000000     
  -4.7757298772981870E-002   9.4053569523904770E-002   0.0000000000000000     
  -4.9301599065143621E-002  0.10058538987300228        0.0000000000000000     
  -5.0776258226956340E-002  0.10726291191985934        0.0000000000000000     
  -4.9452635202381440E-002   8.1964307268152931E-002   0.0000000000000000     
  -5.1302572027957349E-002   8.8185165348526579E-002   0.0000000000000000     
  -5.3075768608171620E-002   9.4552488795884571E-002   0.0000000000000000     
  -5.4772224943024257E-002  0.10106627761022695        0.0000000000000000     
  -5.6391941032515248E-002  0.10772653179155366        0.0000000000000000     
  -5.4579983939321342E-002   8.2550951085721594E-002   0.0000000000000000     
  -5.6596268253637047E-002   8.8750655665479919E-002   0.0000000000000000     
  -5.8528255391797068E-002   9.5098197689798214E-002   0.0000000000000000     
  -6.0375945353801405E-002  0.10159357715867647        0.0000000000000000     
  -6.2139338139650058E-002  0.10823679407211471        0.0000000000000000     
  -3.9940035520566200E-002  0.10647559940307097        0.0000000000000000     
  -4.1074304968591789E-002  0.11334133408206054        0.0000000000000000     
  -4.2173120435348342E-002  0.12036703939297995        0.0000000000000000     
  -4.3236481920835866E-002  0.12755271533582921        0.0000000000000000     
  -4.4264389425054347E-002  0.13489836191060828        0.0000000000000000     
  -4.5292289722973320E-002  0.10684593445703179        0.0000000000000000     
  -4.6570735964897400E-002  0.11369390466441542        0.0000000000000000     
  -4.7812630516160005E-002  0.12070222782962206        0.0000000000000000     
  -4.9017973376761129E-002  0.12787090395265177        0.0000000000000000     
  -5.0186764546700749E-002  0.13519993303350453        0.0000000000000000     
  -5.0776258226956340E-002  0.10726291191985934        0.0000000000000000     
  -5.2196482326330430E-002  0.11409304514950788        0.0000000000000000     
  -5.3577477431176350E-002  0.12108269904697970        0.0000000000000000     
  -5.4919243541494064E-002  0.12823187361227484        0.0000000000000000     
  -5.6221780657283595E-002  0.13554056884539334        0.0000000000000000     
  -5.6391941032515248E-002  0.10772653179155366        0.0000000000000000     
  -5.7951544052890866E-002  0.11453875553733787        0.0000000000000000     
  -5.9467661180397348E-002  0.12150845304505280        0.0000000000000000     
  -6.0940292415034680E-002  0.12863562431469838        0.0000000000000000     
  -6.2369437756802884E-002  0.13592026934627466        0.0000000000000000     
  -6.2139338139650058E-002  0.10823679407211471        0.0000000000000000     
  -6.3835921144578700E-002  0.11503103582790550        0.0000000000000000     
  -6.5483181763823006E-002  0.12197948982384139        0.0000000000000000     
  -6.7081119997382976E-002  0.12908215605992243        0.0000000000000000     
  -6.8629735845258610E-002  0.13633903453614854        0.0000000000000000     
  -4.4264389425054347E-002  0.13489836191060828        0.0000000000000000     
  -4.5241885290042499E-002  0.14236688737534384        0.0000000000000000     
  -4.6154011857839010E-002  0.14992119998806250        0.0000000000000000     
  -4.7000769128443906E-002  0.15756129974876421        0.0000000000000000     
  -4.7782157101857174E-002  0.16528718665744907        0.0000000000000000     
  -5.0186764546700749E-002  0.13519993303350453        0.0000000000000000     
  -5.1300349737906967E-002  0.14265141093448125        0.0000000000000000     
  -5.2340074662307869E-002  0.15018743351788275        0.0000000000000000     
  -5.3305939319903448E-002  0.15780800078370916        0.0000000000000000     
  -5.4197943710693704E-002  0.16551311273196037        0.0000000000000000     
  -5.6221780657283595E-002  0.13554056884539334        0.0000000000000000     
  -5.7463644374669762E-002  0.14297129477014386        0.0000000000000000     
  -5.8623390289777366E-002  0.15048656141033520        0.0000000000000000     
  -5.9701018402606436E-002  0.15808636876596741        0.0000000000000000     
  -6.0696528713156950E-002  0.16577071683704037        0.0000000000000000     
  -6.2369437756802884E-002  0.13592026934627466        0.0000000000000000     
  -6.3731769200330871E-002  0.14332653888233177        0.0000000000000000     
  -6.5003958740247558E-002  0.15081858366541986        0.0000000000000000     
  -6.6186006376552892E-002  0.15839640369553895        0.0000000000000000     
  -6.7277912109246940E-002  0.16605999897268905        0.0000000000000000     
  -6.8629735845258610E-002  0.13633903453614854        0.0000000000000000     
  -7.0104724214890279E-002  0.14371714327104493        0.0000000000000000     
  -7.1481780013718341E-002  0.15118350028313673        0.0000000000000000     
  -7.2760903241742794E-002  0.15873810557242390        0.0000000000000000     
  -7.3942093898963640E-002  0.16638095913890644        0.0000000000000000     
   0.0000000000000000        0.0000000000000000        0.0000000000000000     
  -2.8800508341190064E-003   1.7450137840547930E-003   0.0000000000000000     
  -5.8726002623287928E-003   3.8649799567298470E-003   0.0000000000000000     
  -8.9776482846293595E-003   6.3598985180251628E-003   0.0000000000000000     
  -1.2195194901020705E-002   9.2297694679407405E-003   0.0000000000000000     
   0.0000000000000000        0.0000000000000000        0.0000000000000000     
  -3.2831456165437508E-003   1.9995414142995301E-003   0.0000000000000000     
  -6.6768281635134746E-003   4.3313019704985210E-003   0.0000000000000000     
  -1.0181047640909172E-002   6.9952816685969711E-003   0.0000000000000000     
  -1.3795804048730842E-002   9.9914805085948820E-003   0.0000000000000000     
   0.0000000000000000        0.0000000000000000        0.0000000000000000     
  -3.9534999331575678E-003   2.4253207012097252E-003   0.0000000000000000     
  -7.9104636650963941E-003   5.0632797045293641E-003   0.0000000000000000     
  -1.1870891195816476E-002   7.9138770099589171E-003   0.0000000000000000     
  -1.5834782525317812E-002   1.0977112617498383E-002   0.0000000000000000     
   0.0000000000000000        0.0000000000000000        0.0000000000000000     
  -4.8911137839604589E-003   3.0223516447853778E-003   0.0000000000000000     
  -9.5735067670775480E-003   6.0609131588223774E-003   0.0000000000000000     
  -1.4047178949351266E-002   9.1156845421109974E-003   0.0000000000000000     
  -1.8312130330781620E-002   1.2186665794651242E-002   0.0000000000000000     
   0.0000000000000000        0.0000000000000000        0.0000000000000000     
  -6.0959871689524221E-003   3.7906342450264884E-003   0.0000000000000000     
  -1.1665957469456940E-002   7.3242023333775618E-003   0.0000000000000000     
  -1.6709910901513553E-002   1.0600704265053218E-002   0.0000000000000000     
  -2.1227847465122258E-002   1.3620140040053462E-002   0.0000000000000000     
  -1.2195194901020705E-002   9.2297694679407405E-003   0.0000000000000000     
  -1.5427528258106126E-002   1.2372509800571830E-002   0.0000000000000000     
  -1.8576936502488910E-002   1.5686036510013684E-002   0.0000000000000000     
  -2.1643419634169055E-002   1.9170349596266296E-002   0.0000000000000000     
  -2.4626977653146566E-002   2.2825449059329674E-002   0.0000000000000000     
  -1.3795804048730842E-002   9.9914805085948820E-003   0.0000000000000000     
  -1.7403994340966667E-002   1.3221926092508674E-002   0.0000000000000000     
  -2.0888515471604835E-002   1.6588646022354766E-002   0.0000000000000000     
  -2.4249367440645344E-002   2.0091640298133158E-002   0.0000000000000000     
  -2.7486550248088198E-002   2.3730908919843856E-002   0.0000000000000000     
  -1.5834782525317812E-002   1.0977112617498383E-002   0.0000000000000000     
  -1.9730343616191304E-002   1.4211844746164378E-002   0.0000000000000000     
  -2.3485780431027850E-002   1.7576931614973514E-002   0.0000000000000000     
  -2.7101092969827448E-002   2.1072373223925796E-002   0.0000000000000000     
  -3.0576281232590093E-002   2.4698169573021213E-002   0.0000000000000000     
  -1.8312130330781620E-002   1.2186665794651242E-002   0.0000000000000000     
  -2.2406576083780032E-002   1.5342265761538944E-002   0.0000000000000000     
  -2.6368731380757942E-002   1.8650893287869931E-002   0.0000000000000000     
  -3.0198596221715349E-002   2.2112548373644205E-002   0.0000000000000000     
  -3.3896170606652253E-002   2.5727231018861769E-002   0.0000000000000000     
  -2.1227847465122258E-002   1.3620140040053462E-002   0.0000000000000000     
  -2.5432691743732853E-002   1.6613189138632366E-002   0.0000000000000000     
  -2.9537368320795118E-002   1.9810531041044008E-002   0.0000000000000000     
  -3.3541877196309064E-002   2.3212165747288387E-002   0.0000000000000000     
  -3.7446218370274682E-002   2.6818093257365509E-002   0.0000000000000000     
  -2.4626977653146566E-002   2.2825449059329674E-002   0.0000000000000000     
  -2.7531792300931765E-002   2.6674092061959358E-002   0.0000000000000000     
  -3.0362045319034969E-002   3.0739035766910883E-002   0.0000000000000000     
  -3.3117736707456186E-002   3.5020280174184251E-002   0.0000000000000000     
  -3.5798866466195414E-002   3.9517825283779472E-002   0.0000000000000000     
  -2.7486550248088198E-002   2.3730908919843856E-002   0.0000000000000000     
  -3.0623156363735145E-002   2.7548948626587081E-002   0.0000000000000000     
  -3.3682278257387940E-002   3.1588256157463072E-002   0.0000000000000000     
  -3.6663915929046588E-002   3.5848831512471840E-002   0.0000000000000000     
  -3.9568069378711095E-002   4.0330674691613368E-002   0.0000000000000000     
  -3.0576281232590093E-002   2.4698169573021213E-002   0.0000000000000000     
  -3.3940708324264303E-002   2.8498793658420136E-002   0.0000000000000000     
  -3.7223737349798600E-002   3.2518718476282883E-002   0.0000000000000000     
  -4.0425368309192952E-002   3.6757944026609479E-002   0.0000000000000000     
  -4.3545601202447382E-002   4.1216470309399914E-002   0.0000000000000000     
  -3.3896170606652253E-002   2.5727231018861769E-002   0.0000000000000000     
  -3.7484448182519253E-002   2.9523627157458508E-002   0.0000000000000000     
  -4.0986422596266912E-002   3.3530422723370312E-002   0.0000000000000000     
  -4.4402093847895265E-002   3.7747617716597182E-002   0.0000000000000000     
  -4.7731461937404289E-002   4.2175212137139088E-002   0.0000000000000000     
  -3.7446218370274682E-002   2.6818093257365509E-002   0.0000000000000000     
  -4.1254375938499968E-002   3.0623449123702212E-002   0.0000000000000000     
  -4.4970333996792927E-002   3.4623368898725353E-002   0.0000000000000000     
  -4.8594092545153539E-002   3.8817852582434920E-002   0.0000000000000000     
  -5.2125651583581817E-002   4.3206900174830934E-002   0.0000000000000000     
  -3.5798866466195414E-002   3.9517825283779472E-002   0.0000000000000000     
  -3.8405251597748317E-002   4.4221876410862129E-002   0.0000000000000000     
  -4.0936709104610565E-002   4.9122638870597833E-002   0.0000000000000000     
  -4.3393238986782129E-002   5.4220112662986562E-002   0.0000000000000000     
  -4.5774841244263058E-002   5.9514297788028338E-002   0.0000000000000000     
  -3.9568069378711095E-002   4.0330674691613368E-002   0.0000000000000000     
  -4.2391568683884079E-002   4.5020004831908308E-002   0.0000000000000000     
  -4.5131243922068173E-002   4.9903041070377331E-002   0.0000000000000000     
  -4.7787095093263392E-002   5.4979783407020408E-002   0.0000000000000000     
  -5.0359122197469727E-002   6.0250231841837545E-002   0.0000000000000000     
  -4.3545601202447382E-002   4.1216470309399914E-002   0.0000000000000000     
  -4.6580041714092593E-002   4.5881579989623174E-002   0.0000000000000000     
  -4.9524295528659300E-002   5.0740555732248213E-002   0.0000000000000000     
  -5.2378362646147515E-002   5.5793397537275052E-002   0.0000000000000000     
  -5.5142243066557212E-002   6.1040105404703698E-002   0.0000000000000000     
  -4.7731461937404289E-002   4.2175212137139088E-002   0.0000000000000000     
  -5.0970670688373895E-002   4.6806601884006670E-002   0.0000000000000000     
  -5.4115863924383965E-002   5.1635182856210486E-002   0.0000000000000000     
  -5.7167041645434513E-002   5.6660955053750531E-002   0.0000000000000000     
  -6.0124203851525525E-002   6.1883918476626817E-002   0.0000000000000000     
  -5.2125651583581817E-002   4.3206900174830934E-002   0.0000000000000000     
  -5.5563455606727957E-002   4.7795070515058845E-002   0.0000000000000000     
  -5.8905949109242128E-002   5.2586922442264143E-002   0.0000000000000000     
  -6.2153132091124365E-002   5.7582455956446822E-002   0.0000000000000000     
  -6.5305004552374646E-002   6.2781671057606875E-002   0.0000000000000000     
  -4.5774841244263058E-002   5.9514297788028338E-002   0.0000000000000000     
  -4.8083266496555900E-002   6.4998494212660379E-002   0.0000000000000000     
  -5.0320265363163225E-002   7.0666001903819928E-002   0.0000000000000000     
  -5.2485837844085038E-002   7.6516820861507018E-002   0.0000000000000000     
  -5.4579983939321342E-002   8.2550951085721594E-002   0.0000000000000000     
  -5.0359122197469727E-002   6.0250231841837545E-002   0.0000000000000000     
  -5.2851540549029005E-002   6.5709350757888085E-002   0.0000000000000000     
  -5.5268565462283051E-002   7.1352104538231390E-002   0.0000000000000000     
  -5.7610196937231857E-002   7.7178493182867444E-002   0.0000000000000000     
  -5.9876434973875417E-002   8.3188516691796277E-002   0.0000000000000000     
  -5.5142243066557212E-002   6.1040105404703698E-002   0.0000000000000000     
  -5.7820980820768239E-002   6.6475239203786812E-002   0.0000000000000000     
  -6.0419619939660413E-002   7.2093358803777041E-002   0.0000000000000000     
  -6.2938160423233705E-002   7.7894464204674399E-002   0.0000000000000000     
  -6.5376602271488171E-002   8.3878555406478872E-002   0.0000000000000000     
  -6.0124203851525525E-002   6.1883918476626817E-002   0.0000000000000000     
  -6.2991587311773581E-002   6.7296159550356519E-002   0.0000000000000000     
  -6.5773428795295297E-002   7.2889764700456855E-002   0.0000000000000000     
  -6.8469728302090624E-002   7.8664733926927785E-002   0.0000000000000000     
  -7.1080485832159590E-002   8.4621067229769337E-002   0.0000000000000000     
  -6.5305004552374646E-002   6.2781671057606875E-002   0.0000000000000000     
  -6.8363360022045072E-002   6.8172111797597246E-002   0.0000000000000000     
  -7.1329992029187717E-002   7.3741322228270845E-002   0.0000000000000000     
  -7.4204900573802593E-002   7.9489302349627658E-002   0.0000000000000000     
  -7.6988085655889688E-002   8.5416052161667727E-002   0.0000000000000000     
  -5.4579983939321342E-002   8.2550951085721594E-002   0.0000000000000000     
  -5.6596268253637047E-002   8.8750655665479919E-002   0.0000000000000000     
  -5.8528255391797068E-002   9.5098197689798214E-002   0.0000000000000000     
  -6.0375945353801405E-002  0.10159357715867647        0.0000000000000000     
  -6.2139338139650058E-002  0.10823679407211471        0.0000000000000000     
  -5.9876434973875417E-002   8.3188516691796277E-002   0.0000000000000000     
  -6.2059080496297381E-002   8.9365033090666512E-002   0.0000000000000000     
  -6.4149934428581384E-002   9.5690900405126789E-002   0.0000000000000000     
  -6.6148996770727442E-002  0.10216611863517713        0.0000000000000000     
  -6.8056267522735539E-002  0.10879068778081752        0.0000000000000000     
  -6.5376602271488171E-002   8.3878555406478872E-002   0.0000000000000000     
  -6.7725643224725574E-002   9.0029408891326018E-002   0.0000000000000000     
  -6.9975981023247757E-002   9.6330801141351438E-002   0.0000000000000000     
  -7.2127615667054723E-002  0.10278273215655515        0.0000000000000000     
  -7.4180547156146484E-002  0.10938520193693710        0.0000000000000000     
  -7.1080485832159590E-002   8.4621067229769337E-002   0.0000000000000000     
  -7.3595956438921625E-002   9.0743783067458506E-002   0.0000000000000000     
  -7.6006395175796188E-002   9.7017899898472246E-002   0.0000000000000000     
  -7.8311802042783291E-002  0.10344341772281053        0.0000000000000000     
  -8.0512177039882865E-002  0.11002033654047341        0.0000000000000000     
  -7.6988085655889688E-002   8.5416052161667727E-002   0.0000000000000000     
  -7.9670020138885550E-002   9.1508155619063905E-002   0.0000000000000000     
  -8.2241176886226661E-002   9.7752196676489087E-002   0.0000000000000000     
  -8.4701555897913075E-002  0.10414817533394330        0.0000000000000000     
  -8.7051157173944751E-002  0.11069609159142650        0.0000000000000000     
  -6.2139338139650058E-002  0.10823679407211471        0.0000000000000000     
  -6.3835921144578700E-002  0.11503103582790550        0.0000000000000000     
  -6.5483181763823006E-002  0.12197948982384139        0.0000000000000000     
  -6.7081119997382976E-002  0.12908215605992243        0.0000000000000000     
  -6.8629735845258610E-002  0.13633903453614854        0.0000000000000000     
  -6.8056267522735539E-002  0.10879068778081752        0.0000000000000000     
  -6.9890095696305957E-002  0.11556544449580827        0.0000000000000000     
  -7.1668830303138947E-002  0.12249122543390972        0.0000000000000000     
  -7.3392471343234539E-002  0.12956803059512181        0.0000000000000000     
  -7.5061018816592731E-002  0.13679585997944460        0.0000000000000000     
  -7.4180547156146484E-002  0.10938520193693710        0.0000000000000000     
  -7.6154549802984625E-002  0.11613754001564386        0.0000000000000000     
  -7.8069397920030786E-002  0.12303907592582199        0.0000000000000000     
  -7.9925091507284968E-002  0.13008980966747155        0.0000000000000000     
  -8.1721630564747197E-002  0.13728974124059246        0.0000000000000000     
  -8.0512177039882865E-002  0.11002033654047341        0.0000000000000000     
  -8.2629283464614720E-002  0.11674732238741220        0.0000000000000000     
  -8.4684884614498510E-002  0.12362304129957825        0.0000000000000000     
  -8.6678980489534277E-002  0.13064749327697153        0.0000000000000000     
  -8.8611571089721966E-002  0.13782067831959210        0.0000000000000000     
  -8.7051157173944751E-002  0.11069609159142650        0.0000000000000000     
  -8.9314296681196254E-002  0.11739479161111335        0.0000000000000000     
  -9.1515290386542145E-002  0.12424312155517847        0.0000000000000000     
  -9.3654138289982411E-002  0.13124108142362187        0.0000000000000000     
  -9.5730840391517080E-002  0.13838867121644352        0.0000000000000000     
  -6.8629735845258610E-002  0.13633903453614854        0.0000000000000000     
  -7.0104724214890279E-002  0.14371714327104493        0.0000000000000000     
  -7.1481780013718341E-002  0.15118350028313673        0.0000000000000000     
  -7.2760903241742794E-002  0.15873810557242390        0.0000000000000000     
  -7.3942093898963640E-002  0.16638095913890644        0.0000000000000000     
  -7.5061018816592731E-002  0.13679585997944460        0.0000000000000000     
  -7.6649285574440992E-002  0.14414464892971290        0.0000000000000000     
  -7.8132084468006735E-002  0.15158433278876166        0.0000000000000000     
  -7.9509415497290029E-002  0.15911491155659080        0.0000000000000000     
  -8.0781278662290790E-002  0.16673638523320033        0.0000000000000000     
  -8.1721630564747197E-002  0.13728974124059246        0.0000000000000000     
  -8.3432229435075916E-002  0.14461059685176531        0.0000000000000000     
  -8.5030102460929652E-002  0.15202410270757058        0.0000000000000000     
  -8.6515249642308403E-002  0.15953025880800836        0.0000000000000000     
  -8.7887670979212143E-002  0.16712906515307860        0.0000000000000000     
  -8.8611571089721966E-002  0.13782067831959210        0.0000000000000000     
  -9.0453555796795107E-002  0.14511498703720205        0.0000000000000000     
  -9.2175833992487077E-002  0.15250281003956354        0.0000000000000000     
  -9.3778405676797932E-002  0.15998414732667662        0.0000000000000000     
  -9.5261270849727658E-002  0.16755899889854120        0.0000000000000000     
  -9.5730840391517080E-002  0.13838867121644352        0.0000000000000000     
  -9.7713264659598509E-002  0.14565781948602316        0.0000000000000000     
  -9.9569279062679011E-002  0.15302045478474047        0.0000000000000000     
 -0.10129888360075864       0.16047657711259550        0.0000000000000000     
 -0.10290207827383736       0.16802618646958817        0.0000000000000000     
 </DataArray>
 <DataArray  type="Float64" Name="stress" NumberOfComponents="3" format="ascii">
   13416781932.640156        4025034579.7920470        2894154331.5103350     
   11766448259.343367        1890430295.1507664        1715887764.8885360     
   10313410297.820589        413478383.08952570        810742528.75039649     
   9057668048.0718231       -405821156.39167356        178718623.09591633     
   7999221510.0970678       -567468323.29283285       -180183952.07490492     
   10539901575.753876        3161970472.7261624        2225905263.3934417     
   9667424390.6050797        1589526315.3245981        1446803418.1387126     
   8943600924.2528248        512594553.91151094        863202126.99730659     
   8368431176.6971111       -68824811.513101101        475101389.96922404     
   7941915147.9379435       -154731780.94923544        282501207.05446464     
   8337796290.4468727        2501338887.1340618        1712493453.0244255     
   8021401946.6736774        1424522762.9404964        1275807337.3297184     
   7805019328.7195587        681079058.14384460        957000999.37799907     
   7688648436.5845137        271007772.74410629        756074439.16926754     
   7672289270.2685413        194308906.74128103        673027656.70352292     
   6810466076.7191467        2043139823.0157440        1353918900.4032857     
   6828380927.5491695        1395419637.9984617        1202899522.4615541     
   6897665511.2207947        918931895.78652906        1092139145.8924737     
   7018319827.7340279        613676596.37994742        1021637770.6960452     
   7190343877.0888662        479653739.77871442        991395396.87226868     
   5957910934.5706968        1787373280.3712091        1150181605.5300229     
   6088361333.2315464        1502216940.4984932        1228079973.5342193     
   6221539471.7565317        1226153066.8395641        1268616566.5407312     
   6357445350.1456537        959181659.39442086        1271791384.5495589     
   6496078968.3989115        701302718.16306448        1237604427.5607018     
   7999221510.0970678       -567468323.29283285       -180183952.07490492     
   7917168653.1552601       -199904554.94976521       -78174834.832555994     
   7793617555.3851585        29331743.965660095       -8855358.1660799421     
   7628568216.7867699        120240573.45345592        27774477.924523342     
   7422020637.3600855        72821933.513605118        31714673.439257130     
   7941915147.9379435       -154731780.94923544        282501207.05446464     
   7739285518.0194607        16495038.938505173        281309304.62380344     
   7513255709.7472916        109721264.31396437        265364205.50741914     
   7263825723.1214371        124946895.17714071        234665909.70530701     
   6990995558.1419020        62171931.528033733        189214417.21746907     
   7672289270.2685413        194308906.74128103        673027656.70352292     
   7400329849.9166584        184572872.93667841        589749140.82022703     
   7123068313.6856985        157163119.53514624        509653872.14135385     
   6840504661.5756607        112079646.53669286        432741850.66690141     
   6552638893.5865450        49322453.941308975        359013076.39686990     
   7190343877.0888662        479653739.77871442        991395396.87226868     
   6900301648.8468599        304328947.04474974        847144673.75671327     
   6623055367.2003832        171657309.62921524        724013641.73572695     
   6358605032.1494360        81638827.532109499        622002300.80930746     
   6106950643.6940155        34273500.753435135        541110650.97745764     
   6496078968.3989115        701302718.16306448        1237604427.5607018     
   6239200914.8100595        375763261.26272178        1053495903.4332618     
   6013216870.2913427        153203834.59616375        908443514.29053712     
   5818126834.8427629        33624438.163394690        802447260.13252497     
   5653930808.4643183        17025071.964409351        735507140.95922887     
   7422020637.3600855        72821933.513605118        31714673.439257130     
   7217644909.2683325       -18353629.377658844        14485747.196317405     
   7025487106.6080198       -68802774.164133072        1977047.4745786637     
   6845547229.3791380       -78525500.845832348       -5811425.7259538062     
   6677825277.5816908       -47521809.422743797       -8879672.4052875303     
   6990995558.1419020        62171931.528033733        189214417.21746907     
   6807407838.6821041        2553106.3477478027        180747356.84390327     
   6631648916.1339474       -30969729.127064705        176268521.73272315     
   6463718790.4974298       -38396574.896420956        175777911.88392150     
   6303617461.7725515       -19727430.960311413        179275527.29750684     
   6552638893.5865450        49322453.941308975        359013076.39686990     
   6387747750.5906487        20632936.821588993        354187231.95291603     
   6226296275.9865904        3408981.0080122948        352617611.51252532     
   6068284469.7743816       -2349413.4994180202        354304215.07569963     
   5913712331.9540110        3357753.2992923260        359247042.64243406     
   6106950643.6940155        34273500.753435135        541110650.97745764     
   5958664644.9939604        35885862.043860912        534805372.52335268     
   5809429186.1659536        34333356.241111517        531024316.81399244     
   5659244267.2099915        29615983.345185757        529767483.84937447     
   5508109888.1260796        21733743.356084585        531034873.62950194     
   5653930808.4643183        17025071.964409351        735507140.95922887     
   5520158521.8920479        48311882.014561415        722601778.55521178     
   5381047646.6720285        61803396.572222471        711488637.63712013     
   5236598182.8042612        57499615.637383938        702167718.20495236     
   5086810130.2887440        35400539.210050583        694639020.25870502     
   6677825277.5816908       -47521809.422743797       -8879672.4052875303     
   6507093440.5176697       -6640606.1361100674       -2844375.3527225452     
   6331251685.1278210        17207536.064434767        3211672.1033897954     
   6150300011.4121475        24022617.178900242        9288469.9630597383     
   5964238419.3706474        13804637.207264900        15386018.226280879     
   6303617461.7725515       -19727430.960311413        179275527.29750684     
   6129605090.7657948        1930623.6351892948        175959443.23492143     
   5952486267.9093494        13233838.731730938        174535232.35693756     
   5772260993.2032175        14182214.329308987        175002894.66356537     
   5588929266.6473875        4775750.4279069901        177362430.15478671     
   5913712331.9540110        3357753.2992923260        359247042.64243406     
   5741765492.0932426        7396478.7302937508        348916955.02019155     
   5568715666.8589153        7758586.2494380474        342349863.36360204     
   5394562856.2510328        4444075.8567409515        339545767.67267400     
   5219307060.2695990       -2547052.4478065968        340504667.94739443     
   5508109888.1260796        21733743.356084585        531034873.62950194     
   5343574644.5000067        9756959.1491904259        516028160.00309342     
   5179939881.9765177        781778.61756277084        506655565.12339258     
   5017205600.5556059       -5191798.2387886047        502917088.99039674     
   4855371800.2372770       -8163771.4198818207        504812731.60410607     
   5086810130.2887440        35400539.210050583        694639020.25870502     
   4935032547.9860888        9012064.8918793201        677293058.18362367     
   4786158913.2621527       -7696584.1639075279        667452337.63629949     
   4640189226.1169300       -14725407.957308531        665116858.61673284     
   4497123486.5504236       -12074406.488318205        670286621.12492311     
   5964238419.3706474        13804637.207264900        15386018.226280879     
   5784165154.2852106        590601.04548144341        5516129.9929504460     
   5606041881.6286736       -6123460.3533091545        483577.69750078791     
   5429868601.4010506       -6337546.9890475273        288361.33992261766     
   5255645313.6023293       -51658.861785411835        4930480.9202143345     
   5588929266.6473875        4775750.4279069901        177362430.15478671     
   5422589707.5024948       -2220781.6058740616        171126282.14130229     
   5257584478.2145395       -4769547.4498543739        169182378.73004732     
   5093913578.7835274       -2870547.1040265560        171530719.92102692     
   4931577009.2094584        3476219.4316065311        178171305.71424371     
   5219307060.2695990       -2547052.4478065968        340504667.94739443     
   5065143803.2491350       -3793301.4984128475        337183987.15312046     
   4911699213.5136499       -2643992.9324262142        337610459.62543648     
   4758973291.0631380        900873.25013566017        341784085.36434990     
   4606966035.8975954        6841297.0492842197        349704864.36986482     
   4855371800.2372770       -8163771.4198818207        504812731.60410607     
   4711827441.5251379       -4126958.6321344376        503689245.02841502     
   4568386087.5260029        253203.19897484779        505767820.38368165     
   4425047738.2398758        4976714.0734457970        511048457.66990060     
   4281812393.6667619        10043573.991272449        519531156.88707227     
   4497123486.5504236       -12074406.488318205        670286621.12492311     
   4362640622.3304882       -3221753.0070624352        670642055.76718843     
   4227645100.2516022        3922040.9443495274        673654461.00476873     
   4092136920.3137541        9356975.3658876419        679323836.83766782     
   3956116082.5169477        13083050.257573128        687650183.26588225     
   5255645313.6023293       -51658.861785411835        4930480.9202143345     
   5042076314.8081245       -2970841.0943946838       -5809250.5274720537     
   4828270714.5336618       -6678694.9278290272       -12521089.180714475     
   4614228512.7789316       -11175220.362161636       -15205035.039513571     
   4399949709.5439491       -16460417.397356033       -13861088.103877667     
   4931577009.2094584        3476219.4316065311        178171305.71424371     
   4728564725.6809282       -1027436.3356134892        167060581.97155094     
   4525109733.3175526       -7006788.2189960480        160408163.37755519     
   4321212032.1193333       -14461836.218522310        158214049.93223763     
   4116871622.0862546       -23392580.334243298        160478241.63561645     
   4606966035.8975954        6841297.0492842197        349704864.36986482     
   4415740217.2183123        1122092.6225235462        337982689.75182384     
   4223865582.3495822       -6759832.4356954098        331149232.63670385     
   4031342131.2914085       -16804478.125408173        329204493.02451855     
   3838169864.0438037       -29011844.446560860        332148470.91526514     
   4281812393.6667619        10043573.991272449        519531156.88707227     
   4103602789.4202671        3477745.7800350189        506957072.81331760     
   3924538261.6297407       -5937827.5779693127        499702118.59673172     
   3744618810.2951808       -18203146.082757950        497766294.23732549     
   3563844435.4165888       -33318209.734319210        501149599.73509306     
   3956116082.5169477        13083050.257573128        687650183.26588225     
   3792152442.2868032        6039523.1369266510        673983731.15605402     
   3627127771.1580305       -4540773.6458117962        666066821.25764751     
   3461042069.1306400       -18657840.090605259        663899453.57066178     
   3293895336.2046280       -36311676.197481632        667481628.09509063     
   4399949709.5439491       -16460417.397356033       -13861088.103877667     
   4287661327.7572379        6978102.6761841774       -12286549.703907847     
   4174374332.5107298        27087911.217043877       -10870468.244313411     
   4060088723.8044291        43869008.225281954       -9612843.7250924390     
   3944804501.6383224        57321393.700813532       -8513676.1462558154     
   4116871622.0862546       -23392580.334243298        160478241.63561645     
   4004077820.9720664       -5738187.9130680561        163553664.12318769     
   3891147269.7001171        11460370.648912907        167733558.14208877     
   3778079968.2704258        28203095.351758003        173017923.69229540     
   3664875916.6829748        44489986.195396423        179406760.77382931     
   3838169864.0438037       -29011844.446560860        332148470.91526514     
   3728479010.6640992       -16059069.559171915        337730284.67617172     
   3619513270.4286990       -689250.85745406151        345679498.44009125     
   3511272643.3375936        17097611.658585310        355996112.20703131     
   3403757129.3907752        37301517.988923550        368680125.97696674     
   3563844435.4165888       -33318209.734319210        501149599.73509306     
   3460864896.8333650       -23984542.262099504        510243311.95505643     
   3359472334.6964836       -9360953.3020663261        522967352.64972162     
   3259666749.0059404        10552557.145759702        539321721.81909108     
   3161448139.7617416        35755989.081400394        559306419.46315622     
   3293895336.2046280       -36311676.197481632        667481628.09509063     
   3201235479.4798484       -29514606.021854877        681092745.95982707     
   3111024462.5034699       -14554736.684908032        699597120.77096426     
   3023262285.2754703        8567931.8133099079        722994752.52848494     
   2937948947.7958584        39853399.472822547        751285641.23239863     
   3944804501.6383224        57321393.700813532       -8513676.1462558154     
   3693580566.6804624        28931317.023612738       -46529285.717294551     
   3442655982.5569692        1539076.4609918594       -79697146.112739369     
   3192030749.2678514       -24855327.987034678       -108017257.33256081     
   2941704866.8131123       -50251896.320509553       -131489619.37679346     
   3664875916.6829748        44489986.195396423        179406760.77382931     
   3428672830.1146402        23268130.541483164        148097125.79285949     
   3192204931.5040789        1163568.0801621675        121840035.54594395     
   2955472220.8512979       -21823701.188592553        100635490.03305450     
   2718474698.1562815       -45693677.264754295        84483489.254214212     
   3403757129.3907752        37301517.988923550        368680125.97696674     
   3183160021.3789387        23423422.408392787        343418275.56337321     
   2961733938.4482727        6782077.0984528065        323413765.44226164     
   2739478880.5987668       -12622517.940933347        308666595.61363113     
   2516394847.8304625       -34790362.709708571        299176766.07747680     
   3161448139.7617416        35755989.081400394        559306419.46315622     
   2957042140.4733515        29397192.624341846        539434163.59423995     
   2751243003.3895369        18394603.515860319        525024043.57624084     
   2544050728.5102968        2748221.7559658289        516076059.40915298     
   2335465315.8356323       -17541952.655346274        512590211.09297764     
   2937948947.7958584        39853399.472822547        751285641.23239863     
   2750319187.3978806        41189441.189319015        736144789.88546574     
   2560732126.3278756        36001147.332398653        726670869.94787204     
   2369187764.5858502        24288517.902052164        722863881.41964078     
   2175686102.1717892        6051552.8982987404        724723824.30075133     
   5957910934.5706968        1787373280.3712091        1150181605.5300229     
   6088361333.2315464        1502216940.4984932        1228079973.5342193     
   6221539471.7565317        1226153066.8395641        1268616566.5407312     
   6357445350.1456537        959181659.39442086        1271791384.5495589     
   6496078968.3989115        701302718.16306448        1237604427.5607018     
   5434688464.9229794        1630406539.4768937        1033593934.9051160     
   5489918571.9161739        1372479252.5331092        1114015327.9087875     
   5547344966.7837868        1121872925.1707115        1167653105.4898868     
   5606967649.5258131        878587557.38969886        1194507267.6484137     
   5668786620.1422548        642623149.19007277        1194577814.3843684     
   4895356268.6974449        1468606880.6092334        936468255.02904344     
   4905589397.0947342        1246975640.5159054        1018792645.7108504     
   4917487361.3767204        1030893853.3715630        1084911580.5451963     
   4931050161.5433989        820361519.17620564        1134825059.5320823     
   4946277797.5947762        615378637.92983437        1168533082.6715076     
   4339914345.8940916        1301974303.7682276        858804565.90180564     
   4335373808.7672234        1125706104.4468803        942411926.94040728     
   4331966655.5353317        953215851.44211864        1020391991.7066607     
   4329692886.1984158        784503544.75394166        1092744760.2005656     
   4328552500.7564745        619569184.38234925        1159470232.4221215     
   3768362696.5129247        1130508808.9538774        800602867.52340281     
   3779271806.9336476        1008670644.3260357        884873171.59745955     
   3790782849.2596259        888838919.38237810        974094338.97427928     
   3802895823.4908605        771013634.12290525        1068266369.6538628     
   3815610729.6273494        655194788.54761672        1167389263.6362092     
   6496078968.3989115        701302718.16306448        1237604427.5607018     
   6239200914.8100595        375763261.26272178        1053495903.4332618     
   6013216870.2913427        153203834.59616375        908443514.29053712     
   5818126834.8427629        33624438.163394690        802447260.13252497     
   5653930808.4643183        17025071.964409351        735507140.95922887     
   5668786620.1422548        642623149.19007277        1194577814.3843684     
   5518955299.8547602        383100496.09359598        1073742547.6094141     
   5393259675.6759224        204030163.35931420        980960139.81912577     
   5291699747.6057453        105412150.98723221        916230591.01350582     
   5214275515.6442251        87246458.977343321        879553901.19255376     
   4946277797.5947762        615378637.92983437        1168533082.6715076     
   4872055279.1799307        412441409.20861077        1103086374.7939823     
   4815210143.9122677        267428790.97799516        1054689249.9010772     
   4775742391.7917852        180340783.23798656        1023341707.9927918     
   4753652022.8184853        151177385.98858428        1009043749.0691271     
   4328552500.7564745        619569184.38234925        1159470232.4221215     
   4298500852.7855711        463786000.60776782        1141527384.9869690     
   4279068275.0003767        343399717.45220411        1129630844.5363886     
   4270254767.4008842        258410334.91565824        1123780611.0703838     
   4272060329.9870987        208817852.99813128        1123976684.5889490     
   3815610729.6273494        655194788.54761672        1167389263.6362092     
   3798292020.6716843        537134270.29106593        1189065578.1883733     
   3784834068.9402494        431942942.78194368        1205784923.7250628     
   3775236874.4330430        339620806.02024913        1217547300.2462788     
   3769500437.1500645        260167860.00598323        1224352707.7520196     
   5653930808.4643183        17025071.964409351        735507140.95922887     
   5520158521.8920479        48311882.014561415        722601778.55521178     
   5381047646.6720285        61803396.572222471        711488637.63712013     
   5236598182.8042612        57499615.637383938        702167718.20495236     
   5086810130.2887440        35400539.210050583        694639020.25870502     
   5214275515.6442251        87246458.977343321        879553901.19255376     
   5077887254.2427788        84817745.171544790        856064448.89671004     
   4939402540.9322748        75400858.335562229        836550992.29002714     
   4798821375.7127161        58995798.469391108        821013531.37250280     
   4656143758.5841017        35602565.573040724        809452066.14413822     
   4753652022.8184853        151177385.98858428        1009043749.0691271     
   4620887141.4542494        116904954.78674650        978752699.74326539     
   4489267944.9196501        86451473.017037630        954621420.30979991     
   4358794433.2146902        59816940.679454327        936649910.76873147     
   4229466606.3393674        37001357.774001837        924838171.12005889     
   4272060329.9870987        208817852.99813128        1123976684.5889490     
   4149158183.5264626        144573510.86017203        1090666531.0948789     
   4030643858.6341591        94955240.616652966        1065699921.6964409     
   3916517355.3101888        59963042.267576694        1049076856.3936379     
   3806778673.5545478        39596915.812936783        1040797335.1864640     
   3769500437.1500645        260167860.00598323        1224352707.7520196     
   3662700380.4594193        167823413.39182115        1191805942.9515505     
   3563530282.0758009        100912161.13441086        1169786496.4499488     
   3471990141.9992056        59434103.233749151        1158294368.2472169     
   3388079960.2296376        43389239.689846158        1157329558.3433540     
   5086810130.2887440        35400539.210050583        694639020.25870502     
   4935032547.9860888        9012064.8918793201        677293058.18362367     
   4786158913.2621527       -7696584.1639075279        667452337.63629949     
   4640189226.1169300       -14725407.957308531        665116858.61673284     
   4497123486.5504236       -12074406.488318205        670286621.12492311     
   4656143758.5841017        35602565.573040724        809452066.14413822     
   4524298080.2805367        15550527.128120899        795884214.45386720     
   4394609257.9325724        2688008.5351893902        788681100.64900899     
   4267077291.5402002       -2984990.2057585716        787842724.72955763     
   4141702181.1034236       -1468469.0947229862        793369086.69551361     
   4229466606.3393674        37001357.774001837        924838171.12005889     
   4114294250.1996202        22308180.651757717        914176822.92095768     
   4000531658.3923435        12314217.971090555        908739708.96491802     
   3888178830.9175458        7019469.7320113182        908526829.25194299     
   3777235767.7752180        6423935.9345078468        913538183.78202569     
   3806778673.5545478        39596915.812936783        1040797335.1864640     
   3705021057.7433348        29285025.462782621        1032170883.5848892     
   3603926114.6414762        21182044.143804312        1027628162.5840331     
   3503493844.2489719        15287971.856005192        1027169172.1838893     
   3403724246.5658183        11602808.599379063        1030793912.3844609     
   3388079960.2296376        43389239.689846158        1157329558.3433540     
   3296478502.9116850        36481061.561198115        1149866396.4456694     
   3204792626.6799617        29291487.053318858        1145346461.5063484     
   3113022331.5344739        21820516.166223407        1143769753.5253980     
   3021167617.4752169        14068148.899893045        1145136272.5028129     
   4497123486.5504236       -12074406.488318205        670286621.12492311     
   4362640622.3304882       -3221753.0070624352        670642055.76718843     
   4227645100.2516022        3922040.9443495274        673654461.00476873     
   4092136920.3137541        9356975.3658876419        679323836.83766782     
   3956116082.5169477        13083050.257573128        687650183.26588225     
   4141702181.1034236       -1468469.0947229862        793369086.69551361     
   4013664618.4165316        2234141.9176056385        790565754.22685647     
   3885438216.6375742        5307289.2896969318        791251846.75805593     
   3757022975.7665324        7750973.0215206146        795427364.28911126     
   3628418895.8034158        9565193.1130974293        803092306.82002032     
   3777235767.7752180        6423935.9345078468        913538183.78202569     
   3658021947.7772007        5690036.8246669769        907953872.76381218     
   3538943107.4539900        5406069.9641780853        906691441.14998877     
   3419999246.8055797        5572035.3530359268        909750888.94055736     
   3301190365.8319798        6187932.9912469387        917132216.13552141     
   3403724246.5658183        11602808.599379063        1030793912.3844609     
   3295712610.4124918        7145931.7141122818        1022806411.3780456     
   3188159772.7008514        4218382.9677962065        1019973244.1805660     
   3081065733.4308972        2820162.3604332209        1022294410.7920116     
   2974430492.6026278        2951269.8920215368        1029769911.2123898     
   3021167617.4752169        14068148.899893045        1145136272.5028129     
   2926736606.3224053        6601826.5859407187        1135123370.0695646     
   2833088212.3781586        1744228.3005423546        1131097255.8497808     
   2740222435.6424837       -504645.95629107952        1133057929.8434694     
   2648139276.1153717       -144796.18457162380        1141005392.0506241     
   3956116082.5169477        13083050.257573128        687650183.26588225     
   3792152442.2868032        6039523.1369266510        673983731.15605402     
   3627127771.1580305       -4540773.6458117962        666066821.25764751     
   3461042069.1306400       -18657840.090605259        663899453.57066178     
   3293895336.2046280       -36311676.197481632        667481628.09509063     
   3628418895.8034158        9565193.1130974293        803092306.82002032     
   3479390202.1958737        3940464.9294140339        788407618.71221626     
   3329685580.0879250       -3937358.2556130886        779134393.73262155     
   3179305029.4795723       -14068276.441988468        775272631.88122725     
   3028248550.3708186       -26452289.629704952        776822333.15803921     
   3301190365.8319798        6187932.9912469387        917132216.13552141     
   3166130678.6092787        1692221.6732046604        901878578.16100311     
   3030780165.2843933       -3772909.9854583740        891698324.23147118     
   2895138825.8573213       -10207461.984729648        886591454.34693086     
   2759206660.3280721       -17611434.324612737        886557968.50738156     
   2974430492.6026278        2951269.8920215368        1029769911.2123898     
   2852373871.5270133       -705206.63171720505        1014396609.5024114     
   2730411526.7474375       -4047428.8353246450        1003758612.7542008     
   2608543458.2638912       -7075396.7188330889        997855920.96776950     
   2486769666.0763869       -9789110.2822072506        996688534.14311552     
   2648139276.1153717       -144796.18457162380        1141005392.0506241     
   2538119780.9490886       -3251819.9853203297        1125961712.7364397     
   2428579664.4770613       -4760914.8052170277        1115315259.3008087     
   2319518926.6992884       -4672080.6442708969        1109066031.7437458     
   2210937567.6157722       -2985317.5024638176        1107214030.0652378     
   3293895336.2046280       -36311676.197481632        667481628.09509063     
   3201235479.4798484       -29514606.021854877        681092745.95982707     
   3111024462.5034699       -14554736.684908032        699597120.77096426     
   3023262285.2754703        8567931.8133099079        722994752.52848494     
   2937948947.7958584        39853399.472822547        751285641.23239863     
   3028248550.3708186       -26452289.629704952        776822333.15803921     
   2947857150.2361965       -16113894.367171407        791070436.70560431     
   2869145778.4424334       -175404.63510906696        809045328.74068308     
   2792114434.9895291        21363179.566480517        830747009.26327789     
   2716763119.8774791        48501858.237589836        856175478.27338719     
   2759206660.3280721       -17611434.324612737        886557968.50738156     
   2687750949.7582402       -4731544.0827760696        900546111.09565127     
   2617206456.1217360        11185735.936814904        917094573.71255553     
   2547573179.4185505        30140405.734143138        936203356.35809636     
   2478851119.6486993        52132465.309230447        957872459.03227985     
   2486769666.0763869       -9789110.2822072506        996688534.14311552     
   2420916878.0459795        4632444.8313196898        1009519769.1299665     
   2355206495.5413704        19528685.030836821        1023744855.6865790     
   2289638518.5625448        34899610.316299438        1039363793.8129510     
   2224212947.1095152        50745220.687749863        1056376583.5090843     
   2210937567.6157722       -2985317.5024638176        1107214030.0652378     
   2147354935.0994210        11978072.375139356        1117991410.8085554     
   2083145896.7013311        24853442.646939874        1128996174.6627541     
   2018310452.4215009        35640793.312943459        1140228321.6278305     
   1952848602.2599330        44340124.373152971        1151687851.7037947     
   2937948947.7958584        39853399.472822547        751285641.23239863     
   2750319187.3978806        41189441.189319015        736144789.88546574     
   2560732126.3278756        36001147.332398653        726670869.94787204     
   2369187764.5858502        24288517.902052164        722863881.41964078     
   2175686102.1717892        6051552.8982987404        724723824.30075133     
   2716763119.8774791        48501858.237589836        856175478.27338719     
   2543226075.5505328        46953238.583834529        833440427.22852528     
   2368515653.7220383        41493360.591591358        816544686.68363631     
   2192631854.3919921        32122224.260835409        805488256.63870203     
   2015574677.5603886        18839829.591573119        800271137.09372461     
   2478851119.6486993        52132465.309230447        957872459.03227985     
   2319899303.0802541        47846937.791483998        928457785.32172179     
   2160558032.1807241        42263229.170136571        905054801.20173860     
   2000827306.9501190        35381339.445205569        887663506.67232347     
   1840707127.3884411        27201268.616683364        876283901.73349118     
   2224212947.1095152        50745220.687749863        1056376583.5090843     
   2080338869.9870243        43870538.812238216        1021196864.1650450     
   1936859261.7039289        38310753.068039656        992201213.50218844     
   1793774122.2602310        34065863.455172181        969389631.52051330     
   1651083451.6559258        31135869.973626614        952762118.22003365     
   1952848602.2599330        44340124.373152971        1151687851.7037947     
   1824544776.2708614        35024041.646119118        1111657663.7584915     
   1697419342.2916608        29635932.285305142        1077983923.5849872     
   1571472300.3223348        28175796.290742278        1050666631.1832733     
   1446703650.3628683        30643633.662400484        1029705786.5533578     
   3768362696.5129247        1130508808.9538774        800602867.52340281     
   3779271806.9336476        1008670644.3260357        884873171.59745955     
   3790782849.2596259        888838919.38237810        974094338.97427928     
   3802895823.4908605        771013634.12290525        1068266369.6538628     
   3815610729.6273494        655194788.54761672        1167389263.6362092     
   3207896887.9334693        962369066.38004076        756708574.02343106     
   3236040829.0960498        868164676.88767290        853055951.81426156     
   3263907139.4113879        773034851.23782873        951333003.38018644     
   3291495818.8794827        676979589.43050861        1051539728.7212059     
   3318806867.5003347        579998891.46571231        1153676127.8373201     
   2685712487.5352540        805713746.26057613        721967099.53148687     
   2722459289.3606386        736553540.87996614        829365394.49451017     
   2758048897.5862823        663536023.50021911        935672173.70495927     
   2792481312.2121859        586661194.12133598        1040887437.1628339     
   2825756533.2383466        505929052.74331558        1145011184.8681347     
   2201809495.3182802        660542848.59548402        696378444.04757082     
   2238527187.7274151        613837236.30291545        813801499.63820541     
   2273208123.7843103        560342436.16954970        927111849.94859707     
   2305852303.4889669        500058448.19538683        1036309494.9787457     
   2336459726.8413849        432985272.38042676        1141394434.7286515     
   1756187911.2825468        526856373.38476402        679942607.57168221     
   1784244524.1963785        500015763.15652108        806364267.24534714     
   1809384818.0054724        463454089.24582028        925652032.11110020     
   1831608792.7098293        417171351.65266210        1037805902.1689417     
   1850916448.3094492        361167550.37704599        1142825877.4188712     
   3815610729.6273494        655194788.54761672        1167389263.6362092     
   3798292020.6716843        537134270.29106593        1189065578.1883733     
   3784834068.9402494        431942942.78194368        1205784923.7250628     
   3775236874.4330430        339620806.02024913        1217547300.2462788     
   3769500437.1500645        260167860.00598323        1224352707.7520196     
   3318806867.5003347        579998891.46571231        1153676127.8373201     
   3294192531.8197942        472686018.10471761        1182008559.5971048     
   3273314358.7848816        377827020.22915435        1207205714.0696361     
   3256172348.3955989        295421897.83902156        1229267591.2549155     
   3242766500.6519451        225470650.93431962        1248194191.1529429     
   2825756533.2383466        505929052.74331558        1145011184.8681347     
   2799051404.3421335        410925274.33063853        1179854373.4938402     
   2775957843.5129499        327960056.14139509        1213383976.5605152     
   2756475850.7507954        257033398.17558539        1245599994.0681593     
   2740605426.0556736        198145300.43321121        1276502426.0167730     
   2336459726.8413849        432985272.38042676        1141394434.7286515     
   2312868638.2387033        351852038.96882844        1182603019.8785794     
   2292764523.1244531        282342050.51866692        1224319711.1976984     
   2276147381.4986339        224455307.02994233        1266544508.6860087     
   2263017213.3612452        178191808.50265479        1309277412.3435104     
   1850916448.3094492        361167550.37704599        1142825877.4188712     
   1835644233.5095050        295466312.01928872        1190254498.7513232     
   1823734397.6193926        240973003.36096931        1240012917.9811876     
   1815186940.6391125        197687624.40209132        1292101135.1084645     
   1810001862.5686641        165610175.14265352        1346519150.1331546     
   3769500437.1500645        260167860.00598323        1224352707.7520196     
   3662700380.4594193        167823413.39182115        1191805942.9515505     
   3563530282.0758009        100912161.13441086        1169786496.4499488     
   3471990141.9992056        59434103.233749151        1158294368.2472169     
   3388079960.2296376        43389239.689846158        1157329558.3433540     
   3242766500.6519451        225470650.93431962        1248194191.1529429     
   3165577892.0698438        151232089.38917649        1231002450.5982416     
   3094442690.2560196        97171550.404954433        1221883147.5814719     
   3029360895.2104721        63289033.981657028        1220836282.1026299     
   2970332506.9332023        49584540.119282365        1227861854.1617184     
   2740605426.0556736        198145300.43321121        1276502426.0167730     
   2686014320.5508599        139908440.44771063        1272826399.5793028     
   2635900070.2755737        96594431.227300882        1274767929.9188204     
   2590262675.2298155        68203272.771988392        1282327017.0353298     
   2549102135.4135866        54734965.081766963        1295503660.9288273     
   2263017213.3612452        178191808.50265479        1309277412.3435104     
   2224009665.9024644        133852466.56742120        1317277789.8947287     
   2187902422.1344614        99180803.601448655        1328440843.4619968     
   2154695482.0572391        74176819.604742289        1342766573.0453155     
   2124388845.6707954        58840514.577298760        1360254978.6446850     
   1810001862.5686641        165610175.14265352        1346519150.1331546     
   1779563928.1246593        133064167.74830860        1364356621.5445216     
   1750449745.8326826        104930667.52739251        1382901888.2109985     
   1722659315.6927400        81209674.479921341        1402154950.1325874     
   1696192637.7048242        61901188.605875432        1422115807.3092856     
   3388079960.2296376        43389239.689846158        1157329558.3433540     
   3296478502.9116850        36481061.561198115        1149866396.4456694     
   3204792626.6799617        29291487.053318858        1145346461.5063484     
   3113022331.5344739        21820516.166223407        1143769753.5253980     
   3021167617.4752169        14068148.899893045        1145136272.5028129     
   2970332506.9332023        49584540.119282365        1227861854.1617184     
   2885941613.1346545        38002570.417561293        1219711421.3085504     
   2801913538.3812609        27629997.533017755        1215242916.1057289     
   2718248282.6730194        18466821.465648055        1214456338.5532563     
   2634945846.0099325        10513042.215461016        1217351688.6511278     
   2549102135.4135866        54734965.081766963        1295503660.9288273     
   2474032378.5401006        39112375.828668475        1287187734.7389195     
   2399772678.6706915        26189976.589152694        1283292436.8913395     
   2326323035.8053551        15967767.363217831        1283817767.3860855     
   2253683449.9440947        8445748.1508669853        1288763726.2231550     
   2124388845.6707954        58840514.577298760        1360254978.6446850     
   2060750799.1280253        39810477.794518590        1352295336.7367795     
   1998370047.5482535        24971424.221724033        1349495023.8631783     
   1937246590.9314773        14323353.858920336        1351854040.0238848     
   1877380429.2776971        7866266.7061055899        1359372385.2188952     
   1696192637.7048242        61901188.605875432        1422115807.3092856     
   1646096874.8984272        40096876.315111816        1415034227.3021257     
   1597705645.0139496        23974340.430744350        1413850677.0212483     
   1551018948.0513861        13533580.952757657        1418565156.4666576     
   1506036784.0107434        8774597.8811739087        1429177665.6383498     
   3021167617.4752169        14068148.899893045        1145136272.5028129     
   2926736606.3224053        6601826.5859407187        1135123370.0695646     
   2833088212.3781586        1744228.3005423546        1131097255.8497808     
   2740222435.6424837       -504645.95629107952        1133057929.8434694     
   2648139276.1153717       -144796.18457162380        1141005392.0506241     
   2634945846.0099325        10513042.215461016        1217351688.6511278     
   2555912837.9479375        5379990.5192037821        1209578015.8404765     
   2477532328.8453560        2421935.3543255329        1207123725.5129018     
   2399804318.7021956        1638876.7208515406        1209988817.6684053     
   2322728807.5184493        3030814.6187599897        1218173292.3069808     
   2253683449.9440947        8445748.1508669853        1288763726.2231550     
   2188141571.4575062        5073905.0176744461        1283077478.4110968     
   2123122073.6811826        3443330.9186992645        1282043207.3517220     
   2058624956.6151278        3554025.8539570570        1285660913.0450306     
   1994650220.2593427        5405989.8234362602        1293930595.4910216     
   1877380429.2776971        7866266.7061055899        1359372385.2188952     
   1823422806.8511078        5683570.0813502073        1355621757.7814207     
   1769857446.8856380        4808414.9936641455        1355855701.3662384     
   1716684349.3812838        5240801.4430260658        1360074215.9733462     
   1663903514.3380499        6980729.4294599295        1368277301.6027446     
   1506036784.0107434        8774597.8811739087        1429177665.6383498     
   1461756544.1287491        7208985.7102501988        1427210853.9514518     
   1417738448.4587193        6517187.5792070627        1428561207.5564523     
   1373982497.0006607        6699203.4880699515        1433228726.4533510     
   1330488689.7545688        7755033.4368205070        1441213410.6421468     
   2648139276.1153717       -144796.18457162380        1141005392.0506241     
   2538119780.9490886       -3251819.9853203297        1125961712.7364397     
   2428579664.4770613       -4760914.8052170277        1115315259.3008087     
   2319518926.6992884       -4672080.6442708969        1109066031.7437458     
   2210937567.6157722       -2985317.5024638176        1107214030.0652378     
   2322728807.5184493        3030814.6187599897        1218173292.3069808     
   2224426682.7725048       -376235.52034258842        1202842318.1278548     
   2126506561.9451530       -2509939.2641352415        1192196716.7792780     
   2028968445.0363901       -3370296.6126290560        1186236488.2612500     
   1931812332.0462203       -2957307.5658159256        1184961632.5737743     
   1994650220.2593427        5405989.8234362602        1293930595.4910216     
   1908888742.9394228        1945896.4476878643        1278198722.5420082     
   1823411894.7624376       -565433.11829233170        1267440369.3755393     
   1738219675.7283733       -2127998.8745293617        1261655535.9916110     
   1653312085.8372390       -2741800.8209987879        1260844222.3902259     
   1663903514.3380499        6980729.4294599295        1368277301.6027446     
   1591505961.4498467        3714575.9187689424        1352030925.9789069     
   1519295662.9289134        1072603.6323096156        1341046217.0896010     
   1447272618.7752361       -945187.42996269464        1335323174.9348326     
   1375436828.9888275       -2338797.2680097818        1334861799.5145941     
   1330488689.7545688        7755033.4368205070        1441213410.6421468     
   1272278338.3037741        4929802.8929027915        1424338928.4385414     
   1214157866.4445815        2404170.9876642823        1413014259.9214618     
   1156127274.1769841        178137.72107505798        1407239405.0909066     
   1098186561.5009882       -1748296.9068458676        1407014363.9468760     
   2210937567.6157722       -2985317.5024638176        1107214030.0652378     
   2147354935.0994210        11978072.375139356        1117991410.8085554     
   2083145896.7013311        24853442.646939874        1128996174.6627541     
   2018310452.4215009        35640793.312943459        1140228321.6278305     
   1952848602.2599330        44340124.373152971        1151687851.7037947     
   1931812332.0462203       -2957307.5658159256        1184961632.5737743     
   1869430748.5368421        7885221.0797604322        1196078479.0211046     
   1806665302.2657082        17448207.186151147        1208842794.1856937     
   1743515993.2328203        25731650.753358126        1223254578.0675402     
   1679982821.4381771        32735551.781380475        1239313830.6666427     
   1653312085.8372390       -2741800.8209987879        1260844222.3902259     
   1596188938.7816241        5197082.8265965581        1272583501.5148830     
   1538924472.0842371        12664901.001614332        1287390334.9631758     
   1481518685.7450764        19661653.704050362        1305264722.7351027     
   1423971579.7641380        26187340.933904588        1326206664.8306589     
   1375436828.9888275       -2338797.2680097818        1334861799.5145941     
   1327629505.8337657        3913657.6156455278        1347506478.2898920     
   1279923406.1569102        10503524.093322635        1364638796.9951992     
   1232318529.9582617        17430802.165019870        1386258755.6305149     
   1184814877.2378225        24695491.830748379        1412366354.1958408     
   1098186561.5009882       -1748296.9068458676        1407014363.9468760     
   1063752449.6932617        4034945.4468874931        1420847409.3461273     
   1029662104.4837286        10964076.461264491        1440588180.2817659     
   995915525.87238586        19039096.136274159        1466236676.7537854     
   962512713.85923183        28260004.471919537        1497792898.7621920     
   1952848602.2599330        44340124.373152971        1151687851.7037947     
   1824544776.2708614        35024041.646119118        1111657663.7584915     
   1697419342.2916608        29635932.285305142        1077983923.5849872     
   1571472300.3223348        28175796.290742278        1050666631.1832733     
   1446703650.3628683        30643633.662400484        1029705786.5533578     
   1679982821.4381771        32735551.781380475        1239313830.6666427     
   1568413878.9596131        25974274.219298303        1206127596.8485806     
   1457654438.3296793        21911336.152651370        1178868332.1518197     
   1347704499.5483739        20546737.581448853        1157536036.5763476     
   1238564062.6157053        21880478.505674422        1142130710.1221697     
   1423971579.7641380        26187340.933904588        1326206664.8306589     
   1327910438.9375103        21612743.979231060        1299434013.2850633     
   1232289909.7982647        18506852.649177313        1278158852.2102561     
   1137109992.3464141        16869666.943762243        1262381181.6062427     
   1042370686.5819466        16701186.862969637        1252101001.4730220     
   1184814877.2378225        24695491.830748379        1412366354.1958408     
   1103034456.2045472        21939450.925900757        1391576913.0679228     
   1021325756.6974177        19422481.774875343        1375855483.7602983     
   939688778.71642935        17144584.377658248        1365202066.2729609     
   858123522.26159811        15105758.734287828        1359616660.6059110     
   962512713.85923183        28260004.471919537        1497792898.7621920     
   893785930.76072872        26954395.059310526        1482556296.1971765     
   824761979.02713192        24658223.529729217        1471958226.8019421     
   755440858.65844417        21371489.883169264        1465998690.5764964     
   685822569.65465891        17094194.119628817        1464677687.5208426     
   1756187911.2825468        526856373.38476402        679942607.57168221     
   1784244524.1963785        500015763.15652108        806364267.24534714     
   1809384818.0054724        463454089.24582028        925652032.11110020     
   1831608792.7098293        417171351.65266210        1037805902.1689417     
   1850916448.3094492        361167550.37704599        1142825877.4188712     
   1326565506.8873582        397969652.06620741        669565608.96450090     
   1339761048.2950881        375485118.87608534        791726599.57139802     
   1350769350.3740451        345709787.92338598        908584642.97271621     
   1359590413.1242287        308643659.20810956        1020139739.1684558     
   1366224236.5456395        264286732.73025566        1126391888.1586163     
   890660053.59201753        267198016.07760525        662153467.08670652     
   894225802.35745454        250638943.58474663        780904381.69879401     
   896333391.57008266        229219339.24919122        896183296.70763528     
   896982821.22990167        202939203.07093912        1007990212.1132312     
   896174091.33691144        171798535.04999000        1116325127.9155807     
   448471551.39652538        134541465.41895762        657706181.93829894     
   447638786.38347763        125477237.28250490        773897613.62753499     
   446076941.59358490        113982743.22323570        888447993.31585801     
   443786017.02684736        100057983.24115051        1001357321.0032678     
   440766012.68326479        83702957.336248606        1112625596.6897650     
  0.30088134364955216        9.0264403094865636E-002   656223753.51927817     
  0.37315711418286834       -3.0639953715242502E-002   770706295.35762072     
  0.44455209602786311      -0.15448005597932088        885378732.79738343     
  0.51506632206803094      -0.28125620608254676        1000241065.8385657     
  0.58469979659252314      -0.41096819457135775        1115293294.4811685     
   1850916448.3094492        361167550.37704599        1142825877.4188712     
   1835644233.5095050        295466312.01928872        1190254498.7513232     
   1823734397.6193926        240973003.36096931        1240012917.9811876     
   1815186940.6391125        197687624.40209132        1292101135.1084645     
   1810001862.5686641        165610175.14265352        1346519150.1331546     
   1366224236.5456395        264286732.73025566        1126391888.1586163     
   1360676954.8718987        216782867.76033732        1181688525.3269908     
   1357651457.3861487        177684950.08372203        1237936688.5286083     
   1357147744.0883889        146992979.70040774        1295136377.7634668     
   1359165814.9786208        124706956.61039931        1353287593.0315678     
   896174091.33691144        171798535.04999000        1116325127.9155807     
   896413823.17745709        141310667.58433574        1178509087.0777309     
   898334744.48415232        116426765.00584677        1240266300.4089522     
   901936855.25699782        97146827.314524770        1301596767.9092445     
   907220155.49599266        83470854.510368615        1362500489.5786085     
   440766012.68326479        83702957.336248606        1112625596.6897650     
   442854838.42618030        69049711.491283193        1180716184.0035427     
   445784258.91340458        57198448.127346784        1247001753.6222205     
   449554274.14493757        48149167.244439214        1311482305.5457981     
   454164884.12077981        41901868.842563063        1374157839.7742779     
  0.58469979659252314      -0.41096819457135775        1115293294.4811685     
  0.61806881728017238      -0.51881904221502584        1188309816.1044250     
  0.67390553416950127      -0.55177787276303636        1258143048.1684117     
  0.75221005234472060      -0.50984388056977525        1324792990.6731281     
  0.85298201652111805      -0.39301840170591956        1388259643.6185737     
   1810001862.5686641        165610175.14265352        1346519150.1331546     
   1779563928.1246593        133064167.74830860        1364356621.5445216     
   1750449745.8326826        104930667.52739251        1382901888.2109985     
   1722659315.6927400        81209674.479921341        1402154950.1325874     
   1696192637.7048242        61901188.605875432        1422115807.3092856     
   1359165814.9786208        124706956.61039931        1353287593.0315678     
   1333594288.2739964        99474528.318849623        1372408056.1142340     
   1309015575.6738529        77551480.375572801        1392876365.4868207     
   1285429677.1781912        58937812.780567586        1414692521.1493289     
   1262836592.7870116        43633525.533837438        1437856523.1017585     
   907220155.49599266        83470854.510368615        1362500489.5786085     
   888343753.77306390        66100620.494311482        1382517849.9437680     
   870129228.10706842        50936640.001364231        1404523107.6336579     
   852576578.49800599        37978913.031527936        1428516262.6482794     
   835685804.94587624        27227439.584800541        1454497314.9876332     
   454164884.12077981        41901868.842563063        1374157839.7742779     
   443812324.62186289        32942444.274692371        1394686003.0331221     
   433790703.13233048        25086146.404769942        1417842114.6515079     
   424100019.65218198        18332975.232794091        1443626174.6294363     
   414740274.18141836        12682930.758767039        1472038182.9669070     
  0.85298201652111805      -0.39301840170591956        1388259643.6185737     
  0.82039235752769735      -0.34000802402505087        1408912515.3822963     
  0.74963916713327272      -0.41420941768086178        1432833386.5403724     
  0.64072044087439928      -0.61562909074582151        1460022257.0928004     
  0.49363773142390222      -0.94426238806088780        1490479127.0395813     
   1696192637.7048242        61901188.605875432        1422115807.3092856     
   1646096874.8984272        40096876.315111816        1415034227.3021257     
   1597705645.0139496        23974340.430744350        1413850677.0212483     
   1551018948.0513861        13533580.952757657        1418565156.4666576     
   1506036784.0107434        8774597.8811739087        1429177665.6383498     
   1262836592.7870116        43633525.533837438        1437856523.1017585     
   1228929270.6816192        28379641.251662672        1434259302.1081092     
   1196300348.2819562        17387089.321918190        1435705060.8485048     
   1164949825.5880241        10655869.744611382        1442193799.3229418     
   1134877702.5998204        8185982.5197330117        1453725517.5314255     
   835685804.94587624        27227439.584800541        1454497314.9876332     
   815523923.56365824        17791083.317866832        1453887297.5886087     
   796214308.67098153        11195615.349402964        1457465209.9313874     
   777756960.26784778        7441035.6794158816        1465231052.0159712     
   760151878.35425544        6527344.3079002500        1477184823.8423581     
   414740274.18141836        12682930.758767039        1472038182.9669070     
   405880833.54454565        8331202.5137266964        1473918213.7436211     
   397447526.18102634        5399918.5131975412        1479131124.2698996     
   389440352.09085965        3889078.7571776211        1487676914.5457385     
   381859311.27404803        3798683.2456743717        1499555584.5711451     
  0.49363773142390222      -0.94426238806088780        1490479127.0395813     
  0.62427956577076227       -1.1607611392219073        1494352050.5731485     
  0.81208551787932082       -1.1867124842325691        1500702803.8640397     
   1.0570599283708473       -1.0221029951893958        1509531386.9122524     
   1.3591983308089630      -0.66694582549017190        1520837799.7177873     
   1506036784.0107434        8774597.8811739087        1429177665.6383498     
   1461756544.1287491        7208985.7102501988        1427210853.9514518     
   1417738448.4587193        6517187.5792070627        1428561207.5564523     
   1373982497.0006607        6699203.4880699515        1433228726.4533510     
   1330488689.7545688        7755033.4368205070        1441213410.6421468     
   1134877702.5998204        8185982.5197330117        1453725517.5314255     
   1099748833.7742701        6436166.7664464116        1451001798.4534822     
   1064816573.0821966        5341711.4580816627        1452042938.7999113     
   1030080920.5235994        4902616.5946388245        1456848938.5707126     
   995541876.09847558        5118882.1761090755        1465419797.7658846     
   760151878.35425544        6527344.3079002500        1477184823.8423581     
   735453506.67793620        4977062.8000964820        1473627738.6151278     
   710886207.05659819        3863688.1422315240        1474283206.9447436     
   686449979.49024558        3187220.3343181312        1479151228.8312070     
   662144823.97887325        2947659.3763382137        1488231804.2745178     
   381859311.27404803        3798683.2456743717        1499555584.5711451     
   368870562.83974111        2831673.8111830354        1495088674.4363868     
   355947350.38192421        2083117.6316596866        1495282011.9909496     
   343089673.90059900        1553014.7071072459        1500135597.2348328     
   330297533.39576346        1241365.0375217646        1509649430.1680377     
   1.3591983308089630      -0.66694582549017190        1520837799.7177873     
   2.2596881325816236      -0.20028607893064720        1515384605.9172606     
   3.0581747756874345       -7.3636861260621078E-002   1515039353.9385278     
   3.7546624577759498      -0.28698452725960877        1519802043.7815900     
   4.3491421544725153      -0.84035811734237242        1529672675.4464478     
   1330488689.7545688        7755033.4368205070        1441213410.6421468     
   1272278338.3037741        4929802.8929027915        1424338928.4385414     
   1214157866.4445815        2404170.9876642823        1413014259.9214618     
   1156127274.1769841        178137.72107505798        1407239405.0909066     
   1098186561.5009882       -1748296.9068458676        1407014363.9468760     
   995541876.09847558        5118882.1761090755        1465419797.7658846     
   951957315.76642060        3021920.1668093204        1449170943.8434589     
   908440165.22262704        1149657.4517151117        1438454822.8178582     
   864990424.46710002       -497905.96915858984        1433271434.6890793     
   821608093.49983239       -1920770.0958304405        1433620779.4571292     
   662144823.97887325        2947659.3763382137        1488231804.2745178     
   633137252.50927365        1564325.2247637212        1472582363.8627076     
   604174621.02460003        330791.02294406295        1462448575.5580235     
   575256929.52485585       -752943.22911018133        1457830439.3604655     
   546384178.01004100       -1686877.5314007103        1458727955.2700374     
   330297533.39576346        1241365.0375217646        1509649430.1680377     
   315818148.53233564        557018.06678284705        1494573188.4962885     
   301361233.85050023       -52428.298647031188        1484995518.1419656     
   286926789.35026151       -586974.05875523388        1480916419.1050723     
   272514815.03161067       -1046619.2135701478        1482335891.3856058     
   4.3491421544725153      -0.84035811734237242        1529672675.4464478     
   3.8356091654460651       -1.3071278720583275        1515143417.7442007     
   3.7003264692285835      -0.51306366435574846        1506095650.5696824     
   3.9433079397953001        1.5418819666558936        1502529373.9228926     
   4.5645455364169596        4.8576799634052312        1504444587.8038325     
   1098186561.5009882       -1748296.9068458676        1407014363.9468760     
   1063752449.6932617        4034945.4468874931        1420847409.3461273     
   1029662104.4837286        10964076.461264491        1440588180.2817659     
   995915525.87238586        19039096.136274159        1466236676.7537854     
   962512713.85923183        28260004.471919537        1497792898.7621920     
   821608093.49983239       -1920770.0958304405        1433620779.4571292     
   800989500.47011948        3978759.7542679608        1447671364.3475564     
   780628732.33048630        10737705.904630810        1466414710.2624490     
   760525789.08093858        18356068.355280608        1489850817.2018020     
   740680670.72147727        26833847.106215090        1517979685.1656239     
   546384178.01004100       -1686877.5314007103        1458727955.2700374     
   536109776.58141983        3287541.6619696021        1472895814.3255167     
   526007258.33477467        8834904.7952596545        1490541469.8935397     
   516076623.27010781        14955211.868478566        1511664921.9741044     
   506317871.38741583        21648462.881613612        1536266170.5672176     
   272514815.03161067       -1046619.2135701478        1482335891.3856058     
   269113278.02716643        1961291.1700042188        1496520759.2800124     
   265797682.49659261        5255673.1331457347        1512968459.1750441     
   262568028.43988737        8836526.6758496761        1531678991.0706930     
   259424315.85705388        12703851.798124462        1552652354.9669712     
   4.5645455364169596        4.8576799634052312        1504444587.8038325     
   4.8073629326434801        8.2783838392389271        1518546199.2110410     
   4.8159408237881234        10.918290058689088        1533695678.1069536     
   4.5902854777308750        12.777417779965525        1549893024.4915671     
   4.1303905350898500        13.855748233741489        1567138238.3648815     
   962512713.85923183        28260004.471919537        1497792898.7621920     
   893785930.76072872        26954395.059310526        1482556296.1971765     
   824761979.02713192        24658223.529729217        1471958226.8019421     
   755440858.65844417        21371489.883169264        1465998690.5764964     
   685822569.65465891        17094194.119628817        1464677687.5208426     
   740680670.72147727        26833847.106215090        1517979685.1656239     
   684995261.34516573        24612544.396977067        1498536995.2914288     
   629086975.98749387        21648321.749869555        1484698912.0252788     
   572955814.64846349        17941179.164903730        1476465435.3671744     
   516601777.32806540        13491116.642040014        1473836565.3171129     
   506317871.38741583        21648462.881613612        1536266170.5672176     
   466434045.55689120        19339529.822821811        1512704068.1465344     
   426401636.39874005        16535319.005278036        1495712645.7721536     
   386220643.91295898        13235830.428964317        1485291903.4440756     
   345891068.09954864        9441064.0938875824        1481441841.1622996     
   259424315.85705388        12703851.798124462        1552652354.9669712     
   238102283.39590997        11135351.336862065        1525057514.7624891     
   216705960.26087236        9319215.2959509268        1504999428.0425632     
   195235346.45193532        7255443.6753775105        1492478094.8072050     
   173690441.96910265        4944036.4751530141        1487493515.0563939     
   4.1303905350898500        13.855748233741489        1567138238.3648815     
  -25.137778397316552        8.9390901732049137        1535597335.1392865     
  -52.426112992956057        10.621882677448873        1512559258.8365076     
  -77.734609317247077        18.904132963685537        1498024009.4565499     
  -101.06327167077882        33.785833288566813        1491991586.9994092     
  0.30088134364955216        9.0264403094865636E-002   656223753.51927817     
  0.37315711418286834       -3.0639953715242502E-002   770706295.35762072     
  0.44455209602786311      -0.15448005597932088        885378732.79738343     
  0.51506632206803094      -0.28125620608254676        1000241065.8385657     
  0.58469979659252314      -0.41096819457135775        1115293294.4811685     
  -448471550.80227554       -134541465.24068266        657706181.82917190     
  -447638785.64829266       -125477237.34656405        773897613.51092303     
  -446076940.71723866       -113982743.52887493        888447993.18910074     
  -443786016.00911337       -100057983.78761530        1001357320.8637044     
  -440766011.52391708       -83702958.122785002        1112625596.5347350     
  -890660053.02030635       -267198015.90609190        662153466.86750829     
  -894225801.65602636       -250638943.65837333        780904381.46694505     
  -896333390.73672318       -229219339.56057799        896183296.45781481     
  -896982820.26239705       -202939203.61270583        1007990211.8401171     
  -896174090.23304772       -171798535.81475678        1116325127.6138530     
  -1326565506.3532112       -397969651.90596336        669565608.63428700     
  -1339761047.6500440       -375485118.96606779        791726599.22568667     
  -1350769349.6139011       -345709788.24958903        908584642.60352564     
  -1359590412.2447844       -308643659.75652730        1020139738.7678043     
  -1366224235.5426917       -264286733.48688224        1126391887.7185223     
  -1756187910.8009901       -526856373.24029702        679942607.12950826     
  -1784244523.6303453       -500015763.26964736        806364266.78714788     
  -1809384817.3487740       -463454089.59590852        925652031.62623358     
  -1831608791.9562757       -417171352.21907991        1037805901.6467654     
  -1850916447.4528501       -361167551.13916183        1142825876.8487430     
  0.58469979659252314      -0.41096819457135775        1115293294.4811685     
  0.61806881728017238      -0.51881904221502584        1188309816.1044250     
  0.67390553416950127      -0.55177787276303636        1258143048.1684117     
  0.75221005234472060      -0.50984388056977525        1324792990.6731281     
  0.85298201652111805      -0.39301840170591956        1388259643.6185737     
  -440766011.52391708       -83702958.122785002        1112625596.5347350     
  -442854837.19095135       -69049712.489757255        1180716183.8801792     
  -445784257.57096845       -57198449.233338788        1247001753.5366886     
  -449554272.66396838       -48149168.353530005        1311482305.5042620     
  -454164882.46995109       -41901869.850329667        1374157839.7829015     
  -896174090.23304772       -171798535.81475678        1116325127.6138530     
  -896413821.97095573       -141310668.55199078        1178509086.8234587     
  -898334743.15729749       -116426766.11733618        1240266300.2144651     
  -901936853.79207218       -97146828.510792971        1301596767.7868712     
  -907220153.87528050       -83470855.732360452        1362500489.5406778     
  -1366224235.5426917       -264286733.48688224        1126391887.7185223     
  -1360676953.7219450       -216782868.70551991        1181688524.9342642     
  -1357651456.0850813       -177684951.20377007        1237936688.2017419     
  -1357147742.6321020       -146992980.98163319        1295136377.5209544     
  -1359165813.3630061       -124706958.03910977        1353287592.8919034     
  -1850916447.4528501       -361167551.13916183        1142825876.8487430     
  -1835644232.4439175       -295466312.95034343        1190254498.2125955     
  -1823734396.3543203       -240973004.49264038        1240012917.4985185     
  -1815186939.1840577       -197687625.76605213        1292101134.7065125     
  -1810001860.9331284       -165610176.77057797        1346519149.8365772     
  0.85298201652111805      -0.39301840170591956        1388259643.6185737     
  0.82039235752769735      -0.34000802402505087        1408912515.3822963     
  0.74963916713327272      -0.41420941768086178        1432833386.5403724     
  0.64072044087439928      -0.61562909074582151        1460022257.0928004     
  0.49363773142390222      -0.94426238806088780        1490479127.0395813     
  -454164882.46995109       -41901869.850329667        1374157839.7829015     
  -443812323.04258358       -32942445.284733981        1394686002.9857588     
  -433790701.67648262       -25086147.590027615        1417842114.5682490     
  -424100018.37164617       -18332976.766201526        1443626174.5303733     
  -414740273.12807631       -12682932.813265532        1472038182.8721299     
  -907220153.87528050       -83470855.732360452        1362500489.5406778     
  -888343752.17286885       -66100621.809656292        1382517849.8223848     
  -870129226.55482364       -50936641.501507491        1404523107.4690049     
  -852576577.02114582       -37978914.807916433        1428516262.4805410     
  -835685803.57183456       -27227441.728881538        1454497314.8569896     
  -1359165813.3630061       -124706958.03910977        1353287592.8919034     
  -1333594286.5704615       -99474529.914768159        1372408055.8921740     
  -1309015573.8853853       -77551482.148656487        1392876365.2426405     
  -1285429675.3077772       -58937814.740770340        1414692520.9433014     
  -1262836590.8376367       -43633527.691110849        1437856522.9941583     
  -1810001860.9331284       -165610176.77057797        1346519149.8365772     
  -1779563926.2353625       -133064169.60007471        1364356621.1951287     
  -1750449743.6681669       -104930669.53146964        1382901887.8891549     
  -1722659313.2315397       -81209676.564762414        1402154949.9186575     
  -1696192634.9254827       -61901190.699953437        1422115807.2836359     
  0.49363773142390222      -0.94426238806088780        1490479127.0395813     
  0.62427956577076227       -1.1607611392219073        1494352050.5731485     
  0.81208551787932082       -1.1867124842325691        1500702803.8640397     
   1.0570599283708473       -1.0221029951893958        1509531386.9122524     
   1.3591983308089630      -0.66694582549017190        1520837799.7177873     
  -414740273.12807631       -12682932.813265532        1472038182.8721299     
  -405880832.17526692       -8331204.9247762561        1473918213.8477392     
  -397447524.44287562       -5399921.1043477952        1479131124.5973101     
  -389440349.93090165       -3889081.3519765437        1487676915.1208436     
  -381859308.63934541       -3798685.6676660329        1499555585.4183404     
  -835685803.57183456       -27227441.728881538        1454497314.8569896     
  -815523921.74931383       -17791085.721140653        1453887297.7841241     
  -796214306.42479515       -11195618.040072352        1457465210.5018628     
  -777756957.59827745       -7441038.6856752336        1465231053.0102034     
  -760151875.26976073       -6527347.6579468548        1477184825.3091483     
  -1262836590.8376367       -43633527.691110849        1437856522.9941583     
  -1228929268.0978632       -28379643.549857855        1434259302.3823066     
  -1196300345.1336727       -17387091.993885100        1435705061.5776973     
  -1164949821.9450686       -10655873.023197293        1442193800.5803316     
  -1134877698.5320473       -8185986.6377878785        1453725519.3902090     
  -1696192634.9254827       -61901190.699953437        1422115807.2836359     
  -1646096871.2209110       -40096878.410921693        1415034227.6422830     
  -1597705640.5695086       -23974342.965787113        1413850677.8248143     
  -1551018942.9712741       -13533584.364545703        1418565157.8312280     
  -1506036778.4262066       -8774602.6071939468        1429177667.6615250     
   1.3591983308089630      -0.66694582549017190        1520837799.7177873     
   2.2596881325816236      -0.20028607893064720        1515384605.9172606     
   3.0581747756874345       -7.3636861260621078E-002   1515039353.9385278     
   3.7546624577759498      -0.28698452725960877        1519802043.7815900     
   4.3491421544725153      -0.84035811734237242        1529672675.4464478     
  -381859308.63934541       -3798685.6676660329        1499555585.4183404     
  -368870558.64231265       -2831675.7935850173        1495088675.2628284     
  -355947344.71401066       -2083119.4819377959        1495282012.7273004     
  -343089666.85443270       -1553016.7327044457        1500135597.8117566     
  -330297525.06358737       -1241367.5459145755        1509649430.5162039     
  -760151875.26976073       -6527347.6579468548        1477184825.3091483     
  -735453502.46706784       -4977066.2637077570        1473627740.1707997     
  -710886201.69983160       -3863691.6543225348        1474283208.4506290     
  -686449972.96804833       -3187223.8297820985        1479151230.1486366     
  -662144816.27172208       -2947662.7900975645        1488231805.2648191     
  -1134877698.5320473       -8185986.6377878785        1453725519.3902090     
  -1099748829.2145774       -6436171.6106573343        1451001800.6411803     
  -1064816567.8992894       -5341716.5907967091        1452042941.1085193     
  -1030080914.5861857       -4902621.5782171488        1456848940.7922256     
  -995541869.27526093       -5118886.5729026794        1465419799.6923032     
  -1506036778.4262066       -8774602.6071939468        1429177667.6615250     
  -1461756538.8848431       -7208991.8344344497        1427210856.6739669     
  -1417738443.3123896       -6517194.2913761735        1428561210.7009673     
  -1373982491.7088411       -6699209.9779982567        1433228729.7425289     
  -1330488684.0742030       -7755038.8943253756        1441213413.7986476     
   4.3491421544725153      -0.84035811734237242        1529672675.4464478     
   3.8356091654460651       -1.3071278720583275        1515143417.7442007     
   3.7003264692285835      -0.51306366435574846        1506095650.5696824     
   3.9433079397953001        1.5418819666558936        1502529373.9228926     
   4.5645455364169596        4.8576799634052312        1504444587.8038325     
  -330297525.06358737       -1241367.5459145755        1509649430.5162039     
  -315818140.91989779       -557020.97035083175        1494573189.5701540     
  -301361226.41106033        52426.822372257710        1484995520.0537012     
  -286926781.53706646        586975.83228391409        1480916421.9668405     
  -272514806.29792053        1046626.0593694746        1482335895.3095808     
  -662144816.27172208       -2947662.7900975645        1488231805.2648191     
  -633137244.89404762       -1564328.3991700113        1472582366.0596817     
  -604174613.16432738       -330792.83475592732        1462448579.1860032     
  -575256921.08255732        752943.90315756202        1457830444.6437869     
  -546384168.64874077        1686881.8145594299        1458727962.4330361     
  -995541869.27526093       -5118886.5729026794        1465419799.6923032     
  -951957308.08684111       -3021923.5935839415        1449170947.2127850     
  -908440156.55947697       -1149659.4844555259        1438454827.9665935     
  -864990414.69316840        497905.75449186563        1433271441.9537318     
  -821608082.48791742        1920772.1232440472        1433620789.1742003     
  -1330488684.0742030       -7755038.8943253756        1441213413.7986476     
  -1272278330.4982722       -4929806.5535790920        1424338933.0294614     
  -1214157856.5965035       -2404173.1267064810        1413014266.3954690     
  -1156127262.3688982       -178138.61370992661        1407239413.8966730     
  -1098186547.8154540        1748296.9854140878        1407014375.5330722     
   4.5645455364169596        4.8576799634052312        1504444587.8038325     
   4.8073629326434801        8.2783838392389271        1518546199.2110410     
   4.8159408237881234        10.918290058689088        1533695678.1069536     
   4.5902854777308750        12.777417779965525        1549893024.4915671     
   4.1303905350898500        13.855748233741489        1567138238.3648815     
  -272514806.29792053        1046626.0593694746        1482335895.3095808     
  -269113268.96515495       -1961278.5929925293        1496520763.3591835     
  -265797673.10142055       -5255654.8087883145        1512968463.5445952     
  -262568018.70670635       -8836502.5879852176        1531678995.8658161     
  -259424305.78102192       -12703821.930615932        1552652360.3228524     
  -546384168.64874077        1686881.8145594299        1458727962.4330361     
  -536109766.66286141       -3287532.6419237852        1472895822.3511100     
  -526007247.38079923       -8834889.4444648027        1490541479.0521052     
  -516076610.80254900       -14955188.593046725        1511664932.5360210     
  -506317856.92811620       -21648430.087686270        1536266182.8028557     
  -821608082.48791742        1920772.1232440472        1433620789.1742003     
  -800989488.28575468       -3978753.8684102893        1447671376.1868258     
  -780628718.02219582       -10737692.988741875        1466414724.6294808     
  -760525771.69724584       -18356045.237769485        1489850834.5021651     
  -740680649.31089461       -26833810.615461051        1517979705.8048785     
  -1098186547.8154540        1748296.9854140878        1407014375.5330722     
  -1063752433.8338389       -4034942.2724573612        1420847424.8663304     
  -1029662085.0256187       -10964065.441645920        1440588200.2767260     
  -995915501.39078808       -19039072.522134840        1466236701.7642608     
  -962512682.92935288       -28259963.513939798        1497792929.3289320     
   4.1303905350898500        13.855748233741489        1567138238.3648815     
  -25.137778397316552        8.9390901732049137        1535597335.1392865     
  -52.426112992956057        10.621882677448873        1512559258.8365076     
  -77.734609317247077        18.904132963685537        1498024009.4565499     
  -101.06327167077882        33.785833288566813        1491991586.9994092     
  -259424305.78102192       -12703821.930615932        1552652360.3228524     
  -238102326.83596319       -11135326.711238533        1525057526.7006900     
  -216706053.83537576       -9319184.6400969326        1504999449.3652596     
  -195235486.77925837       -7255395.7171893269        1492478128.3165557     
  -173690625.66761395       -4943959.9425259158        1487493563.5545990     
  -506317856.92811620       -21648430.087686270        1536266182.8028557     
  -466434071.58721566       -19339495.277484208        1512704092.8724334     
  -426401700.11509478       -16535273.363213852        1495712688.5926540     
  -386220742.51175141       -13235764.344871551        1485291969.9635220     
  -345891198.77718514       -9440968.2224471122        1481441936.9850430     
  -740680649.31089461       -26833810.615461051        1517979705.8048785     
  -684995259.39153838       -24612496.759655952        1498537033.6545029     
  -629086991.26526868       -21648255.547467023        1484698976.5186884     
  -572955844.93208253       -17941086.978895158        1476465534.3974349     
  -516601820.39198291       -13490991.053942949        1473836707.2907465     
  -962512682.92935288       -28259963.513939798        1497792929.3289320     
  -893785890.24893022       -26954331.157748431        1482556349.0469139     
  -824761927.28589714       -24658131.192856550        1471958313.1433716     
  -755440794.04026043       -21371363.619287848        1465998821.6182997     
  -685822490.51201010       -17094028.437000960        1464677874.4717126     
  -1756187910.8009901       -526856373.24029702        679942607.12950826     
  -1784244523.6303453       -500015763.26964736        806364266.78714788     
  -1809384817.3487740       -463454089.59590852        925652031.62623358     
  -1831608791.9562757       -417171352.21907991        1037805901.6467654     
  -1850916447.4528501       -361167551.13916183        1142825876.8487430     
  -2201809494.9161043       -660542848.47483134        696378443.49695158     
  -2238527187.2619181       -613837236.42160261        813801499.06717455     
  -2273208123.2467532       -560342436.49844444        927111849.34731114     
  -2305852302.8706093       -500058448.70535731        1036309494.3373618     
  -2336459726.1334867       -432985273.04234022        1141394434.0373259     
  -2685712487.2510157       -805713746.17530465        721967098.88039684     
  -2722459289.0319519       -736553541.01509607        829365393.82159686     
  -2758048897.2018561       -663536023.81811774        935672173.00117838     
  -2792481311.7607303       -586661194.58437026        1040887436.4191417     
  -2825756532.7085738       -505929053.31385362        1145011184.0754864     
  -3207896887.8057246       -962369066.34171736        756708573.27984369     
  -3236040828.9404454       -868164677.05012739        853055951.05041456     
  -3263907139.2140837       -773034851.55492818        951333002.58783519     
  -3291495818.6266384       -676979589.85611939        1051539727.8921052     
  -3318806867.1781120       -579998891.95370281        1153676126.9632249     
  -3768362696.5802312       -1130508808.9740694        800602866.69529223     
  -3779271806.9874005       -1008670644.5266972        884873170.75362837     
  -3790782849.2834349       -888838919.70887589        974094338.10728180     
  -3802895823.4683347       -771013634.52060556        1068266368.7562525     
  -3815610729.5421000       -655194788.96188605        1167389262.7005405     
  -1850916447.4528501       -361167551.13916183        1142825876.8487430     
  -1835644232.4439175       -295466312.95034343        1190254498.2125955     
  -1823734396.3543203       -240973004.49264038        1240012917.4985185     
  -1815186939.1840577       -197687625.76605213        1292101134.7065125     
  -1810001860.9331284       -165610176.77057797        1346519149.8365772     
  -2336459726.1334867       -432985273.04234022        1141394434.0373259     
  -2312868637.2647052       -351852039.74328148        1182603019.1832986     
  -2292764521.9020386       -282342051.46460438        1224319710.5047209     
  -2276147380.0454865       -224455308.20630920        1266544508.0015931     
  -2263017211.6950474       -178191809.96839356        1309277411.6739156     
  -2825756532.7085738       -505929053.31385362        1145011184.0754864     
  -2799051403.5417171       -410925274.97308749        1179854372.6523354     
  -2775957842.4677558       -327960056.94196844        1213383975.6580136     
  -2756475849.4866867       -257033399.22049737        1245599993.0925212     
  -2740605424.5985155       -198145301.80867541        1276502424.9558573     
  -3318806867.1781120       -579998891.95370281        1153676126.9632249     
  -3294192531.2749538       -472686018.63976049        1182008558.6197073     
  -3273314358.0514703       -377827020.92473197        1207205712.9583983     
  -3256172347.5076623       -295421898.80861986        1229267589.9792967     
  -3242766499.6435261       -225470652.29142010        1248194189.6824048     
  -3815610729.5421000       -655194788.96188605        1167389262.7005405     
  -3798292020.4644141       -537134270.74330044        1189065577.0854135     
  -3784834068.6531844       -431942943.41289461        1205784922.4058731     
  -3775236874.1084065       -339620806.97067046        1217547298.6619201     
  -3769500436.8300848       -260167861.41662812        1224352705.8535554     
  -1810001860.9331284       -165610176.77057797        1346519149.8365772     
  -1779563926.2353625       -133064169.60007471        1364356621.1951287     
  -1750449743.6681669       -104930669.53146964        1382901887.8891549     
  -1722659313.2315397       -81209676.564762414        1402154949.9186575     
  -1696192634.9254827       -61901190.699953437        1422115807.2836359     
  -2263017211.6950474       -178191809.96839356        1309277411.6739156     
  -2224009663.8083196       -133852468.22664261        1317277789.1064675     
  -2187902419.5739722       -99180805.326162100        1328440842.6016889     
  -2154695478.9920068       -74176821.266948938        1342766572.1595795     
  -2124388842.0624201       -58840516.049004912        1360254977.7801397     
  -2740605424.5985155       -198145301.80867541        1276502424.9558573     
  -2686014318.5879869       -139908442.01522684        1272826398.3536315     
  -2635900067.7516494       -96594432.802417397        1274767928.5412681     
  -2590262672.0895038       -68203274.170247793        1282327015.5187674     
  -2549102131.6015506       -54734966.118716002        1295503659.2861273     
  -3242766499.6435261       -225470652.29142010        1248194189.6824048     
  -3165577890.5743594       -151232090.96582139        1231002448.9366205     
  -3094442688.2011948       -97171551.960232615        1221883145.7078924     
  -3029360892.5240355       -63289035.274655342        1220836279.9962189     
  -2970332503.5428767       -49584540.909085035        1227861851.8016036     
  -3769500436.8300848       -260167861.41662812        1224352705.8535554     
  -3662700379.7674403       -167823415.07842827        1191805940.8554344     
  -3563530280.9226122       -100912162.79960990        1169786494.1015623     
  -3471990140.2955961       -59434104.580171585        1158294365.5919373     
  -3388079957.8863955       -43389240.420112967        1157329555.3265636     
  -1696192634.9254827       -61901190.699953437        1422115807.2836359     
  -1646096871.2209110       -40096878.410921693        1415034227.6422830     
  -1597705640.5695086       -23974342.965787113        1413850677.8248143     
  -1551018942.9712741       -13533584.364545703        1418565157.8312280     
  -1506036778.4262066       -8774602.6071939468        1429177667.6615250     
  -2124388842.0624201       -58840516.049004912        1360254977.7801397     
  -2060750794.4393430       -39810478.991730213        1352295335.8311050     
  -1998370041.8685369       -24971425.442022443        1349495022.8951349     
  -1937246584.3499987       -14323355.399874568        1351854038.9722292     
  -1877380421.8837285       -7866268.8652862310        1359372384.0623887     
  -2549102131.6015506       -54734966.118716002        1295503659.2861273     
  -2474032373.8051658       -39112376.416755676        1287187732.6971266     
  -2399772673.0601506       -26189976.886030078        1283292434.3103721     
  -2326323029.3665071       -15967767.526540279        1283817764.1258631     
  -2253683442.7242327       -8445748.3382817507        1288763722.1435988     
  -2970332503.5428767       -49584540.909085035        1227861851.8016036     
  -2885941609.3183775       -38002570.685999513        1219711418.2403512     
  -2801913534.1443510       -27629997.297815442        1215242912.0705259     
  -2718248278.0207963       -18466820.744538307        1214456333.2921278     
  -2634945840.9477119       -10513041.026166439        1217351681.9051578     
  -3388079957.8863955       -43389240.420112967        1157329555.3265636     
  -3296478500.9789801       -36481061.799456477        1149866392.4607756     
  -3204792625.1211390       -29291486.677379251        1145346456.1755960     
  -3113022330.3128691       -21820515.053878069        1143769746.4710245     
  -3021167616.5541701       -14068146.928944707        1145136263.3470635     
  -1506036778.4262066       -8774602.6071939468        1429177667.6615250     
  -1461756538.8848431       -7208991.8344344497        1427210856.6739669     
  -1417738443.3123896       -6517194.2913761735        1428561210.7009673     
  -1373982491.7088411       -6699209.9779982567        1433228729.7425289     
  -1330488684.0742030       -7755038.8943253756        1441213413.7986476     
  -1877380421.8837285       -7866268.8652862310        1359372384.0623887     
  -1823422800.1818154       -5683573.2206333876        1355621756.9434545     
  -1769857440.7862914       -4808418.5972685814        1355855700.7322531     
  -1716684343.6971474       -5240804.9951756001        1360074215.4287882     
  -1663903508.9143908       -6980732.4143713713        1368277301.0330513     
  -2253683442.7242327       -8445748.3382817507        1288763722.1435988     
  -2188141564.8812737       -5073905.6275850534        1283077474.1662328     
  -2123122067.6821766       -3443331.7297598124        1282043202.9897745     
  -2058624951.1269388       -3554026.6448036432        1285660908.6142228     
  -1994650215.2155659       -5405990.3727219105        1293930591.0395815     
  -2634945840.9477119       -10513041.026166439        1217351681.9051578     
  -2555912832.9832091       -5379989.0552773476        1209578008.3423035     
  -2477532324.0000448       -2421933.6888456345        1207123717.4735308     
  -2399804313.9982166       -1638874.9268733263        1209988809.2988408     
  -2322728802.9777298       -3030812.7693662643        1218173283.8182321     
  -3021167616.5541701       -14068146.928944707        1145136263.3470635     
  -2926736604.4876261       -6601823.5037121773        1135123359.4716637     
  -2833088209.7398949       -1744224.4745255709        1131097244.1835213     
  -2740222432.3109803        504650.15860700607        1133057917.4826355     
  -2648139272.2008772        144800.39569735527        1141005379.3690054     
  -1330488684.0742030       -7755038.8943253756        1441213413.7986476     
  -1272278330.4982722       -4929806.5535790920        1424338933.0294614     
  -1214157856.5965035       -2404173.1267064810        1413014266.3954690     
  -1156127262.3688982       -178138.61370992661        1407239413.8966730     
  -1098186547.8154540        1748296.9854140878        1407014375.5330722     
  -1663903508.9143908       -6980732.4143713713        1368277301.0330513     
  -1591505953.1978636       -3714577.2440236211        1352030926.5634792     
  -1519295651.8940172       -1072603.4492744803        1341046218.9523382     
  -1447272605.0028529        945188.96986657381        1335323178.1996279     
  -1375436812.5243692        2338800.0134031177        1334861804.3053510     
  -1994650215.2155659       -5405990.3727219105        1293930591.0395815     
  -1908888735.2920527       -1945895.7528439760        1278198719.0080144     
  -1823411884.5197403        565435.02969801426        1267440366.5581164     
  -1738219662.8986278        2128001.9749003649        1261655533.6898849     
  -1653312070.4287207        2741805.0827628374        1260844220.4033189     
  -2322728802.9777298       -3030812.7693662643        1218173283.8182321     
  -2224426676.7808414        376237.91995739937        1202842310.3630667     
  -2126506554.4736750        2509942.3102087975        1192196709.2128041     
  -2028968436.0562327        3370300.4013803005        1186236480.3674436     
  -1931812321.5285082        2957312.1934909821        1184961623.8269882     
  -2648139272.2008772        144800.39569735527        1141005379.3690054     
  -2538119777.6642303        3251823.7743736506        1125961700.6286352     
  -2428579661.7558198        4760918.3922572136        1115315246.9163997     
  -2319518924.4756560        4672084.2493214607        1109066018.2323048     
  -2210937565.8237319        2985321.3455851078        1107214014.5763507     
  -1098186547.8154540        1748296.9854140878        1407014375.5330722     
  -1063752433.8338389       -4034942.2724573612        1420847424.8663304     
  -1029662085.0256187       -10964065.441645920        1440588200.2767260     
  -995915501.39078808       -19039072.522134840        1466236701.7642608     
  -962512682.92935288       -28259963.513939798        1497792929.3289320     
  -1375436812.5243692        2338800.0134031177        1334861804.3053510     
  -1327629486.6946883       -3913652.2268067002        1347506486.7891836     
  -1279923383.3462489       -10503512.737826109        1364638809.1518543     
  -1232318502.4790533       -17430781.519656003        1386258771.3933613     
  -1184814844.0931010       -24695458.572296202        1412366373.5137079     
  -1653312070.4287207        2741805.0827628374        1260844220.4033189     
  -1596188921.8889828       -5197076.8812061548        1272583502.5119092     
  -1538924453.1383293       -12664891.475461900        1287390338.3010328     
  -1481518664.1767690       -19661638.700022519        1305264727.7706921     
  -1423971555.0042977       -26187318.554880500        1326206670.9208887     
  -1931812321.5285082        2957312.1934909821        1184961623.8269882     
  -1869430739.4167082       -7885216.2356100082        1196078472.0345051     
  -1806665294.4018512       -17448201.654521465        1208842787.7242594     
  -1743515986.4839282       -25731644.063213706        1223254570.8962455     
  -1679982815.6629410       -32735543.461692035        1239313821.5504687     
  -2210937565.8237319        2985321.3455851078        1107214014.5763507     
  -2147354939.2778838       -11978070.290080428        1117991395.3569756     
  -2083145907.1368139       -24853443.275010824        1128996157.4215345     
  -2018310469.4005349       -35640797.609242558        1140228300.7700288     
  -1952848626.0690391       -44340133.292753577        1151687825.4024553     
  -962512682.92935288       -28259963.513939798        1497792929.3289320     
  -893785890.24893022       -26954331.157748431        1482556349.0469139     
  -824761927.28589714       -24658131.192856550        1471958313.1433716     
  -755440794.04026043       -21371363.619287848        1465998821.6182997     
  -685822490.51201010       -17094028.437000960        1464677874.4717126     
  -1184814844.0931010       -24695458.572296202        1412366373.5137079     
  -1103034389.6652682       -21939397.941998601        1391576949.1957233     
  -1021325658.5559549       -19422415.040097892        1375855544.5493991     
  -939688650.76515758       -17144509.866593957        1365202159.5747318     
  -858123366.29287899       -15105682.421467394        1359616794.2717264     
  -1423971555.0042977       -26187318.554880500        1326206670.9208887     
  -1327910366.5628211       -21612707.970616758        1299434026.6989608     
  -1232289795.0409863       -18506820.451828063        1278158877.4418714     
  -1137109840.4387984       -16869655.998526573        1262381223.1496315     
  -1042370502.7562478       -16701214.610683799        1252101063.8222287     
  -1679982815.6629410       -32735543.461692035        1239313821.5504687     
  -1568413820.9415882       -25974261.243597388        1206127581.5566173     
  -1457654336.7409987       -21911347.428050756        1178868311.8207896     
  -1347704363.0611777       -20546802.015065730        1157536012.3429921     
  -1238563899.9021266       -21880625.004649818        1142130683.1232142     
  -1952848626.0690391       -44340133.292753577        1151687825.4024553     
  -1824544752.8015699       -35024057.760945797        1111657613.7686996     
  -1697419283.6559906       -29635995.968777299        1077983847.6861558     
  -1571472218.6323051       -28175947.916263521        1050666527.1548218     
  -1446703557.7305143       -30643913.603375316        1029705652.1746907     
  -3768362696.5802312       -1130508808.9740694        800602866.69529223     
  -3779271806.9874005       -1008670644.5266972        884873170.75362837     
  -3790782849.2834349       -888838919.70887589        974094338.10728180     
  -3802895823.4683347       -771013634.52060556        1068266368.7562525     
  -3815610729.5421000       -655194788.96188605        1167389262.7005405     
  -4339914346.1675272       -1301974303.8502581        858804565.01533091     
  -4335373809.0181837       -1125706104.6105490        942411926.05518687     
  -4331966655.7600451       -953215851.67485547        1020391990.8141958     
  -4329692886.3931112       -784503545.04317737        1092744759.2923577     
  -4328552500.9173822       -619569184.71551490        1159470231.4896724     
  -4895356269.1606064       -1468606880.7481818        936468254.12854874     
  -4905589397.5295057       -1246975640.6385622        1018792644.8138616     
  -4917487361.7919483       -1030893853.5074226        1084911579.6421630     
  -4931050161.9479361       -820361519.35476375        1134825058.6134536     
  -4946277797.9974680       -615378638.18058407        1168533081.7277329     
  -5434688465.5594683       -1630406539.6678405        1033593934.0349448     
  -5489918572.5213642       -1372479252.6107364        1114015327.0296521     
  -5547344967.3791456       -1121872925.2065783        1167653104.5911841     
  -5606967650.1328096       -878587557.45536411        1194507266.7195404     
  -5668786620.7823563       -642623149.35709429        1194577813.4147210     
  -5957910935.3641138       -1787373280.6092341        1150181604.7345197     
  -6088361333.9937630       -1502216940.5270729        1228079972.7025590     
  -6221539472.5216341       -1226153066.7723212        1268616565.6612582     
  -6357445350.9477301       -959181659.34497905        1271791383.6106184     
  -6496078969.2720490       -701302718.24504614        1237604426.5506382     
  -3815610729.5421000       -655194788.96188605        1167389262.7005405     
  -3798292020.4644141       -537134270.74330044        1189065577.0854135     
  -3784834068.6531844       -431942943.41289461        1205784922.4058731     
  -3775236874.1084065       -339620806.97067046        1217547298.6619201     
  -3769500436.8300848       -260167861.41662812        1224352705.8535554     
  -4328552500.9173822       -619569184.71551490        1159470231.4896724     
  -4298500852.9488029       -463786001.02046359        1141527383.8583126     
  -4279068275.1860285       -343399718.01143205        1129630843.1744075     
  -4270254767.6290617       -258410335.68842268        1123780609.4379570     
  -4272060330.2778997       -208817854.05143237        1123976682.6489613     
  -4946277797.9974680       -615378638.18058407        1168533081.7277329     
  -4872055279.6755152       -412441409.57032514        1103086373.6508961     
  -4815210144.4987202       -267428791.44392371        1054689248.5333823     
  -4775742392.4670839       -180340783.80138397        1023341706.3751903     
  -4753652023.5806036       -151177386.64270210        1009043747.1763202     
  -5668786620.7823563       -642623149.35709429        1194577813.4147210     
  -5518955300.6445522       -383100496.39288235        1073742546.4631648     
  -5393259676.5912590       -204030163.71036935        980960138.48279786     
  -5291699748.6224756       -105412151.30955577        916230589.47362018     
  -5214275516.7382002       -87246459.190439939        879553899.43563354     
  -6496078969.2720490       -701302718.24504614        1237604426.5506382     
  -6239200915.8559170       -375763261.48813963        1053495902.2951175     
  -6013216871.4636440       -153203834.81076837        908443513.02265429     
  -5818126836.0952320       -33624438.212938070        802447258.73324800     
  -5653930809.7506838       -17025071.694644451        735507139.42689872     
  -3769500436.8300848       -260167861.41662812        1224352705.8535554     
  -3662700379.7674403       -167823415.07842827        1191805940.8554344     
  -3563530280.9226122       -100912162.79960990        1169786494.1015623     
  -3471990140.2955961       -59434104.580171585        1158294365.5919373     
  -3388079957.8863955       -43389240.420112967        1157329555.3265636     
  -4272060330.2778997       -208817854.05143237        1123976682.6489613     
  -4149158183.5730457       -144573512.04103327        1090666529.0816000     
  -4030643858.3762546       -94955241.724172831        1065699919.5319512     
  -3916517354.6875238       -59963043.100852728        1049076854.0000153     
  -3806778672.5068545       -39596916.171065569        1040797332.4857925     
  -4753652023.5806036       -151177386.64270210        1009043747.1763202     
  -4620887142.1665001       -116904955.43999124        978752697.86776328     
  -4489267945.5507059       -86451473.564976454        954621418.35038233     
  -4358794433.7332201       -59816941.017662048        936649908.62417793     
  -4229466606.7140460       -37001357.798042536        924838168.68915081     
  -5214275516.7382002       -87246459.190439939        879553899.43563354     
  -5077887255.5478048       -84817745.275304556        856064447.21392488     
  -4939402542.4459705       -75400858.322026491        836550990.55685699     
  -4798821377.4326887       -58995798.330601931        821013529.46442890     
  -4656143760.5079660       -35602565.301037788        809452063.93664265     
  -5653930809.7506838       -17025071.694644451        735507139.42689872     
  -5520158523.7169609       -48311881.546973944        722601777.12008333     
  -5381047649.0620413       -61803395.995315552        711488636.15137291     
  -5236598185.7859297       -57499615.039678097        702167716.52076495     
  -5086810133.8886194       -35400538.680049896        694639018.22826481     
  -3388079957.8863955       -43389240.420112967        1157329555.3265636     
  -3296478500.9789801       -36481061.799456477        1149866392.4607756     
  -3204792625.1211390       -29291486.677379251        1145346456.1755960     
  -3113022330.3128691       -21820515.053878069        1143769746.4710245     
  -3021167616.5541701       -14068146.928944707        1145136263.3470635     
  -3806778672.5068545       -39596916.171065569        1040797332.4857925     
  -3705021057.9616656       -29285025.716132879        1032170880.0040359     
  -3603926116.0958061       -21182044.192293882        1027628157.9320481     
  -3503493846.9092717       -15287971.599543095        1027169166.2698280     
  -3403724250.4020648       -11602807.937884092        1030793905.0173759     
  -4229466606.7140460       -37001357.798042536        924838168.68915081     
  -4114294252.1620536       -22308180.798121214        914176819.69004631     
  -4000531661.9191504       -12314218.161813736        908739704.92986870     
  -3888178835.9853272       -7019469.8891119957        908526824.40861988     
  -3777235774.3605871       -6423935.9800205231        913538178.12629819     
  -4656143760.5079660       -35602565.301037788        809452063.93664265     
  -4524298083.5801506       -15550527.045423508        795884211.51880777     
  -4394609262.5911694       -2688008.5859313011        788681097.16905987     
  -4267077297.5410299        2984990.0774271488        787842720.88740158     
  -4141702188.4297276        1468468.9446618557        793369082.67382681     
  -5086810133.8886194       -35400538.680049896        694639018.22826481     
  -4935032552.2159472       -9012064.4580314159        677293055.49032044     
  -4786158918.1118679        7696584.5353398323        667452334.64961946     
  -4640189231.5763807        14725408.300074100        665116855.70616949     
  -4497123492.6094904        12074406.836155891        670286618.65996218     
  -3021167616.5541701       -14068146.928944707        1145136263.3470635     
  -2926736604.4876261       -6601823.5037121773        1135123359.4716637     
  -2833088209.7398949       -1744224.4745255709        1131097244.1835213     
  -2740222432.3109803        504650.15860700607        1133057917.4826355     
  -2648139272.2008772        144800.39569735527        1141005379.3690054     
  -3403724250.4020648       -11602807.937884092        1030793905.0173759     
  -3295712612.5991135       -7145929.8495402336        1022806403.0694222     
  -3188159773.3005900       -4218380.1093003750        1019973235.1014984     
  -3081065732.5064993       -2820158.7171602249        1022294401.1136086     
  -2974430490.2168374       -2951265.6731250286        1029769901.1057507     
  -3777235774.3605871       -6423935.9800205231        913538178.12629819     
  -3658021952.5561504       -5690035.7490377426        907953866.72256744     
  -3538943110.4417582       -5406067.8182106018        906691434.69164467     
  -3419999248.0174165       -5572032.1875486374        909750882.03353107     
  -3301190365.2831230       -6187928.8570449352        917132208.74822462     
  -4141702188.4297276        1468468.9446618557        793369082.67382681     
  -4013664624.3587298       -2234141.2021927834        790565750.43110013     
  -3885438221.1633968       -5307287.6012585163        791251842.95395589     
  -3757022978.8437324       -7750970.2525560856        795427360.24239671     
  -3628418897.3997316       -9565189.1560602188        803092302.29642344     
  -4497123492.6094904        12074406.836155891        670286618.65996218     
  -4362640628.0068588        3221753.7909877300        670642054.19502044     
  -4227645105.4655128       -3922039.4584608078        673654459.88843668     
  -4092136924.9854484       -9356972.9121811390        679323835.74021530     
  -3956116086.5666637       -13083046.570176125        687650181.75035226     
  -2648139272.2008772        144800.39569735527        1141005379.3690054     
  -2538119777.6642303        3251823.7743736506        1125961700.6286352     
  -2428579661.7558198        4760918.3922572136        1115315246.9163997     
  -2319518924.4756560        4672084.2493214607        1109066018.2323048     
  -2210937565.8237319        2985321.3455851078        1107214014.5763507     
  -2974430490.2168374       -2951265.6731250286        1029769901.1057507     
  -2852373871.6858277        705210.27555179596        1014396600.0880170     
  -2730411529.3544126        4047432.2255817652        1003758603.4447309     
  -2608543463.2225862        7075400.1769791842        997855911.17589438     
  -2486769673.2903490        9789114.1297478676        996688523.28150320     
  -3301190365.2831230       -6187928.8570449352        917132208.74822462     
  -3166130681.7683034       -1692218.0415543318        901878571.61989021     
  -3030780172.0244198        3772913.5374847651        891698318.21231186     
  -2895138836.0514770        10207465.880048990        886591448.52549040     
  -2759206673.8494740        17611438.986156940        886557962.55942559     
  -3628418897.3997316       -9565189.1560602188        803092302.29642344     
  -3479390207.9116430       -3940461.1769044399        788407615.22424960     
  -3329685589.7658463        3937362.3279473782        779134391.21913946     
  -3179305042.9623270        14068281.358537436        775272630.28109682     
  -3028248567.5011010        26452295.914819241        776822332.41011930     
  -3956116086.5666637       -13083046.570176125        687650181.75035226     
  -3792152450.1158562       -6039519.1305277348        673983730.90109646     
  -3627127782.5786805        4540778.5970118046        666066822.46521616     
  -3461042083.9551425        18657846.612419128        663899456.44271052     
  -3293895354.2452378        36311684.915722370        667481632.83358097     
  -2210937565.8237319        2985321.3455851078        1107214014.5763507     
  -2147354939.2778838       -11978070.290080428        1117991395.3569756     
  -2083145907.1368139       -24853443.275010824        1128996157.4215345     
  -2018310469.4005349       -35640797.609242558        1140228300.7700288     
  -1952848626.0690391       -44340133.292753577        1151687825.4024553     
  -2486769673.2903490        9789114.1297478676        996688523.28150320     
  -2420916894.5432839       -4632443.6135523319        1009519759.3298391     
  -2355206522.0189409       -19528688.765919209        1023744846.4277077     
  -2289638555.7173209       -34899621.327366352        1039363784.5751086     
  -2224212995.6384249       -50745241.297891974        1056376573.7720438     
  -2759206673.8494740        17611438.986156940        886557962.55942559     
  -2687750972.1423373        4731546.3628790379        900546106.75454462     
  -2617206488.4758635       -11185739.729262352        917094571.76479578     
  -2547573222.8500495       -30140419.290273070        936203357.59017742     
  -2478851175.2648892       -52132492.320137382        957872464.23069406     
  -3028248567.5011010        26452295.914819241        776822332.41011930     
  -2947857172.0750427        16113899.639208436        791070437.63109696     
  -2869145806.5075788        175403.83495283127        809045333.43280208     
  -2792114470.7987103       -21363191.497956038        830747019.81524074     
  -2716763164.9484353       -48501886.359509110        856175496.77840936     
  -3293895354.2452378        36311684.915722370        667481632.83358097     
  -3201235494.3413978        29514616.215453029        681092751.95948422     
  -3111024476.1140924        14554741.926731229        699597131.43172312     
  -3023262299.5633163       -8567937.9504244328        722994771.25029588     
  -2937948964.6890750       -39853423.416018844        751285671.41519463     
  -1952848626.0690391       -44340133.292753577        1151687825.4024553     
  -1824544752.8015699       -35024057.760945797        1111657613.7686996     
  -1697419283.6559906       -29635995.968777299        1077983847.6861558     
  -1571472218.6323051       -28175947.916263521        1050666527.1548218     
  -1446703557.7305143       -30643913.603375316        1029705652.1746907     
  -2224212995.6384249       -50745241.297891974        1056376573.7720438     
  -2080338880.5279412       -43870565.150351167        1021196824.5234301     
  -1936859240.7715023       -38310806.849621415        992201138.69153070     
  -1793774076.3691068       -34065966.395696282        969389516.27633691     
  -1651083387.3207412       -31136043.788564801        952761957.27785814     
  -2478851175.2648892       -52132492.320137382        957872464.23069406     
  -2319899338.6956825       -47846971.672176003        928457760.92972469     
  -2160558048.7126565       -42263272.978165030        905054738.91096473     
  -2000827305.3158188       -35381396.238107324        887663398.17441225     
  -1840707108.5051739       -27201341.452016115        876283738.72008204     
  -2716763164.9484353       -48501886.359509110        856175496.77840936     
  -2543226127.3047867       -46953277.326412082        833440422.98757505     
  -2368515707.4794612       -41493394.354397058        816544648.34445071     
  -2192631905.4724698       -32122237.443507314        805488172.84904349     
  -2015574721.2838190       -18839806.593734503        800270996.50135136     
  -2937948964.6890750       -39853423.416018844        751285671.41519463     
  -2750319246.3552527       -41189482.113049984        736144810.69698870     
  -2560732217.0719047       -36001170.978321433        726670866.99200130     
  -2369187876.8390312       -24288490.011872411        722863840.30022871     
  -2175686225.6566548       -6051439.2137032747        724723730.62167144     
  -5957910935.3641138       -1787373280.6092341        1150181604.7345197     
  -6088361333.9937630       -1502216940.5270729        1228079972.7025590     
  -6221539472.5216341       -1226153066.7723212        1268616565.6612582     
  -6357445350.9477301       -959181659.34497905        1271791383.6106184     
  -6496078969.2720490       -701302718.24504614        1237604426.5506382     
  -6810466077.5330410       -2043139823.2599125        1353918899.7044675     
  -6828380928.3871593       -1395419638.0474129        1202899521.7698307     
  -6897665512.1148825       -918931895.74692869        1092139145.1802487     
  -7018319828.7162094       -613676596.35845995        1021637769.9357216     
  -7190343878.1911430       -479653739.88200521        991395396.03624928     
  -8337796291.0247526       -2501338887.3074260        1712493452.4219825     
  -8021401947.3764992       -1424522762.9465361        1275807336.7800577     
  -7805019329.5772295       -681079058.08226585        957000998.83758223     
  -7688648437.6269474       -271007772.71461773        756074438.59455645     
  -7672289271.5256529       -194308906.84358978        673027656.05097985     
  -10539901575.839251       -3161970472.7517753        2225905262.8870649     
  -9667424390.9617786       -1589526315.2244403        1446803417.7332397     
  -8943600924.9086781       -512594553.77833414        863202126.63325834     
  -8368431177.6799412        68824811.586548328        475101389.58712268     
  -7941915149.2755756        154731780.87020254        282501206.59483051     
  -13416781931.976528       -4025034579.5929585        2894154331.0997138     
  -11766448259.143000       -1890430294.8811285        1715887764.6293766     
  -10313410298.109222       -413478382.83512926        810742528.56727839     
  -9057668048.8751945        405821156.54503441        178718622.91341895     
  -7999221511.4409170        567468323.25936842       -180183952.33220118     
  -6496078969.2720490       -701302718.24504614        1237604426.5506382     
  -6239200915.8559170       -375763261.48813963        1053495902.2951175     
  -6013216871.4636440       -153203834.81076837        908443513.02265429     
  -5818126836.0952320       -33624438.212938070        802447258.73324800     
  -5653930809.7506838       -17025071.694644451        735507139.42689872     
  -7190343878.1911430       -479653739.88200521        991395396.03624928     
  -6900301650.1410789       -304328947.27347660        847144672.86450601     
  -6623055368.6407690       -171657309.83079028        724013640.77004695     
  -6358605033.6902084       -81638827.553944588        622002299.75287199     
  -6106950645.2894039       -34273500.442940474        541110649.81298196     
  -7672289271.5256529       -194308906.84358978        673027656.05097985     
  -7400329851.4295788       -184572873.15981722        589749140.18280542     
  -7123068315.4091530       -157163119.72818947        509653871.48614562     
  -6840504663.4643688       -112079646.54870749        432741849.96099573     
  -6552638895.5952272       -49322453.621367693        359013075.60735810     
  -7941915149.2755756        154731780.87020254        282501206.59483051     
  -7739285519.7214203       -16495039.147160053        281309304.25002176     
  -7513255711.7687960       -109721264.50296307        265364205.17095113     
  -7263825725.4177074       -124946895.19721985        234665909.35762137     
  -6990995560.6681538       -62171931.229925156        189214416.81002936     
  -7999221511.4409170        567468323.25936842       -180183952.33220118     
  -7917168655.0165939        199904554.76450253       -78174834.933851972     
  -7793617557.7196989       -29331744.155119419       -8855358.1755361184     
  -7628568219.5502300       -120240573.49949312        27774477.942746997     
  -7422020640.5081854       -72821933.268616676        31714673.420993537     
  -5653930809.7506838       -17025071.694644451        735507139.42689872     
  -5520158523.7169609       -48311881.546973944        722601777.12008333     
  -5381047649.0620413       -61803395.995315552        711488636.15137291     
  -5236598185.7859297       -57499615.039678097        702167716.52076495     
  -5086810133.8886194       -35400538.680049896        694639018.22826481     
  -6106950645.2894039       -34273500.442940474        541110649.81298196     
  -5958664647.4143419       -35885861.621959686        534805371.42892760     
  -5809429189.4503860       -34333355.837996006        531024315.73703456     
  -5659244271.3975344       -29615983.091048956        529767482.73730469     
  -5508109893.2557898       -21733743.381117582        531034872.42973399     
  -6552638895.5952272       -49322453.621367693        359013075.60735810     
  -6387747753.4386654       -20632936.395026684        354187231.19171327     
  -6226296279.7255077       -3408980.6467065811        352617610.82228953     
  -6068284474.4557571        2349413.6235921383        354304214.49908423     
  -5913712337.6294136       -3357753.5841240883        359247042.22209263     
  -6990995560.6681538       -62171931.229925156        189214416.81002936     
  -6807407841.7899303       -2553105.8661813736        180747356.40844613     
  -6631648919.8874111        30969729.578545094        176268521.40713522     
  -6463718794.9605989        38396575.104249954        175777911.80610251     
  -6303617467.0094910        19727430.710940599        179275527.60534349     
  -7422020640.5081854       -72821933.268616676        31714673.420993537     
  -7217644912.4681358        18353629.964586258        14485747.079120127     
  -7025487109.9360933        68802774.837766171        1977047.4915737228     
  -6845547232.9120588        78525501.350915432       -5811425.3416320644     
  -6677825281.3960304        47521809.504055023       -8879671.4205162916     
  -5086810133.8886194       -35400538.680049896        694639018.22826481     
  -4935032552.2159472       -9012064.4580314159        677293055.49032044     
  -4786158918.1118679        7696584.5353398323        667452334.64961946     
  -4640189231.5763807        14725408.300074100        665116855.70616949     
  -4497123492.6094904        12074406.836155891        670286618.65996218     
  -5508109893.2557898       -21733743.381117582        531034872.42973399     
  -5343574649.3842030       -9756959.2046749592        516028158.43188083     
  -5179939886.6470728       -781778.80975317955        506655563.46953952     
  -5017205605.0444021        5191797.8036355972        502917087.54271030     
  -4855371804.5761957        8163770.6354942322        504812730.65139300     
  -5913712337.6294136       -3357753.5841240883        359247042.22209263     
  -5741765496.8781538       -7396479.0490241051        348916954.47082281     
  -5568715670.8272209       -7758586.8483362198        342349862.89333397     
  -5394562859.4766111       -4444076.9820623398        339545767.48961723     
  -5219307062.8263226        2547050.5498032570        340504668.25967908     
  -6303617467.0094910        19727430.710940599        179275527.60534349     
  -6129605094.6978083       -1930623.9910864830        175959443.60715085     
  -5952486270.6523113       -13233839.580408335        174535232.92099893     
  -5772260994.8729982       -14182216.057002306        175002895.54688835     
  -5588929267.3598766       -4775753.4209072590        177362431.48481619     
  -6677825281.3960304        47521809.504055023       -8879671.4205162916     
  -6507093442.8431568        6640605.9691412449       -2844374.1591433352     
  -6331251686.1223383       -17207537.005939484        3211673.5525360471     
  -6150300011.2335739       -24022619.421209097        9288471.7145195324     
  -5964238418.1768656       -13804641.276665211        15386020.326809606     
  -4497123492.6094904        12074406.836155891        670286618.65996218     
  -4362640628.0068588        3221753.7909877300        670642054.19502044     
  -4227645105.4655128       -3922039.4584608078        673654459.88843668     
  -4092136924.9854484       -9356972.9121811390        679323835.74021530     
  -3956116086.5666637       -13083046.570176125        687650181.75035226     
  -4855371804.5761957        8163770.6354942322        504812730.65139300     
  -4711827447.0070076        4126957.3792707920        503689245.11317652     
  -4568386093.9418535       -253204.22374033928        505767820.97804058     
  -4425047745.3807344       -4976714.1735367775        511048458.24598402     
  -4281812401.3236523       -10043572.470112324        519531156.91701078     
  -5219307062.8263226        2547050.5498032570        340504668.25967908     
  -5065143808.7342319        3793298.1494245529        337183988.79830939     
  -4911699221.5889292        2643989.2597556114        337610461.98474127     
  -4758973301.3904171       -900876.11921334267        341784087.81897306     
  -4606966048.1386881       -6841297.9874622822        349704866.30100918     
  -5588929267.3598766       -4775753.4209072590        177362431.48481619     
  -5422589713.1885405        2220776.1014616489        171126285.25041732     
  -5257584488.4067411        4769540.9920394421        169182382.90854037     
  -5093913593.0144844        2870541.2508091927        171530724.45918536     
  -4931577027.0117674       -3476223.1222126484        178171309.90234983     
  -5964238418.1768656       -13804641.276665211        15386020.326809606     
  -5784165160.3699331       -590608.76463055611        5516134.4694984248     
  -5606041894.3952951        6123450.9730882645        483583.74943217979     
  -5429868620.2529545        6337537.9364819527        288368.16661551449     
  -5255645337.9428978        51652.125602245331        4930487.7210332165     
  -3956116086.5666637       -13083046.570176125        687650181.75035226     
  -3792152450.1158562       -6039519.1305277348        673983730.90109646     
  -3627127782.5786805        4540778.5970118046        666066822.46521616     
  -3461042083.9551425        18657846.612419128        663899456.44271052     
  -3293895354.2452378        36311684.915722370        667481632.83358097     
  -4281812401.3236523       -10043572.470112324        519531156.91701078     
  -4103602799.4220409       -3477743.0143373013        506957074.05857718     
  -3924538274.0720043        5937831.2695119381        499702121.74520266     
  -3744618825.2735362        18203150.381462574        497766299.97688729     
  -3563844453.0266542        33318214.321479321        501149608.75363201     
  -4606966048.1386881       -6841297.9874622822        349704866.30100918     
  -4415740228.9814587       -1122090.9741251469        337982692.52246559     
  -4223865594.0137448        6759835.4074943066        331149237.42066795     
  -4031342143.2355399        16804481.157413006        329204500.99561822     
  -3838169876.6468563        29011846.275600910        332148483.24730986     
  -4931577027.0117674       -3476223.1222126484        178171309.90234983     
  -4728564738.7940998        1027436.9901397228        167060586.29276627     
  -4525109742.4038963        7006791.0109527111        160408169.49161690     
  -4321212037.8411341        14461838.940296173        158214059.49889877     
  -4116871625.1058378        23392580.778086901        160478256.31461084     
  -5255645337.9428978        51652.125602245331        4930487.7210332165     
  -5042076328.8599806        2970840.8784117699       -5809244.6305173347     
  -4828270719.2424650        6678698.0798850060       -12521082.041947974     
  -4614228509.0903349        11175223.730075598       -15205024.513263827     
  -4399949698.4036007        16460417.828941584       -13861072.044464894     
  -3293895354.2452378        36311684.915722370        667481632.83358097     
  -3201235494.3413978        29514616.215453029        681092751.95948422     
  -3111024476.1140924        14554741.926731229        699597131.43172312     
  -3023262299.5633163       -8567937.9504244328        722994771.25029588     
  -2937948964.6890750       -39853423.416018844        751285671.41519463     
  -3563844453.0266542        33318214.321479321        501149608.75363201     
  -3460864904.5259695        23984548.871025562        510243321.11493182     
  -3359472333.7154322        9360957.7867460251        522967363.60827965     
  -3259666740.5950446       -10552558.931356907        539321736.23368275     
  -3161448125.1648054       -35756001.283299208        559306438.99113965     
  -3838169876.6468563        29011846.275600910        332148483.24730986     
  -3728479011.5901194        16059072.462739468        337730296.82810980     
  -3619513260.2371473        689252.97064852715        345679510.32668728     
  -3511272622.5879335       -17097612.200640917        355996123.74304217     
  -3403757098.6424932       -37301523.051162481        368680137.07716602     
  -4116871625.1058378        23392580.778086901        160478256.31461084     
  -4004077815.5338397        5738186.9905846119        163553679.09903267     
  -3891147255.6792293       -11460372.521555662        167733571.58694422     
  -3778079945.5419950       -28203097.758275032        173017933.77835953     
  -3664875885.1221437       -44489988.719609737        179406765.67327240     
  -4399949698.4036007        16460417.828941584       -13861072.044464894     
  -4287661316.3571410       -6978107.5454673767       -12286532.072307821     
  -4174374320.0416837       -27087918.689874887       -10870452.610945735     
  -4060088709.4572206       -43869015.604262590       -9612833.6603427641     
  -3944804484.6037564       -57321398.288659096       -8513675.2205424625     
  -2937948964.6890750       -39853423.416018844        751285671.41519463     
  -2750319246.3552527       -41189482.113049984        736144810.69698870     
  -2560732217.0719047       -36001170.978321433        726670866.99200130     
  -2369187876.8390312       -24288490.011872411        722863840.30022871     
  -2175686225.6566548       -6051439.2137032747        724723730.62167144     
  -3161448125.1648054       -35756001.283299208        559306438.99113965     
  -2957042191.3296514       -29397219.907358527        539434186.75621772     
  -2751243107.3605638       -18394604.751653790        525024066.33842319     
  -2544050873.2575479       -2748155.8161681890        516076077.73775321     
  -2335465489.0205913        17542126.899084568        512590220.95421129     
  -3403757098.6424932       -37301523.051162481        368680137.07716602     
  -3183160049.8662629       -23423431.770337582        343418305.70733714     
  -2961734011.7716842       -6782042.7616974115        323413820.95855176     
  -2739478984.3587675        12622643.974741936        308666682.83079624     
  -2516394967.6275115        34790628.438977480        299176891.32408351     
  -3664875885.1221437       -44489988.719609737        179406765.67327240     
  -3428672821.9650903       -23268117.701981306        148097167.55034950     
  -3192204930.3052788       -1163485.0085035563        121840130.85238053     
  -2955472210.1427207        21823909.360820293        100635655.57935683     
  -2718474661.4774075        45694065.405960917        84483741.731278792     
  -3944804484.6037564       -57321398.288659096       -8513675.2205424625     
  -3693580507.6261301       -28931277.702275515       -46529227.714746915     
  -3442655862.9613485       -1538931.4920520782       -79697003.980077311     
  -3192030550.6093917        24855640.342110038       -108017004.01656859     
  -2941704570.5702815        50252437.800084233       -131489227.82419287     
 </DataArray>
 <DataArray  type="Float64" Name="VM" NumberOfComponents="1" format="ascii">
   12935853951.399395     
   11340731614.403198     
   10210040865.450350     
   9272413690.0938911     
   8303388986.0272799     
   10130384378.383940     
   9321951682.8350563     
   8826191889.9955826     
   8443251559.9409103     
   8035312415.3346844     
   7982342425.3120317     
   7734890930.9994192     
   7669022944.9624586     
   7669421241.4474506     
   7666151781.5440845     
   6491642567.9869452     
   6586837404.9468880     
   6757369623.6792755     
   6961153981.1052666     
   7171529261.5139608     
   5657839544.6917505     
   5890950788.2718449     
   6116421258.9464207     
   6331789307.3592262     
   6536829796.2843618     
   8303388986.0272799     
   8020132997.9039917     
   7779008279.2227259     
   7569317121.2157831     
   7386083193.6516466     
   8035312415.3346844     
   7746389957.5455904     
   7473147976.9237204     
   7213625139.8874798     
   6967829420.4813156     
   7666151781.5440845     
   7380817098.3440599     
   7100884453.2847080     
   6826432527.7233925     
   6557666361.6910839     
   7171529261.5139608     
   6910845079.4983425     
   6658079304.3752699     
   6409373946.0347223     
   6161583925.3948774     
   6536829796.2843618     
   6328816987.0925398     
   6143029343.6767845     
   5965556473.5451880     
   5787389491.3240051     
   7386083193.6516466     
   7226882756.9193468     
   7060140766.0037012     
   6885153191.2297487     
   6701730197.9582472     
   6967829420.4813156     
   6813327878.8970737     
   6654195564.9682207     
   6490147393.1768980     
   6321135625.6796808     
   6557666361.6910839     
   6406894320.4428616     
   6254483923.6828566     
   6100404352.6443033     
   5944688666.8235607     
   6161583925.3948774     
   6012586023.3862171     
   5864908313.1592731     
   5718590688.2104187     
   5573690802.2977934     
   5787389491.3240051     
   5636865697.2348852     
   5490498580.1256075     
   5348203704.4839754     
   5210027330.4188251     
   6701730197.9582472     
   6510418147.6553965     
   6322667926.0055666     
   6138345040.8742590     
   5957407702.3634062     
   6321135625.6796808     
   6136213287.7351637     
   5953560388.7771444     
   5773145824.0469074     
   5594982941.7911854     
   5944688666.8235607     
   5769808138.2534246     
   5596343386.5351610     
   5424318233.5054483     
   5253788805.4585772     
   5573690802.2977934     
   5413003170.6832304     
   5253363475.9875727     
   5094821302.7948112     
   4937494080.3212767     
   5210027330.4188251     
   5068168337.1234684     
   4927544147.3773508     
   4788219176.0625782     
   4650421271.7728548     
   5957407702.3634062     
   5783877767.5483246     
   5609106181.2096920     
   5433040170.0931091     
   5255678081.3364058     
   5594982941.7911854     
   5431793356.5793972     
   5268126956.0066662     
   5104003768.6758718     
   4939489414.9675751     
   5253788805.4585772     
   5100587111.0966568     
   4947698972.2578583     
   4795204838.9942570     
   4643225787.3814001     
   4937494080.3212767     
   4793942944.3936529     
   4651494173.1930037     
   4510272900.2013388     
   4370440643.3760796     
   4650421271.7728548     
   4516191009.1065941     
   4383816656.4536047     
   4253448568.9982510     
   4125270401.1564775     
   5255678081.3364058     
   5043572428.3426390     
   4831662196.1746750     
   4619901325.0712996     
   4408268343.6802616     
   4939489414.9675751     
   4737922691.8492308     
   4537131915.1915731     
   4337126962.4835291     
   4137963655.4487276     
   4643225787.3814001     
   4453819142.1796637     
   4265983851.2923546     
   4079812883.6202941     
   3895472987.9209003     
   4370440643.3760796     
   4194795952.3433323     
   4021746595.4859738     
   3851490501.5082316     
   3684330460.6472683     
   4125270401.1564775     
   3964885375.2103167     
   3808343666.7749920     
   3655957240.1924939     
   3508171469.0289793     
   4408268343.6802616     
   4284229393.0632386     
   4160939105.8740931     
   4038367255.4288626     
   3916486187.1906552     
   4137963655.4487276     
   4016951291.3776522     
   3896276179.1498857     
   3775968182.7841668     
   3656064129.9145107     
   3895472987.9209003     
   3782046372.8016820     
   3669039995.6155820     
   3556612605.2483931     
   3444962089.3708086     
   3684330460.6472683     
   3583603363.2319093     
   3483973939.9850307     
   3385815206.1608410     
   3289599236.7687469     
   3508171469.0289793     
   3425627664.6487026     
   3345485552.6066895     
   3268401656.2322626     
   3195205064.5338860     
   3916486187.1906552     
   3680082770.3498034     
   3444653680.3430824     
   3209987577.3067288     
   2975877615.8471217     
   3656064129.9145107     
   3426712455.2367105     
   3198592551.9877510     
   2971560897.9690952     
   2745509439.4369717     
   3444962089.3708086     
   3226810222.5914965     
   3010916239.5927014     
   2797375231.9394217     
   2586410621.1280074     
   3289599236.7687469     
   3087231984.9058108     
   2888947756.5222058     
   2695220500.0114660     
   2506774971.3721442     
   3195205064.5338860     
   3013037594.7272539     
   2837359242.4207735     
   2669024748.8015008     
   2509213865.2306795     
   5657839544.6917505     
   5890950788.2718449     
   6116421258.9464207     
   6331789307.3592262     
   6536829796.2843618     
   5151530049.2498121     
   5311421310.6568747     
   5467948448.9336843     
   5618214408.9259987     
   5760751792.1287365     
   4643585214.6845512     
   4755672451.4248915     
   4868892687.6802979     
   4980611274.0677166     
   5088902624.4354773     
   4134268073.7589173     
   4224540715.1386290     
   4320747126.4068174     
   4421232884.2131195     
   4524545131.0833998     
   3625097958.7193937     
   3719848507.7035699     
   3825866339.4276853     
   3943091838.7564168     
   4071435897.1213555     
   6536829796.2843618     
   6328816987.0925398     
   6143029343.6767845     
   5965556473.5451880     
   5787389491.3240051     
   5760751792.1287365     
   5652440911.1683445     
   5560156380.1665592     
   5474835520.3914232     
   5390936766.2854137     
   5088902624.4354773     
   5054502138.2027512     
   5030621164.7031031     
   5012051657.8872404     
   4995590588.9071817     
   4524545131.0833998     
   4539589940.5850630     
   4559288910.1537666     
   4581159493.0252237     
   4603476149.0956516     
   4071435897.1213555     
   4113024864.1894674     
   4151922821.5850167     
   4187227130.7823162     
   4218203012.8917193     
   5787389491.3240051     
   5636865697.2348852     
   5490498580.1256075     
   5348203704.4839754     
   5210027330.4188251     
   5390936766.2854137     
   5249759717.5062723     
   5111790317.2625427     
   4977072076.7889643     
   4845700106.4809628     
   4995590588.9071817     
   4868257458.4679413     
   4744133522.5946522     
   4623188985.4730473     
   4505467544.6400337     
   4603476149.0956516     
   4495021380.6401443     
   4390845547.8120146     
   4290634477.2105684     
   4194302369.8000283     
   4218203012.8917193     
   4134012108.3499184     
   4056418264.3477244     
   3984574113.8521166     
   3918188018.6373682     
   5210027330.4188251     
   5068168337.1234684     
   4927544147.3773508     
   4788219176.0625782     
   4650421271.7728548     
   4845700106.4809628     
   4722229851.0917015     
   4600743270.7841034     
   4481381838.5398636     
   4364411139.9114380     
   4505467544.6400337     
   4398100749.5803537     
   4293316357.6506767     
   4191295019.3163624     
   4092302851.8689694     
   4194302369.8000283     
   4100691065.3916574     
   4010043954.6649709     
   3922546500.4688158     
   3838435733.5112519     
   3918188018.6373682     
   3835938026.3289518     
   3756745423.9219370     
   3680772223.9613900     
   3608207407.7864594     
   4650421271.7728548     
   4516191009.1065941     
   4383816656.4536047     
   4253448568.9982510     
   4125270401.1564775     
   4364411139.9114380     
   4239755205.1292362     
   4117556995.7182794     
   3998033918.0494404     
   3881453388.7101498     
   4092302851.8689694     
   3979130982.0802450     
   3869274334.7705846     
   3763018679.0398149     
   3660718929.7762842     
   3838435733.5112519     
   3738531878.0206680     
   3643071219.2697682     
   3552399539.5276318     
   3466950436.3741164     
   3608207407.7864594     
   3523070271.1127481     
   3443776025.7286167     
   3370706589.2451921     
   3304346380.3299999     
   4125270401.1564775     
   3964885375.2103167     
   3808343666.7749920     
   3655957240.1924939     
   3508171469.0289793     
   3881453388.7101498     
   3735936430.2760034     
   3594590789.0237174     
   3457751970.5954051     
   3325876114.0568752     
   3660718929.7762842     
   3529756854.5053697     
   3403300634.7062593     
   3281709654.0576453     
   3165451032.3926935     
   3466950436.3741164     
   3350380598.8822665     
   3238643032.4220395     
   3132116669.5618014     
   3031274742.3456206     
   3304346380.3299999     
   3202137636.1818404     
   3105055312.9999547     
   3013487887.3887439     
   2927904184.8654666     
   3508171469.0289793     
   3425627664.6487026     
   3345485552.6066895     
   3268401656.2322626     
   3195205064.5338860     
   3325876114.0568752     
   3258066942.5301180     
   3193143251.1023564     
   3131634196.6572161     
   3074165833.0128341     
   3165451032.3926935     
   3109613265.6918187     
   3056764097.1691751     
   3007271659.2709012     
   2961545372.0378213     
   3031274742.3456206     
   2984465734.2423806     
   2940330850.2580948     
   2899066457.3428192     
   2860878290.5278578     
   2927904184.8654666     
   2887086750.1013961     
   2848199125.8856039     
   2811276407.4619932     
   2776355323.6857424     
   3195205064.5338860     
   3013037594.7272539     
   2837359242.4207735     
   2669024748.8015008     
   2509213865.2306795     
   3074165833.0128341     
   2904248545.5780678     
   2741084840.5087051     
   2585472503.9702635     
   2438488223.2939377     
   2961545372.0378213     
   2803448520.2380357     
   2652519106.6693664     
   2509503796.4771409     
   2375393335.4558439     
   2860878290.5278578     
   2714221427.4369283     
   2575282260.4079523     
   2444755282.9523654     
   2323554399.7957249     
   2776355323.6857424     
   2640764221.9744191     
   2513554082.5499263     
   2395358572.8263288     
   2287015576.7204375     
   3625097958.7193937     
   3719848507.7035699     
   3825866339.4276853     
   3943091838.7564168     
   4071435897.1213555     
   3138056648.3822722     
   3255666933.7881975     
   3382700426.5706191     
   3518689813.7469506     
   3663178845.9690294     
   2694813577.1000814     
   2830653554.2315698     
   2973801645.6672282     
   3123175112.7800193     
   3277862673.4236174     
   2298852149.3137836     
   2449597400.1871109     
   2605051436.8731818     
   2763288707.4310226     
   2922877249.7158294     
   1955372259.3830438     
   2119448959.6534848     
   2284861346.6023831     
   2448642738.7734785     
   2608830331.1587658     
   4071435897.1213555     
   4113024864.1894674     
   4151922821.5850167     
   4187227130.7823162     
   4218203012.8917193     
   3663178845.9690294     
   3702627507.9401751     
   3740672459.1223788     
   3776411560.9999309     
   3809092954.3576455     
   3277862673.4236174     
   3321071575.1088767     
   3364520542.4996452     
   3407385649.4841309     
   3448987809.0209308     
   2922877249.7158294     
   2975739127.8002071     
   3030844539.2093968     
   3087513353.0472980     
   3145213844.2535219     
   2608830331.1587658     
   2676683839.5846715     
   2749090849.0922194     
   2825547745.5200830     
   2905704770.3044825     
   4218203012.8917193     
   4134012108.3499184     
   4056418264.3477244     
   3984574113.8521166     
   3918188018.6373682     
   3809092954.3576455     
   3756476896.9098015     
   3709895060.3307328     
   3668873300.3072705     
   3633316041.2661109     
   3448987809.0209308     
   3423260486.3933964     
   3402614615.5583315     
   3386817939.7735438     
   3375852752.0081306     
   3145213844.2535219     
   3141991187.8668227     
   3142295521.4126635     
   3146021705.5755386     
   3153152527.5044389     
   2905704770.3044825     
   2920986926.7470784     
   2937458390.2793765     
   2955058212.5313301     
   2973742589.5953450     
   3918188018.6373682     
   3835938026.3289518     
   3756745423.9219370     
   3680772223.9613900     
   3608207407.7864594     
   3633316041.2661109     
   3561392683.2375622     
   3493495679.7755075     
   3429829432.8976450     
   3370635584.0007863     
   3375852752.0081306     
   3316045460.6643929     
   3261481759.8205132     
   3212390360.9359736     
   3169047523.5422888     
   3153152527.5044389     
   3106822700.0587621     
   3067183517.6674376     
   3034453769.7408071     
   3008908610.1622305     
   2973742589.5953450     
   2941463059.6957483     
   2917508417.9496670     
   2902039524.8788285     
   2895281561.6215801     
   3608207407.7864594     
   3523070271.1127481     
   3443776025.7286167     
   3370706589.2451921     
   3304346380.3299999     
   3370635584.0007863     
   3302757260.5116997     
   3240928099.9729819     
   3185490431.1885557     
   3136857830.5301270     
   3169047523.5422888     
   3117009834.0510874     
   3071034506.6361094     
   3031403121.7860718     
   2998440398.7669702     
   3008908610.1622305     
   2971139602.0237989     
   2939207774.6986599     
   2913321375.7602315     
   2893709850.2827511     
   2895281561.6215801     
   2870024189.2099452     
   2850113416.2995458     
   2835683681.2395654     
   2826876473.2255964     
   3304346380.3299999     
   3202137636.1818404     
   3105055312.9999547     
   3013487887.3887439     
   2927904184.8654666     
   3136857830.5301270     
   3047851709.6065364     
   2965024939.9632444     
   2888777172.7111855     
   2819578480.4035702     
   2998440398.7669702     
   2922588141.1060953     
   2853958224.1017036     
   2792925916.2170653     
   2739920780.3303328     
   2893709850.2827511     
   2830363250.2023163     
   2775219942.4437580     
   2728595025.8103395     
   2690839437.7627740     
   2826876473.2255964     
   2774647462.4422441     
   2731500312.6111178     
   2697664283.3519669     
   2673388299.0748925     
   2927904184.8654666     
   2887086750.1013961     
   2848199125.8856039     
   2811276407.4619932     
   2776355323.6857424     
   2819578480.4035702     
   2787813445.9596281     
   2759841224.9618487     
   2735818320.0238180     
   2715900411.4068089     
   2739920780.3303328     
   2719918549.6666274     
   2705749476.2226257     
   2697647693.5903306     
   2695841827.9056115     
   2690839437.7627740     
   2684164797.7070560     
   2685439942.0031767     
   2694916047.7331028     
   2712834814.3431840     
   2673388299.0748925     
   2680245409.2576060     
   2697205569.0737166     
   2724481394.1718554     
   2762277944.2595611     
   2776355323.6857424     
   2640764221.9744191     
   2513554082.5499263     
   2395358572.8263288     
   2287015576.7204375     
   2715900411.4068089     
   2604628512.1091847     
   2502496562.5336633     
   2410126072.1707597     
   2328262655.9744735     
   2695841827.9056115     
   2607815123.9771190     
   2529257850.0528979     
   2460678726.8004465     
   2402639694.9896789     
   2712834814.3431840     
   2646209609.1789217     
   2588934489.2785592     
   2541363494.1368585     
   2503859809.9545422     
   2762277944.2595611     
   2714665335.6434798     
   2675908490.4287128     
   2646216018.6119137     
   2625788150.1269727     
   1955372259.3830438     
   2119448959.6534848     
   2284861346.6023831     
   2448642738.7734785     
   2608830331.1587658     
   1653837171.2275748     
   1820269603.6434212     
   1988390572.8156896     
   2155498388.3060107     
   2319831299.7062979     
   1393567060.9862380     
   1570912733.1851199     
   1749266020.4954474     
   1926619403.5055635     
   2101719942.3887658     
   1206906120.5765133     
   1398824181.6147628     
   1590330512.9952192     
   1780646721.8527753     
   1969313230.4121680     
   1136612882.2289457     
   1334902461.2725847     
   1533520949.1460173     
   1732468345.8492422     
   1931744651.3822615     
   2608830331.1587658     
   2676683839.5846715     
   2749090849.0922194     
   2825547745.5200830     
   2905704770.3044825     
   2319831299.7062979     
   2406787993.8976264     
   2496200497.5978527     
   2587682448.7535152     
   2680960282.0031056     
   2101719942.3887658     
   2205335488.3885770     
   2308842087.3578205     
   2412005334.0938697     
   2514659441.1149254     
   1969313230.4121680     
   2086284111.3454142     
   2200349340.6194353     
   2311434454.4148822     
   2419487643.4925108     
   1931744651.3822615     
   2058212976.6256933     
   2179167682.6172667     
   2294608769.3569798     
   2404536236.8448324     
   2905704770.3044825     
   2920986926.7470784     
   2937458390.2793765     
   2955058212.5313301     
   2973742589.5953450     
   2680960282.0031056     
   2703002379.2383661     
   2727330860.4443884     
   2753925833.2927570     
   2782777798.3509245     
   2514659441.1149254     
   2543397463.9839764     
   2575549152.1779971     
   2611115743.5592074     
   2650102985.0190811     
   2419487643.4925108     
   2453340877.7661319     
   2491736410.2200007     
   2534677791.3018875     
   2582169526.9516940     
   2404536236.8448324     
   2440308060.0618048     
   2481740224.2689013     
   2528832729.4661198     
   2581585575.6534619     
   2973742589.5953450     
   2941463059.6957483     
   2917508417.9496670     
   2902039524.8788285     
   2895281561.6215801     
   2782777798.3509245     
   2765410497.8467374     
   2755790942.4339910     
   2754011066.5198379     
   2760195276.0807657     
   2650102985.0190811     
   2644286588.2401958     
   2645332299.0658317     
   2653277227.9468436     
   2668171044.5028515     
   2582169526.9516940     
   2584324261.1887932     
   2592167849.3655710     
   2605707611.1464834     
   2624953571.9110680     
   2581585575.6534619     
   2588293675.9874296     
   2599293503.3535886     
   2614585057.7519341     
   2634168339.1824679     
   2895281561.6215801     
   2870024189.2099452     
   2850113416.2995458     
   2835683681.2395654     
   2826876473.2255964     
   2760195276.0807657     
   2742011927.7787352     
   2730102747.8207984     
   2724567330.0737634     
   2725509001.9128342     
   2668171044.5028515     
   2655558767.8297591     
   2650124602.2967544     
   2651924006.9506335     
   2661013789.7014880     
   2624953571.9110680     
   2615511311.9001470     
   2614109076.0663686     
   2620763351.2310495     
   2635490881.7456737     
   2634168339.1824679     
   2624723130.4564362     
   2624125136.4878573     
   2632374357.2767329     
   2649470792.8230653     
   2826876473.2255964     
   2774647462.4422441     
   2731500312.6111178     
   2697664283.3519669     
   2673388299.0748925     
   2725509001.9128342     
   2683960580.4617682     
   2651730999.2456722     
   2628961845.0469780     
   2615803373.1135979     
   2661013789.7014880     
   2627807308.4098082     
   2604053520.0005145     
   2589819107.0956559     
   2585173483.7700591     
   2635490881.7456737     
   2607836755.6487994     
   2589685205.3055725     
   2581053286.2946625     
   2581958505.4246635     
   2649470792.8230653     
   2624305380.2865119     
   2608634187.8451920     
   2602457215.4991055     
   2605774463.2482548     
   2673388299.0748925     
   2680245409.2576060     
   2697205569.0737166     
   2724481394.1718554     
   2762277944.2595611     
   2615803373.1135979     
   2631666810.7988591     
   2655603634.1558642     
   2687702091.0590062     
   2728046842.1903696     
   2585173483.7700591     
   2606516498.4751849     
   2633867135.5502701     
   2667251996.5664024     
   2706696636.0628934     
   2581958505.4246635     
   2605882027.7299066     
   2633723554.1638408     
   2665487096.0927529     
   2701176536.5485415     
   2605774463.2482548     
   2630199170.6741328     
   2656438837.8300462     
   2684493464.7159886     
   2714363051.3319607     
   2762277944.2595611     
   2714665335.6434798     
   2675908490.4287128     
   2646216018.6119137     
   2625788150.1269727     
   2728046842.1903696     
   2681381022.5137043     
   2644918330.3145647     
   2618811045.8807578     
   2603204282.3275666     
   2706696636.0628934     
   2659649396.9121447     
   2624216081.3058271     
   2600481827.9215608     
   2588527375.0103307     
   2701176536.5485415     
   2651710129.4878817     
   2615358221.4893737     
   2592146900.4177871     
   2582100879.7589779     
   2714363051.3319607     
   2659732604.4286175     
   2619829485.7635560     
   2594653695.3367863     
   2584205233.1483002     
   1136612882.2289457     
   1334902461.2725847     
   1533520949.1460173     
   1732468345.8492422     
   1931744651.3822615     
   1206906120.2236617     
   1398824181.2144196     
   1590330512.5474150     
   1780646721.3548794     
   1969313229.8599677     
   1393567060.3851211     
   1570912732.4868290     
   1749266019.7000914     
   1926619402.6083527     
   2101719941.3818724     
   1653837170.4880350     
   1820269602.7695289     
   1988390571.8051999     
   2155498387.1509767     
   2319831298.3950958     
   1955372258.5800946     
   2119448958.6998351     
   2284861345.4920440     
   2448642737.4947195     
   2608830329.6962204     
   1931744651.3822615     
   2058212976.6256933     
   2179167682.6172667     
   2294608769.3569798     
   2404536236.8448324     
   1969313229.8599677     
   2086284110.8212774     
   2200349340.1362047     
   2311434453.9868188     
   2419487643.1344891     
   2101719941.3818724     
   2205335487.3945174     
   2308842086.4014087     
   2412005333.2019887     
   2514659440.3155918     
   2319831298.3950958     
   2406787992.5387793     
   2496200496.2253556     
   2587682447.4037747     
   2680960280.7144165     
   2608830329.6962204     
   2676683837.9775591     
   2749090847.3791037     
   2825547743.7421107     
   2905704768.5057430     
   2404536236.8448324     
   2440308060.0618048     
   2481740224.2689013     
   2528832729.4661198     
   2581585575.6534619     
   2419487643.1344891     
   2453340877.3324685     
   2491736409.7405119     
   2534677790.8058033     
   2582169526.4681025     
   2514659440.3155918     
   2543397463.0523982     
   2575549151.1758246     
   2611115742.5482488     
   2650102984.0617094     
   2680960280.7144165     
   2703002377.7560272     
   2727330858.8622136     
   2753925831.7066994     
   2782777796.8591180     
   2905704768.5057430     
   2920986924.6697736     
   2937458388.0481014     
   2955058210.2754736     
   2973742587.4485350     
   2581585575.6534619     
   2588293675.9874296     
   2599293503.3535886     
   2614585057.7519341     
   2634168339.1824679     
   2582169526.4681025     
   2584324260.9725323     
   2592167849.4681058     
   2605707611.6202774     
   2624953572.8089657     
   2650102984.0617094     
   2644286587.6548071     
   2645332298.9438891     
   2653277228.3830190     
   2668171045.5950370     
   2782777796.8591180     
   2765410496.6513567     
   2755790941.6538205     
   2754011066.2805467     
   2760195276.5168486     
   2973742587.4485350     
   2941463057.5958633     
   2917508416.0289817     
   2902039523.2808218     
   2895281560.5063529     
   2634168339.1824679     
   2624723130.4564362     
   2624125136.4878573     
   2632374357.2767329     
   2649470792.8230653     
   2624953572.8089657     
   2615511312.5900440     
   2614109076.4359531     
   2620763351.1700220     
   2635490881.1456933     
   2668171045.5950370     
   2655558768.7842102     
   2650124602.9109983     
   2651924007.0225339     
   2661013789.0285735     
   2760195276.5168486     
   2742011928.4682612     
   2730102748.4970765     
   2724567330.4648170     
   2725509001.7395139     
   2895281560.5063529     
   2870024189.0630865     
   2850113416.8197746     
   2835683682.1121049     
   2826876474.1183434     
   2649470792.8230653     
   2624305380.2865119     
   2608634187.8451920     
   2602457215.4991055     
   2605774463.2482548     
   2635490881.1456933     
   2607836756.3988476     
   2589685207.6425667     
   2581053290.4501319     
   2581958511.6235518     
   2661013789.0285735     
   2627807309.8902049     
   2604053524.0798464     
   2589819114.2163363     
   2585173494.3694205     
   2725509001.7395139     
   2683960582.5960932     
   2651731004.3113151     
   2628961853.6765885     
   2615803385.9473209     
   2826876474.1183434     
   2774647465.1074095     
   2731500317.8115149     
   2697664291.8812070     
   2673388311.7583771     
   2605774463.2482548     
   2630199170.6741328     
   2656438837.8300462     
   2684493464.7159886     
   2714363051.3319607     
   2581958511.6235518     
   2605882034.4652557     
   2633723561.6435294     
   2665487104.5229750     
   2701176546.1340857     
   2585173494.3694205     
   2606516510.9629903     
   2633867150.4112611     
   2667252014.2681842     
   2706696657.0549898     
   2615803385.9473209     
   2631666827.5246243     
   2655603655.6251855     
   2687702118.0821157     
   2728046875.5305519     
   2673388311.7583771     
   2680245428.2829585     
   2697205595.7818494     
   2724481429.8390226     
   2762277990.0798564     
   2714363051.3319607     
   2659732604.4286175     
   2619829485.7635560     
   2594653695.3367863     
   2584205233.1483002     
   2701176546.1340857     
   2651710154.8971972     
   2615358267.0472016     
   2592146970.3433471     
   2582100978.1838717     
   2706696657.0549898     
   2659649446.3499007     
   2624216168.0973415     
   2600481960.8652344     
   2588527562.8106427     
   2728046875.5305519     
   2681381091.9907637     
   2644918449.8252234     
   2618811229.3529935     
   2603204543.7128944     
   2762277990.0798564     
   2714665418.9797101     
   2675908630.5821471     
   2646216235.2195597     
   2625788463.1183977     
   1955372258.5800946     
   2119448958.6998351     
   2284861345.4920440     
   2448642737.4947195     
   2608830329.6962204     
   2298852148.5090885     
   2449597399.2264376     
   2605051435.7471852     
   2763288706.1288805     
   2922877248.2259912     
   2694813576.3529911     
   2830653553.3369093     
   2973801644.6127858     
   3123175111.5551701     
   3277862672.0192823     
   3138056647.7411842     
   3255666933.0164270     
   3382700425.6537619     
   3518689812.6742601     
   3663178844.7329559     
   3625097958.2260027     
   3719848507.1011825     
   3825866338.7003794     
   3943091837.8933344     
   4071435896.1160250     
   2608830329.6962204     
   2676683837.9775591     
   2749090847.3791037     
   2825547743.7421107     
   2905704768.5057430     
   2922877248.2259912     
   2975739126.0624161     
   3030844537.2321444     
   3087513350.8384738     
   3145213841.8213973     
   3277862672.0192823     
   3321071573.3956842     
   3364520540.4595661     
   3407385647.0953932     
   3448987806.2594895     
   3663178844.7329559     
   3702627506.3844485     
   3740672457.2076898     
   3776411558.6811962     
   3809092951.5860333     
   4071435896.1160250     
   4113024862.9052472     
   4151922819.9669805     
   4187227128.7693377     
   4218203010.4192400     
   2905704768.5057430     
   2920986924.6697736     
   2937458388.0481014     
   2955058210.2754736     
   2973742587.4485350     
   3145213841.8213973     
   3141991184.9211445     
   3142295518.0331526     
   3146021701.8481503     
   3153152523.5198293     
   3448987806.2594895     
   3423260482.9752898     
   3402614611.5252948     
   3386817935.1742730     
   3375852746.8946967     
   3809092951.5860333     
   3756476893.4452720     
   3709895056.1845732     
   3668873295.4980092     
   3633316035.8127313     
   4218203010.4192400     
   4134012105.2593002     
   4056418260.6273179     
   3984574109.4982176     
   3918188013.6432400     
   2973742587.4485350     
   2941463057.5958633     
   2917508416.0289817     
   2902039523.2808218     
   2895281560.5063529     
   3153152523.5198293     
   3106822695.4144645     
   3067183512.3246856     
   3034453763.6644588     
   3008908603.3230743     
   3375852746.8946967     
   3316045454.5695529     
   3261481752.5614181     
   3212390352.3220167     
   3169047513.3742018     
   3633316035.8127313     
   3561392676.9071350     
   3493495672.2755218     
   3429829423.9163198     
   3370635573.2033095     
   3918188013.6432400     
   3835938020.9935770     
   3756745417.8799639     
   3680772216.8193603     
   3608207399.1172390     
   2895281560.5063529     
   2870024189.0630865     
   2850113416.8197746     
   2835683682.1121049     
   2826876474.1183434     
   3008908603.3230743     
   2971139595.8328543     
   2939207769.0744600     
   2913321370.6131043     
   2893709845.5115490     
   3169047513.3742018     
   3117009823.9848046     
   3071034496.7498298     
   3031403112.1571522     
   2998440389.4716887     
   3370635573.2033095     
   3302757248.9995079     
   3240928087.9230418     
   3185490418.7834473     
   3136857817.9633908     
   3608207399.1172390     
   3523070260.6208920     
   3443776013.6354647     
   3370706575.7801332     
   3304346365.7433443     
   2826876474.1183434     
   2774647465.1074095     
   2731500317.8115149     
   2697664291.8812070     
   2673388311.7583771     
   2893709845.5115490     
   2830363246.0345378     
   2775219939.1552057     
   2728595023.7050633     
   2690839437.1735148     
   2998440389.4716887     
   2922588131.7034230     
   2853958214.4139037     
   2792925906.0752411     
   2739920769.5719724     
   3136857817.9633908     
   3047851696.9160228     
   2965024926.5693245     
   2888777158.0091324     
   2819578463.7542624     
   3304346365.7433443     
   3202137622.3096633     
   3105055298.9325705     
   3013487872.1504688     
   2927904167.3944783     
   2673388311.7583771     
   2680245428.2829585     
   2697205595.7818494     
   2724481429.8390226     
   2762277990.0798564     
   2690839437.1735148     
   2684164802.3798318     
   2685439952.3702068     
   2694916064.1682992     
   2712834837.1502643     
   2739920769.5719724     
   2719918542.9019136     
   2705749472.9201746     
   2697647693.1439734     
   2695841829.6286721     
   2819578463.7542624     
   2787813432.4747372     
   2759841213.1238694     
   2735818308.2039943     
   2715900397.8624783     
   2927904167.3944783     
   2887086736.0169988     
   2848199112.7455711     
   2811276392.6772180     
   2776355304.5171270     
   2762277990.0798564     
   2714665418.9797101     
   2675908630.5821471     
   2646216235.2195597     
   2625788463.1183977     
   2712834837.1502643     
   2646209649.3185005     
   2588934560.5096202     
   2541363610.8934455     
   2503859987.3329096     
   2695841829.6286721     
   2607815116.3447876     
   2529257840.4216413     
   2460678723.5146723     
   2402639707.5278840     
   2715900397.8624783     
   2604628459.9956632     
   2502496471.8874655     
   2410125944.0488310     
   2328262492.8576684     
   2776355304.5171270     
   2640764137.4302988     
   2513553924.8946443     
   2395358334.8720088     
   2287015252.4458127     
   3625097958.2260027     
   3719848507.1011825     
   3825866338.7003794     
   3943091837.8933344     
   4071435896.1160250     
   4134268073.4332385     
   4224540714.7299428     
   4320747125.9097042     
   4421232883.6227951     
   4524545130.3957205     
   4643585214.5254803     
   4755672451.2087908     
   4868892687.4122143     
   4980611273.7480068     
   5088902624.0608559     
   5151530049.2565069     
   5311421310.6309843     
   5467948448.8900366     
   5618214408.8693485     
   5760751792.0561590     
   5657839544.8666401     
   5890950788.4348135     
   6116421259.1214628     
   6331789307.5553503     
   6536829796.4995794     
   4071435896.1160250     
   4113024862.9052472     
   4151922819.9669805     
   4187227128.7693377     
   4218203010.4192400     
   4524545130.3957205     
   4539589939.7266245     
   4559288909.0883551     
   4581159491.7135839     
   4603476147.4969721     
   5088902624.0608559     
   5054502137.7670183     
   5030621164.1904087     
   5012051657.2795792     
   4995590588.1824694     
   5760751792.0561590     
   5652440911.1336689     
   5560156380.1729584     
   5474835520.4416761     
   5390936766.3751316     
   6536829796.4995794     
   6328816987.4264431     
   6143029344.1475210     
   5965556474.1746302     
   5787389492.1255722     
   4218203010.4192400     
   4134012105.2593002     
   4056418260.6273179     
   3984574109.4982176     
   3918188013.6432400     
   4603476147.4969721     
   4495021378.7098751     
   4390845545.5176468     
   4290634474.5221324     
   4194302366.6844616     
   4995590588.1824694     
   4868257457.7099133     
   4744133521.7539587     
   4623188984.5000629     
   4505467543.4821558     
   5390936766.3751316     
   5249759717.8863029     
   5111790317.8694611     
   4977072077.5581446     
   4845700107.3449278     
   5787389492.1255722     
   5636865698.6872234     
   5490498582.1531410     
   5348203707.0102329     
   5210027333.3643255     
   3918188013.6432400     
   3835938020.9935770     
   3756745417.8799639     
   3680772216.8193603     
   3608207399.1172390     
   4194302366.6844616     
   4100691062.7715268     
   4010043952.3702359     
   3922546498.3072405     
   3838435731.2633390     
   4505467543.4821558     
   4398100749.3287544     
   4293316358.2813802     
   4191295020.7911983     
   4092302854.1335883     
   4845700107.3449278     
   4722229852.8028984     
   4600743273.4187613     
   4481381842.1681480     
   4364411144.6006680     
   5210027333.3643255     
   5068168340.3691349     
   4927544151.0590019     
   4788219180.3158884     
   4650421276.7432852     
   3608207399.1172390     
   3523070260.6208920     
   3443776013.6354647     
   3370706575.7801332     
   3304346365.7433443     
   3838435731.2633390     
   3738531873.9451504     
   3643071213.4159694     
   3552399531.9476695     
   3466950427.1286917     
   4092302854.1335883     
   3979130982.8275461     
   3869274333.9393997     
   3763018676.5645223     
   3660718925.5866003     
   4364411144.6006680     
   4239755208.9679208     
   4117556998.5874538     
   3998033919.8184729     
   3881453389.2323546     
   4650421276.7432852     
   4516191014.2707996     
   4383816661.6799517     
   4253448574.1367335     
   4125270406.0322390     
   3304346365.7433443     
   3202137622.3096633     
   3105055298.9325705     
   3013487872.1504688     
   2927904167.3944783     
   3466950427.1286917     
   3350380592.0181580     
   3238643027.3989878     
   3132116665.7863040     
   3031274739.1520720     
   3660718925.5866003     
   3529756853.9513197     
   3403300637.5665812     
   3281709660.0789924     
   3165451041.2764082     
   3881453389.2323546     
   3735936435.1314783     
   3594590798.2498846     
   3457751984.2238526     
   3325876132.1095672     
   4125270406.0322390     
   3964885384.4721351     
   3808343680.6563158     
   3655957258.9494414     
   3508171492.9488616     
   2927904167.3944783     
   2887086736.0169988     
   2848199112.7455711     
   2811276392.6772180     
   2776355304.5171270     
   3031274739.1520720     
   2984465738.1588402     
   2940330860.2365437     
   2899066472.3120613     
   2860878309.3942924     
   3165451041.2764082     
   3109613282.2735257     
   3056764121.4488540     
   3007271691.3903160     
   2961545412.3150835     
   3325876132.1095672     
   3258066965.4288807     
   3193143279.5275898     
   3131634231.6219444     
   3074165875.9670582     
   3508171492.9488616     
   3425627687.0301542     
   3345485574.4411135     
   3268401679.0316458     
   3195205090.5430961     
   2776355304.5171270     
   2640764137.4302988     
   2513553924.8946443     
   2395358334.8720088     
   2287015252.4458127     
   2860878309.3942924     
   2714221381.0188847     
   2575282138.9272356     
   2444755076.1809793     
   2323554097.1044664     
   2961545412.3150835     
   2803448511.7315612     
   2652519039.0980301     
   2509503658.2119884     
   2375393113.1377811     
   3074165875.9670582     
   2904248570.4924431     
   2741084838.2140307     
   2585472463.2336516     
   2438488130.1721411     
   3195205090.5430961     
   3013037645.2766495     
   2837359311.1007318     
   2669024826.6484938     
   2509213939.9948707     
   5657839544.8666401     
   5890950788.4348135     
   6116421259.1214628     
   6331789307.5553503     
   6536829796.4995794     
   6491642568.2242556     
   6586837405.3328695     
   6757369624.2006254     
   6961153981.7263975     
   7171529262.1906796     
   7982342425.4011507     
   7734890931.3895502     
   7669022945.6208086     
   7669421242.3178482     
   7666151782.5658045     
   10130384378.120319     
   9321951683.0206261     
   8826191890.5940437     
   8443251560.8915310     
   8035312416.5805912     
   12935853950.580032     
   11340731614.189308     
   10210040865.810623     
   9272413690.9673023     
   8303388987.3661652     
   6536829796.4995794     
   6328816987.4264431     
   6143029344.1475210     
   5965556474.1746302     
   5787389492.1255722     
   7171529262.1906796     
   6910845080.3298683     
   6658079305.3794203     
   6409373947.2353573     
   6161583926.8170338     
   7666151782.5658045     
   7380817099.5829830     
   7100884454.7608442     
   6826432529.4604197     
   6557666363.7184429     
   8035312416.5805912     
   7746389959.0996685     
   7473147978.8131599     
   7213625142.1361504     
   6967829423.1183929     
   8303388987.3661652     
   8020132999.6715288     
   7779008281.4630880     
   7569317123.9566593     
   7386083196.9199839     
   5787389492.1255722     
   5636865698.6872234     
   5490498582.1531410     
   5348203707.0102329     
   5210027333.3643255     
   6161583926.8170338     
   6012586025.6921701     
   5864908316.3077822     
   5718590692.1590300     
   5573690807.0019493     
   6557666363.7184429     
   6406894323.3628082     
   6254483927.4668026     
   6100404357.2632723     
   5944688672.2500696     
   6967829423.1183929     
   6813327882.2073555     
   6654195568.9189034     
   6490147397.7334929     
   6321135630.8113518     
   7386083196.9199839     
   7226882760.4129972     
   7060140769.6733990     
   6885153195.0183687     
   6701730201.8096781     
   5210027333.3643255     
   5068168340.3691349     
   4927544151.0590019     
   4788219180.3158884     
   4650421276.7432852     
   5573690807.0019493     
   5413003175.0237360     
   5253363480.0192661     
   5094821306.5740967     
   4937494083.9124298     
   5944688672.2500696     
   5769808142.7541656     
   5596343390.0976801     
   5424318236.1189823     
   5253788807.1161652     
   6321135630.8113518     
   6136213291.5167017     
   5953560391.1437960     
   5773145824.9352398     
   5594982941.1367617     
   6701730201.8096781     
   6510418149.8957052     
   6322667926.5334606     
   6138345039.5890751     
   5957407699.1583099     
   4650421276.7432852     
   4516191014.2707996     
   4383816661.6799517     
   4253448574.1367335     
   4125270406.0322390     
   4937494083.9124298     
   4793942949.1939201     
   4651494179.1847534     
   4510272907.3501606     
   4370440651.6212349     
   5253788807.1161652     
   5100587115.2066040     
   4947698978.9345694     
   4795204848.3442421     
   4643225799.4901705     
   5594982941.1367617     
   5431793359.8010311     
   5268126963.3573608     
   5104003780.4161243     
   4939489431.3485584     
   5957407699.1583099     
   5783877769.7868681     
   5609106189.2800837     
   5433040184.4118900     
   5255678102.3279457     
   4125270406.0322390     
   3964885384.4721351     
   3808343680.6563158     
   3655957258.9494414     
   3508171492.9488616     
   4370440651.6212349     
   4194795963.9255018     
   4021746610.6168857     
   3851490520.4417315     
   3684330483.7012839     
   4643225799.4901705     
   4453819155.2882528     
   4265983865.4406095     
   4079812898.8871899     
   3895473004.4546647     
   4939489431.3485584     
   4737922705.7217855     
   4537131926.3059273     
   4337126970.6057901     
   4137963660.3925943     
   5255678102.3279457     
   5043572442.2660017     
   4831662202.4072075     
   4619901322.9688749     
   4408268332.6056452     
   3508171492.9488616     
   3425627687.0301542     
   3345485574.4411135     
   3268401679.0316458     
   3195205090.5430961     
   3684330483.7012839     
   3583603377.8349271     
   3483973946.1468329     
   3385815204.1106958     
   3289599227.0497332     
   3895473004.4546647     
   3782046378.4155440     
   3669039989.9630718     
   3556612588.0122209     
   3444962060.2745752     
   4137963660.3925943     
   4016951287.3211517     
   3896276165.9748855     
   3775968160.3284030     
   3656064097.9564714     
   4408268332.6056452     
   4284229379.0829382     
   4160939089.5830145     
   4038367237.3813601     
   3916486167.9081798     
   3195205090.5430961     
   3013037645.2766495     
   2837359311.1007318     
   2669024826.6484938     
   2509213939.9948707     
   3289599227.0497332     
   3087232032.7102265     
   2888947867.0358472     
   2695220678.1483517     
   2506775221.7645736     
   3444962060.2745752     
   3226810255.6647296     
   3010916346.3360519     
   2797375424.9384203     
   2586410914.7928743     
   3656064097.9564714     
   3426712458.8604879     
   3198592603.1054015     
   2971561009.1498923     
   2745509624.7408743     
   3916486167.9081798     
   3680082728.5345826     
   3444653623.3558631     
   3209987511.1404452     
   2975877545.3770185     
 </DataArray>
 <DataArray  type="Float64" Name="strain" NumberOfComponents="3" format="ascii">
  0.20348785931170904        0.0000000000000000       0.12541335436544784     
  0.18665531951330228       -2.7325069710870724E-002   7.4355136478503225E-002
  0.16982277971489551       -4.4675745104277513E-002   3.5132176245850515E-002
  0.15299023991648875       -5.2052026180220340E-002   7.7444736674897076E-003
  0.13615770011808198       -4.9453912938699232E-002  -7.8079712565792131E-003
  0.15985517389893378        0.0000000000000000        9.6455894747049145E-002
  0.15317610826679498       -2.1845016697615419E-002   6.2694814786010883E-002
  0.14649704263465618       -3.6174762056072278E-002   3.7405425503216620E-002
  0.13981797700251736       -4.2989236075370578E-002   2.0587726898666375E-002
  0.13313891137037856       -4.2288438755510305E-002   1.2241718972360136E-002
  0.12645657707177757        0.0000000000000000        7.4208049631058440E-002
  0.12656741862985882       -1.6364963684360117E-002   5.5284984617621130E-002
  0.12667826018794009       -2.7673779007867053E-002   4.1470043306379961E-002
  0.12678910174602137       -3.3926445970520802E-002   3.2763225697334926E-002
  0.12689994330410262       -3.5122964572321357E-002   2.9164531790485993E-002
  0.10329206883024039        0.0000000000000000        5.8669819017475720E-002
  0.10682925060249385       -1.0884910671104815E-002   5.2125645973334009E-002
  0.11036643237474728       -1.9172795959661822E-002   4.7326029655340530E-002
  0.11390361414700073       -2.4863655865671019E-002   4.4270970063495292E-002
  0.11744079591925419       -2.7957490389132419E-002   4.2960467197798308E-002
   9.0361649174322239E-002   0.0000000000000000        4.9841202906300994E-002
   9.3961604184699982E-002  -5.4048576578495135E-003   5.3216798853149505E-002
   9.7561559195077724E-002  -1.0671812911456597E-002   5.4973384550098356E-002
  0.10116151420545545       -1.5800865760821250E-002   5.5110959997147553E-002
  0.10476146921583319       -2.0792016205943478E-002   5.3629525194297076E-002
  0.13615770011808198       -4.9453912938699232E-002  -7.8079712565792131E-003
  0.13295233366066983       -4.2917585848272391E-002  -3.3875761760774267E-003
  0.12974696720325768       -3.8479225377498122E-002  -3.8373218719679747E-004
  0.12654160074584556       -3.6138831526376251E-002   1.2035607100626781E-003
  0.12333623428843341       -3.5896404294907008E-002   1.3743025157011424E-003
  0.13313891137037856       -4.2288438755510305E-002   1.2241718972360136E-002
  0.12890561677229848       -3.8421510274455548E-002   1.2190069867031483E-002
  0.12467232217421836       -3.5737590810170389E-002   1.1499115571988162E-002
  0.12043902757613825       -3.4236680362654842E-002   1.0168856087229970E-002
  0.11620573297805820       -3.3918778931908949E-002   8.1992914127569927E-003
  0.12689994330410262       -3.5122964572321357E-002   2.9164531790485993E-002
  0.12241596646726093       -3.3925434700638656E-002   2.5555796102209840E-002
  0.11793198963041925       -3.2995956242842725E-002   2.2085001126125332E-002
  0.11344801279357755       -3.2334529198933419E-002   1.8752146862232394E-002
  0.10896403595673587       -3.1941153568910904E-002   1.5557233310531028E-002
  0.11744079591925419       -2.7957490389132419E-002   4.2960467197798308E-002
  0.11348338274555725       -2.9429359126821802E-002   3.6709602529457576E-002
  0.10952596957186031       -3.0254321675514999E-002   3.1373924475214837E-002
  0.10556855639816339       -3.0432378035212020E-002   2.6953433035069991E-002
  0.10161114322446642       -2.9963528205912825E-002   2.3448128209023165E-002
  0.10476146921583319       -2.0792016205943478E-002   5.3629525194297076E-002
  0.10210786560718739       -2.4933283553004938E-002   4.5651489148774677E-002
   9.9454261998541571E-002  -2.7512687108187321E-002   3.9365885619256608E-002
   9.6800658389895738E-002  -2.8530226871490569E-002   3.4772714605742751E-002
   9.4147054781249934E-002  -2.7985902842914773E-002   3.1871976108233252E-002
  0.12333623428843341       -3.5896404294907008E-002   1.3743025157011424E-003
  0.12038584996802718       -3.6394118369302647E-002   6.2771571184042085E-004
  0.11743546564762099       -3.6274148435775651E-002   8.5672057231742094E-005
  0.11448508132721480       -3.5536494494326235E-002  -2.5182844812466493E-004
  0.11153469700680857       -3.4181156544954183E-002  -3.8478580422912634E-004
  0.11620573297805820       -3.3918778931908949E-002   8.1992914127569927E-003
  0.11344403177962965       -3.3994487420948058E-002   7.8323854632358081E-003
  0.11068233058120111       -3.3674406732787480E-002   7.6383026084180031E-003
  0.10792062938277261       -3.2958536867427501E-002   7.6170428483032654E-003
  0.10515892818434408       -3.1846877824867947E-002   7.7686061828919628E-003
  0.10896403595673587       -3.1941153568910904E-002   1.5557233310531028E-002
  0.10635929782573619       -3.1594856472593427E-002   1.5348113384626362E-002
  0.10375455969473646       -3.1074665029799418E-002   1.5280096498876097E-002
  0.10114982156373678       -3.0380579240528872E-002   1.5353182653280317E-002
   9.8545083432737046E-002  -2.9512599104781850E-002   1.5567371847838810E-002
  0.10161114322446642       -2.9963528205912825E-002   2.3448128209023165E-002
   9.9131648106346712E-002  -2.9195225524238790E-002   2.3174899476011951E-002
   9.6652152988227005E-002  -2.8474923326811244E-002   2.3011053728606339E-002
   9.4172657870107257E-002  -2.7802621613630191E-002   2.2956590966806228E-002
   9.1693162751987578E-002  -2.7178320384695656E-002   2.3011511190611750E-002
   9.4147054781249934E-002  -2.7985902842914773E-002   3.1871976108233252E-002
   9.1761082621461321E-002  -2.6795594575884214E-002   3.1312743737392512E-002
   8.9375110461672694E-002  -2.5875181623823101E-002   3.0831174297608538E-002
   8.6989138301884095E-002  -2.5224663986731573E-002   3.0427267788881267E-002
   8.4603166142095482E-002  -2.4844041664609545E-002   3.0101024211210553E-002
  0.11153469700680857       -3.4181156544954183E-002  -3.8478580422912634E-004
  0.10848476037264171       -3.2646143971523517E-002  -1.2325626528464362E-004
  0.10543482373847485       -3.1369466157898526E-002   1.3917245781355780E-004
  0.10238488710430796       -3.0351123104079069E-002   4.0250036506592202E-004
   9.9334950470141126E-002  -2.9591114810065489E-002   6.6672745647217146E-004
  0.10515892818434408       -3.1846877824867947E-002   7.7686061828919628E-003
  0.10215043172792063       -3.0615848393242481E-002   7.6249092068465946E-003
   9.9141935271497172E-002  -2.9541867360684565E-002   7.5631934021339609E-003
   9.6133438815073760E-002  -2.8624934727194275E-002   7.5834587687544988E-003
   9.3124942358650264E-002  -2.7865050492771826E-002   7.6857053067074244E-003
   9.8545083432737046E-002  -2.9512599104781850E-002   1.5567371847838810E-002
   9.5659109141235918E-002  -2.8585552814961321E-002   1.5119734717541633E-002
   9.2773134849734734E-002  -2.7714268563470611E-002   1.4835160745756089E-002
   8.9887160558233523E-002  -2.6898746350309484E-002   1.4713649932482541E-002
   8.7001186266732353E-002  -2.6138986175478107E-002   1.4755202277720425E-002
   9.1693162751987578E-002  -2.7178320384695656E-002   2.3011511190611750E-002
   8.9010792612587500E-002  -2.6555257236680195E-002   2.2361220266800715E-002
   8.6328422473187477E-002  -2.5886669766256542E-002   2.1955074488680344E-002
   8.3646052333787385E-002  -2.5172557973424509E-002   2.1793073856250525E-002
   8.0963682194387362E-002  -2.4412921858184417E-002   2.1875218369511264E-002
   8.4603166142095482E-002  -2.4844041664609545E-002   3.0101024211210553E-002
   8.2205482141975428E-002  -2.4524961658399125E-002   2.9349365854623694E-002
   7.9807798141855416E-002  -2.4059070969042556E-002   2.8922934630906311E-002
   7.7410114141735376E-002  -2.3446369596539791E-002   2.8821730540058425E-002
   7.5012430141615322E-002  -2.2686857540890754E-002   2.9045753582080003E-002
   9.9334950470141126E-002  -2.9591114810065489E-002   6.6672745647217146E-004
   9.6399799566192768E-002  -2.8910982420668030E-002   2.3903229969451933E-004
   9.3464648662244437E-002  -2.8132267080698520E-002   2.0955033558367475E-005
   9.0529497758296093E-002  -2.7254968790156049E-002   1.2495658063313431E-005
   8.7594346854347749E-002  -2.6279087549041402E-002   2.1365417320928781E-004
   9.3124942358650264E-002  -2.7865050492771826E-002   7.6857053067074244E-003
   9.0387599033070948E-002  -2.7149961564277042E-002   7.4154722261230988E-003
   8.7650255707491603E-002  -2.6367414848570275E-002   7.3312364116353834E-003
   8.4912912381912245E-002  -2.5517410345651408E-002   7.4329978632445004E-003
   8.2175569056332942E-002  -2.4599948055520515E-002   7.7207565809505607E-003
   8.7001186266732353E-002  -2.6138986175478107E-002   1.4755202277720425E-002
   8.4438029894977645E-002  -2.5388940707885888E-002   1.4611306109968553E-002
   8.1874873523222952E-002  -2.4602562616442017E-002   1.4629786583768914E-002
   7.9311717151468286E-002  -2.3779851901146763E-002   1.4810643699121828E-002
   7.6748560779713509E-002  -2.2920808561999906E-002   1.5153877456027476E-002
   8.0963682194387362E-002  -2.4412921858184417E-002   2.1875218369511264E-002
   7.8551092151912971E-002  -2.3627919851494594E-002   2.1826533951231318E-002
   7.6138502109438511E-002  -2.2837710384313765E-002   2.1916605549959538E-002
   7.3725912066964036E-002  -2.2042293456641951E-002   2.2145433165695692E-002
   7.1313322024489673E-002  -2.1241669068479269E-002   2.2513016798439797E-002
   7.5012430141615322E-002  -2.2686857540890754E-002   2.9045753582080003E-002
   7.2726785803876787E-002  -2.1866898995103481E-002   2.9061155749911499E-002
   7.0441141466138293E-002  -2.1072858152185521E-002   2.9191693310206643E-002
   6.8155497128399800E-002  -2.0304735012137309E-002   2.9437366262965607E-002
   6.5869852790661265E-002  -1.9562529574958520E-002   2.9798174608188233E-002
   8.7594346854347749E-002  -2.6279087549041402E-002   2.1365417320928781E-004
   8.4049459452274045E-002  -2.5259895592280535E-002  -2.5173418952378901E-004
   8.0504572050200174E-002  -2.4252665154798791E-002  -5.4258053116429394E-004
   7.6959684648126331E-002  -2.3257396236597352E-002  -6.5888485171225475E-004
   7.3414797246052599E-002  -2.2274088837675676E-002  -6.0064715116803225E-004
   8.2175569056332942E-002  -2.4599948055520515E-002   7.7207565809505607E-003
   7.8814549276360196E-002  -2.3659947567331530E-002   7.2392918854338739E-003
   7.5453529496387534E-002  -2.2742328470237702E-002   6.9510204130273923E-003
   7.2092509716414843E-002  -2.1847090764238710E-002   6.8559421637302970E-003
   6.8731489936442125E-002  -2.0974234449335327E-002   6.9540571375433791E-003
   7.6748560779713509E-002  -2.2920808561999906E-002   1.5153877456027476E-002
   7.3590059823859244E-002  -2.2059999542382830E-002   1.4645916555912367E-002
   7.0431558868004854E-002  -2.1231991785676169E-002   1.4349800080923833E-002
   6.7273057912150519E-002  -2.0436785291880512E-002   1.4265528031062472E-002
   6.4114556956296198E-002  -1.9674380060995034E-002   1.4393100406328158E-002
   7.1313322024489673E-002  -2.1241669068479269E-002   2.2513016798439797E-002
   6.8375991094770952E-002  -2.0460051517434089E-002   2.1968139821910430E-002
   6.5438660165052190E-002  -1.9721655101114857E-002   2.1653758472525042E-002
   6.2501329235333469E-002  -1.9026479819521869E-002   2.1569872750284106E-002
   5.9563998305614749E-002  -1.8374525672654934E-002   2.1716482655187365E-002
   6.5869852790661265E-002  -1.9562529574958520E-002   2.9798174608188233E-002
   6.3172343089095417E-002  -1.8860103492485236E-002   2.9205961683429010E-002
   6.0474833387529570E-002  -1.8211318416553685E-002   2.8862895587831394E-002
   5.7777323685963694E-002  -1.7616174347163290E-002   2.8768976321395343E-002
   5.5079813984397874E-002  -1.7074671284314502E-002   2.8924203884120592E-002
   7.3414797246052599E-002  -2.2274088837675676E-002  -6.0064715116803225E-004
   7.1426131615906385E-002  -2.1322004927516458E-002  -5.3241715383600674E-004
   6.9437465985760283E-002  -2.0420406475602920E-002  -4.7105362392024785E-004
   6.7448800355614069E-002  -1.9569293481934112E-002  -4.1655656142067232E-004
   6.5460134725467967E-002  -1.8768665946511387E-002  -3.6892596633775199E-004
   6.8731489936442125E-002  -2.0974234449335327E-002   6.9540571375433791E-003
   6.6763321289099786E-002  -2.0116025570078133E-002   7.0873254453381329E-003
   6.4795152641757392E-002  -1.9264730171018707E-002   7.2684541861571805E-003
   6.2826983994414970E-002  -1.8420348252156160E-002   7.4974433599994672E-003
   6.0858815347072603E-002  -1.7582879813491603E-002   7.7742929668659366E-003
   6.4114556956296198E-002  -1.9674380060995034E-002   1.4393100406328158E-002
   6.2221612192197517E-002  -1.8910046212640030E-002   1.4634979002634108E-002
   6.0328667428098920E-002  -1.8109053866434396E-002   1.4979444932403954E-002
   5.8435722664000295E-002  -1.7271403022378212E-002   1.5426498195638023E-002
   5.6542777899901642E-002  -1.6397093680471819E-002   1.5976138792335226E-002
   5.9563998305614749E-002  -1.8374525672654934E-002   2.1716482655187365E-002
   5.7801004325199912E-002  -1.7704066855201817E-002   2.2110543518052445E-002
   5.6038010344785061E-002  -1.6953377561850190E-002   2.2661918614821270E-002
   5.4275016364370210E-002  -1.6122457792600374E-002   2.3370607945493949E-002
   5.2512022383955359E-002  -1.5211307547452035E-002   2.4236611510070102E-002
   5.5079813984397874E-002  -1.7074671284314502E-002   2.8924203884120592E-002
   5.3501497688106747E-002  -1.6498087497763492E-002   2.9514018991592506E-002
   5.1923181391815704E-002  -1.5797701257265817E-002   3.0315875233408451E-002
   5.0344865095524619E-002  -1.4973512562822186E-002   3.1329772609567680E-002
   4.8766548799233533E-002  -1.4025521414432252E-002   3.2555711120070607E-002
   6.5460134725467967E-002  -1.8768665946511387E-002  -3.6892596633775199E-004
   6.1415019526222969E-002  -1.7985714216342097E-002  -2.0162690477494305E-003
   5.7369904326977861E-002  -1.7187628638434982E-002  -3.4535429982187060E-003
   5.3324789127732697E-002  -1.6374409212789834E-002  -4.6807478177443018E-003
   4.9279673928487755E-002  -1.5546055939407388E-002  -5.6978835063277167E-003
   6.0858815347072603E-002  -1.7582879813491603E-002   7.7742929668659366E-003
   5.7028206515869928E-002  -1.6755561974881816E-002   6.4175421176905778E-003
   5.3197597684667169E-002  -1.5941631856184357E-002   5.2797348736575711E-003
   4.9366988853464591E-002  -1.5141089457399698E-002   4.3608712347656953E-003
   4.5536380022261791E-002  -1.4353934778527311E-002   3.6609512010159495E-003
   5.6542777899901642E-002  -1.6397093680471819E-002   1.5976138792335226E-002
   5.2935549910940349E-002  -1.5525409733421480E-002   1.4881458607746173E-002
   4.9328321921978946E-002  -1.4695635073933816E-002   1.4014596502498006E-002
   4.5721093933017445E-002  -1.3907769702009389E-002   1.3375552476590682E-002
   4.2113865944056250E-002  -1.3161813617647455E-002   1.2964326530023995E-002
   5.2512022383955359E-002  -1.5211307547452035E-002   2.4236611510070102E-002
   4.9137049711434150E-002  -1.4295257491961061E-002   2.3375480422417064E-002
   4.5762077038912975E-002  -1.3449638291683344E-002   2.2751041888303770E-002
   4.2387104366391787E-002  -1.2674449946618722E-002   2.2363295907729962E-002
   3.9012131693870605E-002  -1.1969692456767267E-002   2.2212242480695699E-002
   4.8766548799233533E-002  -1.4025521414432252E-002   3.2555711120070607E-002
   4.5632705917351413E-002  -1.3065105250500753E-002   3.1899607561703514E-002
   4.2498863035469264E-002  -1.2203641509432733E-002   3.1489071031074456E-002
   3.9365020153587241E-002  -1.1441130191228381E-002   3.1324101528184434E-002
   3.6231177271704995E-002  -1.0777571295887300E-002   3.1404699053032559E-002
   9.0361649174322239E-002   0.0000000000000000        4.9841202906300994E-002
   9.3961604184699982E-002  -5.4048576578495135E-003   5.3216798853149505E-002
   9.7561559195077724E-002  -1.0671812911456597E-002   5.4973384550098356E-002
  0.10116151420545545       -1.5800865760821250E-002   5.5110959997147553E-002
  0.10476146921583319       -2.0792016205943478E-002   5.3629525194297076E-002
   8.2426108384665187E-002   0.0000000000000000        4.4789070512555026E-002
   8.4636246602604021E-002  -4.5749386506957132E-003   4.8273997542714123E-002
   8.6846384820542882E-002  -9.0388427477404044E-003   5.0598301237895091E-002
   8.9056523038481716E-002  -1.3391712291134080E-002   5.1761981598097924E-002
   9.1266661256420550E-002  -1.7633547280876728E-002   5.1765038623322629E-002
   7.4246236741911248E-002   0.0000000000000000        4.0580291051258550E-002
   7.5524945082332706E-002  -3.7450196435419121E-003   4.4147681314136850E-002
   7.6803653422754178E-002  -7.4058725840242135E-003   4.7012835156958512E-002
   7.8082361763175623E-002  -1.0982558821446900E-002   4.9175752579723571E-002
   7.9361070103597095E-002  -1.4475078355809972E-002   5.0636433582432000E-002
   6.5822034246060396E-002   0.0000000000000000        3.7214864522411580E-002
   6.6627699623885997E-002  -2.9151006363881114E-003   4.0837850167417651E-002
   6.7433365001711612E-002  -5.7729024203080175E-003   4.4216986307288632E-002
   6.8239030379537227E-002  -8.5734053517597195E-003   4.7352272942024508E-002
   6.9044695757362828E-002  -1.1316609430743217E-002   5.0243710071625265E-002
   5.7153500897112693E-002   0.0000000000000000        3.4692790926014121E-002
   5.7944510227263948E-002  -2.0851816292343107E-003   3.8344504102556583E-002
   5.8735519557415211E-002  -4.1399322565918283E-003   4.2210754688885438E-002
   5.9526528887566481E-002  -6.1642518820725460E-003   4.6291542685000721E-002
   6.0317538217717737E-002  -8.1581405056764655E-003   5.0586868090902404E-002
  0.10476146921583319       -2.0792016205943478E-002   5.3629525194297076E-002
  0.10210786560718739       -2.4933283553004938E-002   4.5651489148774677E-002
   9.9454261998541571E-002  -2.7512687108187321E-002   3.9365885619256608E-002
   9.6800658389895738E-002  -2.8530226871490569E-002   3.4772714605742751E-002
   9.4147054781249934E-002  -2.7985902842914773E-002   3.1871976108233252E-002
   9.1266661256420550E-002  -1.7633547280876728E-002   5.1765038623322629E-002
   9.0067085850444692E-002  -2.1209768231047203E-002   4.6528843729741275E-002
   8.8867510444468792E-002  -2.3565795655724371E-002   4.2508272725495448E-002
   8.7667935038492933E-002  -2.4701629554908192E-002   3.9703325610585254E-002
   8.6468359632517033E-002  -2.4617269928598737E-002   3.8114002385010663E-002
   7.9361070103597095E-002  -1.4475078355809972E-002   5.0636433582432000E-002
   7.9138714273622457E-002  -1.7486252909089471E-002   4.7800409574405900E-002
   7.8916358443647819E-002  -1.9618904203261418E-002   4.5703200829046678E-002
   7.8694002613673167E-002  -2.0873032238325821E-002   4.4344807346354313E-002
   7.8471646783698501E-002  -2.1248637014282687E-002   4.3725229126328841E-002
   6.9044695757362828E-002  -1.1316609430743217E-002   5.0243710071625265E-002
   6.9322750876720685E-002  -1.3762737587131726E-002   4.9466186682768656E-002
   6.9600805996078582E-002  -1.5672012750798478E-002   4.8950669929910172E-002
   6.9878861115436453E-002  -1.7044434921743450E-002   4.8697159813049964E-002
   7.0156916234794323E-002  -1.7880004099966637E-002   4.8705656332187791E-002
   6.0317538217717737E-002  -8.1581405056764655E-003   5.0586868090902404E-002
   6.0619195659739417E-002  -1.0039222265173991E-002   5.1526175054829509E-002
   6.0920853101761110E-002  -1.1725121298335521E-002   5.2250680028086062E-002
   6.1222510543782811E-002  -1.3215837605161066E-002   5.2760383010672082E-002
   6.1524167985804491E-002  -1.4511371185650601E-002   5.3055284002587522E-002
   9.4147054781249934E-002  -2.7985902842914773E-002   3.1871976108233252E-002
   9.1761082621461321E-002  -2.6795594575884214E-002   3.1312743737392512E-002
   8.9375110461672694E-002  -2.5875181623823101E-002   3.0831174297608538E-002
   8.6989138301884095E-002  -2.5224663986731573E-002   3.0427267788881267E-002
   8.4603166142095482E-002  -2.4844041664609545E-002   3.0101024211210553E-002
   8.6468359632517033E-002  -2.4617269928598737E-002   3.8114002385010663E-002
   8.4207365511521914E-002  -2.3975807185021479E-002   3.7096126118857438E-002
   8.1946371390526768E-002  -2.3440331732402002E-002   3.6250542999234511E-002
   7.9685377269531649E-002  -2.3010843570740395E-002   3.5577253026141786E-002
   7.7424383148536502E-002  -2.2687342700036500E-002   3.5076256199579325E-002
   7.8471646783698501E-002  -2.1248637014282687E-002   4.3725229126328841E-002
   7.6430260916970430E-002  -2.1156019794158810E-002   4.2412616988874836E-002
   7.4388875050242317E-002  -2.1005481840980958E-002   4.1366928213424664E-002
   7.2347489183514233E-002  -2.0797023154749215E-002   4.0588162799978365E-002
   7.0306103316786106E-002  -2.0530643735463469E-002   4.0076320748535885E-002
   7.0156916234794323E-002  -1.7880004099966637E-002   4.8705656332187791E-002
   6.8429768837806854E-002  -1.8336232403296113E-002   4.7262216347444756E-002
   6.6702621440819385E-002  -1.8570631949559914E-002   4.6180329940179107E-002
   6.4975474043831929E-002  -1.8583202738757999E-002   4.5459997110390976E-002
   6.3248326646844447E-002  -1.8373944770890459E-002   4.5101217858080106E-002
   6.1524167985804491E-002  -1.4511371185650601E-002   5.3055284002587522E-002
   6.0205889274031220E-002  -1.5516445012433412E-002   5.1644924194567184E-002
   5.8887610562257955E-002  -1.6135782058138821E-002   5.0690748179497785E-002
   5.7569331850484684E-002  -1.6369382322766877E-002   5.0192755957379397E-002
   5.6251053138711399E-002  -1.6217245806317421E-002   5.0150947528212003E-002
   8.4603166142095482E-002  -2.4844041664609545E-002   3.0101024211210553E-002
   8.2205482141975428E-002  -2.4524961658399125E-002   2.9349365854623694E-002
   7.9807798141855416E-002  -2.4059070969042556E-002   2.8922934630906311E-002
   7.7410114141735376E-002  -2.3446369596539791E-002   2.8821730540058425E-002
   7.5012430141615322E-002  -2.2686857540890754E-002   2.9045753582080003E-002
   7.7424383148536502E-002  -2.2687342700036500E-002   3.5076256199579325E-002
   7.5327215369035000E-002  -2.2362314949267333E-002   3.4488315959667580E-002
   7.3230047589533581E-002  -2.1928246147409701E-002   3.4176181028123725E-002
   7.1132879810032121E-002  -2.1385136294463640E-002   3.4139851404947498E-002
   6.9035712030530674E-002  -2.0732985390429171E-002   3.4379327090138925E-002
   7.0306103316786106E-002  -2.0530643735463469E-002   4.0076320748535885E-002
   6.8460029933401542E-002  -2.0199668240135471E-002   3.9614328993241500E-002
   6.6613956550016937E-002  -1.9797421325776873E-002   3.9378720721813115E-002
   6.4767883166632373E-002  -1.9323902992387541E-002   3.9369495934250862E-002
   6.2921809783247767E-002  -1.8779113239967629E-002   3.9586654630554448E-002
   6.3248326646844447E-002  -1.8373944770890459E-002   4.5101217858080106E-002
   6.1603925835074999E-002  -1.8037021531003630E-002   4.4727404955345197E-002
   5.9959525023305586E-002  -1.7666596504143976E-002   4.4530553711974771E-002
   5.8315124211536180E-002  -1.7262669690311441E-002   4.4510664127968537E-002
   5.6670723399766740E-002  -1.6825241089506109E-002   4.4667736203326640E-002
   5.6251053138711399E-002  -1.6217245806317421E-002   5.0150947528212003E-002
   5.4758903074055426E-002  -1.5874374821871789E-002   4.9827543845979011E-002
   5.3266753009399440E-002  -1.5535771682511162E-002   4.9631679998608430E-002
   5.1774602944743446E-002  -1.5201436388235311E-002   4.9563355986100580E-002
   5.0282452880087480E-002  -1.4871368939044532E-002   4.9622571808455224E-002
   7.5012430141615322E-002  -2.2686857540890754E-002   2.9045753582080003E-002
   7.2726785803876787E-002  -2.1866898995103481E-002   2.9061155749911499E-002
   7.0441141466138293E-002  -2.1072858152185521E-002   2.9191693310206643E-002
   6.8155497128399800E-002  -2.0304735012137309E-002   2.9437366262965607E-002
   6.5869852790661265E-002  -1.9562529574958520E-002   2.9798174608188233E-002
   6.9035712030530674E-002  -2.0732985390429171E-002   3.4379327090138925E-002
   6.6883239597354163E-002  -2.0031087393455896E-002   3.4257849349830449E-002
   6.4730767164177749E-002  -1.9338736261692920E-002   3.4287580026182422E-002
   6.2578294731001266E-002  -1.8655931995140651E-002   3.4468519119194824E-002
   6.0425822297824783E-002  -1.7982674593798792E-002   3.4800666628867549E-002
   6.2921809783247767E-002  -1.8779113239967629E-002   3.9586654630554448E-002
   6.0938582278830013E-002  -1.8195275791808220E-002   3.9344667819765193E-002
   5.8955354774412272E-002  -1.7604614371200315E-002   3.9289962449832849E-002
   5.6972127269994483E-002  -1.7007128978143965E-002   3.9422538520757486E-002
   5.4988899765576763E-002  -1.6402819612639119E-002   3.9742396032539262E-002
   5.6670723399766740E-002  -1.6825241089506109E-002   4.4667736203326640E-002
   5.4892813848304300E-002  -1.6359464190160589E-002   4.4321611159715307E-002
   5.3114904296841882E-002  -1.5870492480707654E-002   4.4198840581157861E-002
   5.1336994745379456E-002  -1.5358325961147265E-002   4.4299424467653836E-002
   4.9559085193917024E-002  -1.4822964631479446E-002   4.4623362819203559E-002
   5.0282452880087480E-002  -1.4871368939044532E-002   4.9622571808455224E-002
   4.8745934305777047E-002  -1.4523652588513014E-002   4.9188679369681132E-002
   4.7209415731466600E-002  -1.4136370590215087E-002   4.9014214420157173E-002
   4.5672897157156181E-002  -1.3709522944150601E-002   4.9099176959883674E-002
   4.4136378582845720E-002  -1.3243109650319718E-002   4.9443566988860377E-002
   6.5869852790661265E-002  -1.9562529574958520E-002   2.9798174608188233E-002
   6.3172343089095417E-002  -1.8860103492485236E-002   2.9205961683429010E-002
   6.0474833387529570E-002  -1.8211318416553685E-002   2.8862895587831394E-002
   5.7777323685963694E-002  -1.7616174347163290E-002   2.8768976321395343E-002
   5.5079813984397874E-002  -1.7074671284314502E-002   2.8924203884120592E-002
   6.0425822297824783E-002  -1.7982674593798792E-002   3.4800666628867549E-002
   5.7970134378617491E-002  -1.7331276595489137E-002   3.4164330144196037E-002
   5.5514446459410144E-002  -1.6714050538033175E-002   3.3762490395080266E-002
   5.3058758540202811E-002  -1.6130996421431003E-002   3.3595147381519849E-002
   5.0603070620995505E-002  -1.5582114245682510E-002   3.3662301103515035E-002
   5.4988899765576763E-002  -1.6402819612639119E-002   3.9742396032539262E-002
   5.2760383535121955E-002  -1.5802449698492982E-002   3.9081405053643471E-002
   5.0531867304667188E-002  -1.5216782659512942E-002   3.8640260716697086E-002
   4.8303351074212339E-002  -1.4645818495698768E-002   3.8418963021700336E-002
   4.6074834843757601E-002  -1.4089557207050574E-002   3.8417511968653201E-002
   4.9559085193917024E-002  -1.4822964631479446E-002   4.4623362819203559E-002
   4.7543090558608808E-002  -1.4273622801497021E-002   4.3957186411771161E-002
   4.5527095923300585E-002  -1.3719514780992599E-002   4.3496206552682035E-002
   4.3511101287992349E-002  -1.3160640569966674E-002   4.3240423241936679E-002
   4.1495106652684147E-002  -1.2597000168418721E-002   4.3189836479535004E-002
   4.4136378582845720E-002  -1.3243109650319718E-002   4.9443566988860377E-002
   4.2318255449078079E-002  -1.2744795904500783E-002   4.8791674218579051E-002
   4.0500132315310439E-002  -1.2222246902472256E-002   4.8330327903035042E-002
   3.8682009181542826E-002  -1.1675462644234288E-002   4.8059528042228988E-002
   3.6863886047775185E-002  -1.1104443129786590E-002   4.7979274636160307E-002
   5.5079813984397874E-002  -1.7074671284314502E-002   2.8924203884120592E-002
   5.3501497688106747E-002  -1.6498087497763492E-002   2.9514018991592506E-002
   5.1923181391815704E-002  -1.5797701257265817E-002   3.0315875233408451E-002
   5.0344865095524619E-002  -1.4973512562822186E-002   3.1329772609567680E-002
   4.8766548799233533E-002  -1.4025521414432252E-002   3.2555711120070607E-002
   5.0603070620995505E-002  -1.5582114245682510E-002   3.3662301103515035E-002
   4.9211521975772471E-002  -1.5007850657300509E-002   3.4279718923909519E-002
   4.7819973330549437E-002  -1.4348652302797318E-002   3.5058630912096267E-002
   4.6428424685326417E-002  -1.3604519182172970E-002   3.5999037068075376E-002
   4.5036876040103369E-002  -1.2775451295427565E-002   3.7100937391846778E-002
   4.6074834843757601E-002  -1.4089557207050574E-002   3.8417511968653201E-002
   4.4819506883051224E-002  -1.3517613816837470E-002   3.9023664814144890E-002
   4.3564178922344855E-002  -1.2899603348328431E-002   3.9740764860877409E-002
   4.2308850961638458E-002  -1.2235525801523699E-002   4.0568812108850841E-002
   4.1053523000932166E-002  -1.1525381176422989E-002   4.1507806558065463E-002
   4.1495106652684147E-002  -1.2597000168418721E-002   4.3189836479535004E-002
   4.0325452409943063E-002  -1.2027376976374571E-002   4.3745856662298549E-002
   3.9155798167201987E-002  -1.1450554393859572E-002   4.4362277079751759E-002
   3.7986143924460911E-002  -1.0866532420874399E-002   4.5039097731894545E-002
   3.6816489681719841E-002  -1.0275311057418413E-002   4.5776318618726990E-002
   3.6863886047775185E-002  -1.1104443129786590E-002   4.7979274636160307E-002
   3.5729358556447988E-002  -1.0537140135911449E-002   4.8446294468370732E-002
   3.4594831065120818E-002  -1.0001505439390990E-002   4.8923167568719339E-002
   3.3460303573793634E-002  -9.4975390402251142E-003   4.9409893937205990E-002
   3.2325776082466451E-002  -9.0252409384137811E-003   4.9906473573831100E-002
   4.8766548799233533E-002  -1.4025521414432252E-002   3.2555711120070607E-002
   4.5632705917351413E-002  -1.3065105250500753E-002   3.1899607561703514E-002
   4.2498863035469264E-002  -1.2203641509432733E-002   3.1489071031074456E-002
   3.9365020153587241E-002  -1.1441130191228381E-002   3.1324101528184434E-002
   3.6231177271704995E-002  -1.0777571295887300E-002   3.1404699053032559E-002
   4.5036876040103369E-002  -1.2775451295427565E-002   3.7100937391846778E-002
   4.2152335066256374E-002  -1.1933576401355422E-002   3.6115751846569427E-002
   3.9267794092409353E-002  -1.1151022258750337E-002   3.5383603089624238E-002
   3.6383253118562359E-002  -1.0427788867612704E-002   3.4904491121010420E-002
   3.3498712144715281E-002  -9.7638762279423918E-003   3.4678415940728069E-002
   4.1053523000932166E-002  -1.1525381176422989E-002   4.1507806558065463E-002
   3.8425753695713480E-002  -1.0802047552209870E-002   4.0233170697274612E-002
   3.5797984390494718E-002  -1.0098403008068010E-002   3.9219041385408673E-002
   3.3170215085275956E-002  -9.4144475439971696E-003   3.8465418622467350E-002
   3.0542445780057270E-002  -8.7501811599974832E-003   3.7972302408451286E-002
   3.6816489681719841E-002  -1.0275311057418413E-002   4.5776318618726990E-002
   3.4452961805722548E-002  -9.6705187030644846E-003   4.4251864113818616E-002
   3.2089433929725283E-002  -9.0457837573856489E-003   4.2995385918428164E-002
   2.9725906053727991E-002  -8.4011062203816194E-003   4.2006884032555578E-002
   2.7362378177730629E-002  -7.7364860920525191E-003   4.1286358456201461E-002
   3.2325776082466451E-002  -9.0252409384137811E-003   4.9906473573831100E-002
   3.0233959396283761E-002  -8.5389898539189879E-003   4.8171832096201295E-002
   2.8142142710101153E-002  -7.9931645067032181E-003   4.6712636688682779E-002
   2.6050326023918532E-002  -7.3877648967659686E-003   4.5528887351275180E-002
   2.3958509337735800E-002  -6.7227910241076660E-003   4.4620584083978843E-002
   5.7153500897112693E-002   0.0000000000000000        3.4692790926014121E-002
   5.7944510227263948E-002  -2.0851816292343107E-003   3.8344504102556583E-002
   5.8735519557415211E-002  -4.1399322565918283E-003   4.2210754688885438E-002
   5.9526528887566481E-002  -6.1642518820725460E-003   4.6291542685000721E-002
   6.0317538217717737E-002  -8.1581405056764655E-003   5.0586868090902404E-002
   4.8653102800324283E-002   0.0000000000000000        3.2790704874348681E-002
   4.9593190433829135E-002  -1.7107928640190352E-003   3.6965757911951336E-002
   5.0533278067333987E-002  -3.4356215097597915E-003   4.1224430146474748E-002
   5.1473365700838838E-002  -5.1744859372222698E-003   4.5566721577918926E-002
   5.2413453334343683E-002  -6.9273861464064692E-003   4.9992632206283874E-002
   4.0733306060951352E-002   0.0000000000000000        3.1285240979697766E-002
   4.1691553784944151E-002  -1.3364040988037588E-003   3.5939167094762109E-002
   4.2649801508936942E-002  -2.7313107629277590E-003   4.0545794193881567E-002
   4.3608049232929748E-002  -4.1847199923719953E-003   4.5105122277056139E-002
   4.4566296956922533E-002  -5.6966317871364738E-003   4.9617151344285834E-002
   3.3394110678993914E-002   0.0000000000000000        3.0176399242061402E-002
   3.4239600280609003E-002  -9.6201533358848202E-004   3.5264731650988902E-002
   3.5085089882224092E-002  -2.0270000160957234E-003   4.0174846831105872E-002
   3.5930579483839188E-002  -3.1949540475217225E-003   4.4906744782412314E-002
   3.6776069085454277E-002  -4.4658774278664784E-003   4.9460425504908229E-002
   2.6635516654451959E-002   0.0000000000000000        2.9464179661439563E-002
   2.7237329920823700E-002  -5.8762656837320609E-004   3.4942451580631709E-002
   2.7839143187195440E-002  -1.3226892692636914E-003   4.0111588058147678E-002
   2.8440956453567180E-002  -2.2051881026714463E-003   4.4971589093987477E-002
   2.9042769719938924E-002  -3.2351230685964804E-003   4.9522454688151085E-002
   6.0317538217717737E-002  -8.1581405056764655E-003   5.0586868090902404E-002
   6.0619195659739417E-002  -1.0039222265173991E-002   5.1526175054829509E-002
   6.0920853101761110E-002  -1.1725121298335521E-002   5.2250680028086062E-002
   6.1222510543782811E-002  -1.3215837605161066E-002   5.2760383010672082E-002
   6.1524167985804491E-002  -1.4511371185650601E-002   5.3055284002587522E-002
   5.2413453334343683E-002  -6.9273861464064692E-003   4.9992632206283874E-002
   5.2539778773139645E-002  -8.5928623573536759E-003   5.1220370915874537E-002
   5.2666104211935585E-002  -1.0069454790105169E-002   5.2312247609684233E-002
   5.2792429650731547E-002  -1.1357163444660969E-002   5.3268262287713003E-002
   5.2918755089527487E-002  -1.2455988321021065E-002   5.4088414949960854E-002
   4.4566296956922533E-002  -5.6966317871364738E-003   4.9617151344285834E-002
   4.4596230367382368E-002  -7.1465024495333592E-003   5.1127022851399744E-002
   4.4626163777842190E-002  -8.4137882818748309E-003   5.2579972317622320E-002
   4.4656097188301998E-002  -9.4984892841608864E-003   5.3975999742953570E-002
   4.4686030598761840E-002  -1.0400605456391515E-002   5.5315105127393495E-002
   3.6776069085454277E-002  -4.4658774278664784E-003   4.9460425504908229E-002
   3.6788550442467580E-002  -5.7001425417130417E-003   5.1246130861405108E-002
   3.6801031799480882E-002  -6.7581217736444824E-003   5.3053854151900261E-002
   3.6813513156494185E-002  -7.6398151236607972E-003   5.4883595376393708E-002
   3.6825994513507480E-002  -8.3452225917619791E-003   5.6735354534885450E-002
   2.9042769719938924E-002  -3.2351230685964804E-003   4.9522454688151085E-002
   2.9116738998395307E-002  -4.2537826338927128E-003   5.1577694945890672E-002
   2.9190708276851697E-002  -5.1024552654141409E-003   5.3733893112518132E-002
   2.9264677555308087E-002  -5.7811409631607080E-003   5.5991049188033465E-002
   2.9338646833764470E-002  -6.2898397271324291E-003   5.8349163172436699E-002
   6.1524167985804491E-002  -1.4511371185650601E-002   5.3055284002587522E-002
   6.0205889274031220E-002  -1.5516445012433412E-002   5.1644924194567184E-002
   5.8887610562257955E-002  -1.6135782058138821E-002   5.0690748179497785E-002
   5.7569331850484684E-002  -1.6369382322766877E-002   5.0192755957379397E-002
   5.6251053138711399E-002  -1.6217245806317421E-002   5.0150947528212003E-002
   5.2918755089527487E-002  -1.2455988321021065E-002   5.4088414949960854E-002
   5.2003471087551510E-002  -1.3307354637196275E-002   5.3343439525923797E-002
   5.1088187085575554E-002  -1.3852687611197524E-002   5.2948269728530450E-002
   5.0172903083599583E-002  -1.4091987243024743E-002   5.2902905557780627E-002
   4.9257619081623627E-002  -1.4025253532677973E-002   5.3207347013674466E-002
   4.4686030598761840E-002  -1.0400605456391515E-002   5.5315105127393495E-002
   4.4067363140275775E-002  -1.1098264261959121E-002   5.5155810648436457E-002
   4.3448695681789717E-002  -1.1569593164256185E-002   5.5239943629815547E-002
   4.2830028223303653E-002  -1.1814592163282605E-002   5.5567504071530958E-002
   4.2211360764817608E-002  -1.1833261259038483E-002   5.6138491973582519E-002
   3.6825994513507480E-002  -8.3452225917619791E-003   5.6735354534885450E-002
   3.6397565432203967E-002  -8.8891738867219686E-003   5.7082037562104906E-002
   3.5969136350900453E-002  -9.2864987173148315E-003   5.7565769883353192E-002
   3.5540707269596940E-002  -9.5371970835404895E-003   5.8186551498630334E-002
   3.5112278188293433E-002  -9.6412689853990000E-003   5.8944382407936348E-002
   2.9338646833764470E-002  -6.2898397271324291E-003   5.8349163172436699E-002
   2.8994077963336112E-002  -6.6800835114848196E-003   5.9122120266929271E-002
   2.8649509092907748E-002  -7.0034042703735373E-003   5.9925748489143275E-002
   2.8304940222479390E-002  -7.2598020037983437E-003   6.0760047839078790E-002
   2.7960371352051025E-002  -7.4492767117595310E-003   6.1625018316735711E-002
   5.6251053138711399E-002  -1.6217245806317421E-002   5.0150947528212003E-002
   5.4758903074055426E-002  -1.5874374821871789E-002   4.9827543845979011E-002
   5.3266753009399440E-002  -1.5535771682511162E-002   4.9631679998608430E-002
   5.1774602944743446E-002  -1.5201436388235311E-002   4.9563355986100580E-002
   5.0282452880087480E-002  -1.4871368939044532E-002   4.9622571808455224E-002
   4.9257619081623627E-002  -1.4025253532677973E-002   5.3207347013674466E-002
   4.7909014033489766E-002  -1.3796331892047251E-002   5.2854161590037183E-002
   4.6560408985355926E-002  -1.3549067733022675E-002   5.2660526364581586E-002
   4.5211803937222086E-002  -1.3283461055604297E-002   5.2626441337307768E-002
   4.3863198889088240E-002  -1.2999511859791979E-002   5.2751906508215540E-002
   4.2211360764817608E-002  -1.1833261259038483E-002   5.6138491973582519E-002
   4.1038311096525004E-002  -1.1718288962222698E-002   5.5778135172019842E-002
   3.9865261428232421E-002  -1.1562363783534244E-002   5.5609338931958047E-002
   3.8692211759939830E-002  -1.1365485722973145E-002   5.5632103253397035E-002
   3.7519162091647240E-002  -1.1127654780539356E-002   5.5846428136336716E-002
   3.5112278188293433E-002  -9.6412689853990000E-003   5.8944382407936348E-002
   3.4146794263161168E-002  -9.6402460323981518E-003   5.8599464591927108E-002
   3.3181310338028937E-002  -9.5756598340458673E-003   5.8478117700737728E-002
   3.2215826412896685E-002  -9.4475103903420479E-003   5.8580341734368338E-002
   3.1250342487764426E-002  -9.2557977012867262E-003   5.8906136692818793E-002
   2.7960371352051025E-002  -7.4492767117595310E-003   6.1625018316735711E-002
   2.7234463533398229E-002  -7.5622031025736058E-003   6.1318149849758780E-002
   2.6508555714745440E-002  -7.5889558845573420E-003   6.1266862670920762E-002
   2.5782647896092647E-002  -7.5295350577109692E-003   6.1471156780221831E-002
   2.5056740077439854E-002  -7.3839406220341519E-003   6.1931032177661827E-002
   5.0282452880087480E-002  -1.4871368939044532E-002   4.9622571808455224E-002
   4.8745934305777047E-002  -1.4523652588513014E-002   4.9188679369681132E-002
   4.7209415731466600E-002  -1.4136370590215087E-002   4.9014214420157173E-002
   4.5672897157156181E-002  -1.3709522944150601E-002   4.9099176959883674E-002
   4.4136378582845720E-002  -1.3243109650319718E-002   4.9443566988860377E-002
   4.3863198889088240E-002  -1.2999511859791979E-002   5.2751906508215540E-002
   4.2571647346536269E-002  -1.2689897681086290E-002   5.2415047353087316E-002
   4.1280095803984306E-002  -1.2347296054988022E-002   5.2308694772225744E-002
   3.9988544261432335E-002  -1.1971706981496785E-002   5.2432848765630896E-002
   3.8696992718880358E-002  -1.1563130460612914E-002   5.2787509333302507E-002
   3.7519162091647240E-002  -1.1127654780539356E-002   5.5846428136336716E-002
   3.6443656665870058E-002  -1.0856142773659622E-002   5.5600024064480863E-002
   3.5368151240092884E-002  -1.0558221519760925E-002   5.5555205651907955E-002
   3.4292645814315681E-002  -1.0233891018843023E-002   5.5711972898617991E-002
   3.3217140388538527E-002  -9.8831512709061098E-003   5.6070325804610938E-002
   3.1250342487764426E-002  -9.2557977012867262E-003   5.8906136692818793E-002
   3.0361962263778380E-002  -9.0223878662330365E-003   5.8743609503861566E-002
   2.9473582039792313E-002  -8.7691469845337881E-003   5.8753747059203658E-002
   2.8585201815806264E-002  -8.4960750561893176E-003   5.8936549358845000E-002
   2.7696821591820200E-002  -8.2031720811992503E-003   5.9292016402785599E-002
   2.5056740077439854E-002  -7.3839406220341519E-003   6.1931032177661827E-002
   2.4326564140261235E-002  -7.1886329588062431E-003   6.1845803671229577E-002
   2.3596388203082616E-002  -6.9800724493068109E-003   6.1904318994112931E-002
   2.2866212265903997E-002  -6.7582590935354719E-003   6.2106578146311882E-002
   2.2136036328725378E-002  -6.5231928914925019E-003   6.2452581127826368E-002
   4.4136378582845720E-002  -1.3243109650319718E-002   4.9443566988860377E-002
   4.2318255449078079E-002  -1.2744795904500783E-002   4.8791674218579051E-002
   4.0500132315310439E-002  -1.2222246902472256E-002   4.8330327903035042E-002
   3.8682009181542826E-002  -1.1675462644234288E-002   4.8059528042228988E-002
   3.6863886047775185E-002  -1.1104443129786590E-002   4.7979274636160307E-002
   3.8696992718880358E-002  -1.1563130460612914E-002   5.2787509333302507E-002
   3.7075659223810120E-002  -1.1128404005868231E-002   5.2123167118873714E-002
   3.5454325728739897E-002  -1.0674365130794686E-002   5.1661857727102051E-002
   3.3832992233669645E-002  -1.0201013835392434E-002   5.1403581157987502E-002
   3.2211658738599422E-002  -9.7083501196613686E-003   5.1348337411530220E-002
   3.3217140388538527E-002  -9.8831512709061098E-003   5.6070325804610938E-002
   3.1805082900085276E-002  -9.5120121072356512E-003   5.5388611310153685E-002
   3.0393025411632087E-002  -9.1264833591170602E-003   5.4922416006273372E-002
   2.8980967923178870E-002  -8.7265650265506908E-003   5.4671739892969806E-002
   2.7568910434725646E-002  -8.3122571095361752E-003   5.4636582970243125E-002
   2.7696821591820200E-002  -8.2031720811992503E-003   5.9292016402785599E-002
   2.6506526477903601E-002  -7.8956202086030852E-003   5.8588006792419295E-002
   2.5316231363987009E-002  -7.5786015874394069E-003   5.8112002740549375E-002
   2.4125936250070416E-002  -7.2521162177088920E-003   5.7864004247176082E-002
   2.2935641136153841E-002  -6.9161640994109680E-003   5.7844011312299076E-002
   2.2136036328725378E-002  -6.5231928914925019E-003   6.2452581127826368E-002
   2.1179989957265055E-002  -6.2792283099704915E-003   6.1721353565670128E-002
   2.0223943585804705E-002  -6.0307198157618369E-003   6.1230617929930009E-002
   1.9267897214344361E-002  -5.7776674088670030E-003   6.0980374220605954E-002
   1.8311850842884031E-002  -5.5200710892857052E-003   6.0970622437697963E-002
   3.6863886047775185E-002  -1.1104443129786590E-002   4.7979274636160307E-002
   3.5729358556447988E-002  -1.0537140135911449E-002   4.8446294468370732E-002
   3.4594831065120818E-002  -1.0001505439390990E-002   4.8923167568719339E-002
   3.3460303573793634E-002  -9.4975390402251142E-003   4.9409893937205990E-002
   3.2325776082466451E-002  -9.0252409384137811E-003   4.9906473573831100E-002
   3.2211658738599422E-002  -9.7083501196613686E-003   5.1348337411530220E-002
   3.1117753036881898E-002  -9.2157333913548689E-003   5.1830067424247867E-002
   3.0023847335164382E-002  -8.7425230582260233E-003   5.2383187748046733E-002
   2.8929941633446882E-002  -8.2887191202748005E-003   5.3007698382926738E-002
   2.7836035931729383E-002  -7.8543215775012110E-003   5.3703599328887852E-002
   2.7568910434725646E-002  -8.3122571095361752E-003   5.4636582970243125E-002
   2.6577163565560752E-002  -7.8943266467981776E-003   5.5145285065644936E-002
   2.5585416696395878E-002  -7.4835406770609458E-003   5.5786914515070951E-002
   2.4593669827231022E-002  -7.0798992003245423E-003   5.6561471318521114E-002
   2.3601922958066110E-002  -6.6834022165889462E-003   5.7468955475995218E-002
   2.2935641136153841E-002  -6.9161640994109680E-003   5.7844011312299076E-002
   2.2107590142484534E-002  -6.5729199022414031E-003   5.8391947392561983E-002
   2.1279539148815224E-002  -6.2245582958958406E-003   5.9134347869791971E-002
   2.0451488155145931E-002  -5.8710792803743118E-003   6.0071212743988980E-002
   1.9623437161476635E-002  -5.5124828556766398E-003   6.1202542015153100E-002
   1.8311850842884031E-002  -5.5200710892857052E-003   6.0970622437697963E-002
   1.7709032767653260E-002  -5.2515131576848506E-003   6.1570054404998853E-002
   1.7106214692422489E-002  -4.9655759147309020E-003   6.2425487812209857E-002
   1.6503396617191725E-002  -4.6622593604240259E-003   6.3536922659330697E-002
   1.5900578541960933E-002  -4.3415634947641668E-003   6.4904358946361651E-002
   3.2325776082466451E-002  -9.0252409384137811E-003   4.9906473573831100E-002
   3.0233959396283761E-002  -8.5389898539189879E-003   4.8171832096201295E-002
   2.8142142710101153E-002  -7.9931645067032181E-003   4.6712636688682779E-002
   2.6050326023918532E-002  -7.3877648967659686E-003   4.5528887351275180E-002
   2.3958509337735800E-002  -6.7227910241076660E-003   4.4620584083978843E-002
   2.7836035931729383E-002  -7.8543215775012110E-003   5.3703599328887852E-002
   2.6010359944897060E-002  -7.4091648244764274E-003   5.2265529196771826E-002
   2.4184683958064730E-002  -6.9230832557708732E-003   5.1084294393245522E-002
   2.2359007971232320E-002  -6.3960768713843888E-003   5.0159894918308398E-002
   2.0533331984400049E-002  -5.8281456713172863E-003   4.9492330771960691E-002
   2.3601922958066110E-002  -6.6834022165889462E-003   5.7468955475995218E-002
   2.2023776929062350E-002  -6.2793397950337004E-003   5.6308807242352737E-002
   2.0445630900058527E-002  -5.8530020048383688E-003   5.5386883595777765E-002
   1.8867484871054756E-002  -5.4043888460026997E-003   5.4703184536270516E-002
   1.7289338842050930E-002  -4.9335003185269066E-003   5.4257710063830955E-002
   1.9623437161476635E-002  -5.5124828556766398E-003   6.1202542015153100E-002
   1.8274210348779615E-002  -5.1495147655910567E-003   6.0301666232943328E-002
   1.6924983536082586E-002  -4.7829207539058331E-003   5.9620404296279593E-002
   1.5575756723385532E-002  -4.4127008206211763E-003   5.9158756205161644E-002
   1.4226529910688530E-002  -4.0388549657365269E-003   5.8916721959589483E-002
   1.5900578541960933E-002  -4.3415634947641668E-003   6.4904358946361651E-002
   1.4761660204048926E-002  -4.0196897361484685E-003   6.4244106168544313E-002
   1.3622741866136885E-002  -3.7128395029735056E-003   6.3784856494750825E-002
   1.2483823528224889E-002  -3.4210127952393997E-003   6.3526609924981506E-002
   1.1344905190312837E-002  -3.1442096129461472E-003   6.3469366459236509E-002
   2.6635516654451959E-002   0.0000000000000000        2.9464179661439563E-002
   2.7237329920823700E-002  -5.8762656837320609E-004   3.4942451580631709E-002
   2.7839143187195440E-002  -1.3226892692636914E-003   4.0111588058147678E-002
   2.8440956453567180E-002  -2.2051881026714463E-003   4.4971589093987477E-002
   2.9042769719938924E-002  -3.2351230685964804E-003   4.9522454688151085E-002
   2.0119576854458265E-002   0.0000000000000000        2.9014509721795041E-002
   2.0451925210537708E-002  -4.4071992687401852E-004   3.4308152648093913E-002
   2.0784273566617155E-002  -9.9201695314712554E-004   3.9372001195484368E-002
   2.1116621922696598E-002  -1.6538910788193185E-003   4.4206055363966421E-002
   2.1448970278776049E-002  -2.4263423038906034E-003   4.8810315153540042E-002
   1.3508344146145599E-002   0.0000000000000000        2.8693316907090618E-002
   1.3650568654700509E-002  -2.9381328537482878E-004   3.3839189873614409E-002
   1.3792793163255421E-002  -6.6134463703055885E-004   3.8834609523997532E-002
   1.3935017671810332E-002  -1.1025940549671898E-003   4.3679575858240019E-002
   1.4077242180365240E-002  -1.6175615391847238E-003   4.8374088876341828E-002
   6.8018185295139685E-003   0.0000000000000000        2.8500601217326286E-002
   6.8332602533121029E-003  -1.4690664387563969E-004   3.3535563257193181E-002
   6.8647019771102364E-003  -3.3067232091399607E-004   3.8499413043687182E-002
   6.8961437009083700E-003  -5.5129703111506155E-004   4.3392150576808272E-002
   6.9275854247065035E-003  -8.0878077447884720E-004   4.8213775856556479E-002
   4.5633670453515407E-012   0.0000000000000000        2.8436362652502052E-002
   6.3724850049573512E-012  -2.3764514661683833E-012   3.3397272798830230E-002
   8.1816018803609891E-012  -4.7974280797946633E-012   3.8366411754553284E-002
   9.9907197315465823E-012  -7.2629350450492680E-012   4.3343779519671180E-002
   1.1799837582732176E-011  -9.7729688924852454E-012   4.8329376094183966E-002
   2.9042769719938924E-002  -3.2351230685964804E-003   4.9522454688151085E-002
   2.9116738998395307E-002  -4.2537826338927128E-003   5.1577694945890672E-002
   2.9190708276851697E-002  -5.1024552654141409E-003   5.3733893112518132E-002
   2.9264677555308087E-002  -5.7811409631607080E-003   5.5991049188033465E-002
   2.9338646833764470E-002  -6.2898397271324291E-003   5.8349163172436699E-002
   2.1448970278776049E-002  -2.4263423038906034E-003   4.8810315153540042E-002
   2.1594034909063291E-002  -3.1903369783538712E-003   5.1206502764169604E-002
   2.1739099539350538E-002  -3.8268414522020437E-003   5.3643923169573032E-002
   2.1884164169637777E-002  -4.3358557254351490E-003   5.6122576369750231E-002
   2.2029228799925020E-002  -4.7173797980531174E-003   5.8642462364701275E-002
   1.4077242180365240E-002  -1.6175615391847238E-003   4.8374088876341828E-002
   1.4233677048369272E-002  -2.1268913228150231E-003   5.1068727106701670E-002
   1.4390111916373304E-002  -2.5512276389899821E-003   5.3744873017721267E-002
   1.4546546784377340E-002  -2.8905704877095761E-003   5.6402526609400601E-002
   1.4702981652381368E-002  -3.1449198689738195E-003   5.9041687881739705E-002
   6.9275854247065035E-003  -8.0878077447884720E-004   4.8213775856556479E-002
   7.0356654163132564E-003  -1.0634456672761817E-003   5.1164367973486849E-002
   7.1437454079200094E-003  -1.2756138257779097E-003   5.4036742656962893E-002
   7.2518253995267640E-003  -1.4452852499840345E-003   5.6830899906984582E-002
   7.3599053911335144E-003  -1.5724599398945147E-003   5.9546839723552042E-002
   1.1799837582732176E-011  -9.7729688924852454E-012   4.8329376094183966E-002
   1.2895242165744669E-011  -1.1737328123317958E-011   5.1493425364525086E-002
   1.3990648266640204E-011  -1.2565825550231446E-011   5.4519532087297845E-002
   1.5086053608594219E-011  -1.2258448271219857E-011   5.7407696262502216E-002
   1.6181458950548233E-011  -1.0815216777704251E-011   6.0157917890138198E-002
   2.9338646833764470E-002  -6.2898397271324291E-003   5.8349163172436699E-002
   2.8994077963336112E-002  -6.6800835114848196E-003   5.9122120266929271E-002
   2.8649509092907748E-002  -7.0034042703735373E-003   5.9925748489143275E-002
   2.8304940222479390E-002  -7.2598020037983437E-003   6.0760047839078790E-002
   2.7960371352051025E-002  -7.4492767117595310E-003   6.1625018316735711E-002
   2.2029228799925020E-002  -4.7173797980531174E-003   5.8642462364701275E-002
   2.1729198829639026E-002  -5.0100626360558217E-003   5.9471015764950140E-002
   2.1429168859353018E-002  -5.2525532054430515E-003   6.0357975837762236E-002
   2.1129138889067013E-002  -5.4448515062148293E-003   6.1303342583137591E-002
   2.0829108918781009E-002  -5.5869575383711012E-003   6.2307116001076204E-002
   1.4702981652381368E-002  -3.1449198689738195E-003   5.9041687881739705E-002
   1.4475226127079507E-002  -3.3400417606267944E-003   5.9909106830896612E-002
   1.4247470601777654E-002  -3.5017021405126057E-003   6.0862667997458507E-002
   1.4019715076475793E-002  -3.6299010086312312E-003   6.1902371381425444E-002
   1.3791959551173936E-002  -3.7246383649827061E-003   6.3028216982797439E-002
   7.3599053911335144E-003  -1.5724599398945147E-003   5.9546839723552042E-002
   7.2321598556575866E-003  -1.6700208851977748E-003   6.0436393464768624E-002
   7.1044143201816588E-003  -1.7508510755821537E-003   6.1439824968232006E-002
   6.9766687847057293E-003  -1.8149505110476750E-003   6.2557134233942241E-002
   6.8489232492298041E-003  -1.8623191915943076E-003   6.3788321261899303E-002
   1.6181458950548233E-011  -1.0815216777704251E-011   6.0157917890138198E-002
   1.5373246078920211E-011  -9.7687621880560016E-012   6.1052875666566177E-002
   1.4565033207292188E-011  -1.0651686130347393E-011   6.2089446750082808E-002
   1.3756819468302428E-011  -1.3464087050135687E-011   6.3267631140688022E-002
   1.2948607464036144E-011  -1.8205895124800975E-011   6.4587428838381852E-002
   2.7960371352051025E-002  -7.4492767117595310E-003   6.1625018316735711E-002
   2.7234463533398229E-002  -7.5622031025736058E-003   6.1318149849758780E-002
   2.6508555714745440E-002  -7.5889558845573420E-003   6.1266862670920762E-002
   2.5782647896092647E-002  -7.5295350577109692E-003   6.1471156780221831E-002
   2.5056740077439854E-002  -7.3839406220341519E-003   6.1931032177661827E-002
   2.0829108918781009E-002  -5.5869575383711012E-003   6.2307116001076204E-002
   2.0340256305102007E-002  -5.6716523325470516E-003   6.2151236424684737E-002
   1.9851403691423009E-002  -5.6917169193778094E-003   6.2213885970101870E-002
   1.9362551077744011E-002  -5.6471512988632636E-003   6.2495064637327478E-002
   1.8873698464065010E-002  -5.5379554710035528E-003   6.2994772426361770E-002
   1.3791959551173936E-002  -3.7246383649827061E-003   6.3028216982797439E-002
   1.3503109976138305E-002  -3.7811015625205113E-003   6.3001782895506384E-002
   1.3214260401102679E-002  -3.7944779541981919E-003   6.3156825763693455E-002
   1.2925410826067050E-002  -3.7647675400156407E-003   6.3493345587358752E-002
   1.2636561251031422E-002  -3.6919703199729398E-003   6.4011342366502189E-002
   6.8489232492298041E-003  -1.8623191915943076E-003   6.3788321261899303E-002
   6.7230245465071279E-003  -1.8905507924939502E-003   6.3869789262223586E-002
   6.5971258437844509E-003  -1.8972389890185059E-003   6.4095682051695649E-002
   6.4712271410617720E-003  -1.8823837811680043E-003   6.4465999630315338E-002
   6.3453284383390950E-003  -1.8459851689423337E-003   6.4980741998082958E-002
   1.2948607464036144E-011  -1.8205895124800975E-011   6.4587428838381852E-002
   1.6208465125622240E-011  -2.2467416815885599E-011   6.4755255524836436E-002
   1.9468321052484860E-011  -2.3838968993272758E-011   6.5030454834108381E-002
   2.2728180448794433E-011  -2.2320349561677499E-011   6.5413026766197604E-002
   2.5988034640933577E-011  -1.7911755412214347E-011   6.5902971321104120E-002
   2.5056740077439854E-002  -7.3839406220341519E-003   6.1931032177661827E-002
   2.4326564140261235E-002  -7.1886329588062431E-003   6.1845803671229577E-002
   2.3596388203082616E-002  -6.9800724493068109E-003   6.1904318994112931E-002
   2.2866212265903997E-002  -6.7582590935354719E-003   6.2106578146311882E-002
   2.2136036328725378E-002  -6.5231928914925019E-003   6.2452581127826368E-002
   1.8873698464065010E-002  -5.5379554710035528E-003   6.2994772426361770E-002
   1.8296966395738939E-002  -5.3914747227639115E-003   6.2876744599650897E-002
   1.7720234327412869E-002  -5.2350543411096226E-003   6.2921860681329489E-002
   1.7143502259086799E-002  -5.0686943260406844E-003   6.3130120671397547E-002
   1.6566770190760714E-002  -4.8923946775572269E-003   6.3501524569855000E-002
   1.2636561251031422E-002  -3.6919703199729398E-003   6.4011342366502189E-002
   1.2232673130631788E-002  -3.5943164867214064E-003   6.3857202006655539E-002
   1.1828785010232146E-002  -3.4900362329124655E-003   6.3885605634272230E-002
   1.1424896889832501E-002  -3.3791295585459255E-003   6.4096553249352303E-002
   1.1021008769432863E-002  -3.2615964636220629E-003   6.4490044851895773E-002
   6.3453284383390950E-003  -1.8459851689423337E-003   6.4980741998082958E-002
   6.1336843449397698E-003  -1.7971582506789881E-003   6.4787175892243434E-002
   5.9220402515404386E-003  -1.7450181247152929E-003   6.4795553852941154E-002
   5.7103961581411143E-003  -1.6895647910512078E-003   6.5005875880176089E-002
   5.4987520647417822E-003  -1.6307982496867879E-003   6.5418141973948296E-002
   2.5988034640933577E-011  -1.7911755412214347E-011   6.5902971321104120E-002
   3.8662899271013629E-011  -1.4636541978418904E-011   6.5666666256414624E-002
   5.1337763901093680E-011  -1.6518154899447524E-011   6.5651705337336205E-002
   6.4012630265897208E-011  -2.3556387743206564E-011   6.5858088563868905E-002
   7.6687493161253784E-011  -3.5751679394735447E-011   6.6285815936012737E-002
   2.2136036328725378E-002  -6.5231928914925019E-003   6.2452581127826368E-002
   2.1179989957265055E-002  -6.2792283099704915E-003   6.1721353565670128E-002
   2.0223943585804705E-002  -6.0307198157618369E-003   6.1230617929930009E-002
   1.9267897214344361E-002  -5.7776674088670030E-003   6.0980374220605954E-002
   1.8311850842884031E-002  -5.5200710892857052E-003   6.0970622437697963E-002
   1.6566770190760714E-002  -4.8923946775572269E-003   6.3501524569855000E-002
   1.5850845661939630E-002  -4.7094212427186144E-003   6.2797407566549890E-002
   1.5134921133118543E-002  -4.5230398685845510E-003   6.2333042322107193E-002
   1.4418996604297461E-002  -4.3332505551548096E-003   6.2108428836526765E-002
   1.3703072075476358E-002  -4.1400533024296693E-003   6.2123567109808930E-002
   1.1021008769432863E-002  -3.2615964636220629E-003   6.4490044851895773E-002
   1.0544465915697410E-002  -3.1396141754669732E-003   6.3811902434050660E-002
   1.0067923061961945E-002  -3.0153599214072652E-003   6.3372771607514353E-002
   9.5913802082264830E-003  -2.8888337014427827E-003   6.3172652372286836E-002
   9.1148373544910205E-003  -2.7600355155735501E-003   6.3211544728368291E-002
   5.4987520647417822E-003  -1.6307982496867879E-003   6.5418141973948296E-002
   5.2608507185383461E-003  -1.5698071082152973E-003   6.4764838168172509E-002
   5.0229493723349056E-003  -1.5076799742299515E-003   6.4349805786151848E-002
   4.7850480261314686E-003  -1.4444168477305615E-003   6.4173044827886466E-002
   4.5471466799280290E-003  -1.3800177287175558E-003   6.4234555293376253E-002
   7.6687493161253784E-011  -3.5751679394735447E-011   6.6285815936012737E-002
   7.0462458784392723E-011  -4.0963510361535782E-011   6.5656214768915366E-002
   6.4237426142255138E-011  -2.7052693418738727E-011   6.5264144858019568E-002
   5.8012389163308864E-011   5.9814930786217246E-012   6.5109606203325343E-002
   5.1787359123256493E-011   5.8138605041335722E-011   6.5192598804832746E-002
   1.8311850842884031E-002  -5.5200710892857052E-003   6.0970622437697963E-002
   1.7709032767653260E-002  -5.2515131576848506E-003   6.1570054404998853E-002
   1.7106214692422489E-002  -4.9655759147309020E-003   6.2425487812209857E-002
   1.6503396617191725E-002  -4.6622593604240259E-003   6.3536922659330697E-002
   1.5900578541960933E-002  -4.3415634947641668E-003   6.4904358946361651E-002
   1.3703072075476358E-002  -4.1400533024296693E-003   6.2123567109808930E-002
   1.3329931209063985E-002  -3.9386348397794646E-003   6.2732425788394108E-002
   1.2956790342651618E-002  -3.7241818965752516E-003   6.3544637444706120E-002
   1.2583649476239241E-002  -3.4966944728166832E-003   6.4560202078744758E-002
   1.2210508609826878E-002  -3.2561725685038012E-003   6.5779119690510368E-002
   9.1148373544910205E-003  -2.7600355155735501E-003   6.3211544728368291E-002
   8.9187252347138167E-003  -2.6257565218742729E-003   6.3825485287439060E-002
   8.7226131149366129E-003  -2.4827878784195456E-003   6.4590130362053383E-002
   8.5265009951594039E-003  -2.3311295852092295E-003   6.5505479952211190E-002
   8.3303888753821949E-003  -2.1707816422435189E-003   6.6571534057912760E-002
   4.5471466799280290E-003  -1.3800177287175558E-003   6.4234555293376253E-002
   4.4754148446027519E-003  -1.3128782039690950E-003   6.4849232902133874E-002
   4.4036830092774818E-003  -1.2413938602638674E-003   6.5561966564251908E-002
   4.3319511739522082E-003  -1.1655646976019424E-003   6.6372756279730036E-002
   4.2602193386269424E-003  -1.0853907159831949E-003   6.7281602048568756E-002
   5.1787359123256493E-011   5.8138605041335722E-011   6.5192598804832746E-002
   3.8730796347863361E-011   1.1393624932409807E-010   6.5803668632478440E-002
   2.5674230103023277E-011   1.5789179685921084E-010   6.6460146051301322E-002
   1.2617669062353620E-011   1.9000553561077105E-010   6.7162031061301239E-002
  -4.3889891720994001E-013   2.1027718455357558E-010   6.7909323662478205E-002
   1.5900578541960933E-002  -4.3415634947641668E-003   6.4904358946361651E-002
   1.4761660204048926E-002  -4.0196897361484685E-003   6.4244106168544313E-002
   1.3622741866136885E-002  -3.7128395029735056E-003   6.3784856494750825E-002
   1.2483823528224889E-002  -3.4210127952393997E-003   6.3526609924981506E-002
   1.1344905190312837E-002  -3.1442096129461472E-003   6.3469366459236509E-002
   1.2210508609826878E-002  -3.2561725685038012E-003   6.5779119690510368E-002
   1.1293524967101211E-002  -3.0147672334428777E-003   6.4936603129295251E-002
   1.0376541324375550E-002  -2.7846295174396435E-003   6.4336952854428753E-002
   9.4595576816498723E-003  -2.5657594204939217E-003   6.3980168865910889E-002
   8.5425740389242222E-003  -2.3581569426063265E-003   6.3866251163741561E-002
   8.3303888753821949E-003  -2.1707816422435189E-003   6.6571534057912760E-002
   7.6772031101674104E-003  -2.0098447307374256E-003   6.5550509619683159E-002
   7.0240173449526103E-003  -1.8564195319057328E-003   6.4814214650126656E-002
   6.3708315797378285E-003  -1.7105060457487230E-003   6.4362649149243278E-002
   5.7176458145230397E-003  -1.5721042722662837E-003   6.4195813117032985E-002
   4.2602193386269424E-003  -1.0853907159831949E-003   6.7281602048568756E-002
   3.9126946332475225E-003  -1.0049222280318487E-003   6.6085825639707857E-002
   3.5651699278681178E-003  -9.2820954637184636E-004   6.5216641881844409E-002
   3.2176452224887010E-003  -8.5525267100338472E-004   6.4674050774978883E-002
   2.8701205171092793E-003  -7.8605160192629642E-004   6.4458052319110407E-002
  -4.3889891720994001E-013   2.1027718455357558E-010   6.7909323662478205E-002
  -4.6365842415463376E-010   2.7467372820666469E-010   6.6542551189369081E-002
  -9.2687796326984540E-010   4.3916194292226152E-010   6.5544234549581998E-002
  -1.3900974867725457E-009   7.0374192931432766E-010   6.4914373743117162E-002
  -1.8533170276224809E-009   1.0684135798300076E-009   6.4652968769974395E-002
   4.5633670453515407E-012   0.0000000000000000        2.8436362652502052E-002
   6.3724850049573512E-012  -2.3764514661683833E-012   3.3397272798830230E-002
   8.1816018803609891E-012  -4.7974280797946633E-012   3.8366411754553284E-002
   9.9907197315465823E-012  -7.2629350450492680E-012   4.3343779519671180E-002
   1.1799837582732176E-011  -9.7729688924852454E-012   4.8329376094183966E-002
  -6.8018185205011789E-003   0.0000000000000000        2.8500601212597450E-002
  -6.8332602407387248E-003   1.4690663913206285E-004   3.3535563252140001E-002
  -6.8647019609762699E-003   3.3067231143827768E-004   3.8499413038194367E-002
  -6.8961436812138132E-003   5.5129701691864538E-004   4.3392150570760527E-002
  -6.9275854014513600E-003   8.0878075557316853E-004   4.8213775849838519E-002
  -1.3508344137474647E-002   0.0000000000000000        2.8693316897592025E-002
  -1.3650568642641905E-002   2.9381328064057629E-004   3.3839189863567619E-002
  -1.3792793147809162E-002   6.6134462767398258E-004   3.8834609513171976E-002
  -1.3935017652976420E-002   1.1025940411002215E-003   4.3679575846405076E-002
  -1.4077242158143679E-002   1.6175615209192929E-003   4.8374088863266967E-002
  -2.0119576846357037E-002   0.0000000000000000        2.9014509707485769E-002
  -2.0451925199337060E-002   4.4071992214908973E-004   3.4308152633113091E-002
  -2.0784273552317076E-002   9.9201694390968964E-004   3.9372001179486110E-002
  -2.1116621905297103E-002   1.6538910652817997E-003   4.4206055346604850E-002
  -2.1448970258277120E-002   2.4263422862654221E-003   4.8810315134469297E-002
  -2.6635516647148350E-002   0.0000000000000000        2.9464179642278692E-002
  -2.7237329910824185E-002   5.8762656365760405E-004   3.4942451560776411E-002
  -2.7839143174500022E-002   1.3226892601453932E-003   4.0111588037136790E-002
  -2.8440956438175860E-002   2.2051880894633797E-003   4.4971589071359834E-002
  -2.9042769701851694E-002   3.2351230516115539E-003   4.9522454663445528E-002
   1.1799837582732176E-011  -9.7729688924852454E-012   4.8329376094183966E-002
   1.2895242165744669E-011  -1.1737328123317958E-011   5.1493425364525086E-002
   1.3990648266640204E-011  -1.2565825550231446E-011   5.4519532087297845E-002
   1.5086053608594219E-011  -1.2258448271219857E-011   5.7407696262502216E-002
   1.6181458950548233E-011  -1.0815216777704251E-011   6.0157917890138198E-002
  -6.9275854014513600E-003   8.0878075557316853E-004   4.8213775849838519E-002
  -7.0356653907337370E-003   1.0634456444588028E-003   5.1164367968141097E-002
  -7.1437453800161140E-003   1.2756138006325291E-003   5.4036742653256503E-002
  -7.2518253692984893E-003   1.4452852240943418E-003   5.6830899905184688E-002
  -7.3599053585808706E-003   1.5724599148442611E-003   5.9546839723925736E-002
  -1.4077242158143679E-002   1.6175615209192929E-003   4.8374088863266967E-002
  -1.4233677023422642E-002   2.1268913006549329E-003   5.1068727095683206E-002
  -1.4390111888701609E-002   2.5512276138308842E-003   5.3744873009293495E-002
  -1.4546546753980573E-002   2.8905704604471455E-003   5.6402526604097752E-002
  -1.4702981619259540E-002   3.1449198405037286E-003   5.9041687880096033E-002
  -2.1448970258277120E-002   2.4263422862654221E-003   4.8810315134469297E-002
  -2.1594034885171483E-002   3.1903369568510600E-003   5.1206502747151453E-002
  -2.1739099512065839E-002   3.8268414270292389E-003   5.3643923155408814E-002
  -2.1884164138960199E-002   4.3358556967999567E-003   5.6122576359241352E-002
  -2.2029228765854555E-002   4.7173797661632013E-003   5.8642462358649151E-002
  -2.9042769701851694E-002   3.2351230516115539E-003   4.9522454663445528E-002
  -2.9116738975980244E-002   4.2537826130471974E-003   5.1577694922545804E-002
  -2.9190708250108804E-002   5.1024552402275953E-003   5.3733893091602467E-002
  -2.9264677524237368E-002   5.7811409331527536E-003   5.5991049170615537E-002
  -2.9338646798365915E-002   6.2898396918226740E-003   5.8349163159585007E-002
   1.6181458950548233E-011  -1.0815216777704251E-011   6.0157917890138198E-002
   1.5373246078920211E-011  -9.7687621880560016E-012   6.1052875666566177E-002
   1.4565033207292188E-011  -1.0651686130347393E-011   6.2089446750082808E-002
   1.3756819468302428E-011  -1.3464087050135687E-011   6.3267631140688022E-002
   1.2948607464036144E-011  -1.8205895124800975E-011   6.4587428838381852E-002
  -7.3599053585808706E-003   1.5724599148442611E-003   5.9546839723925736E-002
  -7.2321598242860562E-003   1.6700208604673514E-003   6.0436393462716211E-002
  -7.1044142899912392E-003   1.7508510485486194E-003   6.1439824964624121E-002
  -6.9766687556964283E-003   1.8149504790882054E-003   6.2557134229649508E-002
  -6.8489232214016104E-003   1.8623191520859561E-003   6.3788321257792296E-002
  -1.4702981619259540E-002   3.1449198405037286E-003   5.9041687880096033E-002
  -1.4475226093832866E-002   3.3400417307034060E-003   5.9909106825636674E-002
  -1.4247470568406190E-002   3.5017021077489935E-003   6.0862667990323548E-002
  -1.4019715042979516E-002   3.6299009716404557E-003   6.1902371374156780E-002
  -1.3791959517552837E-002   3.7246383223778143E-003   6.3028216977136217E-002
  -2.2029228765854555E-002   4.7173797661632013E-003   5.8642462358649151E-002
  -2.1729198793267183E-002   5.0100626009395039E-003   5.9471015755327546E-002
  -2.1429168820679807E-002   5.2525531669493190E-003   6.0357975827181089E-002
  -2.1129138848092435E-002   5.4448514641927135E-003   6.1303342574209725E-002
  -2.0829108875505056E-002   5.5869574926696690E-003   6.2307115996413524E-002
  -2.9338646798365915E-002   6.2898396918226740E-003   5.8349163159585007E-002
  -2.8994077922589002E-002   6.6800834711755672E-003   5.9122120251788909E-002
  -2.8649509046812099E-002   7.0034042261496732E-003   5.9925748475196716E-002
  -2.8304940171035183E-002   7.2598019567449920E-003   6.0760047829808497E-002
  -2.7960371295258281E-002   7.4492766629615237E-003   6.1625018315624225E-002
   1.2948607464036144E-011  -1.8205895124800975E-011   6.4587428838381852E-002
   1.6208465125622240E-011  -2.2467416815885599E-011   6.4755255524836436E-002
   1.9468321052484860E-011  -2.3838968993272758E-011   6.5030454834108381E-002
   2.2728180448794433E-011  -2.2320349561677499E-011   6.5413026766197604E-002
   2.5988034640933577E-011  -1.7911755412214347E-011   6.5902971321104120E-002
  -6.8489232214016104E-003   1.8623191520859561E-003   6.3788321257792296E-002
  -6.7230245116305680E-003   1.8905507454633971E-003   6.3869789266735366E-002
  -6.5971258018595220E-003   1.8972389371419152E-003   6.4095682065883439E-002
  -6.4712270920884779E-003   1.8823837271215657E-003   6.4465999655236556E-002
  -6.3453283823174268E-003   1.8459851154022933E-003   6.4980742034794758E-002
  -1.3791959517552837E-002   3.7246383223778143E-003   6.3028216977136217E-002
  -1.3503109933882861E-002   3.7811015133942250E-003   6.3001782903978717E-002
  -1.3214260350212890E-002   3.7944778981227698E-003   6.3156825788414056E-002
  -1.2925410766542914E-002   3.7647674765634667E-003   6.3493345630442150E-002
  -1.2636561182872943E-002   3.6919702487163558E-003   6.4011342430063095E-002
  -2.0829108875505056E-002   5.5869574926696690E-003   6.2307115996413524E-002
  -2.0340256250548430E-002   5.6716522813250181E-003   6.2151236436566622E-002
  -1.9851403625591787E-002   5.6917168591036115E-003   6.2213886001700212E-002
  -1.9362551000635157E-002   5.6471512260053884E-003   6.2495064691814373E-002
  -1.8873698375678517E-002   5.5379553820304392E-003   6.2994772506909061E-002
  -2.7960371295258281E-002   7.4492766629615237E-003   6.1625018315624225E-002
  -2.7234463461627244E-002   7.5622030492558598E-003   6.1318149864498933E-002
  -2.6508555627996210E-002   7.5889558200844254E-003   6.1266862705741956E-002
  -2.5782647794365177E-002   7.5295349754472760E-003   6.1471156839353211E-002
  -2.5056739960734140E-002   7.3839405153444670E-003   6.1931032265332753E-002
   2.5988034640933577E-011  -1.7911755412214347E-011   6.5902971321104120E-002
   3.8662899271013629E-011  -1.4636541978418904E-011   6.5666666256414624E-002
   5.1337763901093680E-011  -1.6518154899447524E-011   6.5651705337336205E-002
   6.4012630265897208E-011  -2.3556387743206564E-011   6.5858088563868905E-002
   7.6687493161253784E-011  -3.5751679394735447E-011   6.6285815936012737E-002
  -6.3453283823174268E-003   1.8459851154022933E-003   6.4980742034794758E-002
  -6.1336842650706195E-003   1.7971581966518130E-003   6.4787175928055898E-002
  -5.9220401478238217E-003   1.7450180655377567E-003   6.4795553884849685E-002
  -5.7103960305770231E-003   1.6895647220604229E-003   6.5005875905176119E-002
  -5.4987519133302167E-003   1.6307981662193605E-003   6.5418141989035505E-002
  -1.2636561182872943E-002   3.6919702487163558E-003   6.4011342430063095E-002
  -1.2232673043132591E-002   3.5943164079402096E-003   6.3857202074067990E-002
  -1.1828784903392248E-002   3.4900361475937829E-003   6.3885605699527254E-002
  -1.1424896763651896E-002   3.3791294676772067E-003   6.4096553306440915E-002
  -1.1021008623911546E-002   3.2615963681903171E-003   6.4490044894808835E-002
  -1.8873698375678517E-002   5.5379553820304392E-003   6.2994772506909061E-002
  -1.8296966295523007E-002   5.3914746192285992E-003   6.2876744694451148E-002
  -1.7720234215367506E-002   5.2350542296498350E-003   6.2921860781369174E-002
  -1.7143502135212010E-002   5.0686942132939766E-003   6.3130120767663112E-002
  -1.6566770055056503E-002   4.8923945701612598E-003   6.3501524653333141E-002
  -2.5056739960734140E-002   7.3839405153444670E-003   6.1931032265332753E-002
  -2.4326564022241880E-002   7.1886328305169750E-003   6.1845803789205234E-002
  -2.3596388083749614E-002   6.9800723117056790E-003   6.1904319130375252E-002
  -2.2866212145257362E-002   6.7582589589109017E-003   6.2106578288842917E-002
  -2.2136036206765089E-002   6.5231927721322580E-003   6.2452581264608065E-002
   7.6687493161253784E-011  -3.5751679394735447E-011   6.6285815936012737E-002
   7.0462458784392723E-011  -4.0963510361535782E-011   6.5656214768915366E-002
   6.4237426142255138E-011  -2.7052693418738727E-011   6.5264144858019568E-002
   5.8012389163308864E-011   5.9814930786217246E-012   6.5109606203325343E-002
   5.1787359123256493E-011   5.8138605041335722E-011   6.5192598804832746E-002
  -5.4987519133302167E-003   1.6307981662193605E-003   6.5418141989035505E-002
  -5.2608505771465416E-003   1.5698070217603083E-003   6.4764838214706674E-002
  -5.0229492409628665E-003   1.5076799124281726E-003   6.4349805868993720E-002
  -4.7850479047791931E-003   1.4444168382233974E-003   6.4173044951896421E-002
  -4.5471465685955233E-003   1.3800177991457607E-003   6.4234555463415166E-002
  -1.1021008623911546E-002   3.2615963681903171E-003   6.4490044894808835E-002
  -1.0544465772904944E-002   3.1396140844840714E-003   6.3811902529252867E-002
  -1.0067922921898344E-002   3.0153598519090385E-003   6.3372771764726804E-002
  -9.5913800708917439E-003   2.8888336704654127E-003   6.3172652601230769E-002
  -9.1148372198851420E-003   2.7600355401530274E-003   6.3211545038764902E-002
  -1.6566770055056503E-002   4.8923945701612598E-003   6.3501524653333141E-002
  -1.5850845516812765E-002   4.7094211472078068E-003   6.2797407712554015E-002
  -1.5134920978569005E-002   4.5230397913897935E-003   6.2333042545219056E-002
  -1.4418996440325266E-002   4.3332505027073726E-003   6.2108429151328373E-002
  -1.3703071902081511E-002   4.1400532811603219E-003   6.2123567530882010E-002
  -2.2136036206765089E-002   6.5231927721322580E-003   6.2452581264608065E-002
  -2.1179989808869974E-002   6.2792282099317087E-003   6.1721353764609993E-002
  -2.0223943410974859E-002   6.0307197308707428E-003   6.1230618210470322E-002
  -1.9267897013079752E-002   5.7776673349493254E-003   6.0980374602189164E-002
  -1.8311850615184637E-002   5.5200710221675053E-003   6.0970622939766461E-002
   5.1787359123256493E-011   5.8138605041335722E-011   6.5192598804832746E-002
   3.8730796347863361E-011   1.1393624932409807E-010   6.5803668632478440E-002
   2.5674230103023277E-011   1.5789179685921084E-010   6.6460146051301322E-002
   1.2617669062353620E-011   1.9000553561077105E-010   6.7162031061301239E-002
  -4.3889891720994001E-013   2.1027718455357558E-010   6.7909323662478205E-002
  -4.5471465685955233E-003   1.3800177991457607E-003   6.4234555463415166E-002
  -4.4754147564542868E-003   1.3128783682758993E-003   6.4849233078897950E-002
  -4.4036829443130678E-003   1.2413941186939642E-003   6.5561966753599127E-002
  -4.3319511321718461E-003   1.1655650504004446E-003   6.6372756487518697E-002
  -4.2602193200306192E-003   1.0853911633948443E-003   6.7281602280656938E-002
  -9.1148372198851420E-003   2.7600355401530274E-003   6.3211545038764902E-002
  -8.9187251145047379E-003   2.6257566226155771E-003   6.3825485635214771E-002
  -8.7226130091243304E-003   2.4827880794962495E-003   6.4590130758924558E-002
  -8.5265009037439176E-003   2.3311299107952998E-003   6.5505480409894248E-002
  -8.3303887983635048E-003   2.1707821165124763E-003   6.6571534588123746E-002
  -1.3703071902081511E-002   4.1400532811603219E-003   6.2123567530882010E-002
  -1.3329931035420527E-002   3.9386348769552687E-003   6.2732426301429112E-002
  -1.2956790168759554E-002   3.7241820402986146E-003   6.3544638067277504E-002
  -1.2583649302098583E-002   3.4966947711900708E-003   6.4560202828427157E-002
  -1.2210508435437605E-002   3.2561730696301222E-003   6.5779120584878073E-002
  -1.8311850615184637E-002   5.5200710221675053E-003   6.0970622939766461E-002
  -1.7709032519201695E-002   5.2515131312949048E-003   6.1570055077540986E-002
  -1.7106214423218746E-002   4.9655760011006606E-003   6.2425488678658131E-002
  -1.6503396327235794E-002   4.6622596315850258E-003   6.3536923743117965E-002
  -1.5900578231252849E-002   4.3415640227477681E-003   6.4904360270920392E-002
  -4.3889891720994001E-013   2.1027718455357558E-010   6.7909323662478205E-002
  -4.6365842415463376E-010   2.7467372820666469E-010   6.6542551189369081E-002
  -9.2687796326984540E-010   4.3916194292226152E-010   6.5544234549581998E-002
  -1.3900974867725457E-009   7.0374192931432766E-010   6.4914373743117162E-002
  -1.8533170276224809E-009   1.0684135798300076E-009   6.4652968769974395E-002
  -4.2602193200306192E-003   1.0853911633948443E-003   6.7281602280656938E-002
  -3.9126954803765275E-003   1.0049228556591738E-003   6.6085826157029903E-002
  -3.5651716407224445E-003   9.2821052517526315E-004   6.5216642805827924E-002
  -3.2176478010683598E-003   8.5525417194313655E-004   6.4674052227050749E-002
  -2.8701239614142698E-003   7.8605379596263791E-004   6.4458054420699296E-002
  -8.3303887983635048E-003   2.1707821165124763E-003   6.6571534588123746E-002
  -7.6772037167328402E-003   2.0098454366446750E-003   6.5550510691138777E-002
  -7.0240186351021774E-003   1.8564206111885764E-003   6.4814216505681671E-002
  -6.3708335534714989E-003   1.7105076401442310E-003   6.4362652031752621E-002
  -5.7176484718408499E-003   1.5721065235118070E-003   6.4195817269351862E-002
  -1.2210508435437605E-002   3.2561730696301222E-003   6.5779120584878073E-002
  -1.1293525172727361E-002   3.0147680176300928E-003   6.4936604791695121E-002
  -1.0376541910017143E-002   2.7846306972018932E-003   6.4336955649143171E-002
  -9.4595586473068989E-003   2.5657611083454929E-003   6.3980173157222181E-002
  -8.5425753845966672E-003   2.3581592510608651E-003   6.3866257315932345E-002
  -1.5900578231252849E-002   4.3415640227477681E-003   6.4904360270920392E-002
  -1.4761659848360094E-002   4.0196905986155107E-003   6.4244108458699600E-002
  -1.3622741465467336E-002   3.7128407832152099E-003   6.3784860236212770E-002
  -1.2483823082574569E-002   3.4210145765465050E-003   6.3526615603459652E-002
  -1.1344904699681829E-002   3.1442119786100342E-003   6.3469374560440883E-002
  -2.6635516647148350E-002   0.0000000000000000        2.9464179642278692E-002
  -2.7237329910824185E-002   5.8762656365760405E-004   3.4942451560776411E-002
  -2.7839143174500022E-002   1.3226892601453932E-003   4.0111588037136790E-002
  -2.8440956438175860E-002   2.2051880894633797E-003   4.4971589071359834E-002
  -2.9042769701851694E-002   3.2351230516115539E-003   4.9522454663445528E-002
  -3.3394110672894252E-002   0.0000000000000000        3.0176399218201238E-002
  -3.4239600272257288E-002   9.6201532928288144E-004   3.5264731626244231E-002
  -3.5085089871620331E-002   2.0270000079263576E-003   4.0174846805050152E-002
  -3.5930579470983368E-002   3.1949540359304243E-003   4.4906744754619012E-002
  -3.6776069070346411E-002   4.4658774132950970E-003   4.9460425474950789E-002
  -4.0733306056640405E-002   0.0000000000000000        3.1285240951483863E-002
  -4.1691553778790386E-002   1.3364040949081597E-003   3.5939167065602531E-002
  -4.2649801500940346E-002   2.7313107557073186E-003   4.0545794163384399E-002
  -4.3608049223090320E-002   4.1847199823974801E-003   4.5105122244829474E-002
  -4.4566296945240294E-002   5.6966317749786409E-003   4.9617151309937747E-002
  -4.8653102798386826E-002   0.0000000000000000        3.2790704842126560E-002
  -4.9593190430423456E-002   1.7107928605334375E-003   3.6965757878851299E-002
  -5.0533278062460087E-002   3.4356215034882821E-003   4.1224430112139526E-002
  -5.1473365694496710E-002   5.1744859288645334E-003   4.5566721541991227E-002
  -5.2413453326533355E-002   6.9273861366621805E-003   4.9992632168406409E-002
  -5.7153500898133508E-002   0.0000000000000000        3.4692790890129332E-002
  -5.7944510227156520E-002   2.0851816261587153E-003   3.8344504065990562E-002
  -5.8735519556179533E-002   4.1399322512692422E-003   4.2210754651315546E-002
  -5.9526528885202552E-002   6.1642518753315823E-003   4.6291542646104279E-002
  -6.0317538214225565E-002   8.1581404983457305E-003   5.0586868050356761E-002
  -2.9042769701851694E-002   3.2351230516115539E-003   4.9522454663445528E-002
  -2.9116738975980244E-002   4.2537826130471974E-003   5.1577694922545804E-002
  -2.9190708250108804E-002   5.1024552402275953E-003   5.3733893091602467E-002
  -2.9264677524237368E-002   5.7811409331527536E-003   5.5991049170615537E-002
  -2.9338646798365915E-002   6.2898396918226740E-003   5.8349163159585007E-002
  -3.6776069070346411E-002   4.4658774132950970E-003   4.9460425474950789E-002
  -3.6788550422362010E-002   5.7001425239355001E-003   5.1246130831276271E-002
  -3.6801031774377622E-002   6.7581217517667875E-003   5.3053854121871240E-002
  -3.6813513126393228E-002   7.6398150967889461E-003   5.4883595346735703E-002
  -3.6825994478408820E-002   8.3452225590020107E-003   5.6735354505869674E-002
  -4.4566296945240294E-002   5.6966317749786409E-003   4.9617151309937747E-002
  -4.4596230350829852E-002   7.1465024348237958E-003   5.1127022814934538E-002
  -4.4626163756419424E-002   8.4137882633059727E-003   5.2579972278513923E-002
  -4.4656097162008961E-002   9.4984892604251456E-003   5.3975999700675917E-002
  -4.4686030567598546E-002   1.0400605426181320E-002   5.5315105081420485E-002
  -5.2413453326533355E-002   6.9273861366621805E-003   4.9992632168406409E-002
  -5.2539778761383764E-002   8.5928623457120941E-003   5.1220370873520653E-002
  -5.2666104196234180E-002   1.0069454774845152E-002   5.2312247561530599E-002
  -5.2792429631084603E-002   1.1357163424061314E-002   5.3268262232436192E-002
  -5.2918755065935005E-002   1.2455988293360629E-002   5.4088414886237536E-002
  -6.0317538214225565E-002   8.1581404983457305E-003   5.0586868050356761E-002
  -6.0619195654023739E-002   1.0039222256600398E-002   5.1526175007034582E-002
  -6.0920853093821933E-002   1.1725121286384345E-002   5.2250679970921171E-002
  -6.1222510533620093E-002   1.3215837587697525E-002   5.2760382942016536E-002
  -6.1524167973418281E-002   1.4511371160539958E-002   5.3055283920320738E-002
  -2.9338646798365915E-002   6.2898396918226740E-003   5.8349163159585007E-002
  -2.8994077922589002E-002   6.6800834711755672E-003   5.9122120251788909E-002
  -2.8649509046812099E-002   7.0034042261496732E-003   5.9925748475196716E-002
  -2.8304940171035183E-002   7.2598019567449920E-003   6.0760047829808497E-002
  -2.7960371295258281E-002   7.4492766629615237E-003   6.1625018315624225E-002
  -3.6825994478408820E-002   8.3452225590020107E-003   5.6735354505869674E-002
  -3.6397565389005446E-002   8.8891738485975536E-003   5.7082037527946924E-002
  -3.5969136299602064E-002   9.2864986757671616E-003   5.7565769846073186E-002
  -3.5540707210198703E-002   9.5371970405108853E-003   5.8186551460248447E-002
  -3.5112278120795308E-002   9.6412689428286846E-003   5.8944382370472719E-002
  -4.4686030567598546E-002   1.0400605426181320E-002   5.5315105081420485E-002
  -4.4067363099723651E-002   1.1098264226019488E-002   5.5155810595324033E-002
  -4.3448695631848736E-002   1.1569593125384622E-002   5.5239943570121616E-002
  -4.2830028163973827E-002   1.1814592124276723E-002   5.5567504005813256E-002
  -4.2211360696098925E-002   1.1833261222695818E-002   5.6138491902398849E-002
  -5.2918755065935005E-002   1.2455988293360629E-002   5.4088414886237536E-002
  -5.2003471054743552E-002   1.3307354603441441E-002   5.3343439453920220E-002
  -5.1088187043552086E-002   1.3852687575002097E-002   5.2948269647342006E-002
  -5.0172903032360647E-002   1.4091987208042589E-002   5.2902905466502816E-002
  -4.9257619021169187E-002   1.4025253502562965E-002   5.3207346911402817E-002
  -6.1524167973418281E-002   1.4511371160539958E-002   5.3055283920320738E-002
  -6.0205889254065205E-002   1.5516444980863398E-002   5.1644924103735487E-002
  -5.8887610534712156E-002   1.6135782024619565E-002   5.0690748077734368E-002
  -5.7569331815359080E-002   1.6369382291808454E-002   5.0192755842317284E-002
  -5.6251053096006032E-002   1.6217245782430098E-002   5.0150947397484422E-002
  -2.7960371295258281E-002   7.4492766629615237E-003   6.1625018315624225E-002
  -2.7234463461627244E-002   7.5622030492558598E-003   6.1318149864498933E-002
  -2.6508555627996210E-002   7.5889558200844254E-003   6.1266862705741956E-002
  -2.5782647794365177E-002   7.5295349754472760E-003   6.1471156839353211E-002
  -2.5056739960734140E-002   7.3839405153444670E-003   6.1931032265332753E-002
  -3.5112278120795308E-002   9.6412689428286846E-003   5.8944382370472719E-002
  -3.4146794179030403E-002   9.6402459890012129E-003   5.8599464552681217E-002
  -3.3181310237265504E-002   9.5756597853089778E-003   5.8478117658789186E-002
  -3.2215826295500606E-002   9.4475103317520851E-003   5.8580341688796597E-002
  -3.1250342353735708E-002   9.2557976283305365E-003   5.8906136642703513E-002
  -4.2211360696098925E-002   1.1833261222695818E-002   5.6138491902398849E-002
  -4.1038311014668989E-002   1.1718288928746570E-002   5.5778135083542159E-002
  -3.9865261333239026E-002   1.1562363750533586E-002   5.5609338820116122E-002
  -3.8692211651809090E-002   1.1365485688056867E-002   5.5632103112120738E-002
  -3.7519161970379133E-002   1.1127654741316467E-002   5.5846427959555953E-002
  -4.9257619021169187E-002   1.4025253502562965E-002   5.3207346911402817E-002
  -4.7909013968542961E-002   1.3796331868491897E-002   5.2854161457081890E-002
  -4.6560408915916777E-002   1.3549067715758166E-002   5.2660526189722792E-002
  -4.5211803863290580E-002   1.3283461044361676E-002   5.2626441109325545E-002
  -4.3863198810664368E-002   1.2999511854302453E-002   5.2751906215890168E-002
  -5.6251053096006032E-002   1.6217245782430098E-002   5.0150947397484422E-002
  -5.4758903040652382E-002   1.5874374808237293E-002   4.9827543673300279E-002
  -5.3266752985298753E-002   1.5535771680982708E-002   4.9631679767609162E-002
  -5.1774602929945096E-002   1.5201436400666377E-002   4.9563355680411064E-002
  -5.0282452874591446E-002   1.4871368967288440E-002   4.9622571411706090E-002
  -2.5056739960734140E-002   7.3839405153444670E-003   6.1931032265332753E-002
  -2.4326564022241880E-002   7.1886328305169750E-003   6.1845803789205234E-002
  -2.3596388083749614E-002   6.9800723117056790E-003   6.1904319130375252E-002
  -2.2866212145257362E-002   6.7582589589109017E-003   6.2106578288842917E-002
  -2.2136036206765089E-002   6.5231927721322580E-003   6.2452581264608065E-002
  -3.1250342353735708E-002   9.2557976283305365E-003   5.8906136642703513E-002
  -3.0361962136927090E-002   9.0223877805651886E-003   5.8743609467549696E-002
  -2.9473581920118515E-002   8.7691468939769812E-003   5.8753747031730967E-002
  -2.8585201703309911E-002   8.4960749685661432E-003   5.8936549335247487E-002
  -2.7696821486501322E-002   8.2031720043324319E-003   5.9292016378098888E-002
  -3.7519161970379133E-002   1.1127654741316467E-002   5.5846427959555953E-002
  -3.6443656553216637E-002   1.0856142730613284E-002   5.5600023880536753E-002
  -3.5368151136054148E-002   1.0558221476248221E-002   5.5555205462890229E-002
  -3.4292645718891630E-002   1.0233890978221300E-002   5.5711972706616320E-002
  -3.3217140301729162E-002   9.8831512365324670E-003   5.6070325611715197E-002
  -4.3863198810664368E-002   1.2999511854302453E-002   5.2751906215890168E-002
  -4.2571647271110437E-002   1.2689897680661425E-002   5.2415047028166482E-002
  -4.1280095731556520E-002   1.2347296058519464E-002   5.2308694423853004E-002
  -3.9988544192002574E-002   1.1971706987876526E-002   5.2432848402949768E-002
  -3.8696992652448664E-002   1.1563130468732544E-002   5.2787508965456718E-002
  -5.0282452874591446E-002   1.4871368967288440E-002   4.9622571411706090E-002
  -4.8745934290608542E-002   1.4523652630709594E-002   4.9188678910438766E-002
  -4.7209415706625617E-002   1.4136370640790714E-002   4.9014213914619256E-002
  -4.5672897122642706E-002   1.3709522997531686E-002   4.9099176424247541E-002
  -4.4136378538659773E-002   1.3243109700932676E-002   4.9443566439323572E-002
  -2.2136036206765089E-002   6.5231927721322580E-003   6.2452581264608065E-002
  -2.1179989808869974E-002   6.2792282099317087E-003   6.1721353764609993E-002
  -2.0223943410974859E-002   6.0307197308707428E-003   6.1230618210470322E-002
  -1.9267897013079752E-002   5.7776673349493254E-003   6.0980374602189164E-002
  -1.8311850615184637E-002   5.5200710221675053E-003   6.0970622939766461E-002
  -2.7696821486501322E-002   8.2031720043324319E-003   5.9292016378098888E-002
  -2.6506526333744278E-002   7.8956201452555913E-003   5.8588006817750768E-002
  -2.5316231180987248E-002   7.5786015353155115E-003   5.8112002821267994E-002
  -2.4125936028230217E-002   7.2521161745120414E-003   5.7864004388650539E-002
  -2.2935640875473170E-002   6.9161640628452314E-003   5.7844011519898542E-002
  -3.3217140301729162E-002   9.8831512365324670E-003   5.6070325611715197E-002
  -3.1805082776103326E-002   9.5120120805795294E-003   5.5388611157013955E-002
  -3.0393025250477497E-002   9.1264833397603357E-003   5.4922415884185047E-002
  -2.8980967724851633E-002   8.7265650140748129E-003   5.4671739793228348E-002
  -2.7568910199225825E-002   8.3122571035229853E-003   5.4636582884143817E-002
  -3.8696992652448664E-002   1.1563130468732544E-002   5.2787508965456718E-002
  -3.7075659135947139E-002   1.1128404015903495E-002   5.2123166782399553E-002
  -3.5454325619445629E-002   1.0674365144205188E-002   5.1661857399221509E-002
  -3.3832992102944111E-002   1.0201013853637501E-002   5.1403580815922556E-002
  -3.2211658586442593E-002   9.7083501442007253E-003   5.1348337032502828E-002
  -4.4136378538659773E-002   1.3243109700932676E-002   4.9443566439323572E-002
  -4.2318255413275704E-002   1.2744795951227378E-002   4.8791673693907522E-002
  -4.0500132287891615E-002   1.2222246948650053E-002   4.8330327366377324E-002
  -3.8682009162507539E-002   1.1675462693200304E-002   4.8059527456733211E-002
  -3.6863886037123456E-002   1.1104443184878410E-002   4.7979273964975200E-002
  -1.8311850615184637E-002   5.5200710221675053E-003   6.0970622939766461E-002
  -1.7709032519201695E-002   5.2515131312949048E-003   6.1570055077540986E-002
  -1.7106214423218746E-002   4.9655760011006606E-003   6.2425488678658131E-002
  -1.6503396327235794E-002   4.6622596315850258E-003   6.3536923743117965E-002
  -1.5900578231252849E-002   4.3415640227477681E-003   6.4904360270920392E-002
  -2.2935640875473170E-002   6.9161640628452314E-003   5.7844011519898542E-002
  -2.2107589850444104E-002   6.5729198963599966E-003   5.8391947760864621E-002
  -2.1279538825415015E-002   6.2245583711008079E-003   5.9134348396580355E-002
  -2.0451487800385939E-002   5.8710794870676652E-003   6.0071213427045661E-002
  -1.9623436775356870E-002   5.5124832442605687E-003   6.1202542852260677E-002
  -2.7568910199225825E-002   8.3122571035229853E-003   5.4636582884143817E-002
  -2.6577163313743681E-002   7.8943266614248109E-003   5.5145285108849404E-002
  -2.5585416428261513E-002   7.4835407411006152E-003   5.5786914659711424E-002
  -2.4593669542779369E-002   7.0798993425501364E-003   5.6561471536729996E-002
  -2.3601922657297228E-002   6.6834024657734803E-003   5.7468955739905181E-002
  -3.2211658586442593E-002   9.7083501442007253E-003   5.1348337032502828E-002
  -3.1117752909100422E-002   9.2157334264900415E-003   5.1830067121495224E-002
  -3.0023847231758244E-002   8.7425231111005648E-003   5.2383187468051241E-002
  -2.8929941554416069E-002   8.2887191980327464E-003   5.3007698072170636E-002
  -2.7836035877073888E-002   7.8543216872865029E-003   5.3703598933853638E-002
  -3.6863886037123456E-002   1.1104443184878410E-002   4.7979273964975200E-002
  -3.5729358636514330E-002   1.0537140191554745E-002   4.8446293798802276E-002
  -3.4594831235905177E-002   1.0001505481100556E-002   4.8923166821599834E-002
  -3.3460303835296037E-002   9.4975390535152991E-003   4.9409893033367916E-002
  -3.2325776434686884E-002   9.0252409087993035E-003   4.9906472434106397E-002
  -1.5900578231252849E-002   4.3415640227477681E-003   6.4904360270920392E-002
  -1.4761659848360094E-002   4.0196905986155107E-003   6.4244108458699600E-002
  -1.3622741465467336E-002   3.7128407832152099E-003   6.3784860236212770E-002
  -1.2483823082574569E-002   3.4210145765465050E-003   6.3526615603459652E-002
  -1.1344904699681829E-002   3.1442119786100342E-003   6.3469374560440883E-002
  -1.9623436775356870E-002   5.5124832442605687E-003   6.1202542852260677E-002
  -1.8274209504711141E-002   5.1495153159596962E-003   6.0301667798481340E-002
  -1.6924982234065425E-002   4.7829213754448097E-003   5.9620406930473963E-002
  -1.5575754963419655E-002   4.4127014227158881E-003   5.9158760248238379E-002
  -1.4226527692773980E-002   4.0388554577732716E-003   5.8916727751774811E-002
  -2.3601922657297228E-002   6.6834024657734803E-003   5.7468955739905181E-002
  -2.2023775902860601E-002   6.2793400333038263E-003   5.6308807823621632E-002
  -2.0445629148423967E-002   5.8530019676744649E-003   5.5386884689147764E-002
  -1.8867482393987341E-002   5.4043882688852157E-003   5.4703186336484036E-002
  -1.7289335639550710E-002   4.9334989369365090E-003   5.4257712765629906E-002
  -2.7836035877073888E-002   7.8543216872865029E-003   5.3703598933853638E-002
  -2.6010359042808483E-002   7.4091647506479841E-003   5.2265528534120080E-002
  -2.4184682208543057E-002   6.9230825599041479E-003   5.1084293512234216E-002
  -2.2359005374277634E-002   6.3960751150547931E-003   5.0159893868196324E-002
  -2.0533328540012191E-002   5.8281424160998019E-003   4.9492329602005947E-002
  -3.2325776434686884E-002   9.0252409087993035E-003   4.9906472434106397E-002
  -3.0233958924554771E-002   8.5389894679920864E-003   4.8171829929976984E-002
  -2.8142141414422624E-002   7.9931631521336644E-003   4.6712633399733416E-002
  -2.6050323904290438E-002   7.3877619612238016E-003   4.5528882843375612E-002
  -2.3958506394158363E-002   6.7227858952629838E-003   4.4620578260903265E-002
  -5.7153500898133508E-002   0.0000000000000000        3.4692790890129332E-002
  -5.7944510227156520E-002   2.0851816261587153E-003   3.8344504065990562E-002
  -5.8735519556179533E-002   4.1399322512692422E-003   4.2210754651315546E-002
  -5.9526528885202552E-002   6.1642518753315823E-003   4.6291542646104279E-002
  -6.0317538214225565E-002   8.1581404983457305E-003   5.0586868050356761E-002
  -6.5822034250207495E-002   0.0000000000000000        3.7214864483997676E-002
  -6.6627699627250320E-002   2.9151006349151035E-003   4.0837850129058099E-002
  -6.7433365004293144E-002   5.7729024175526356E-003   4.4216986268615151E-002
  -6.8239030381335969E-002   8.5734053479125990E-003   4.7352272902668829E-002
  -6.9044695758378793E-002   1.1316609425994996E-002   5.0243710031219135E-002
  -7.4246236748935865E-002   0.0000000000000000        4.0580291012237112E-002
  -7.5524945088965623E-002   3.7450196436714907E-003   4.4147681275267338E-002
  -7.6803653428995353E-002   7.4058725838360307E-003   4.7012835117827070E-002
  -7.8082361769025124E-002   1.0982558820493621E-002   4.9175752539916323E-002
  -7.9361070109054868E-002   1.4475078353644267E-002   5.0636433541535089E-002
  -8.2426108394318603E-002   0.0000000000000000        4.4789070474847606E-002
  -8.4636246612302388E-002   4.5749386524278788E-003   4.8273997504618256E-002
  -8.6846384830286200E-002   9.0388427501194267E-003   5.0598301198951312E-002
  -8.9056523048270012E-002   1.3391712293074648E-002   5.1761981557846753E-002
  -9.1266661266253796E-002   1.7633547281293543E-002   5.1765038581304573E-002
  -9.0361649186355725E-002   0.0000000000000000        4.9841202871829193E-002
  -9.3961604197260684E-002   5.4048576611842661E-003   5.3216798817110889E-002
  -9.7561559208165644E-002   1.0671812916402823E-002   5.4973384511987862E-002
 -0.10116151421907060        1.5800865765655665E-002   5.5110959956460127E-002
 -0.10476146922997559        2.0792016208942811E-002   5.3629525150527657E-002
  -6.0317538214225565E-002   8.1581404983457305E-003   5.0586868050356761E-002
  -6.0619195654023739E-002   1.0039222256600398E-002   5.1526175007034582E-002
  -6.0920853093821933E-002   1.1725121286384345E-002   5.2250679970921171E-002
  -6.1222510533620093E-002   1.3215837587697525E-002   5.2760382942016536E-002
  -6.1524167973418281E-002   1.4511371160539958E-002   5.3055283920320738E-002
  -6.9044695758378793E-002   1.1316609425994996E-002   5.0243710031219135E-002
  -6.9322750877377728E-002   1.3762737581069620E-002   4.9466186633860217E-002
  -6.9600805996376650E-002   1.5672012742406274E-002   4.8950669870890987E-002
  -6.9878861115375585E-002   1.7044434910004930E-002   4.8697159742311473E-002
  -7.0156916234374506E-002   1.7880004083865628E-002   4.8705656248121662E-002
  -7.9361070109054868E-002   1.4475078353644267E-002   5.0636433541535089E-002
  -7.9138714280073630E-002   1.7486252905538825E-002   4.7800409524872169E-002
  -7.8916358451092392E-002   1.9618904198428207E-002   4.5703200769779899E-002
  -7.8694002622111153E-002   2.0873032232312357E-002   4.4344807276258245E-002
  -7.8471646793129873E-002   2.1248637007191314E-002   4.3725229044307208E-002
  -9.1266661266253796E-002   1.7633547281293543E-002   5.1765038581304573E-002
  -9.0067085862111457E-002   2.1209768230008055E-002   4.6528843680070472E-002
  -8.8867510457969132E-002   2.3565795654450137E-002   4.2508272667587908E-002
  -8.7667935053826820E-002   2.4701629554619783E-002   3.9703325543856874E-002
  -8.6468359649684468E-002   2.4617269930517001E-002   3.8114002308877452E-002
 -0.10476146922997559        2.0792016208942811E-002   5.3629525150527657E-002
 -0.10210786562349125        2.4933283554477260E-002   4.5651489099455093E-002
  -9.9454262017006884E-002   2.7512687110472077E-002   3.9365885564315022E-002
  -9.6800658410522517E-002   2.8530226876927193E-002   3.4772714545107414E-002
  -9.4147054804038177E-002   2.7985902853842677E-002   3.1871976041832277E-002
  -6.1524167973418281E-002   1.4511371160539958E-002   5.3055283920320738E-002
  -6.0205889254065205E-002   1.5516444980863398E-002   5.1644924103735487E-002
  -5.8887610534712156E-002   1.6135782024619565E-002   5.0690748077734368E-002
  -5.7569331815359080E-002   1.6369382291808454E-002   5.0192755842317284E-002
  -5.6251053096006032E-002   1.6217245782430098E-002   5.0150947397484422E-002
  -7.0156916234374506E-002   1.7880004083865628E-002   4.8705656248121662E-002
  -6.8429768832678942E-002   1.8336232383848013E-002   4.7262216260202661E-002
  -6.6702621430983378E-002   1.8570631929811728E-002   4.6180329846384552E-002
  -6.4975474029287800E-002   1.8583202721756738E-002   4.5459997006667328E-002
  -6.3248326627592250E-002   1.8373944759683181E-002   4.5101217741051011E-002
  -7.8471646793129873E-002   2.1248637007191314E-002   4.3725229044307208E-002
  -7.6430260925575047E-002   2.1156019786832646E-002   4.2412616907603076E-002
  -7.4388875058020207E-002   2.1005481835003916E-002   4.1366928128516570E-002
  -7.2347489190465353E-002   2.0797023151705063E-002   4.0588162707047709E-002
  -7.0306103322910554E-002   2.0530643736936187E-002   4.0076320643196536E-002
  -8.6468359649684468E-002   2.4617269930517001E-002   3.8114002308877452E-002
  -8.4207365532753570E-002   2.3975807189817285E-002   3.7096126045936748E-002
  -8.1946371415822714E-002   2.3440331740196080E-002   3.6250542924130470E-002
  -7.9685377298891802E-002   2.3010843581653409E-002   3.5577252943458586E-002
  -7.7424383181960918E-002   2.2687342714189204E-002   3.5076256103921184E-002
  -9.4147054804038177E-002   2.7985902853842677E-002   3.1871976041832277E-002
  -9.1761082654214482E-002   2.6795594592801904E-002   3.1312743675203612E-002
  -8.9375110504390787E-002   2.5875181645388282E-002   3.0831174233226160E-002
  -8.6989138354567105E-002   2.5224664011601682E-002   3.0427267715899813E-002
  -8.4603166204743396E-002   2.4844041691442262E-002   3.0101024123224809E-002
  -5.6251053096006032E-002   1.6217245782430098E-002   5.0150947397484422E-002
  -5.4758903040652382E-002   1.5874374808237293E-002   4.9827543673300279E-002
  -5.3266752985298753E-002   1.5535771680982708E-002   4.9631679767609162E-002
  -5.1774602929945096E-002   1.5201436400666377E-002   4.9563355680411064E-002
  -5.0282452874591446E-002   1.4871368967288440E-002   4.9622571411706090E-002
  -6.3248326627592250E-002   1.8373944759683181E-002   4.5101217741051011E-002
  -6.1603925837447095E-002   1.8037021527872781E-002   4.4727404800174890E-002
  -5.9959525047301968E-002   1.7666596510607466E-002   4.4530553510388753E-002
  -5.8315124257156813E-002   1.7262669707887309E-002   4.4510663871692543E-002
  -5.6670723467011665E-002   1.6825241119712259E-002   4.4667735884086290E-002
  -7.0306103322910554E-002   2.0530643736936187E-002   4.0076320643196536E-002
  -6.8460029965376951E-002   2.0199668247508247E-002   3.9614328853235341E-002
  -6.6613956607843444E-002   1.9797421340232192E-002   3.9378720546960976E-002
  -6.4767883250309896E-002   1.9323903015108102E-002   3.9369495724373531E-002
  -6.2921809892776348E-002   1.8779113272135925E-002   3.9586654385472923E-002
  -7.7424383181960918E-002   2.2687342714189204E-002   3.5076256103921184E-002
  -7.5327215424442068E-002   2.2362314967143696E-002   3.4488315832481672E-002
  -7.3230047666923162E-002   2.1928246169856992E-002   3.4176180877325928E-002
  -7.1132879909404298E-002   2.1385136322328933E-002   3.4139851238454068E-002
  -6.9035712151885434E-002   2.0732985424559668E-002   3.4379326915865829E-002
  -8.4603166204743396E-002   2.4844041691442262E-002   3.0101024123224809E-002
  -8.2205482214642300E-002   2.4524961686779215E-002   2.9349365737913885E-002
  -7.9807798224541163E-002   2.4059070999481669E-002   2.8922934501483512E-002
  -7.7410114234440053E-002   2.3446369629549806E-002   2.8821730413934012E-002
  -7.5012430244338957E-002   2.2686857576983382E-002   2.9045753475265029E-002
  -5.0282452874591446E-002   1.4871368967288440E-002   4.9622571411706090E-002
  -4.8745934290608542E-002   1.4523652630709594E-002   4.9188678910438766E-002
  -4.7209415706625617E-002   1.4136370640790714E-002   4.9014213914619256E-002
  -4.5672897122642706E-002   1.3709522997531686E-002   4.9099176424247541E-002
  -4.4136378538659773E-002   1.3243109700932676E-002   4.9443566439323572E-002
  -5.6670723467011665E-002   1.6825241119712259E-002   4.4667735884086290E-002
  -5.4892813894070858E-002   1.6359464232169899E-002   4.4321610799674963E-002
  -5.3114904321130002E-002   1.5870492531347945E-002   4.4198840187731597E-002
  -5.1336994748189188E-002   1.5358326017246493E-002   4.4299424048256375E-002
  -4.9559085175248332E-002   1.4822964689865437E-002   4.4623362381249199E-002
  -6.2921809892776348E-002   1.8779113272135925E-002   3.9586654385472923E-002
  -6.0938582363857317E-002   1.8195275833630120E-002   3.9344667557977921E-002
  -5.8955354834938252E-002   1.7604614421905283E-002   3.9289962169971271E-002
  -5.6972127306019200E-002   1.7007129036961270E-002   3.9422538221453016E-002
  -5.4988899777100156E-002   1.6402819678798197E-002   3.9742395712423065E-002
  -6.9035712151885434E-002   2.0732985424559668E-002   3.4379326915865829E-002
  -6.6883239699967872E-002   2.0031087435090439E-002   3.4257849185347675E-002
  -6.4730767248050325E-002   1.9338736312462676E-002   3.4287579861338090E-002
  -6.2578294796132763E-002   1.8655932056676063E-002   3.4468518943837193E-002
  -6.0425822344215223E-002   1.7982674667730986E-002   3.4800666432845018E-002
  -7.5012430244338957E-002   2.2686857576983382E-002   2.9045753475265029E-002
  -7.2726785902402585E-002   2.1866899036550758E-002   2.9061155681784218E-002
  -7.0441141560466242E-002   2.1072858203019885E-002   2.9191693261832255E-002
  -6.8155497218529898E-002   2.0304735076390891E-002   2.9437366215409329E-002
  -6.5869852876593527E-002   1.9562529656663719E-002   2.9798174542515266E-002
  -4.4136378538659773E-002   1.3243109700932676E-002   4.9443566439323572E-002
  -4.2318255413275704E-002   1.2744795951227378E-002   4.8791673693907522E-002
  -4.0500132287891615E-002   1.2222246948650053E-002   4.8330327366377324E-002
  -3.8682009162507539E-002   1.1675462693200304E-002   4.8059527456733211E-002
  -3.6863886037123456E-002   1.1104443184878410E-002   4.7979273964975200E-002
  -4.9559085175248332E-002   1.4822964689865437E-002   4.4623362381249199E-002
  -4.7543090579474888E-002   1.4273622863021668E-002   4.3957186003814069E-002
  -4.5527095983701450E-002   1.3719514850531758E-002   4.3496206149271674E-002
  -4.3511101387928006E-002   1.3160640652395920E-002   4.3240422817622089E-002
  -4.1495106792154561E-002   1.2597000268614211E-002   4.3189836008865140E-002
  -5.4988899777100156E-002   1.6402819678798197E-002   3.9742395712423065E-002
  -5.2760383605930619E-002   1.5802449774815611E-002   3.9081404770195241E-002
  -5.0531867434761089E-002   1.5216782752413512E-002   3.8640260455866847E-002
  -4.8303351263591525E-002   1.4645818611591534E-002   3.8418962769437917E-002
  -4.6074835092422016E-002   1.4089557352349985E-002   3.8417511710908445E-002
  -6.0425822344215223E-002   1.7982674667730986E-002   3.4800666432845018E-002
  -5.7970134492642864E-002   1.7331276686609810E-002   3.4164329993050815E-002
  -5.5514446641070504E-002   1.6714050654295019E-002   3.3762490286162711E-002
  -5.3058758789498138E-002   1.6130996570787259E-002   3.3595147312180863E-002
  -5.0603070937925786E-002   1.5582114436085828E-002   3.3662301071105169E-002
  -6.5869852876593527E-002   1.9562529656663719E-002   2.9798174542515266E-002
  -6.3172343239611628E-002   1.8860103598403816E-002   2.9205961672380848E-002
  -6.0474833602629730E-002   1.8211318556176928E-002   2.8862895640159369E-002
  -5.7777323965647803E-002   1.7616174529982698E-002   2.8768976445850789E-002
  -5.5079814328665905E-002   1.7074671519821560E-002   2.8924204089455174E-002
  -3.6863886037123456E-002   1.1104443184878410E-002   4.7979273964975200E-002
  -3.5729358636514330E-002   1.0537140191554745E-002   4.8446293798802276E-002
  -3.4594831235905177E-002   1.0001505481100556E-002   4.8923166821599834E-002
  -3.3460303835296037E-002   9.4975390535152991E-003   4.9409893033367916E-002
  -3.2325776434686884E-002   9.0252409087993035E-003   4.9906472434106397E-002
  -4.1495106792154561E-002   1.2597000268614211E-002   4.3189836008865140E-002
  -4.0325452690986974E-002   1.2027377079157214E-002   4.3745856237626363E-002
  -3.9155798589819421E-002   1.1450554463996052E-002   4.4362276678533999E-002
  -3.7986144488651848E-002   1.0866532423130498E-002   4.5039097331588042E-002
  -3.6816490387484288E-002   1.0275310956560590E-002   4.5776318196788568E-002
  -4.6074835092422016E-002   1.4089557352349985E-002   3.8417511710908445E-002
  -4.4819507267520015E-002   1.3517613966759670E-002   3.9023664626030269E-002
  -4.3564179442618076E-002   1.2899603446891610E-002   3.9740764776474487E-002
  -4.2308851617716130E-002   1.2235525792745698E-002   4.0568812162241022E-002
  -4.1053523792814128E-002   1.1525381004322155E-002   4.1507806783330076E-002
  -5.0603070937925786E-002   1.5582114436085828E-002   3.3662301071105169E-002
  -4.9211522366113425E-002   1.5007850854362022E-002   3.4279718964014202E-002
  -4.7819973794301078E-002   1.4348652429787109E-002   3.5058631115421422E-002
  -4.6428425222488731E-002   1.3604519162360953E-002   3.5999037525327099E-002
  -4.5036876650676377E-002   1.2775451052083692E-002   3.7100938193731073E-002
  -5.5079814328665905E-002   1.7074671519821560E-002   2.8924204089455174E-002
  -5.3501497986767232E-002   1.6498087741964540E-002   2.9514019251577650E-002
  -5.1923181644868532E-002   1.5797701412682649E-002   3.0315875695374667E-002
  -5.0344865302969818E-002   1.4973512531976176E-002   3.1329773420846155E-002
  -4.8766548961071160E-002   1.4025521099845062E-002   3.2555712427991768E-002
  -3.2325776434686884E-002   9.0252409087993035E-003   4.9906472434106397E-002
  -3.0233958924554771E-002   8.5389894679920864E-003   4.8171829929976984E-002
  -2.8142141414422624E-002   7.9931631521336644E-003   4.6712633399733416E-002
  -2.6050323904290438E-002   7.3877619612238016E-003   4.5528882843375612E-002
  -2.3958506394158363E-002   6.7227858952629838E-003   4.4620578260903265E-002
  -3.6816490387484288E-002   1.0275310956560590E-002   4.5776318196788568E-002
  -3.4452961849713928E-002   9.6705183168005193E-003   4.4251862396015307E-002
  -3.2089433311943596E-002   9.0457827563638210E-003   4.2995382676632998E-002
  -2.9725904774173299E-002   8.4011042752505961E-003   4.2006879038641268E-002
  -2.7362376236402863E-002   7.7364828734609592E-003   4.1286351482040518E-002
  -4.1053523792814128E-002   1.1525381004322155E-002   4.1507806783330076E-002
  -3.8425754119900499E-002   1.0802047165608814E-002   4.0233169640288072E-002
  -3.5797984446986786E-002   1.0098402360593867E-002   3.9219038686141808E-002
  -3.3170214774073115E-002   9.4144465892773074E-003   3.8465413920891200E-002
  -3.0542445101159485E-002   8.7501798516589346E-003   3.7972295344536888E-002
  -4.5036876650676377E-002   1.2775451052083692E-002   3.7100938193731073E-002
  -4.2152335735114385E-002   1.1933576014417066E-002   3.6115751662794918E-002
  -3.9267794819552372E-002   1.1151021964824023E-002   3.5383601428259533E-002
  -3.6383253903990297E-002   1.0427788903303894E-002   3.4904487490125216E-002
  -3.3498712988428311E-002   9.7638768298568546E-003   3.4678409848391892E-002
  -4.8766548961071160E-002   1.4025521099845062E-002   3.2555712427991768E-002
  -4.5632706695355629E-002   1.3065104863225430E-002   3.1899608463536178E-002
  -4.2498864429640140E-002   1.2203641569054166E-002   3.1489070902986721E-002
  -3.9365022163924492E-002   1.1441131217330616E-002   3.1324099746343245E-002
  -3.6231179898209065E-002   1.0777573808054886E-002   3.1404694993605764E-002
  -9.0361649186355725E-002   0.0000000000000000        4.9841202871829193E-002
  -9.3961604197260684E-002   5.4048576611842661E-003   5.3216798817110889E-002
  -9.7561559208165644E-002   1.0671812916402823E-002   5.4973384511987862E-002
 -0.10116151421907060        1.5800865765655665E-002   5.5110959956460127E-002
 -0.10476146922997559        2.0792016208942811E-002   5.3629525150527657E-002
 -0.10329206884258446        0.0000000000000000        5.8669818987193596E-002
 -0.10682925061621559        1.0884910674478915E-002   5.2125645943359333E-002
 -0.11036643238984674        1.9172795964792266E-002   4.7326029624477448E-002
 -0.11390361416347787        2.4863655870940055E-002   4.4270970030547939E-002
 -0.11744079593710902        2.7957490392922293E-002   4.2960467161570801E-002
 -0.12645657708054209        0.0000000000000000        7.4208049604952572E-002
 -0.12656741864154231        1.6364963687773564E-002   5.5284984593802496E-002
 -0.12667826020254250        2.7673779013181719E-002   4.1470043282961895E-002
 -0.12678910176354269        3.3926445976224441E-002   3.2763225672430778E-002
 -0.12689994332454294        3.5122964576901769E-002   2.9164531762209130E-002
 -0.15985517390022863        0.0000000000000000        9.6455894725106142E-002
 -0.15317610827324077        2.1845016701068216E-002   6.2694814768440382E-002
 -0.14649704264625296        3.6174762061571157E-002   3.7405425487441198E-002
 -0.13981797701926510        4.2989236081508848E-002   2.0587726882108651E-002
 -0.13313891139227726        4.2288438760881251E-002   1.2241718952442655E-002
 -0.20348785930164401        0.0000000000000000       0.12541335434765427     
 -0.18665531951131104        2.7325069714362864E-002   7.4355136467272986E-002
 -0.16982277972097806        4.4675745109960620E-002   3.5132176237915397E-002
 -0.15299023993064509        5.2052026186793214E-002   7.7444736595814884E-003
 -0.13615770014031214        4.9453912944860734E-002  -7.8079712677287180E-003
 -0.10476146922997559        2.0792016208942811E-002   5.3629525150527657E-002
 -0.10210786562349125        2.4933283554477260E-002   4.5651489099455093E-002
  -9.9454262017006884E-002   2.7512687110472077E-002   3.9365885564315022E-002
  -9.6800658410522517E-002   2.8530226876927193E-002   3.4772714545107414E-002
  -9.4147054804038177E-002   2.7985902853842677E-002   3.1871976041832277E-002
 -0.11744079593710902        2.7957490392922293E-002   4.2960467161570801E-002
 -0.11348338276598394        2.9429359129480786E-002   3.6709602490795259E-002
 -0.10952596959485886        3.0254321679357335E-002   3.1373924433368700E-002
 -0.10556855642373375        3.0432378042551965E-002   2.6953432989291121E-002
 -0.10161114325260870        2.9963528219064679E-002   2.3448128158562551E-002
 -0.12689994332454294        3.5122964576901769E-002   2.9164531762209130E-002
 -0.12241596649136056        3.3925434704484281E-002   2.5555796074588237E-002
 -0.11793198965817828        3.2995956248242614E-002   2.2085001097732978E-002
 -0.11344801282499595        3.2334529208176720E-002   1.8752146831643147E-002
 -0.10896403599181362        3.1941153584286675E-002   1.5557233276318852E-002
 -0.13313891139227726        4.2288438760881251E-002   1.2241718952442655E-002
 -0.12890561679962120        3.8421510279487772E-002   1.2190069850834276E-002
 -0.12467232220696511        3.5737590817127927E-002   1.1499115557407883E-002
 -0.12043902761430902        3.4236680373801537E-002   1.0168856072163593E-002
 -0.11620573302165295        3.3918778949508691E-002   8.1992913951012721E-003
 -0.13615770014031214        4.9453912944860734E-002  -7.8079712677287180E-003
 -0.13295233369076576        4.2917585854491347E-002  -3.3875761804669190E-003
 -0.12974696724121940        3.8479225386013172E-002  -3.8373218760656518E-004
 -0.12654160079167304        3.6138831539426264E-002   1.2035607108523698E-003
 -0.12333623434212668        3.5896404314730651E-002   1.3743025149097199E-003
  -9.4147054804038177E-002   2.7985902853842677E-002   3.1871976041832277E-002
  -9.1761082654214482E-002   2.6795594592801904E-002   3.1312743675203612E-002
  -8.9375110504390787E-002   2.5875181645388282E-002   3.0831174233226160E-002
  -8.6989138354567105E-002   2.5224664011601682E-002   3.0427267715899813E-002
  -8.4603166204743396E-002   2.4844041691442262E-002   3.0101024123224809E-002
 -0.10161114325260870        2.9963528219064679E-002   2.3448128158562551E-002
  -9.9131648148795909E-002   2.9195225543372384E-002   2.3174899428586863E-002
  -9.6652153044983119E-002   2.8474923349951997E-002   2.3011053681938166E-002
  -9.4172657941170329E-002   2.7802621638803524E-002   2.2956590918616536E-002
  -9.1693162837357567E-002   2.7178320409926987E-002   2.3011511138621807E-002
 -0.10896403599181362        3.1941153584286675E-002   1.5557233276318852E-002
 -0.10635929787533595        3.1594856493942877E-002   1.5348113351640909E-002
 -0.10375455975885826        3.1074665054515761E-002   1.5280096468965880E-002
 -0.10114982164238058        3.0380579266005323E-002   1.5353182628293650E-002
  -9.8545083525902938E-002   2.9512599128411664E-002   1.5567371829624015E-002
 -0.11620573302165295        3.3918778949508691E-002   8.1992913951012721E-003
 -0.11344403183383461        3.3994487444513298E-002   7.8323854443659996E-003
 -0.11068233064601625        3.3674406759079477E-002   7.6383025943091935E-003
 -0.10792062945819789        3.2958536893207158E-002   7.6170428449311095E-003
 -0.10515892827037955        3.1846877846896465E-002   7.7686061962315518E-003
 -0.12333623434212668        3.5896404314730651E-002   1.3743025149097199E-003
 -0.12038585002429186        3.6394118395083788E-002   6.2771570676187216E-004
 -0.11743546570645706        3.6274148463643234E-002   8.5672057968194659E-005
 -0.11448508138862223        3.5536494520408884E-002  -2.5182843147072281E-004
 -0.11153469707078745        3.4181156565381066E-002  -3.8478576155570599E-004
  -8.4603166204743396E-002   2.4844041691442262E-002   3.0101024123224809E-002
  -8.2205482214642300E-002   2.4524961686779215E-002   2.9349365737913885E-002
  -7.9807798224541163E-002   2.4059070999481669E-002   2.8922934501483512E-002
  -7.7410114234440053E-002   2.3446369629549806E-002   2.8821730413934012E-002
  -7.5012430244338957E-002   2.2686857576983382E-002   2.9045753475265029E-002
  -9.1693162837357567E-002   2.7178320409926987E-002   2.3011511138621807E-002
  -8.9010792693713342E-002   2.6555257260176435E-002   2.2361220198714837E-002
  -8.6328422550069117E-002   2.5886669786406143E-002   2.1955074417013380E-002
  -8.3646052406424878E-002   2.5172557988615937E-002   2.1793073793517446E-002
  -8.0963682262780723E-002   2.4412921866805881E-002   2.1875218328227031E-002
  -9.8545083525902938E-002   2.9512599128411664E-002   1.5567371829624015E-002
  -9.5659109219390789E-002   2.8585552833573703E-002   1.5119734693735655E-002
  -9.2773134912878669E-002   2.7714268573330501E-002   1.4835160725377805E-002
  -8.9887160606366534E-002   2.6898746347682016E-002   1.4713649924550081E-002
  -8.7001186299854399E-002   2.6138986156628338E-002   1.4755202291252760E-002
 -0.10515892827037955        3.1846877846896465E-002   7.7686061962315518E-003
 -0.10215043179167471        3.0615848406970934E-002   7.6249092229765374E-003
  -9.9141935312969817E-002   2.9541867360254753E-002   7.5631934265766206E-003
  -9.6133438834264964E-002   2.8624934706748286E-002   7.5834588070318289E-003
  -9.3124942355560070E-002   2.7865050446450927E-002   7.6857053643420350E-003
 -0.11153469707078745        3.4181156565381066E-002  -3.8478576155570599E-004
 -0.10848476041056498        3.2646143980368136E-002  -1.2325621356287786E-004
 -0.10543482375034260        3.1369466147179365E-002   1.3917252060989538E-004
 -0.10238488709012018        3.0351123065814382E-002   4.0250044096251311E-004
  -9.9334950429897761E-002   2.9591114736273239E-002   6.6672754749508290E-004
  -7.5012430244338957E-002   2.2686857576983382E-002   2.9045753475265029E-002
  -7.2726785902402585E-002   2.1866899036550758E-002   2.9061155681784218E-002
  -7.0441141560466242E-002   2.1072858203019885E-002   2.9191693261832255E-002
  -6.8155497218529898E-002   2.0304735076390891E-002   2.9437366215409329E-002
  -6.5869852876593527E-002   1.9562529656663719E-002   2.9798174542515266E-002
  -8.0963682262780723E-002   2.4412921866805881E-002   2.1875218328227031E-002
  -7.8551092237013148E-002   2.3627919858022886E-002   2.1826533954904317E-002
  -7.6138502211245518E-002   2.2837710399313593E-002   2.1916605575715092E-002
  -7.3725912185477888E-002   2.2042293490678058E-002   2.2145433190659307E-002
  -7.1313322159710313E-002   2.1241669132116392E-002   2.2513016799737134E-002
  -8.7001186299854399E-002   2.6138986156628338E-002   1.4755202291252760E-002
  -8.4438029969650996E-002   2.5388940679494904E-002   1.4611306181260074E-002
  -8.1874873639447607E-002   2.4602562595607242E-002   1.4629786686005456E-002
  -7.9311717309244217E-002   2.3779851904965194E-002   1.4810643805488832E-002
  -7.6748560979040814E-002   2.2920808607569065E-002   1.5153877539710398E-002
  -9.3124942355560070E-002   2.7865050446450927E-002   7.6857053643420350E-003
  -9.0387599100316310E-002   2.7149961500967060E-002   7.4154723608514175E-003
  -8.7650255845072550E-002   2.6367414791901030E-002   7.3312365927034164E-003
  -8.4912912589828776E-002   2.5517410319252570E-002   7.4329980598980324E-003
  -8.2175569334585058E-002   2.4599948083021961E-002   7.7207567624351589E-003
  -9.9334950429897761E-002   2.9591114736273239E-002   6.6672754749508290E-004
  -9.6399799629009075E-002   2.8910982322439160E-002   2.3903249367826507E-004
  -9.3464648828120361E-002   2.8132266988194612E-002   2.0955295808727792E-005
  -9.0529498027231661E-002   2.7254968733539473E-002   1.2495953886672295E-005
  -8.7594347226342961E-002   2.6279087558474523E-002   2.1365446791143938E-004
  -6.5869852876593527E-002   1.9562529656663719E-002   2.9798174542515266E-002
  -6.3172343239611628E-002   1.8860103598403816E-002   2.9205961672380848E-002
  -6.0474833602629730E-002   1.8211318556176928E-002   2.8862895640159369E-002
  -5.7777323965647803E-002   1.7616174529982698E-002   2.8768976445850789E-002
  -5.5079814328665905E-002   1.7074671519821560E-002   2.8924204089455174E-002
  -7.1313322159710313E-002   2.1241669132116392E-002   2.2513016799737134E-002
  -6.8375991275295672E-002   2.0460051613537922E-002   2.1968139875871678E-002
  -6.5438660390880976E-002   1.9721655224851892E-002   2.1653758608958781E-002
  -6.2501329506466252E-002   1.9026479966058725E-002   2.1569872998998450E-002
  -5.9563998622051639E-002   1.8374525837157929E-002   2.1716483045990720E-002
  -7.6748560979040814E-002   2.2920808607569065E-002   1.5153877539710398E-002
  -7.3590060028153687E-002   2.2059999628671875E-002   1.4645916675973508E-002
  -7.0431559077266545E-002   2.1231991893526959E-002   1.4349800288228944E-002
  -6.7273058126379390E-002   2.0436785402134582E-002   1.4265528376476790E-002
  -6.4114557175492276E-002   1.9674380154494298E-002   1.4393100940716760E-002
  -8.2175569334585058E-002   2.4599948083021961E-002   7.7207567624351589E-003
  -7.8814549498185685E-002   2.3659947643806155E-002   7.2392920726865387E-003
  -7.5453529661786381E-002   2.2742328562202031E-002   6.9510206779700660E-003
  -7.2092509825387049E-002   2.1847090838210608E-002   6.8559425782856133E-003
  -6.8731489988987732E-002   2.0974234471830638E-002   6.9540577736331363E-003
  -8.7594347226342961E-002   2.6279087558474523E-002   2.1365446791143938E-004
  -8.4049459685391736E-002   2.5259895658940101E-002  -2.5173393398908450E-004
  -8.0504572144440512E-002   2.4252665230877074E-002  -5.4258022181774557E-004
  -7.6959684603489287E-002   2.3257396274286267E-002  -6.5888439557476586E-004
  -7.3414797062538062E-002   2.2274088789167035E-002  -6.0064645526014537E-004
  -5.5079814328665905E-002   1.7074671519821560E-002   2.8924204089455174E-002
  -5.3501497986767232E-002   1.6498087741964540E-002   2.9514019251577650E-002
  -5.1923181644868532E-002   1.5797701412682649E-002   3.0315875695374667E-002
  -5.0344865302969818E-002   1.4973512531976176E-002   3.1329773420846155E-002
  -4.8766548961071160E-002   1.4025521099845062E-002   3.2555712427991768E-002
  -5.9563998622051639E-002   1.8374525837157929E-002   2.1716483045990720E-002
  -5.7801004486454616E-002   1.7704067003813606E-002   2.2110543914980380E-002
  -5.6038010350857606E-002   1.6953377631689595E-002   2.2661919089692117E-002
  -5.4275016215260624E-002   1.6122457720785941E-002   2.3370608570126253E-002
  -5.2512022079663587E-002   1.5211307271102370E-002   2.4236612356282716E-002
  -6.4114557175492276E-002   1.9674380154494298E-002   1.4393100940716760E-002
  -6.2221612222149017E-002   1.8910046265662922E-002   1.4634979529218092E-002
  -6.0328667268805702E-002   1.8109053850696548E-002   1.4979445447489782E-002
  -5.8435722315462360E-002   1.7271402909595654E-002   1.5426498695531827E-002
  -5.6542777362119080E-002   1.6397093442359761E-002   1.5976139273343862E-002
  -6.8731489988987732E-002   2.0974234471830638E-002   6.9540577736331363E-003
  -6.6763321193850256E-002   2.0116025527512280E-002   7.0873260942914164E-003
  -6.4795152398712710E-002   1.9264730069703553E-002   7.2684547687675832E-003
  -6.2826983603575207E-002   1.8420348098405391E-002   7.4974437970622464E-003
  -6.0858814808437682E-002   1.7582879613617222E-002   7.7742931791751381E-003
  -7.3414797062538062E-002   2.2274088789167035E-002  -6.0064645526014537E-004
  -7.1426131401558346E-002   2.1322004789361249E-002  -5.3241638980000561E-004
  -6.9437465740578685E-002   2.0420406288710502E-002  -4.7105294647431517E-004
  -6.7448800079599025E-002   1.9569293287215059E-002  -4.1655612528151975E-004
  -6.5460134418619309E-002   1.8768665784874461E-002  -3.6892592622350673E-004
  -4.8766548961071160E-002   1.4025521099845062E-002   3.2555712427991768E-002
  -4.5632706695355629E-002   1.3065104863225430E-002   3.1899608463536178E-002
  -4.2498864429640140E-002   1.2203641569054166E-002   3.1489070902986721E-002
  -3.9365022163924492E-002   1.1441131217330616E-002   3.1324099746343245E-002
  -3.6231179898209065E-002   1.0777573808054886E-002   3.1404694993605764E-002
  -5.2512022079663587E-002   1.5211307271102370E-002   2.4236612356282716E-002
  -4.9137050422624062E-002   1.4295257291525615E-002   2.3375481426102768E-002
  -4.5762078765584462E-002   1.3449638790941923E-002   2.2751042874665006E-002
  -4.2387107108544958E-002   1.2674451769351603E-002   2.2363296701969307E-002
  -3.9012135451505281E-002   1.1969696226754367E-002   2.2212242908015822E-002
  -5.6542777362119080E-002   1.6397093442359761E-002   1.5976139273343862E-002
  -5.2935550338919363E-002   1.5525409719825689E-002   1.4881459913984610E-002
  -4.9328323315719583E-002   1.4695636012830131E-002   1.4014598908203911E-002
  -4.5721096292519837E-002   1.3907772321372870E-002   1.3375556256001172E-002
  -4.2113869269320078E-002   1.3161818645453849E-002   1.2964331957376951E-002
  -6.0858814808437682E-002   1.7582879613617222E-002   7.7742931791751381E-003
  -5.7028206444241600E-002   1.6755562148125763E-002   6.4175439271818117E-003
  -5.3197598080045469E-002   1.5941633234718002E-002   5.2797390036031563E-003
  -4.9366989715849449E-002   1.5141092873393942E-002   4.3608784084387961E-003
  -4.5536381351653263E-002   1.4353941064153053E-002   3.6609621416887478E-003
  -6.5460134418619309E-002   1.8768665784874461E-002  -3.6892592622350673E-004
  -6.1415018738590788E-002   1.7985714576426060E-002  -2.0162665343056996E-003
  -5.7369903058562211E-002   1.7187630456605874E-002  -3.4535368391366839E-003
  -5.3324787378533745E-002   1.6374413425415457E-002  -4.6807368407179722E-003
  -4.9279671698505112E-002   1.5546063482852812E-002  -5.6978665390483574E-003
 </DataArray>
 </PointData>
 </Piece>
 <Piece  NumberOfPoints="          1600 "  NumberOfCells="         1024 ">
 <Points>
 <DataArray  type="Float64" NumberOfComponents="3"  format="ascii" >
  0.50000000000000000        0.0000000000000000        0.0000000000000000     
  0.53125000000000000        0.0000000000000000        0.0000000000000000     
  0.56250000000000000        0.0000000000000000        0.0000000000000000     
  0.59375000000000000        0.0000000000000000        0.0000000000000000     
  0.62500000000000000        0.0000000000000000        0.0000000000000000     
  0.50000000000000000        3.1250000000000000E-002   0.0000000000000000     
  0.53125000000000000        3.1250000000000000E-002   0.0000000000000000     
  0.56250000000000000        3.1250000000000000E-002   0.0000000000000000     
  0.59375000000000000        3.1250000000000000E-002   0.0000000000000000     
  0.62500000000000000        3.1250000000000000E-002   0.0000000000000000     
  0.50000000000000000        6.2500000000000000E-002   0.0000000000000000     
  0.53125000000000000        6.2500000000000000E-002   0.0000000000000000     
  0.56250000000000000        6.2500000000000000E-002   0.0000000000000000     
  0.59375000000000000        6.2500000000000000E-002   0.0000000000000000     
  0.62500000000000000        6.2500000000000000E-002   0.0000000000000000     
  0.50000000000000000        9.3750000000000000E-002   0.0000000000000000     
  0.53125000000000000        9.3750000000000000E-002   0.0000000000000000     
  0.56250000000000000        9.3750000000000000E-002   0.0000000000000000     
  0.59375000000000000        9.3750000000000000E-002   0.0000000000000000     
  0.62500000000000000        9.3750000000000000E-002   0.0000000000000000     
  0.50000000000000000       0.12500000000000000        0.0000000000000000     
  0.53125000000000000       0.12500000000000000        0.0000000000000000     
  0.56250000000000000       0.12500000000000000        0.0000000000000000     
  0.59375000000000000       0.12500000000000000        0.0000000000000000     
  0.62500000000000000       0.12500000000000000        0.0000000000000000     
  0.62500000000000000        0.0000000000000000        0.0000000000000000     
  0.65625000000000000        0.0000000000000000        0.0000000000000000     
  0.68750000000000000        0.0000000000000000        0.0000000000000000     
  0.71875000000000000        0.0000000000000000        0.0000000000000000     
  0.75000000000000000        0.0000000000000000        0.0000000000000000     
  0.62500000000000000        3.1250000000000000E-002   0.0000000000000000     
  0.65625000000000000        3.1250000000000000E-002   0.0000000000000000     
  0.68750000000000000        3.1250000000000000E-002   0.0000000000000000     
  0.71875000000000000        3.1250000000000000E-002   0.0000000000000000     
  0.75000000000000000        3.1250000000000000E-002   0.0000000000000000     
  0.62500000000000000        6.2500000000000000E-002   0.0000000000000000     
  0.65625000000000000        6.2500000000000000E-002   0.0000000000000000     
  0.68750000000000000        6.2500000000000000E-002   0.0000000000000000     
  0.71875000000000000        6.2500000000000000E-002   0.0000000000000000     
  0.75000000000000000        6.2500000000000000E-002   0.0000000000000000     
  0.62500000000000000        9.3750000000000000E-002   0.0000000000000000     
  0.65625000000000000        9.3750000000000000E-002   0.0000000000000000     
  0.68750000000000000        9.3750000000000000E-002   0.0000000000000000     
  0.71875000000000000        9.3750000000000000E-002   0.0000000000000000     
  0.75000000000000000        9.3750000000000000E-002   0.0000000000000000     
  0.62500000000000000       0.12500000000000000        0.0000000000000000     
  0.65625000000000000       0.12500000000000000        0.0000000000000000     
  0.68750000000000000       0.12500000000000000        0.0000000000000000     
  0.71875000000000000       0.12500000000000000        0.0000000000000000     
  0.75000000000000000       0.12500000000000000        0.0000000000000000     
  0.75000000000000000        0.0000000000000000        0.0000000000000000     
  0.78125000000000000        0.0000000000000000        0.0000000000000000     
  0.81250000000000000        0.0000000000000000        0.0000000000000000     
  0.84375000000000000        0.0000000000000000        0.0000000000000000     
  0.87500000000000000        0.0000000000000000        0.0000000000000000     
  0.75000000000000000        3.1250000000000000E-002   0.0000000000000000     
  0.78125000000000000        3.1250000000000000E-002   0.0000000000000000     
  0.81250000000000000        3.1250000000000000E-002   0.0000000000000000     
  0.84375000000000000        3.1250000000000000E-002   0.0000000000000000     
  0.87500000000000000        3.1250000000000000E-002   0.0000000000000000     
  0.75000000000000000        6.2500000000000000E-002   0.0000000000000000     
  0.78125000000000000        6.2500000000000000E-002   0.0000000000000000     
  0.81250000000000000        6.2500000000000000E-002   0.0000000000000000     
  0.84375000000000000        6.2500000000000000E-002   0.0000000000000000     
  0.87500000000000000        6.2500000000000000E-002   0.0000000000000000     
  0.75000000000000000        9.3750000000000000E-002   0.0000000000000000     
  0.78125000000000000        9.3750000000000000E-002   0.0000000000000000     
  0.81250000000000000        9.3750000000000000E-002   0.0000000000000000     
  0.84375000000000000        9.3750000000000000E-002   0.0000000000000000     
  0.87500000000000000        9.3750000000000000E-002   0.0000000000000000     
  0.75000000000000000       0.12500000000000000        0.0000000000000000     
  0.78125000000000000       0.12500000000000000        0.0000000000000000     
  0.81250000000000000       0.12500000000000000        0.0000000000000000     
  0.84375000000000000       0.12500000000000000        0.0000000000000000     
  0.87500000000000000       0.12500000000000000        0.0000000000000000     
  0.87500000000000000        0.0000000000000000        0.0000000000000000     
  0.90625000000000000        0.0000000000000000        0.0000000000000000     
  0.93750000000000000        0.0000000000000000        0.0000000000000000     
  0.96875000000000000        0.0000000000000000        0.0000000000000000     
   1.0000000000000000        0.0000000000000000        0.0000000000000000     
  0.87500000000000000        3.1250000000000000E-002   0.0000000000000000     
  0.90625000000000000        3.1250000000000000E-002   0.0000000000000000     
  0.93750000000000000        3.1250000000000000E-002   0.0000000000000000     
  0.96875000000000000        3.1250000000000000E-002   0.0000000000000000     
   1.0000000000000000        3.1250000000000000E-002   0.0000000000000000     
  0.87500000000000000        6.2500000000000000E-002   0.0000000000000000     
  0.90625000000000000        6.2500000000000000E-002   0.0000000000000000     
  0.93750000000000000        6.2500000000000000E-002   0.0000000000000000     
  0.96875000000000000        6.2500000000000000E-002   0.0000000000000000     
   1.0000000000000000        6.2500000000000000E-002   0.0000000000000000     
  0.87500000000000000        9.3750000000000000E-002   0.0000000000000000     
  0.90625000000000000        9.3750000000000000E-002   0.0000000000000000     
  0.93750000000000000        9.3750000000000000E-002   0.0000000000000000     
  0.96875000000000000        9.3750000000000000E-002   0.0000000000000000     
   1.0000000000000000        9.3750000000000000E-002   0.0000000000000000     
  0.87500000000000000       0.12500000000000000        0.0000000000000000     
  0.90625000000000000       0.12500000000000000        0.0000000000000000     
  0.93750000000000000       0.12500000000000000        0.0000000000000000     
  0.96875000000000000       0.12500000000000000        0.0000000000000000     
   1.0000000000000000       0.12500000000000000        0.0000000000000000     
   1.0000000000000000        0.0000000000000000        0.0000000000000000     
   1.0312500000000000        0.0000000000000000        0.0000000000000000     
   1.0625000000000000        0.0000000000000000        0.0000000000000000     
   1.0937500000000000        0.0000000000000000        0.0000000000000000     
   1.1250000000000000        0.0000000000000000        0.0000000000000000     
   1.0000000000000000        3.1250000000000000E-002   0.0000000000000000     
   1.0312500000000000        3.1250000000000000E-002   0.0000000000000000     
   1.0625000000000000        3.1250000000000000E-002   0.0000000000000000     
   1.0937500000000000        3.1250000000000000E-002   0.0000000000000000     
   1.1250000000000000        3.1250000000000000E-002   0.0000000000000000     
   1.0000000000000000        6.2500000000000000E-002   0.0000000000000000     
   1.0312500000000000        6.2500000000000000E-002   0.0000000000000000     
   1.0625000000000000        6.2500000000000000E-002   0.0000000000000000     
   1.0937500000000000        6.2500000000000000E-002   0.0000000000000000     
   1.1250000000000000        6.2500000000000000E-002   0.0000000000000000     
   1.0000000000000000        9.3750000000000000E-002   0.0000000000000000     
   1.0312500000000000        9.3750000000000000E-002   0.0000000000000000     
   1.0625000000000000        9.3750000000000000E-002   0.0000000000000000     
   1.0937500000000000        9.3750000000000000E-002   0.0000000000000000     
   1.1250000000000000        9.3750000000000000E-002   0.0000000000000000     
   1.0000000000000000       0.12500000000000000        0.0000000000000000     
   1.0312500000000000       0.12500000000000000        0.0000000000000000     
   1.0625000000000000       0.12500000000000000        0.0000000000000000     
   1.0937500000000000       0.12500000000000000        0.0000000000000000     
   1.1250000000000000       0.12500000000000000        0.0000000000000000     
   1.1250000000000000        0.0000000000000000        0.0000000000000000     
   1.1562500000000000        0.0000000000000000        0.0000000000000000     
   1.1875000000000000        0.0000000000000000        0.0000000000000000     
   1.2187500000000000        0.0000000000000000        0.0000000000000000     
   1.2500000000000000        0.0000000000000000        0.0000000000000000     
   1.1250000000000000        3.1250000000000000E-002   0.0000000000000000     
   1.1562500000000000        3.1250000000000000E-002   0.0000000000000000     
   1.1875000000000000        3.1250000000000000E-002   0.0000000000000000     
   1.2187500000000000        3.1250000000000000E-002   0.0000000000000000     
   1.2500000000000000        3.1250000000000000E-002   0.0000000000000000     
   1.1250000000000000        6.2500000000000000E-002   0.0000000000000000     
   1.1562500000000000        6.2500000000000000E-002   0.0000000000000000     
   1.1875000000000000        6.2500000000000000E-002   0.0000000000000000     
   1.2187500000000000        6.2500000000000000E-002   0.0000000000000000     
   1.2500000000000000        6.2500000000000000E-002   0.0000000000000000     
   1.1250000000000000        9.3750000000000000E-002   0.0000000000000000     
   1.1562500000000000        9.3750000000000000E-002   0.0000000000000000     
   1.1875000000000000        9.3750000000000000E-002   0.0000000000000000     
   1.2187500000000000        9.3750000000000000E-002   0.0000000000000000     
   1.2500000000000000        9.3750000000000000E-002   0.0000000000000000     
   1.1250000000000000       0.12500000000000000        0.0000000000000000     
   1.1562500000000000       0.12500000000000000        0.0000000000000000     
   1.1875000000000000       0.12500000000000000        0.0000000000000000     
   1.2187500000000000       0.12500000000000000        0.0000000000000000     
   1.2500000000000000       0.12500000000000000        0.0000000000000000     
   1.2500000000000000        0.0000000000000000        0.0000000000000000     
   1.2812500000000000        0.0000000000000000        0.0000000000000000     
   1.3125000000000000        0.0000000000000000        0.0000000000000000     
   1.3437500000000000        0.0000000000000000        0.0000000000000000     
   1.3750000000000000        0.0000000000000000        0.0000000000000000     
   1.2500000000000000        3.1250000000000000E-002   0.0000000000000000     
   1.2812500000000000        3.1250000000000000E-002   0.0000000000000000     
   1.3125000000000000        3.1250000000000000E-002   0.0000000000000000     
   1.3437500000000000        3.1250000000000000E-002   0.0000000000000000     
   1.3750000000000000        3.1250000000000000E-002   0.0000000000000000     
   1.2500000000000000        6.2500000000000000E-002   0.0000000000000000     
   1.2812500000000000        6.2500000000000000E-002   0.0000000000000000     
   1.3125000000000000        6.2500000000000000E-002   0.0000000000000000     
   1.3437500000000000        6.2500000000000000E-002   0.0000000000000000     
   1.3750000000000000        6.2500000000000000E-002   0.0000000000000000     
   1.2500000000000000        9.3750000000000000E-002   0.0000000000000000     
   1.2812500000000000        9.3750000000000000E-002   0.0000000000000000     
   1.3125000000000000        9.3750000000000000E-002   0.0000000000000000     
   1.3437500000000000        9.3750000000000000E-002   0.0000000000000000     
   1.3750000000000000        9.3750000000000000E-002   0.0000000000000000     
   1.2500000000000000       0.12500000000000000        0.0000000000000000     
   1.2812500000000000       0.12500000000000000        0.0000000000000000     
   1.3125000000000000       0.12500000000000000        0.0000000000000000     
   1.3437500000000000       0.12500000000000000        0.0000000000000000     
   1.3750000000000000       0.12500000000000000        0.0000000000000000     
   1.3750000000000000        0.0000000000000000        0.0000000000000000     
   1.4062500000000000        0.0000000000000000        0.0000000000000000     
   1.4375000000000000        0.0000000000000000        0.0000000000000000     
   1.4687500000000000        0.0000000000000000        0.0000000000000000     
   1.5000000000000000        0.0000000000000000        0.0000000000000000     
   1.3750000000000000        3.1250000000000000E-002   0.0000000000000000     
   1.4062500000000000        3.1250000000000000E-002   0.0000000000000000     
   1.4375000000000000        3.1250000000000000E-002   0.0000000000000000     
   1.4687500000000000        3.1250000000000000E-002   0.0000000000000000     
   1.5000000000000000        3.1250000000000000E-002   0.0000000000000000     
   1.3750000000000000        6.2500000000000000E-002   0.0000000000000000     
   1.4062500000000000        6.2500000000000000E-002   0.0000000000000000     
   1.4375000000000000        6.2500000000000000E-002   0.0000000000000000     
   1.4687500000000000        6.2500000000000000E-002   0.0000000000000000     
   1.5000000000000000        6.2500000000000000E-002   0.0000000000000000     
   1.3750000000000000        9.3750000000000000E-002   0.0000000000000000     
   1.4062500000000000        9.3750000000000000E-002   0.0000000000000000     
   1.4375000000000000        9.3750000000000000E-002   0.0000000000000000     
   1.4687500000000000        9.3750000000000000E-002   0.0000000000000000     
   1.5000000000000000        9.3750000000000000E-002   0.0000000000000000     
   1.3750000000000000       0.12500000000000000        0.0000000000000000     
   1.4062500000000000       0.12500000000000000        0.0000000000000000     
   1.4375000000000000       0.12500000000000000        0.0000000000000000     
   1.4687500000000000       0.12500000000000000        0.0000000000000000     
   1.5000000000000000       0.12500000000000000        0.0000000000000000     
  0.50000000000000000       0.12500000000000000        0.0000000000000000     
  0.53125000000000000       0.12500000000000000        0.0000000000000000     
  0.56250000000000000       0.12500000000000000        0.0000000000000000     
  0.59375000000000000       0.12500000000000000        0.0000000000000000     
  0.62500000000000000       0.12500000000000000        0.0000000000000000     
  0.50000000000000000       0.15625000000000000        0.0000000000000000     
  0.53125000000000000       0.15625000000000000        0.0000000000000000     
  0.56250000000000000       0.15625000000000000        0.0000000000000000     
  0.59375000000000000       0.15625000000000000        0.0000000000000000     
  0.62500000000000000       0.15625000000000000        0.0000000000000000     
  0.50000000000000000       0.18750000000000000        0.0000000000000000     
  0.53125000000000000       0.18750000000000000        0.0000000000000000     
  0.56250000000000000       0.18750000000000000        0.0000000000000000     
  0.59375000000000000       0.18750000000000000        0.0000000000000000     
  0.62500000000000000       0.18750000000000000        0.0000000000000000     
  0.50000000000000000       0.21875000000000000        0.0000000000000000     
  0.53125000000000000       0.21875000000000000        0.0000000000000000     
  0.56250000000000000       0.21875000000000000        0.0000000000000000     
  0.59375000000000000       0.21875000000000000        0.0000000000000000     
  0.62500000000000000       0.21875000000000000        0.0000000000000000     
  0.50000000000000000       0.25000000000000000        0.0000000000000000     
  0.53125000000000000       0.25000000000000000        0.0000000000000000     
  0.56250000000000000       0.25000000000000000        0.0000000000000000     
  0.59375000000000000       0.25000000000000000        0.0000000000000000     
  0.62500000000000000       0.25000000000000000        0.0000000000000000     
  0.62500000000000000       0.12500000000000000        0.0000000000000000     
  0.65625000000000000       0.12500000000000000        0.0000000000000000     
  0.68750000000000000       0.12500000000000000        0.0000000000000000     
  0.71875000000000000       0.12500000000000000        0.0000000000000000     
  0.75000000000000000       0.12500000000000000        0.0000000000000000     
  0.62500000000000000       0.15625000000000000        0.0000000000000000     
  0.65625000000000000       0.15625000000000000        0.0000000000000000     
  0.68750000000000000       0.15625000000000000        0.0000000000000000     
  0.71875000000000000       0.15625000000000000        0.0000000000000000     
  0.75000000000000000       0.15625000000000000        0.0000000000000000     
  0.62500000000000000       0.18750000000000000        0.0000000000000000     
  0.65625000000000000       0.18750000000000000        0.0000000000000000     
  0.68750000000000000       0.18750000000000000        0.0000000000000000     
  0.71875000000000000       0.18750000000000000        0.0000000000000000     
  0.75000000000000000       0.18750000000000000        0.0000000000000000     
  0.62500000000000000       0.21875000000000000        0.0000000000000000     
  0.65625000000000000       0.21875000000000000        0.0000000000000000     
  0.68750000000000000       0.21875000000000000        0.0000000000000000     
  0.71875000000000000       0.21875000000000000        0.0000000000000000     
  0.75000000000000000       0.21875000000000000        0.0000000000000000     
  0.62500000000000000       0.25000000000000000        0.0000000000000000     
  0.65625000000000000       0.25000000000000000        0.0000000000000000     
  0.68750000000000000       0.25000000000000000        0.0000000000000000     
  0.71875000000000000       0.25000000000000000        0.0000000000000000     
  0.75000000000000000       0.25000000000000000        0.0000000000000000     
  0.75000000000000000       0.12500000000000000        0.0000000000000000     
  0.78125000000000000       0.12500000000000000        0.0000000000000000     
  0.81250000000000000       0.12500000000000000        0.0000000000000000     
  0.84375000000000000       0.12500000000000000        0.0000000000000000     
  0.87500000000000000       0.12500000000000000        0.0000000000000000     
  0.75000000000000000       0.15625000000000000        0.0000000000000000     
  0.78125000000000000       0.15625000000000000        0.0000000000000000     
  0.81250000000000000       0.15625000000000000        0.0000000000000000     
  0.84375000000000000       0.15625000000000000        0.0000000000000000     
  0.87500000000000000       0.15625000000000000        0.0000000000000000     
  0.75000000000000000       0.18750000000000000        0.0000000000000000     
  0.78125000000000000       0.18750000000000000        0.0000000000000000     
  0.81250000000000000       0.18750000000000000        0.0000000000000000     
  0.84375000000000000       0.18750000000000000        0.0000000000000000     
  0.87500000000000000       0.18750000000000000        0.0000000000000000     
  0.75000000000000000       0.21875000000000000        0.0000000000000000     
  0.78125000000000000       0.21875000000000000        0.0000000000000000     
  0.81250000000000000       0.21875000000000000        0.0000000000000000     
  0.84375000000000000       0.21875000000000000        0.0000000000000000     
  0.87500000000000000       0.21875000000000000        0.0000000000000000     
  0.75000000000000000       0.25000000000000000        0.0000000000000000     
  0.78125000000000000       0.25000000000000000        0.0000000000000000     
  0.81250000000000000       0.25000000000000000        0.0000000000000000     
  0.84375000000000000       0.25000000000000000        0.0000000000000000     
  0.87500000000000000       0.25000000000000000        0.0000000000000000     
  0.87500000000000000       0.12500000000000000        0.0000000000000000     
  0.90625000000000000       0.12500000000000000        0.0000000000000000     
  0.93750000000000000       0.12500000000000000        0.0000000000000000     
  0.96875000000000000       0.12500000000000000        0.0000000000000000     
   1.0000000000000000       0.12500000000000000        0.0000000000000000     
  0.87500000000000000       0.15625000000000000        0.0000000000000000     
  0.90625000000000000       0.15625000000000000        0.0000000000000000     
  0.93750000000000000       0.15625000000000000        0.0000000000000000     
  0.96875000000000000       0.15625000000000000        0.0000000000000000     
   1.0000000000000000       0.15625000000000000        0.0000000000000000     
  0.87500000000000000       0.18750000000000000        0.0000000000000000     
  0.90625000000000000       0.18750000000000000        0.0000000000000000     
  0.93750000000000000       0.18750000000000000        0.0000000000000000     
  0.96875000000000000       0.18750000000000000        0.0000000000000000     
   1.0000000000000000       0.18750000000000000        0.0000000000000000     
  0.87500000000000000       0.21875000000000000        0.0000000000000000     
  0.90625000000000000       0.21875000000000000        0.0000000000000000     
  0.93750000000000000       0.21875000000000000        0.0000000000000000     
  0.96875000000000000       0.21875000000000000        0.0000000000000000     
   1.0000000000000000       0.21875000000000000        0.0000000000000000     
  0.87500000000000000       0.25000000000000000        0.0000000000000000     
  0.90625000000000000       0.25000000000000000        0.0000000000000000     
  0.93750000000000000       0.25000000000000000        0.0000000000000000     
  0.96875000000000000       0.25000000000000000        0.0000000000000000     
   1.0000000000000000       0.25000000000000000        0.0000000000000000     
   1.0000000000000000       0.12500000000000000        0.0000000000000000     
   1.0312500000000000       0.12500000000000000        0.0000000000000000     
   1.0625000000000000       0.12500000000000000        0.0000000000000000     
   1.0937500000000000       0.12500000000000000        0.0000000000000000     
   1.1250000000000000       0.12500000000000000        0.0000000000000000     
   1.0000000000000000       0.15625000000000000        0.0000000000000000     
   1.0312500000000000       0.15625000000000000        0.0000000000000000     
   1.0625000000000000       0.15625000000000000        0.0000000000000000     
   1.0937500000000000       0.15625000000000000        0.0000000000000000     
   1.1250000000000000       0.15625000000000000        0.0000000000000000     
   1.0000000000000000       0.18750000000000000        0.0000000000000000     
   1.0312500000000000       0.18750000000000000        0.0000000000000000     
   1.0625000000000000       0.18750000000000000        0.0000000000000000     
   1.0937500000000000       0.18750000000000000        0.0000000000000000     
   1.1250000000000000       0.18750000000000000        0.0000000000000000     
   1.0000000000000000       0.21875000000000000        0.0000000000000000     
   1.0312500000000000       0.21875000000000000        0.0000000000000000     
   1.0625000000000000       0.21875000000000000        0.0000000000000000     
   1.0937500000000000       0.21875000000000000        0.0000000000000000     
   1.1250000000000000       0.21875000000000000        0.0000000000000000     
   1.0000000000000000       0.25000000000000000        0.0000000000000000     
   1.0312500000000000       0.25000000000000000        0.0000000000000000     
   1.0625000000000000       0.25000000000000000        0.0000000000000000     
   1.0937500000000000       0.25000000000000000        0.0000000000000000     
   1.1250000000000000       0.25000000000000000        0.0000000000000000     
   1.1250000000000000       0.12500000000000000        0.0000000000000000     
   1.1562500000000000       0.12500000000000000        0.0000000000000000     
   1.1875000000000000       0.12500000000000000        0.0000000000000000     
   1.2187500000000000       0.12500000000000000        0.0000000000000000     
   1.2500000000000000       0.12500000000000000        0.0000000000000000     
   1.1250000000000000       0.15625000000000000        0.0000000000000000     
   1.1562500000000000       0.15625000000000000        0.0000000000000000     
   1.1875000000000000       0.15625000000000000        0.0000000000000000     
   1.2187500000000000       0.15625000000000000        0.0000000000000000     
   1.2500000000000000       0.15625000000000000        0.0000000000000000     
   1.1250000000000000       0.18750000000000000        0.0000000000000000     
   1.1562500000000000       0.18750000000000000        0.0000000000000000     
   1.1875000000000000       0.18750000000000000        0.0000000000000000     
   1.2187500000000000       0.18750000000000000        0.0000000000000000     
   1.2500000000000000       0.18750000000000000        0.0000000000000000     
   1.1250000000000000       0.21875000000000000        0.0000000000000000     
   1.1562500000000000       0.21875000000000000        0.0000000000000000     
   1.1875000000000000       0.21875000000000000        0.0000000000000000     
   1.2187500000000000       0.21875000000000000        0.0000000000000000     
   1.2500000000000000       0.21875000000000000        0.0000000000000000     
   1.1250000000000000       0.25000000000000000        0.0000000000000000     
   1.1562500000000000       0.25000000000000000        0.0000000000000000     
   1.1875000000000000       0.25000000000000000        0.0000000000000000     
   1.2187500000000000       0.25000000000000000        0.0000000000000000     
   1.2500000000000000       0.25000000000000000        0.0000000000000000     
   1.2500000000000000       0.12500000000000000        0.0000000000000000     
   1.2812500000000000       0.12500000000000000        0.0000000000000000     
   1.3125000000000000       0.12500000000000000        0.0000000000000000     
   1.3437500000000000       0.12500000000000000        0.0000000000000000     
   1.3750000000000000       0.12500000000000000        0.0000000000000000     
   1.2500000000000000       0.15625000000000000        0.0000000000000000     
   1.2812500000000000       0.15625000000000000        0.0000000000000000     
   1.3125000000000000       0.15625000000000000        0.0000000000000000     
   1.3437500000000000       0.15625000000000000        0.0000000000000000     
   1.3750000000000000       0.15625000000000000        0.0000000000000000     
   1.2500000000000000       0.18750000000000000        0.0000000000000000     
   1.2812500000000000       0.18750000000000000        0.0000000000000000     
   1.3125000000000000       0.18750000000000000        0.0000000000000000     
   1.3437500000000000       0.18750000000000000        0.0000000000000000     
   1.3750000000000000       0.18750000000000000        0.0000000000000000     
   1.2500000000000000       0.21875000000000000        0.0000000000000000     
   1.2812500000000000       0.21875000000000000        0.0000000000000000     
   1.3125000000000000       0.21875000000000000        0.0000000000000000     
   1.3437500000000000       0.21875000000000000        0.0000000000000000     
   1.3750000000000000       0.21875000000000000        0.0000000000000000     
   1.2500000000000000       0.25000000000000000        0.0000000000000000     
   1.2812500000000000       0.25000000000000000        0.0000000000000000     
   1.3125000000000000       0.25000000000000000        0.0000000000000000     
   1.3437500000000000       0.25000000000000000        0.0000000000000000     
   1.3750000000000000       0.25000000000000000        0.0000000000000000     
   1.3750000000000000       0.12500000000000000        0.0000000000000000     
   1.4062500000000000       0.12500000000000000        0.0000000000000000     
   1.4375000000000000       0.12500000000000000        0.0000000000000000     
   1.4687500000000000       0.12500000000000000        0.0000000000000000     
   1.5000000000000000       0.12500000000000000        0.0000000000000000     
   1.3750000000000000       0.15625000000000000        0.0000000000000000     
   1.4062500000000000       0.15625000000000000        0.0000000000000000     
   1.4375000000000000       0.15625000000000000        0.0000000000000000     
   1.4687500000000000       0.15625000000000000        0.0000000000000000     
   1.5000000000000000       0.15625000000000000        0.0000000000000000     
   1.3750000000000000       0.18750000000000000        0.0000000000000000     
   1.4062500000000000       0.18750000000000000        0.0000000000000000     
   1.4375000000000000       0.18750000000000000        0.0000000000000000     
   1.4687500000000000       0.18750000000000000        0.0000000000000000     
   1.5000000000000000       0.18750000000000000        0.0000000000000000     
   1.3750000000000000       0.21875000000000000        0.0000000000000000     
   1.4062500000000000       0.21875000000000000        0.0000000000000000     
   1.4375000000000000       0.21875000000000000        0.0000000000000000     
   1.4687500000000000       0.21875000000000000        0.0000000000000000     
   1.5000000000000000       0.21875000000000000        0.0000000000000000     
   1.3750000000000000       0.25000000000000000        0.0000000000000000     
   1.4062500000000000       0.25000000000000000        0.0000000000000000     
   1.4375000000000000       0.25000000000000000        0.0000000000000000     
   1.4687500000000000       0.25000000000000000        0.0000000000000000     
   1.5000000000000000       0.25000000000000000        0.0000000000000000     
  0.50000000000000000       0.25000000000000000        0.0000000000000000     
  0.53125000000000000       0.25000000000000000        0.0000000000000000     
  0.56250000000000000       0.25000000000000000        0.0000000000000000     
  0.59375000000000000       0.25000000000000000        0.0000000000000000     
  0.62500000000000000       0.25000000000000000        0.0000000000000000     
  0.50000000000000000       0.28125000000000000        0.0000000000000000     
  0.53125000000000000       0.28125000000000000        0.0000000000000000     
  0.56250000000000000       0.28125000000000000        0.0000000000000000     
  0.59375000000000000       0.28125000000000000        0.0000000000000000     
  0.62500000000000000       0.28125000000000000        0.0000000000000000     
  0.50000000000000000       0.31250000000000000        0.0000000000000000     
  0.53125000000000000       0.31250000000000000        0.0000000000000000     
  0.56250000000000000       0.31250000000000000        0.0000000000000000     
  0.59375000000000000       0.31250000000000000        0.0000000000000000     
  0.62500000000000000       0.31250000000000000        0.0000000000000000     
  0.50000000000000000       0.34375000000000000        0.0000000000000000     
  0.53125000000000000       0.34375000000000000        0.0000000000000000     
  0.56250000000000000       0.34375000000000000        0.0000000000000000     
  0.59375000000000000       0.34375000000000000        0.0000000000000000     
  0.62500000000000000       0.34375000000000000        0.0000000000000000     
  0.50000000000000000       0.37500000000000000        0.0000000000000000     
  0.53125000000000000       0.37500000000000000        0.0000000000000000     
  0.56250000000000000       0.37500000000000000        0.0000000000000000     
  0.59375000000000000       0.37500000000000000        0.0000000000000000     
  0.62500000000000000       0.37500000000000000        0.0000000000000000     
  0.62500000000000000       0.25000000000000000        0.0000000000000000     
  0.65625000000000000       0.25000000000000000        0.0000000000000000     
  0.68750000000000000       0.25000000000000000        0.0000000000000000     
  0.71875000000000000       0.25000000000000000        0.0000000000000000     
  0.75000000000000000       0.25000000000000000        0.0000000000000000     
  0.62500000000000000       0.28125000000000000        0.0000000000000000     
  0.65625000000000000       0.28125000000000000        0.0000000000000000     
  0.68750000000000000       0.28125000000000000        0.0000000000000000     
  0.71875000000000000       0.28125000000000000        0.0000000000000000     
  0.75000000000000000       0.28125000000000000        0.0000000000000000     
  0.62500000000000000       0.31250000000000000        0.0000000000000000     
  0.65625000000000000       0.31250000000000000        0.0000000000000000     
  0.68750000000000000       0.31250000000000000        0.0000000000000000     
  0.71875000000000000       0.31250000000000000        0.0000000000000000     
  0.75000000000000000       0.31250000000000000        0.0000000000000000     
  0.62500000000000000       0.34375000000000000        0.0000000000000000     
  0.65625000000000000       0.34375000000000000        0.0000000000000000     
  0.68750000000000000       0.34375000000000000        0.0000000000000000     
  0.71875000000000000       0.34375000000000000        0.0000000000000000     
  0.75000000000000000       0.34375000000000000        0.0000000000000000     
  0.62500000000000000       0.37500000000000000        0.0000000000000000     
  0.65625000000000000       0.37500000000000000        0.0000000000000000     
  0.68750000000000000       0.37500000000000000        0.0000000000000000     
  0.71875000000000000       0.37500000000000000        0.0000000000000000     
  0.75000000000000000       0.37500000000000000        0.0000000000000000     
  0.75000000000000000       0.25000000000000000        0.0000000000000000     
  0.78125000000000000       0.25000000000000000        0.0000000000000000     
  0.81250000000000000       0.25000000000000000        0.0000000000000000     
  0.84375000000000000       0.25000000000000000        0.0000000000000000     
  0.87500000000000000       0.25000000000000000        0.0000000000000000     
  0.75000000000000000       0.28125000000000000        0.0000000000000000     
  0.78125000000000000       0.28125000000000000        0.0000000000000000     
  0.81250000000000000       0.28125000000000000        0.0000000000000000     
  0.84375000000000000       0.28125000000000000        0.0000000000000000     
  0.87500000000000000       0.28125000000000000        0.0000000000000000     
  0.75000000000000000       0.31250000000000000        0.0000000000000000     
  0.78125000000000000       0.31250000000000000        0.0000000000000000     
  0.81250000000000000       0.31250000000000000        0.0000000000000000     
  0.84375000000000000       0.31250000000000000        0.0000000000000000     
  0.87500000000000000       0.31250000000000000        0.0000000000000000     
  0.75000000000000000       0.34375000000000000        0.0000000000000000     
  0.78125000000000000       0.34375000000000000        0.0000000000000000     
  0.81250000000000000       0.34375000000000000        0.0000000000000000     
  0.84375000000000000       0.34375000000000000        0.0000000000000000     
  0.87500000000000000       0.34375000000000000        0.0000000000000000     
  0.75000000000000000       0.37500000000000000        0.0000000000000000     
  0.78125000000000000       0.37500000000000000        0.0000000000000000     
  0.81250000000000000       0.37500000000000000        0.0000000000000000     
  0.84375000000000000       0.37500000000000000        0.0000000000000000     
  0.87500000000000000       0.37500000000000000        0.0000000000000000     
  0.87500000000000000       0.25000000000000000        0.0000000000000000     
  0.90625000000000000       0.25000000000000000        0.0000000000000000     
  0.93750000000000000       0.25000000000000000        0.0000000000000000     
  0.96875000000000000       0.25000000000000000        0.0000000000000000     
   1.0000000000000000       0.25000000000000000        0.0000000000000000     
  0.87500000000000000       0.28125000000000000        0.0000000000000000     
  0.90625000000000000       0.28125000000000000        0.0000000000000000     
  0.93750000000000000       0.28125000000000000        0.0000000000000000     
  0.96875000000000000       0.28125000000000000        0.0000000000000000     
   1.0000000000000000       0.28125000000000000        0.0000000000000000     
  0.87500000000000000       0.31250000000000000        0.0000000000000000     
  0.90625000000000000       0.31250000000000000        0.0000000000000000     
  0.93750000000000000       0.31250000000000000        0.0000000000000000     
  0.96875000000000000       0.31250000000000000        0.0000000000000000     
   1.0000000000000000       0.31250000000000000        0.0000000000000000     
  0.87500000000000000       0.34375000000000000        0.0000000000000000     
  0.90625000000000000       0.34375000000000000        0.0000000000000000     
  0.93750000000000000       0.34375000000000000        0.0000000000000000     
  0.96875000000000000       0.34375000000000000        0.0000000000000000     
   1.0000000000000000       0.34375000000000000        0.0000000000000000     
  0.87500000000000000       0.37500000000000000        0.0000000000000000     
  0.90625000000000000       0.37500000000000000        0.0000000000000000     
  0.93750000000000000       0.37500000000000000        0.0000000000000000     
  0.96875000000000000       0.37500000000000000        0.0000000000000000     
   1.0000000000000000       0.37500000000000000        0.0000000000000000     
   1.0000000000000000       0.25000000000000000        0.0000000000000000     
   1.0312500000000000       0.25000000000000000        0.0000000000000000     
   1.0625000000000000       0.25000000000000000        0.0000000000000000     
   1.0937500000000000       0.25000000000000000        0.0000000000000000     
   1.1250000000000000       0.25000000000000000        0.0000000000000000     
   1.0000000000000000       0.28125000000000000        0.0000000000000000     
   1.0312500000000000       0.28125000000000000        0.0000000000000000     
   1.0625000000000000       0.28125000000000000        0.0000000000000000     
   1.0937500000000000       0.28125000000000000        0.0000000000000000     
   1.1250000000000000       0.28125000000000000        0.0000000000000000     
   1.0000000000000000       0.31250000000000000        0.0000000000000000     
   1.0312500000000000       0.31250000000000000        0.0000000000000000     
   1.0625000000000000       0.31250000000000000        0.0000000000000000     
   1.0937500000000000       0.31250000000000000        0.0000000000000000     
   1.1250000000000000       0.31250000000000000        0.0000000000000000     
   1.0000000000000000       0.34375000000000000        0.0000000000000000     
   1.0312500000000000       0.34375000000000000        0.0000000000000000     
   1.0625000000000000       0.34375000000000000        0.0000000000000000     
   1.0937500000000000       0.34375000000000000        0.0000000000000000     
   1.1250000000000000       0.34375000000000000        0.0000000000000000     
   1.0000000000000000       0.37500000000000000        0.0000000000000000     
   1.0312500000000000       0.37500000000000000        0.0000000000000000     
   1.0625000000000000       0.37500000000000000        0.0000000000000000     
   1.0937500000000000       0.37500000000000000        0.0000000000000000     
   1.1250000000000000       0.37500000000000000        0.0000000000000000     
   1.1250000000000000       0.25000000000000000        0.0000000000000000     
   1.1562500000000000       0.25000000000000000        0.0000000000000000     
   1.1875000000000000       0.25000000000000000        0.0000000000000000     
   1.2187500000000000       0.25000000000000000        0.0000000000000000     
   1.2500000000000000       0.25000000000000000        0.0000000000000000     
   1.1250000000000000       0.28125000000000000        0.0000000000000000     
   1.1562500000000000       0.28125000000000000        0.0000000000000000     
   1.1875000000000000       0.28125000000000000        0.0000000000000000     
   1.2187500000000000       0.28125000000000000        0.0000000000000000     
   1.2500000000000000       0.28125000000000000        0.0000000000000000     
   1.1250000000000000       0.31250000000000000        0.0000000000000000     
   1.1562500000000000       0.31250000000000000        0.0000000000000000     
   1.1875000000000000       0.31250000000000000        0.0000000000000000     
   1.2187500000000000       0.31250000000000000        0.0000000000000000     
   1.2500000000000000       0.31250000000000000        0.0000000000000000     
   1.1250000000000000       0.34375000000000000        0.0000000000000000     
   1.1562500000000000       0.34375000000000000        0.0000000000000000     
   1.1875000000000000       0.34375000000000000        0.0000000000000000     
   1.2187500000000000       0.34375000000000000        0.0000000000000000     
   1.2500000000000000       0.34375000000000000        0.0000000000000000     
   1.1250000000000000       0.37500000000000000        0.0000000000000000     
   1.1562500000000000       0.37500000000000000        0.0000000000000000     
   1.1875000000000000       0.37500000000000000        0.0000000000000000     
   1.2187500000000000       0.37500000000000000        0.0000000000000000     
   1.2500000000000000       0.37500000000000000        0.0000000000000000     
   1.2500000000000000       0.25000000000000000        0.0000000000000000     
   1.2812500000000000       0.25000000000000000        0.0000000000000000     
   1.3125000000000000       0.25000000000000000        0.0000000000000000     
   1.3437500000000000       0.25000000000000000        0.0000000000000000     
   1.3750000000000000       0.25000000000000000        0.0000000000000000     
   1.2500000000000000       0.28125000000000000        0.0000000000000000     
   1.2812500000000000       0.28125000000000000        0.0000000000000000     
   1.3125000000000000       0.28125000000000000        0.0000000000000000     
   1.3437500000000000       0.28125000000000000        0.0000000000000000     
   1.3750000000000000       0.28125000000000000        0.0000000000000000     
   1.2500000000000000       0.31250000000000000        0.0000000000000000     
   1.2812500000000000       0.31250000000000000        0.0000000000000000     
   1.3125000000000000       0.31250000000000000        0.0000000000000000     
   1.3437500000000000       0.31250000000000000        0.0000000000000000     
   1.3750000000000000       0.31250000000000000        0.0000000000000000     
   1.2500000000000000       0.34375000000000000        0.0000000000000000     
   1.2812500000000000       0.34375000000000000        0.0000000000000000     
   1.3125000000000000       0.34375000000000000        0.0000000000000000     
   1.3437500000000000       0.34375000000000000        0.0000000000000000     
   1.3750000000000000       0.34375000000000000        0.0000000000000000     
   1.2500000000000000       0.37500000000000000        0.0000000000000000     
   1.2812500000000000       0.37500000000000000        0.0000000000000000     
   1.3125000000000000       0.37500000000000000        0.0000000000000000     
   1.3437500000000000       0.37500000000000000        0.0000000000000000     
   1.3750000000000000       0.37500000000000000        0.0000000000000000     
   1.3750000000000000       0.25000000000000000        0.0000000000000000     
   1.4062500000000000       0.25000000000000000        0.0000000000000000     
   1.4375000000000000       0.25000000000000000        0.0000000000000000     
   1.4687500000000000       0.25000000000000000        0.0000000000000000     
   1.5000000000000000       0.25000000000000000        0.0000000000000000     
   1.3750000000000000       0.28125000000000000        0.0000000000000000     
   1.4062500000000000       0.28125000000000000        0.0000000000000000     
   1.4375000000000000       0.28125000000000000        0.0000000000000000     
   1.4687500000000000       0.28125000000000000        0.0000000000000000     
   1.5000000000000000       0.28125000000000000        0.0000000000000000     
   1.3750000000000000       0.31250000000000000        0.0000000000000000     
   1.4062500000000000       0.31250000000000000        0.0000000000000000     
   1.4375000000000000       0.31250000000000000        0.0000000000000000     
   1.4687500000000000       0.31250000000000000        0.0000000000000000     
   1.5000000000000000       0.31250000000000000        0.0000000000000000     
   1.3750000000000000       0.34375000000000000        0.0000000000000000     
   1.4062500000000000       0.34375000000000000        0.0000000000000000     
   1.4375000000000000       0.34375000000000000        0.0000000000000000     
   1.4687500000000000       0.34375000000000000        0.0000000000000000     
   1.5000000000000000       0.34375000000000000        0.0000000000000000     
   1.3750000000000000       0.37500000000000000        0.0000000000000000     
   1.4062500000000000       0.37500000000000000        0.0000000000000000     
   1.4375000000000000       0.37500000000000000        0.0000000000000000     
   1.4687500000000000       0.37500000000000000        0.0000000000000000     
   1.5000000000000000       0.37500000000000000        0.0000000000000000     
  0.50000000000000000       0.37500000000000000        0.0000000000000000     
  0.53125000000000000       0.37500000000000000        0.0000000000000000     
  0.56250000000000000       0.37500000000000000        0.0000000000000000     
  0.59375000000000000       0.37500000000000000        0.0000000000000000     
  0.62500000000000000       0.37500000000000000        0.0000000000000000     
  0.50000000000000000       0.40625000000000000        0.0000000000000000     
  0.53125000000000000       0.40625000000000000        0.0000000000000000     
  0.56250000000000000       0.40625000000000000        0.0000000000000000     
  0.59375000000000000       0.40625000000000000        0.0000000000000000     
  0.62500000000000000       0.40625000000000000        0.0000000000000000     
  0.50000000000000000       0.43750000000000000        0.0000000000000000     
  0.53125000000000000       0.43750000000000000        0.0000000000000000     
  0.56250000000000000       0.43750000000000000        0.0000000000000000     
  0.59375000000000000       0.43750000000000000        0.0000000000000000     
  0.62500000000000000       0.43750000000000000        0.0000000000000000     
  0.50000000000000000       0.46875000000000000        0.0000000000000000     
  0.53125000000000000       0.46875000000000000        0.0000000000000000     
  0.56250000000000000       0.46875000000000000        0.0000000000000000     
  0.59375000000000000       0.46875000000000000        0.0000000000000000     
  0.62500000000000000       0.46875000000000000        0.0000000000000000     
  0.50000000000000000       0.50000000000000000        0.0000000000000000     
  0.53125000000000000       0.50000000000000000        0.0000000000000000     
  0.56250000000000000       0.50000000000000000        0.0000000000000000     
  0.59375000000000000       0.50000000000000000        0.0000000000000000     
  0.62500000000000000       0.50000000000000000        0.0000000000000000     
  0.62500000000000000       0.37500000000000000        0.0000000000000000     
  0.65625000000000000       0.37500000000000000        0.0000000000000000     
  0.68750000000000000       0.37500000000000000        0.0000000000000000     
  0.71875000000000000       0.37500000000000000        0.0000000000000000     
  0.75000000000000000       0.37500000000000000        0.0000000000000000     
  0.62500000000000000       0.40625000000000000        0.0000000000000000     
  0.65625000000000000       0.40625000000000000        0.0000000000000000     
  0.68750000000000000       0.40625000000000000        0.0000000000000000     
  0.71875000000000000       0.40625000000000000        0.0000000000000000     
  0.75000000000000000       0.40625000000000000        0.0000000000000000     
  0.62500000000000000       0.43750000000000000        0.0000000000000000     
  0.65625000000000000       0.43750000000000000        0.0000000000000000     
  0.68750000000000000       0.43750000000000000        0.0000000000000000     
  0.71875000000000000       0.43750000000000000        0.0000000000000000     
  0.75000000000000000       0.43750000000000000        0.0000000000000000     
  0.62500000000000000       0.46875000000000000        0.0000000000000000     
  0.65625000000000000       0.46875000000000000        0.0000000000000000     
  0.68750000000000000       0.46875000000000000        0.0000000000000000     
  0.71875000000000000       0.46875000000000000        0.0000000000000000     
  0.75000000000000000       0.46875000000000000        0.0000000000000000     
  0.62500000000000000       0.50000000000000000        0.0000000000000000     
  0.65625000000000000       0.50000000000000000        0.0000000000000000     
  0.68750000000000000       0.50000000000000000        0.0000000000000000     
  0.71875000000000000       0.50000000000000000        0.0000000000000000     
  0.75000000000000000       0.50000000000000000        0.0000000000000000     
  0.75000000000000000       0.37500000000000000        0.0000000000000000     
  0.78125000000000000       0.37500000000000000        0.0000000000000000     
  0.81250000000000000       0.37500000000000000        0.0000000000000000     
  0.84375000000000000       0.37500000000000000        0.0000000000000000     
  0.87500000000000000       0.37500000000000000        0.0000000000000000     
  0.75000000000000000       0.40625000000000000        0.0000000000000000     
  0.78125000000000000       0.40625000000000000        0.0000000000000000     
  0.81250000000000000       0.40625000000000000        0.0000000000000000     
  0.84375000000000000       0.40625000000000000        0.0000000000000000     
  0.87500000000000000       0.40625000000000000        0.0000000000000000     
  0.75000000000000000       0.43750000000000000        0.0000000000000000     
  0.78125000000000000       0.43750000000000000        0.0000000000000000     
  0.81250000000000000       0.43750000000000000        0.0000000000000000     
  0.84375000000000000       0.43750000000000000        0.0000000000000000     
  0.87500000000000000       0.43750000000000000        0.0000000000000000     
  0.75000000000000000       0.46875000000000000        0.0000000000000000     
  0.78125000000000000       0.46875000000000000        0.0000000000000000     
  0.81250000000000000       0.46875000000000000        0.0000000000000000     
  0.84375000000000000       0.46875000000000000        0.0000000000000000     
  0.87500000000000000       0.46875000000000000        0.0000000000000000     
  0.75000000000000000       0.50000000000000000        0.0000000000000000     
  0.78125000000000000       0.50000000000000000        0.0000000000000000     
  0.81250000000000000       0.50000000000000000        0.0000000000000000     
  0.84375000000000000       0.50000000000000000        0.0000000000000000     
  0.87500000000000000       0.50000000000000000        0.0000000000000000     
  0.87500000000000000       0.37500000000000000        0.0000000000000000     
  0.90625000000000000       0.37500000000000000        0.0000000000000000     
  0.93750000000000000       0.37500000000000000        0.0000000000000000     
  0.96875000000000000       0.37500000000000000        0.0000000000000000     
   1.0000000000000000       0.37500000000000000        0.0000000000000000     
  0.87500000000000000       0.40625000000000000        0.0000000000000000     
  0.90625000000000000       0.40625000000000000        0.0000000000000000     
  0.93750000000000000       0.40625000000000000        0.0000000000000000     
  0.96875000000000000       0.40625000000000000        0.0000000000000000     
   1.0000000000000000       0.40625000000000000        0.0000000000000000     
  0.87500000000000000       0.43750000000000000        0.0000000000000000     
  0.90625000000000000       0.43750000000000000        0.0000000000000000     
  0.93750000000000000       0.43750000000000000        0.0000000000000000     
  0.96875000000000000       0.43750000000000000        0.0000000000000000     
   1.0000000000000000       0.43750000000000000        0.0000000000000000     
  0.87500000000000000       0.46875000000000000        0.0000000000000000     
  0.90625000000000000       0.46875000000000000        0.0000000000000000     
  0.93750000000000000       0.46875000000000000        0.0000000000000000     
  0.96875000000000000       0.46875000000000000        0.0000000000000000     
   1.0000000000000000       0.46875000000000000        0.0000000000000000     
  0.87500000000000000       0.50000000000000000        0.0000000000000000     
  0.90625000000000000       0.50000000000000000        0.0000000000000000     
  0.93750000000000000       0.50000000000000000        0.0000000000000000     
  0.96875000000000000       0.50000000000000000        0.0000000000000000     
   1.0000000000000000       0.50000000000000000        0.0000000000000000     
   1.0000000000000000       0.37500000000000000        0.0000000000000000     
   1.0312500000000000       0.37500000000000000        0.0000000000000000     
   1.0625000000000000       0.37500000000000000        0.0000000000000000     
   1.0937500000000000       0.37500000000000000        0.0000000000000000     
   1.1250000000000000       0.37500000000000000        0.0000000000000000     
   1.0000000000000000       0.40625000000000000        0.0000000000000000     
   1.0312500000000000       0.40625000000000000        0.0000000000000000     
   1.0625000000000000       0.40625000000000000        0.0000000000000000     
   1.0937500000000000       0.40625000000000000        0.0000000000000000     
   1.1250000000000000       0.40625000000000000        0.0000000000000000     
   1.0000000000000000       0.43750000000000000        0.0000000000000000     
   1.0312500000000000       0.43750000000000000        0.0000000000000000     
   1.0625000000000000       0.43750000000000000        0.0000000000000000     
   1.0937500000000000       0.43750000000000000        0.0000000000000000     
   1.1250000000000000       0.43750000000000000        0.0000000000000000     
   1.0000000000000000       0.46875000000000000        0.0000000000000000     
   1.0312500000000000       0.46875000000000000        0.0000000000000000     
   1.0625000000000000       0.46875000000000000        0.0000000000000000     
   1.0937500000000000       0.46875000000000000        0.0000000000000000     
   1.1250000000000000       0.46875000000000000        0.0000000000000000     
   1.0000000000000000       0.50000000000000000        0.0000000000000000     
   1.0312500000000000       0.50000000000000000        0.0000000000000000     
   1.0625000000000000       0.50000000000000000        0.0000000000000000     
   1.0937500000000000       0.50000000000000000        0.0000000000000000     
   1.1250000000000000       0.50000000000000000        0.0000000000000000     
   1.1250000000000000       0.37500000000000000        0.0000000000000000     
   1.1562500000000000       0.37500000000000000        0.0000000000000000     
   1.1875000000000000       0.37500000000000000        0.0000000000000000     
   1.2187500000000000       0.37500000000000000        0.0000000000000000     
   1.2500000000000000       0.37500000000000000        0.0000000000000000     
   1.1250000000000000       0.40625000000000000        0.0000000000000000     
   1.1562500000000000       0.40625000000000000        0.0000000000000000     
   1.1875000000000000       0.40625000000000000        0.0000000000000000     
   1.2187500000000000       0.40625000000000000        0.0000000000000000     
   1.2500000000000000       0.40625000000000000        0.0000000000000000     
   1.1250000000000000       0.43750000000000000        0.0000000000000000     
   1.1562500000000000       0.43750000000000000        0.0000000000000000     
   1.1875000000000000       0.43750000000000000        0.0000000000000000     
   1.2187500000000000       0.43750000000000000        0.0000000000000000     
   1.2500000000000000       0.43750000000000000        0.0000000000000000     
   1.1250000000000000       0.46875000000000000        0.0000000000000000     
   1.1562500000000000       0.46875000000000000        0.0000000000000000     
   1.1875000000000000       0.46875000000000000        0.0000000000000000     
   1.2187500000000000       0.46875000000000000        0.0000000000000000     
   1.2500000000000000       0.46875000000000000        0.0000000000000000     
   1.1250000000000000       0.50000000000000000        0.0000000000000000     
   1.1562500000000000       0.50000000000000000        0.0000000000000000     
   1.1875000000000000       0.50000000000000000        0.0000000000000000     
   1.2187500000000000       0.50000000000000000        0.0000000000000000     
   1.2500000000000000       0.50000000000000000        0.0000000000000000     
   1.2500000000000000       0.37500000000000000        0.0000000000000000     
   1.2812500000000000       0.37500000000000000        0.0000000000000000     
   1.3125000000000000       0.37500000000000000        0.0000000000000000     
   1.3437500000000000       0.37500000000000000        0.0000000000000000     
   1.3750000000000000       0.37500000000000000        0.0000000000000000     
   1.2500000000000000       0.40625000000000000        0.0000000000000000     
   1.2812500000000000       0.40625000000000000        0.0000000000000000     
   1.3125000000000000       0.40625000000000000        0.0000000000000000     
   1.3437500000000000       0.40625000000000000        0.0000000000000000     
   1.3750000000000000       0.40625000000000000        0.0000000000000000     
   1.2500000000000000       0.43750000000000000        0.0000000000000000     
   1.2812500000000000       0.43750000000000000        0.0000000000000000     
   1.3125000000000000       0.43750000000000000        0.0000000000000000     
   1.3437500000000000       0.43750000000000000        0.0000000000000000     
   1.3750000000000000       0.43750000000000000        0.0000000000000000     
   1.2500000000000000       0.46875000000000000        0.0000000000000000     
   1.2812500000000000       0.46875000000000000        0.0000000000000000     
   1.3125000000000000       0.46875000000000000        0.0000000000000000     
   1.3437500000000000       0.46875000000000000        0.0000000000000000     
   1.3750000000000000       0.46875000000000000        0.0000000000000000     
   1.2500000000000000       0.50000000000000000        0.0000000000000000     
   1.2812500000000000       0.50000000000000000        0.0000000000000000     
   1.3125000000000000       0.50000000000000000        0.0000000000000000     
   1.3437500000000000       0.50000000000000000        0.0000000000000000     
   1.3750000000000000       0.50000000000000000        0.0000000000000000     
   1.3750000000000000       0.37500000000000000        0.0000000000000000     
   1.4062500000000000       0.37500000000000000        0.0000000000000000     
   1.4375000000000000       0.37500000000000000        0.0000000000000000     
   1.4687500000000000       0.37500000000000000        0.0000000000000000     
   1.5000000000000000       0.37500000000000000        0.0000000000000000     
   1.3750000000000000       0.40625000000000000        0.0000000000000000     
   1.4062500000000000       0.40625000000000000        0.0000000000000000     
   1.4375000000000000       0.40625000000000000        0.0000000000000000     
   1.4687500000000000       0.40625000000000000        0.0000000000000000     
   1.5000000000000000       0.40625000000000000        0.0000000000000000     
   1.3750000000000000       0.43750000000000000        0.0000000000000000     
   1.4062500000000000       0.43750000000000000        0.0000000000000000     
   1.4375000000000000       0.43750000000000000        0.0000000000000000     
   1.4687500000000000       0.43750000000000000        0.0000000000000000     
   1.5000000000000000       0.43750000000000000        0.0000000000000000     
   1.3750000000000000       0.46875000000000000        0.0000000000000000     
   1.4062500000000000       0.46875000000000000        0.0000000000000000     
   1.4375000000000000       0.46875000000000000        0.0000000000000000     
   1.4687500000000000       0.46875000000000000        0.0000000000000000     
   1.5000000000000000       0.46875000000000000        0.0000000000000000     
   1.3750000000000000       0.50000000000000000        0.0000000000000000     
   1.4062500000000000       0.50000000000000000        0.0000000000000000     
   1.4375000000000000       0.50000000000000000        0.0000000000000000     
   1.4687500000000000       0.50000000000000000        0.0000000000000000     
   1.5000000000000000       0.50000000000000000        0.0000000000000000     
  0.50000000000000000       0.50000000000000000        0.0000000000000000     
  0.53125000000000000       0.50000000000000000        0.0000000000000000     
  0.56250000000000000       0.50000000000000000        0.0000000000000000     
  0.59375000000000000       0.50000000000000000        0.0000000000000000     
  0.62500000000000000       0.50000000000000000        0.0000000000000000     
  0.50000000000000000       0.53125000000000000        0.0000000000000000     
  0.53125000000000000       0.53125000000000000        0.0000000000000000     
  0.56250000000000000       0.53125000000000000        0.0000000000000000     
  0.59375000000000000       0.53125000000000000        0.0000000000000000     
  0.62500000000000000       0.53125000000000000        0.0000000000000000     
  0.50000000000000000       0.56250000000000000        0.0000000000000000     
  0.53125000000000000       0.56250000000000000        0.0000000000000000     
  0.56250000000000000       0.56250000000000000        0.0000000000000000     
  0.59375000000000000       0.56250000000000000        0.0000000000000000     
  0.62500000000000000       0.56250000000000000        0.0000000000000000     
  0.50000000000000000       0.59375000000000000        0.0000000000000000     
  0.53125000000000000       0.59375000000000000        0.0000000000000000     
  0.56250000000000000       0.59375000000000000        0.0000000000000000     
  0.59375000000000000       0.59375000000000000        0.0000000000000000     
  0.62500000000000000       0.59375000000000000        0.0000000000000000     
  0.50000000000000000       0.62500000000000000        0.0000000000000000     
  0.53125000000000000       0.62500000000000000        0.0000000000000000     
  0.56250000000000000       0.62500000000000000        0.0000000000000000     
  0.59375000000000000       0.62500000000000000        0.0000000000000000     
  0.62500000000000000       0.62500000000000000        0.0000000000000000     
  0.62500000000000000       0.50000000000000000        0.0000000000000000     
  0.65625000000000000       0.50000000000000000        0.0000000000000000     
  0.68750000000000000       0.50000000000000000        0.0000000000000000     
  0.71875000000000000       0.50000000000000000        0.0000000000000000     
  0.75000000000000000       0.50000000000000000        0.0000000000000000     
  0.62500000000000000       0.53125000000000000        0.0000000000000000     
  0.65625000000000000       0.53125000000000000        0.0000000000000000     
  0.68750000000000000       0.53125000000000000        0.0000000000000000     
  0.71875000000000000       0.53125000000000000        0.0000000000000000     
  0.75000000000000000       0.53125000000000000        0.0000000000000000     
  0.62500000000000000       0.56250000000000000        0.0000000000000000     
  0.65625000000000000       0.56250000000000000        0.0000000000000000     
  0.68750000000000000       0.56250000000000000        0.0000000000000000     
  0.71875000000000000       0.56250000000000000        0.0000000000000000     
  0.75000000000000000       0.56250000000000000        0.0000000000000000     
  0.62500000000000000       0.59375000000000000        0.0000000000000000     
  0.65625000000000000       0.59375000000000000        0.0000000000000000     
  0.68750000000000000       0.59375000000000000        0.0000000000000000     
  0.71875000000000000       0.59375000000000000        0.0000000000000000     
  0.75000000000000000       0.59375000000000000        0.0000000000000000     
  0.62500000000000000       0.62500000000000000        0.0000000000000000     
  0.65625000000000000       0.62500000000000000        0.0000000000000000     
  0.68750000000000000       0.62500000000000000        0.0000000000000000     
  0.71875000000000000       0.62500000000000000        0.0000000000000000     
  0.75000000000000000       0.62500000000000000        0.0000000000000000     
  0.75000000000000000       0.50000000000000000        0.0000000000000000     
  0.78125000000000000       0.50000000000000000        0.0000000000000000     
  0.81250000000000000       0.50000000000000000        0.0000000000000000     
  0.84375000000000000       0.50000000000000000        0.0000000000000000     
  0.87500000000000000       0.50000000000000000        0.0000000000000000     
  0.75000000000000000       0.53125000000000000        0.0000000000000000     
  0.78125000000000000       0.53125000000000000        0.0000000000000000     
  0.81250000000000000       0.53125000000000000        0.0000000000000000     
  0.84375000000000000       0.53125000000000000        0.0000000000000000     
  0.87500000000000000       0.53125000000000000        0.0000000000000000     
  0.75000000000000000       0.56250000000000000        0.0000000000000000     
  0.78125000000000000       0.56250000000000000        0.0000000000000000     
  0.81250000000000000       0.56250000000000000        0.0000000000000000     
  0.84375000000000000       0.56250000000000000        0.0000000000000000     
  0.87500000000000000       0.56250000000000000        0.0000000000000000     
  0.75000000000000000       0.59375000000000000        0.0000000000000000     
  0.78125000000000000       0.59375000000000000        0.0000000000000000     
  0.81250000000000000       0.59375000000000000        0.0000000000000000     
  0.84375000000000000       0.59375000000000000        0.0000000000000000     
  0.87500000000000000       0.59375000000000000        0.0000000000000000     
  0.75000000000000000       0.62500000000000000        0.0000000000000000     
  0.78125000000000000       0.62500000000000000        0.0000000000000000     
  0.81250000000000000       0.62500000000000000        0.0000000000000000     
  0.84375000000000000       0.62500000000000000        0.0000000000000000     
  0.87500000000000000       0.62500000000000000        0.0000000000000000     
  0.87500000000000000       0.50000000000000000        0.0000000000000000     
  0.90625000000000000       0.50000000000000000        0.0000000000000000     
  0.93750000000000000       0.50000000000000000        0.0000000000000000     
  0.96875000000000000       0.50000000000000000        0.0000000000000000     
   1.0000000000000000       0.50000000000000000        0.0000000000000000     
  0.87500000000000000       0.53125000000000000        0.0000000000000000     
  0.90625000000000000       0.53125000000000000        0.0000000000000000     
  0.93750000000000000       0.53125000000000000        0.0000000000000000     
  0.96875000000000000       0.53125000000000000        0.0000000000000000     
   1.0000000000000000       0.53125000000000000        0.0000000000000000     
  0.87500000000000000       0.56250000000000000        0.0000000000000000     
  0.90625000000000000       0.56250000000000000        0.0000000000000000     
  0.93750000000000000       0.56250000000000000        0.0000000000000000     
  0.96875000000000000       0.56250000000000000        0.0000000000000000     
   1.0000000000000000       0.56250000000000000        0.0000000000000000     
  0.87500000000000000       0.59375000000000000        0.0000000000000000     
  0.90625000000000000       0.59375000000000000        0.0000000000000000     
  0.93750000000000000       0.59375000000000000        0.0000000000000000     
  0.96875000000000000       0.59375000000000000        0.0000000000000000     
   1.0000000000000000       0.59375000000000000        0.0000000000000000     
  0.87500000000000000       0.62500000000000000        0.0000000000000000     
  0.90625000000000000       0.62500000000000000        0.0000000000000000     
  0.93750000000000000       0.62500000000000000        0.0000000000000000     
  0.96875000000000000       0.62500000000000000        0.0000000000000000     
   1.0000000000000000       0.62500000000000000        0.0000000000000000     
   1.0000000000000000       0.50000000000000000        0.0000000000000000     
   1.0312500000000000       0.50000000000000000        0.0000000000000000     
   1.0625000000000000       0.50000000000000000        0.0000000000000000     
   1.0937500000000000       0.50000000000000000        0.0000000000000000     
   1.1250000000000000       0.50000000000000000        0.0000000000000000     
   1.0000000000000000       0.53125000000000000        0.0000000000000000     
   1.0312500000000000       0.53125000000000000        0.0000000000000000     
   1.0625000000000000       0.53125000000000000        0.0000000000000000     
   1.0937500000000000       0.53125000000000000        0.0000000000000000     
   1.1250000000000000       0.53125000000000000        0.0000000000000000     
   1.0000000000000000       0.56250000000000000        0.0000000000000000     
   1.0312500000000000       0.56250000000000000        0.0000000000000000     
   1.0625000000000000       0.56250000000000000        0.0000000000000000     
   1.0937500000000000       0.56250000000000000        0.0000000000000000     
   1.1250000000000000       0.56250000000000000        0.0000000000000000     
   1.0000000000000000       0.59375000000000000        0.0000000000000000     
   1.0312500000000000       0.59375000000000000        0.0000000000000000     
   1.0625000000000000       0.59375000000000000        0.0000000000000000     
   1.0937500000000000       0.59375000000000000        0.0000000000000000     
   1.1250000000000000       0.59375000000000000        0.0000000000000000     
   1.0000000000000000       0.62500000000000000        0.0000000000000000     
   1.0312500000000000       0.62500000000000000        0.0000000000000000     
   1.0625000000000000       0.62500000000000000        0.0000000000000000     
   1.0937500000000000       0.62500000000000000        0.0000000000000000     
   1.1250000000000000       0.62500000000000000        0.0000000000000000     
   1.1250000000000000       0.50000000000000000        0.0000000000000000     
   1.1562500000000000       0.50000000000000000        0.0000000000000000     
   1.1875000000000000       0.50000000000000000        0.0000000000000000     
   1.2187500000000000       0.50000000000000000        0.0000000000000000     
   1.2500000000000000       0.50000000000000000        0.0000000000000000     
   1.1250000000000000       0.53125000000000000        0.0000000000000000     
   1.1562500000000000       0.53125000000000000        0.0000000000000000     
   1.1875000000000000       0.53125000000000000        0.0000000000000000     
   1.2187500000000000       0.53125000000000000        0.0000000000000000     
   1.2500000000000000       0.53125000000000000        0.0000000000000000     
   1.1250000000000000       0.56250000000000000        0.0000000000000000     
   1.1562500000000000       0.56250000000000000        0.0000000000000000     
   1.1875000000000000       0.56250000000000000        0.0000000000000000     
   1.2187500000000000       0.56250000000000000        0.0000000000000000     
   1.2500000000000000       0.56250000000000000        0.0000000000000000     
   1.1250000000000000       0.59375000000000000        0.0000000000000000     
   1.1562500000000000       0.59375000000000000        0.0000000000000000     
   1.1875000000000000       0.59375000000000000        0.0000000000000000     
   1.2187500000000000       0.59375000000000000        0.0000000000000000     
   1.2500000000000000       0.59375000000000000        0.0000000000000000     
   1.1250000000000000       0.62500000000000000        0.0000000000000000     
   1.1562500000000000       0.62500000000000000        0.0000000000000000     
   1.1875000000000000       0.62500000000000000        0.0000000000000000     
   1.2187500000000000       0.62500000000000000        0.0000000000000000     
   1.2500000000000000       0.62500000000000000        0.0000000000000000     
   1.2500000000000000       0.50000000000000000        0.0000000000000000     
   1.2812500000000000       0.50000000000000000        0.0000000000000000     
   1.3125000000000000       0.50000000000000000        0.0000000000000000     
   1.3437500000000000       0.50000000000000000        0.0000000000000000     
   1.3750000000000000       0.50000000000000000        0.0000000000000000     
   1.2500000000000000       0.53125000000000000        0.0000000000000000     
   1.2812500000000000       0.53125000000000000        0.0000000000000000     
   1.3125000000000000       0.53125000000000000        0.0000000000000000     
   1.3437500000000000       0.53125000000000000        0.0000000000000000     
   1.3750000000000000       0.53125000000000000        0.0000000000000000     
   1.2500000000000000       0.56250000000000000        0.0000000000000000     
   1.2812500000000000       0.56250000000000000        0.0000000000000000     
   1.3125000000000000       0.56250000000000000        0.0000000000000000     
   1.3437500000000000       0.56250000000000000        0.0000000000000000     
   1.3750000000000000       0.56250000000000000        0.0000000000000000     
   1.2500000000000000       0.59375000000000000        0.0000000000000000     
   1.2812500000000000       0.59375000000000000        0.0000000000000000     
   1.3125000000000000       0.59375000000000000        0.0000000000000000     
   1.3437500000000000       0.59375000000000000        0.0000000000000000     
   1.3750000000000000       0.59375000000000000        0.0000000000000000     
   1.2500000000000000       0.62500000000000000        0.0000000000000000     
   1.2812500000000000       0.62500000000000000        0.0000000000000000     
   1.3125000000000000       0.62500000000000000        0.0000000000000000     
   1.3437500000000000       0.62500000000000000        0.0000000000000000     
   1.3750000000000000       0.62500000000000000        0.0000000000000000     
   1.3750000000000000       0.50000000000000000        0.0000000000000000     
   1.4062500000000000       0.50000000000000000        0.0000000000000000     
   1.4375000000000000       0.50000000000000000        0.0000000000000000     
   1.4687500000000000       0.50000000000000000        0.0000000000000000     
   1.5000000000000000       0.50000000000000000        0.0000000000000000     
   1.3750000000000000       0.53125000000000000        0.0000000000000000     
   1.4062500000000000       0.53125000000000000        0.0000000000000000     
   1.4375000000000000       0.53125000000000000        0.0000000000000000     
   1.4687500000000000       0.53125000000000000        0.0000000000000000     
   1.5000000000000000       0.53125000000000000        0.0000000000000000     
   1.3750000000000000       0.56250000000000000        0.0000000000000000     
   1.4062500000000000       0.56250000000000000        0.0000000000000000     
   1.4375000000000000       0.56250000000000000        0.0000000000000000     
   1.4687500000000000       0.56250000000000000        0.0000000000000000     
   1.5000000000000000       0.56250000000000000        0.0000000000000000     
   1.3750000000000000       0.59375000000000000        0.0000000000000000     
   1.4062500000000000       0.59375000000000000        0.0000000000000000     
   1.4375000000000000       0.59375000000000000        0.0000000000000000     
   1.4687500000000000       0.59375000000000000        0.0000000000000000     
   1.5000000000000000       0.59375000000000000        0.0000000000000000     
   1.3750000000000000       0.62500000000000000        0.0000000000000000     
   1.4062500000000000       0.62500000000000000        0.0000000000000000     
   1.4375000000000000       0.62500000000000000        0.0000000000000000     
   1.4687500000000000       0.62500000000000000        0.0000000000000000     
   1.5000000000000000       0.62500000000000000        0.0000000000000000     
  0.50000000000000000       0.62500000000000000        0.0000000000000000     
  0.53125000000000000       0.62500000000000000        0.0000000000000000     
  0.56250000000000000       0.62500000000000000        0.0000000000000000     
  0.59375000000000000       0.62500000000000000        0.0000000000000000     
  0.62500000000000000       0.62500000000000000        0.0000000000000000     
  0.50000000000000000       0.65625000000000000        0.0000000000000000     
  0.53125000000000000       0.65625000000000000        0.0000000000000000     
  0.56250000000000000       0.65625000000000000        0.0000000000000000     
  0.59375000000000000       0.65625000000000000        0.0000000000000000     
  0.62500000000000000       0.65625000000000000        0.0000000000000000     
  0.50000000000000000       0.68750000000000000        0.0000000000000000     
  0.53125000000000000       0.68750000000000000        0.0000000000000000     
  0.56250000000000000       0.68750000000000000        0.0000000000000000     
  0.59375000000000000       0.68750000000000000        0.0000000000000000     
  0.62500000000000000       0.68750000000000000        0.0000000000000000     
  0.50000000000000000       0.71875000000000000        0.0000000000000000     
  0.53125000000000000       0.71875000000000000        0.0000000000000000     
  0.56250000000000000       0.71875000000000000        0.0000000000000000     
  0.59375000000000000       0.71875000000000000        0.0000000000000000     
  0.62500000000000000       0.71875000000000000        0.0000000000000000     
  0.50000000000000000       0.75000000000000000        0.0000000000000000     
  0.53125000000000000       0.75000000000000000        0.0000000000000000     
  0.56250000000000000       0.75000000000000000        0.0000000000000000     
  0.59375000000000000       0.75000000000000000        0.0000000000000000     
  0.62500000000000000       0.75000000000000000        0.0000000000000000     
  0.62500000000000000       0.62500000000000000        0.0000000000000000     
  0.65625000000000000       0.62500000000000000        0.0000000000000000     
  0.68750000000000000       0.62500000000000000        0.0000000000000000     
  0.71875000000000000       0.62500000000000000        0.0000000000000000     
  0.75000000000000000       0.62500000000000000        0.0000000000000000     
  0.62500000000000000       0.65625000000000000        0.0000000000000000     
  0.65625000000000000       0.65625000000000000        0.0000000000000000     
  0.68750000000000000       0.65625000000000000        0.0000000000000000     
  0.71875000000000000       0.65625000000000000        0.0000000000000000     
  0.75000000000000000       0.65625000000000000        0.0000000000000000     
  0.62500000000000000       0.68750000000000000        0.0000000000000000     
  0.65625000000000000       0.68750000000000000        0.0000000000000000     
  0.68750000000000000       0.68750000000000000        0.0000000000000000     
  0.71875000000000000       0.68750000000000000        0.0000000000000000     
  0.75000000000000000       0.68750000000000000        0.0000000000000000     
  0.62500000000000000       0.71875000000000000        0.0000000000000000     
  0.65625000000000000       0.71875000000000000        0.0000000000000000     
  0.68750000000000000       0.71875000000000000        0.0000000000000000     
  0.71875000000000000       0.71875000000000000        0.0000000000000000     
  0.75000000000000000       0.71875000000000000        0.0000000000000000     
  0.62500000000000000       0.75000000000000000        0.0000000000000000     
  0.65625000000000000       0.75000000000000000        0.0000000000000000     
  0.68750000000000000       0.75000000000000000        0.0000000000000000     
  0.71875000000000000       0.75000000000000000        0.0000000000000000     
  0.75000000000000000       0.75000000000000000        0.0000000000000000     
  0.75000000000000000       0.62500000000000000        0.0000000000000000     
  0.78125000000000000       0.62500000000000000        0.0000000000000000     
  0.81250000000000000       0.62500000000000000        0.0000000000000000     
  0.84375000000000000       0.62500000000000000        0.0000000000000000     
  0.87500000000000000       0.62500000000000000        0.0000000000000000     
  0.75000000000000000       0.65625000000000000        0.0000000000000000     
  0.78125000000000000       0.65625000000000000        0.0000000000000000     
  0.81250000000000000       0.65625000000000000        0.0000000000000000     
  0.84375000000000000       0.65625000000000000        0.0000000000000000     
  0.87500000000000000       0.65625000000000000        0.0000000000000000     
  0.75000000000000000       0.68750000000000000        0.0000000000000000     
  0.78125000000000000       0.68750000000000000        0.0000000000000000     
  0.81250000000000000       0.68750000000000000        0.0000000000000000     
  0.84375000000000000       0.68750000000000000        0.0000000000000000     
  0.87500000000000000       0.68750000000000000        0.0000000000000000     
  0.75000000000000000       0.71875000000000000        0.0000000000000000     
  0.78125000000000000       0.71875000000000000        0.0000000000000000     
  0.81250000000000000       0.71875000000000000        0.0000000000000000     
  0.84375000000000000       0.71875000000000000        0.0000000000000000     
  0.87500000000000000       0.71875000000000000        0.0000000000000000     
  0.75000000000000000       0.75000000000000000        0.0000000000000000     
  0.78125000000000000       0.75000000000000000        0.0000000000000000     
  0.81250000000000000       0.75000000000000000        0.0000000000000000     
  0.84375000000000000       0.75000000000000000        0.0000000000000000     
  0.87500000000000000       0.75000000000000000        0.0000000000000000     
  0.87500000000000000       0.62500000000000000        0.0000000000000000     
  0.90625000000000000       0.62500000000000000        0.0000000000000000     
  0.93750000000000000       0.62500000000000000        0.0000000000000000     
  0.96875000000000000       0.62500000000000000        0.0000000000000000     
   1.0000000000000000       0.62500000000000000        0.0000000000000000     
  0.87500000000000000       0.65625000000000000        0.0000000000000000     
  0.90625000000000000       0.65625000000000000        0.0000000000000000     
  0.93750000000000000       0.65625000000000000        0.0000000000000000     
  0.96875000000000000       0.65625000000000000        0.0000000000000000     
   1.0000000000000000       0.65625000000000000        0.0000000000000000     
  0.87500000000000000       0.68750000000000000        0.0000000000000000     
  0.90625000000000000       0.68750000000000000        0.0000000000000000     
  0.93750000000000000       0.68750000000000000        0.0000000000000000     
  0.96875000000000000       0.68750000000000000        0.0000000000000000     
   1.0000000000000000       0.68750000000000000        0.0000000000000000     
  0.87500000000000000       0.71875000000000000        0.0000000000000000     
  0.90625000000000000       0.71875000000000000        0.0000000000000000     
  0.93750000000000000       0.71875000000000000        0.0000000000000000     
  0.96875000000000000       0.71875000000000000        0.0000000000000000     
   1.0000000000000000       0.71875000000000000        0.0000000000000000     
  0.87500000000000000       0.75000000000000000        0.0000000000000000     
  0.90625000000000000       0.75000000000000000        0.0000000000000000     
  0.93750000000000000       0.75000000000000000        0.0000000000000000     
  0.96875000000000000       0.75000000000000000        0.0000000000000000     
   1.0000000000000000       0.75000000000000000        0.0000000000000000     
   1.0000000000000000       0.62500000000000000        0.0000000000000000     
   1.0312500000000000       0.62500000000000000        0.0000000000000000     
   1.0625000000000000       0.62500000000000000        0.0000000000000000     
   1.0937500000000000       0.62500000000000000        0.0000000000000000     
   1.1250000000000000       0.62500000000000000        0.0000000000000000     
   1.0000000000000000       0.65625000000000000        0.0000000000000000     
   1.0312500000000000       0.65625000000000000        0.0000000000000000     
   1.0625000000000000       0.65625000000000000        0.0000000000000000     
   1.0937500000000000       0.65625000000000000        0.0000000000000000     
   1.1250000000000000       0.65625000000000000        0.0000000000000000     
   1.0000000000000000       0.68750000000000000        0.0000000000000000     
   1.0312500000000000       0.68750000000000000        0.0000000000000000     
   1.0625000000000000       0.68750000000000000        0.0000000000000000     
   1.0937500000000000       0.68750000000000000        0.0000000000000000     
   1.1250000000000000       0.68750000000000000        0.0000000000000000     
   1.0000000000000000       0.71875000000000000        0.0000000000000000     
   1.0312500000000000       0.71875000000000000        0.0000000000000000     
   1.0625000000000000       0.71875000000000000        0.0000000000000000     
   1.0937500000000000       0.71875000000000000        0.0000000000000000     
   1.1250000000000000       0.71875000000000000        0.0000000000000000     
   1.0000000000000000       0.75000000000000000        0.0000000000000000     
   1.0312500000000000       0.75000000000000000        0.0000000000000000     
   1.0625000000000000       0.75000000000000000        0.0000000000000000     
   1.0937500000000000       0.75000000000000000        0.0000000000000000     
   1.1250000000000000       0.75000000000000000        0.0000000000000000     
   1.1250000000000000       0.62500000000000000        0.0000000000000000     
   1.1562500000000000       0.62500000000000000        0.0000000000000000     
   1.1875000000000000       0.62500000000000000        0.0000000000000000     
   1.2187500000000000       0.62500000000000000        0.0000000000000000     
   1.2500000000000000       0.62500000000000000        0.0000000000000000     
   1.1250000000000000       0.65625000000000000        0.0000000000000000     
   1.1562500000000000       0.65625000000000000        0.0000000000000000     
   1.1875000000000000       0.65625000000000000        0.0000000000000000     
   1.2187500000000000       0.65625000000000000        0.0000000000000000     
   1.2500000000000000       0.65625000000000000        0.0000000000000000     
   1.1250000000000000       0.68750000000000000        0.0000000000000000     
   1.1562500000000000       0.68750000000000000        0.0000000000000000     
   1.1875000000000000       0.68750000000000000        0.0000000000000000     
   1.2187500000000000       0.68750000000000000        0.0000000000000000     
   1.2500000000000000       0.68750000000000000        0.0000000000000000     
   1.1250000000000000       0.71875000000000000        0.0000000000000000     
   1.1562500000000000       0.71875000000000000        0.0000000000000000     
   1.1875000000000000       0.71875000000000000        0.0000000000000000     
   1.2187500000000000       0.71875000000000000        0.0000000000000000     
   1.2500000000000000       0.71875000000000000        0.0000000000000000     
   1.1250000000000000       0.75000000000000000        0.0000000000000000     
   1.1562500000000000       0.75000000000000000        0.0000000000000000     
   1.1875000000000000       0.75000000000000000        0.0000000000000000     
   1.2187500000000000       0.75000000000000000        0.0000000000000000     
   1.2500000000000000       0.75000000000000000        0.0000000000000000     
   1.2500000000000000       0.62500000000000000        0.0000000000000000     
   1.2812500000000000       0.62500000000000000        0.0000000000000000     
   1.3125000000000000       0.62500000000000000        0.0000000000000000     
   1.3437500000000000       0.62500000000000000        0.0000000000000000     
   1.3750000000000000       0.62500000000000000        0.0000000000000000     
   1.2500000000000000       0.65625000000000000        0.0000000000000000     
   1.2812500000000000       0.65625000000000000        0.0000000000000000     
   1.3125000000000000       0.65625000000000000        0.0000000000000000     
   1.3437500000000000       0.65625000000000000        0.0000000000000000     
   1.3750000000000000       0.65625000000000000        0.0000000000000000     
   1.2500000000000000       0.68750000000000000        0.0000000000000000     
   1.2812500000000000       0.68750000000000000        0.0000000000000000     
   1.3125000000000000       0.68750000000000000        0.0000000000000000     
   1.3437500000000000       0.68750000000000000        0.0000000000000000     
   1.3750000000000000       0.68750000000000000        0.0000000000000000     
   1.2500000000000000       0.71875000000000000        0.0000000000000000     
   1.2812500000000000       0.71875000000000000        0.0000000000000000     
   1.3125000000000000       0.71875000000000000        0.0000000000000000     
   1.3437500000000000       0.71875000000000000        0.0000000000000000     
   1.3750000000000000       0.71875000000000000        0.0000000000000000     
   1.2500000000000000       0.75000000000000000        0.0000000000000000     
   1.2812500000000000       0.75000000000000000        0.0000000000000000     
   1.3125000000000000       0.75000000000000000        0.0000000000000000     
   1.3437500000000000       0.75000000000000000        0.0000000000000000     
   1.3750000000000000       0.75000000000000000        0.0000000000000000     
   1.3750000000000000       0.62500000000000000        0.0000000000000000     
   1.4062500000000000       0.62500000000000000        0.0000000000000000     
   1.4375000000000000       0.62500000000000000        0.0000000000000000     
   1.4687500000000000       0.62500000000000000        0.0000000000000000     
   1.5000000000000000       0.62500000000000000        0.0000000000000000     
   1.3750000000000000       0.65625000000000000        0.0000000000000000     
   1.4062500000000000       0.65625000000000000        0.0000000000000000     
   1.4375000000000000       0.65625000000000000        0.0000000000000000     
   1.4687500000000000       0.65625000000000000        0.0000000000000000     
   1.5000000000000000       0.65625000000000000        0.0000000000000000     
   1.3750000000000000       0.68750000000000000        0.0000000000000000     
   1.4062500000000000       0.68750000000000000        0.0000000000000000     
   1.4375000000000000       0.68750000000000000        0.0000000000000000     
   1.4687500000000000       0.68750000000000000        0.0000000000000000     
   1.5000000000000000       0.68750000000000000        0.0000000000000000     
   1.3750000000000000       0.71875000000000000        0.0000000000000000     
   1.4062500000000000       0.71875000000000000        0.0000000000000000     
   1.4375000000000000       0.71875000000000000        0.0000000000000000     
   1.4687500000000000       0.71875000000000000        0.0000000000000000     
   1.5000000000000000       0.71875000000000000        0.0000000000000000     
   1.3750000000000000       0.75000000000000000        0.0000000000000000     
   1.4062500000000000       0.75000000000000000        0.0000000000000000     
   1.4375000000000000       0.75000000000000000        0.0000000000000000     
   1.4687500000000000       0.75000000000000000        0.0000000000000000     
   1.5000000000000000       0.75000000000000000        0.0000000000000000     
  0.50000000000000000       0.75000000000000000        0.0000000000000000     
  0.53125000000000000       0.75000000000000000        0.0000000000000000     
  0.56250000000000000       0.75000000000000000        0.0000000000000000     
  0.59375000000000000       0.75000000000000000        0.0000000000000000     
  0.62500000000000000       0.75000000000000000        0.0000000000000000     
  0.50000000000000000       0.78125000000000000        0.0000000000000000     
  0.53125000000000000       0.78125000000000000        0.0000000000000000     
  0.56250000000000000       0.78125000000000000        0.0000000000000000     
  0.59375000000000000       0.78125000000000000        0.0000000000000000     
  0.62500000000000000       0.78125000000000000        0.0000000000000000     
  0.50000000000000000       0.81250000000000000        0.0000000000000000     
  0.53125000000000000       0.81250000000000000        0.0000000000000000     
  0.56250000000000000       0.81250000000000000        0.0000000000000000     
  0.59375000000000000       0.81250000000000000        0.0000000000000000     
  0.62500000000000000       0.81250000000000000        0.0000000000000000     
  0.50000000000000000       0.84375000000000000        0.0000000000000000     
  0.53125000000000000       0.84375000000000000        0.0000000000000000     
  0.56250000000000000       0.84375000000000000        0.0000000000000000     
  0.59375000000000000       0.84375000000000000        0.0000000000000000     
  0.62500000000000000       0.84375000000000000        0.0000000000000000     
  0.50000000000000000       0.87500000000000000        0.0000000000000000     
  0.53125000000000000       0.87500000000000000        0.0000000000000000     
  0.56250000000000000       0.87500000000000000        0.0000000000000000     
  0.59375000000000000       0.87500000000000000        0.0000000000000000     
  0.62500000000000000       0.87500000000000000        0.0000000000000000     
  0.62500000000000000       0.75000000000000000        0.0000000000000000     
  0.65625000000000000       0.75000000000000000        0.0000000000000000     
  0.68750000000000000       0.75000000000000000        0.0000000000000000     
  0.71875000000000000       0.75000000000000000        0.0000000000000000     
  0.75000000000000000       0.75000000000000000        0.0000000000000000     
  0.62500000000000000       0.78125000000000000        0.0000000000000000     
  0.65625000000000000       0.78125000000000000        0.0000000000000000     
  0.68750000000000000       0.78125000000000000        0.0000000000000000     
  0.71875000000000000       0.78125000000000000        0.0000000000000000     
  0.75000000000000000       0.78125000000000000        0.0000000000000000     
  0.62500000000000000       0.81250000000000000        0.0000000000000000     
  0.65625000000000000       0.81250000000000000        0.0000000000000000     
  0.68750000000000000       0.81250000000000000        0.0000000000000000     
  0.71875000000000000       0.81250000000000000        0.0000000000000000     
  0.75000000000000000       0.81250000000000000        0.0000000000000000     
  0.62500000000000000       0.84375000000000000        0.0000000000000000     
  0.65625000000000000       0.84375000000000000        0.0000000000000000     
  0.68750000000000000       0.84375000000000000        0.0000000000000000     
  0.71875000000000000       0.84375000000000000        0.0000000000000000     
  0.75000000000000000       0.84375000000000000        0.0000000000000000     
  0.62500000000000000       0.87500000000000000        0.0000000000000000     
  0.65625000000000000       0.87500000000000000        0.0000000000000000     
  0.68750000000000000       0.87500000000000000        0.0000000000000000     
  0.71875000000000000       0.87500000000000000        0.0000000000000000     
  0.75000000000000000       0.87500000000000000        0.0000000000000000     
  0.75000000000000000       0.75000000000000000        0.0000000000000000     
  0.78125000000000000       0.75000000000000000        0.0000000000000000     
  0.81250000000000000       0.75000000000000000        0.0000000000000000     
  0.84375000000000000       0.75000000000000000        0.0000000000000000     
  0.87500000000000000       0.75000000000000000        0.0000000000000000     
  0.75000000000000000       0.78125000000000000        0.0000000000000000     
  0.78125000000000000       0.78125000000000000        0.0000000000000000     
  0.81250000000000000       0.78125000000000000        0.0000000000000000     
  0.84375000000000000       0.78125000000000000        0.0000000000000000     
  0.87500000000000000       0.78125000000000000        0.0000000000000000     
  0.75000000000000000       0.81250000000000000        0.0000000000000000     
  0.78125000000000000       0.81250000000000000        0.0000000000000000     
  0.81250000000000000       0.81250000000000000        0.0000000000000000     
  0.84375000000000000       0.81250000000000000        0.0000000000000000     
  0.87500000000000000       0.81250000000000000        0.0000000000000000     
  0.75000000000000000       0.84375000000000000        0.0000000000000000     
  0.78125000000000000       0.84375000000000000        0.0000000000000000     
  0.81250000000000000       0.84375000000000000        0.0000000000000000     
  0.84375000000000000       0.84375000000000000        0.0000000000000000     
  0.87500000000000000       0.84375000000000000        0.0000000000000000     
  0.75000000000000000       0.87500000000000000        0.0000000000000000     
  0.78125000000000000       0.87500000000000000        0.0000000000000000     
  0.81250000000000000       0.87500000000000000        0.0000000000000000     
  0.84375000000000000       0.87500000000000000        0.0000000000000000     
  0.87500000000000000       0.87500000000000000        0.0000000000000000     
  0.87500000000000000       0.75000000000000000        0.0000000000000000     
  0.90625000000000000       0.75000000000000000        0.0000000000000000     
  0.93750000000000000       0.75000000000000000        0.0000000000000000     
  0.96875000000000000       0.75000000000000000        0.0000000000000000     
   1.0000000000000000       0.75000000000000000        0.0000000000000000     
  0.87500000000000000       0.78125000000000000        0.0000000000000000     
  0.90625000000000000       0.78125000000000000        0.0000000000000000     
  0.93750000000000000       0.78125000000000000        0.0000000000000000     
  0.96875000000000000       0.78125000000000000        0.0000000000000000     
   1.0000000000000000       0.78125000000000000        0.0000000000000000     
  0.87500000000000000       0.81250000000000000        0.0000000000000000     
  0.90625000000000000       0.81250000000000000        0.0000000000000000     
  0.93750000000000000       0.81250000000000000        0.0000000000000000     
  0.96875000000000000       0.81250000000000000        0.0000000000000000     
   1.0000000000000000       0.81250000000000000        0.0000000000000000     
  0.87500000000000000       0.84375000000000000        0.0000000000000000     
  0.90625000000000000       0.84375000000000000        0.0000000000000000     
  0.93750000000000000       0.84375000000000000        0.0000000000000000     
  0.96875000000000000       0.84375000000000000        0.0000000000000000     
   1.0000000000000000       0.84375000000000000        0.0000000000000000     
  0.87500000000000000       0.87500000000000000        0.0000000000000000     
  0.90625000000000000       0.87500000000000000        0.0000000000000000     
  0.93750000000000000       0.87500000000000000        0.0000000000000000     
  0.96875000000000000       0.87500000000000000        0.0000000000000000     
   1.0000000000000000       0.87500000000000000        0.0000000000000000     
   1.0000000000000000       0.75000000000000000        0.0000000000000000     
   1.0312500000000000       0.75000000000000000        0.0000000000000000     
   1.0625000000000000       0.75000000000000000        0.0000000000000000     
   1.0937500000000000       0.75000000000000000        0.0000000000000000     
   1.1250000000000000       0.75000000000000000        0.0000000000000000     
   1.0000000000000000       0.78125000000000000        0.0000000000000000     
   1.0312500000000000       0.78125000000000000        0.0000000000000000     
   1.0625000000000000       0.78125000000000000        0.0000000000000000     
   1.0937500000000000       0.78125000000000000        0.0000000000000000     
   1.1250000000000000       0.78125000000000000        0.0000000000000000     
   1.0000000000000000       0.81250000000000000        0.0000000000000000     
   1.0312500000000000       0.81250000000000000        0.0000000000000000     
   1.0625000000000000       0.81250000000000000        0.0000000000000000     
   1.0937500000000000       0.81250000000000000        0.0000000000000000     
   1.1250000000000000       0.81250000000000000        0.0000000000000000     
   1.0000000000000000       0.84375000000000000        0.0000000000000000     
   1.0312500000000000       0.84375000000000000        0.0000000000000000     
   1.0625000000000000       0.84375000000000000        0.0000000000000000     
   1.0937500000000000       0.84375000000000000        0.0000000000000000     
   1.1250000000000000       0.84375000000000000        0.0000000000000000     
   1.0000000000000000       0.87500000000000000        0.0000000000000000     
   1.0312500000000000       0.87500000000000000        0.0000000000000000     
   1.0625000000000000       0.87500000000000000        0.0000000000000000     
   1.0937500000000000       0.87500000000000000        0.0000000000000000     
   1.1250000000000000       0.87500000000000000        0.0000000000000000     
   1.1250000000000000       0.75000000000000000        0.0000000000000000     
   1.1562500000000000       0.75000000000000000        0.0000000000000000     
   1.1875000000000000       0.75000000000000000        0.0000000000000000     
   1.2187500000000000       0.75000000000000000        0.0000000000000000     
   1.2500000000000000       0.75000000000000000        0.0000000000000000     
   1.1250000000000000       0.78125000000000000        0.0000000000000000     
   1.1562500000000000       0.78125000000000000        0.0000000000000000     
   1.1875000000000000       0.78125000000000000        0.0000000000000000     
   1.2187500000000000       0.78125000000000000        0.0000000000000000     
   1.2500000000000000       0.78125000000000000        0.0000000000000000     
   1.1250000000000000       0.81250000000000000        0.0000000000000000     
   1.1562500000000000       0.81250000000000000        0.0000000000000000     
   1.1875000000000000       0.81250000000000000        0.0000000000000000     
   1.2187500000000000       0.81250000000000000        0.0000000000000000     
   1.2500000000000000       0.81250000000000000        0.0000000000000000     
   1.1250000000000000       0.84375000000000000        0.0000000000000000     
   1.1562500000000000       0.84375000000000000        0.0000000000000000     
   1.1875000000000000       0.84375000000000000        0.0000000000000000     
   1.2187500000000000       0.84375000000000000        0.0000000000000000     
   1.2500000000000000       0.84375000000000000        0.0000000000000000     
   1.1250000000000000       0.87500000000000000        0.0000000000000000     
   1.1562500000000000       0.87500000000000000        0.0000000000000000     
   1.1875000000000000       0.87500000000000000        0.0000000000000000     
   1.2187500000000000       0.87500000000000000        0.0000000000000000     
   1.2500000000000000       0.87500000000000000        0.0000000000000000     
   1.2500000000000000       0.75000000000000000        0.0000000000000000     
   1.2812500000000000       0.75000000000000000        0.0000000000000000     
   1.3125000000000000       0.75000000000000000        0.0000000000000000     
   1.3437500000000000       0.75000000000000000        0.0000000000000000     
   1.3750000000000000       0.75000000000000000        0.0000000000000000     
   1.2500000000000000       0.78125000000000000        0.0000000000000000     
   1.2812500000000000       0.78125000000000000        0.0000000000000000     
   1.3125000000000000       0.78125000000000000        0.0000000000000000     
   1.3437500000000000       0.78125000000000000        0.0000000000000000     
   1.3750000000000000       0.78125000000000000        0.0000000000000000     
   1.2500000000000000       0.81250000000000000        0.0000000000000000     
   1.2812500000000000       0.81250000000000000        0.0000000000000000     
   1.3125000000000000       0.81250000000000000        0.0000000000000000     
   1.3437500000000000       0.81250000000000000        0.0000000000000000     
   1.3750000000000000       0.81250000000000000        0.0000000000000000     
   1.2500000000000000       0.84375000000000000        0.0000000000000000     
   1.2812500000000000       0.84375000000000000        0.0000000000000000     
   1.3125000000000000       0.84375000000000000        0.0000000000000000     
   1.3437500000000000       0.84375000000000000        0.0000000000000000     
   1.3750000000000000       0.84375000000000000        0.0000000000000000     
   1.2500000000000000       0.87500000000000000        0.0000000000000000     
   1.2812500000000000       0.87500000000000000        0.0000000000000000     
   1.3125000000000000       0.87500000000000000        0.0000000000000000     
   1.3437500000000000       0.87500000000000000        0.0000000000000000     
   1.3750000000000000       0.87500000000000000        0.0000000000000000     
   1.3750000000000000       0.75000000000000000        0.0000000000000000     
   1.4062500000000000       0.75000000000000000        0.0000000000000000     
   1.4375000000000000       0.75000000000000000        0.0000000000000000     
   1.4687500000000000       0.75000000000000000        0.0000000000000000     
   1.5000000000000000       0.75000000000000000        0.0000000000000000     
   1.3750000000000000       0.78125000000000000        0.0000000000000000     
   1.4062500000000000       0.78125000000000000        0.0000000000000000     
   1.4375000000000000       0.78125000000000000        0.0000000000000000     
   1.4687500000000000       0.78125000000000000        0.0000000000000000     
   1.5000000000000000       0.78125000000000000        0.0000000000000000     
   1.3750000000000000       0.81250000000000000        0.0000000000000000     
   1.4062500000000000       0.81250000000000000        0.0000000000000000     
   1.4375000000000000       0.81250000000000000        0.0000000000000000     
   1.4687500000000000       0.81250000000000000        0.0000000000000000     
   1.5000000000000000       0.81250000000000000        0.0000000000000000     
   1.3750000000000000       0.84375000000000000        0.0000000000000000     
   1.4062500000000000       0.84375000000000000        0.0000000000000000     
   1.4375000000000000       0.84375000000000000        0.0000000000000000     
   1.4687500000000000       0.84375000000000000        0.0000000000000000     
   1.5000000000000000       0.84375000000000000        0.0000000000000000     
   1.3750000000000000       0.87500000000000000        0.0000000000000000     
   1.4062500000000000       0.87500000000000000        0.0000000000000000     
   1.4375000000000000       0.87500000000000000        0.0000000000000000     
   1.4687500000000000       0.87500000000000000        0.0000000000000000     
   1.5000000000000000       0.87500000000000000        0.0000000000000000     
  0.50000000000000000       0.87500000000000000        0.0000000000000000     
  0.53125000000000000       0.87500000000000000        0.0000000000000000     
  0.56250000000000000       0.87500000000000000        0.0000000000000000     
  0.59375000000000000       0.87500000000000000        0.0000000000000000     
  0.62500000000000000       0.87500000000000000        0.0000000000000000     
  0.50000000000000000       0.90625000000000000        0.0000000000000000     
  0.53125000000000000       0.90625000000000000        0.0000000000000000     
  0.56250000000000000       0.90625000000000000        0.0000000000000000     
  0.59375000000000000       0.90625000000000000        0.0000000000000000     
  0.62500000000000000       0.90625000000000000        0.0000000000000000     
  0.50000000000000000       0.93750000000000000        0.0000000000000000     
  0.53125000000000000       0.93750000000000000        0.0000000000000000     
  0.56250000000000000       0.93750000000000000        0.0000000000000000     
  0.59375000000000000       0.93750000000000000        0.0000000000000000     
  0.62500000000000000       0.93750000000000000        0.0000000000000000     
  0.50000000000000000       0.96875000000000000        0.0000000000000000     
  0.53125000000000000       0.96875000000000000        0.0000000000000000     
  0.56250000000000000       0.96875000000000000        0.0000000000000000     
  0.59375000000000000       0.96875000000000000        0.0000000000000000     
  0.62500000000000000       0.96875000000000000        0.0000000000000000     
  0.50000000000000000        1.0000000000000000        0.0000000000000000     
  0.53125000000000000        1.0000000000000000        0.0000000000000000     
  0.56250000000000000        1.0000000000000000        0.0000000000000000     
  0.59375000000000000        1.0000000000000000        0.0000000000000000     
  0.62500000000000000        1.0000000000000000        0.0000000000000000     
  0.62500000000000000       0.87500000000000000        0.0000000000000000     
  0.65625000000000000       0.87500000000000000        0.0000000000000000     
  0.68750000000000000       0.87500000000000000        0.0000000000000000     
  0.71875000000000000       0.87500000000000000        0.0000000000000000     
  0.75000000000000000       0.87500000000000000        0.0000000000000000     
  0.62500000000000000       0.90625000000000000        0.0000000000000000     
  0.65625000000000000       0.90625000000000000        0.0000000000000000     
  0.68750000000000000       0.90625000000000000        0.0000000000000000     
  0.71875000000000000       0.90625000000000000        0.0000000000000000     
  0.75000000000000000       0.90625000000000000        0.0000000000000000     
  0.62500000000000000       0.93750000000000000        0.0000000000000000     
  0.65625000000000000       0.93750000000000000        0.0000000000000000     
  0.68750000000000000       0.93750000000000000        0.0000000000000000     
  0.71875000000000000       0.93750000000000000        0.0000000000000000     
  0.75000000000000000       0.93750000000000000        0.0000000000000000     
  0.62500000000000000       0.96875000000000000        0.0000000000000000     
  0.65625000000000000       0.96875000000000000        0.0000000000000000     
  0.68750000000000000       0.96875000000000000        0.0000000000000000     
  0.71875000000000000       0.96875000000000000        0.0000000000000000     
  0.75000000000000000       0.96875000000000000        0.0000000000000000     
  0.62500000000000000        1.0000000000000000        0.0000000000000000     
  0.65625000000000000        1.0000000000000000        0.0000000000000000     
  0.68750000000000000        1.0000000000000000        0.0000000000000000     
  0.71875000000000000        1.0000000000000000        0.0000000000000000     
  0.75000000000000000        1.0000000000000000        0.0000000000000000     
  0.75000000000000000       0.87500000000000000        0.0000000000000000     
  0.78125000000000000       0.87500000000000000        0.0000000000000000     
  0.81250000000000000       0.87500000000000000        0.0000000000000000     
  0.84375000000000000       0.87500000000000000        0.0000000000000000     
  0.87500000000000000       0.87500000000000000        0.0000000000000000     
  0.75000000000000000       0.90625000000000000        0.0000000000000000     
  0.78125000000000000       0.90625000000000000        0.0000000000000000     
  0.81250000000000000       0.90625000000000000        0.0000000000000000     
  0.84375000000000000       0.90625000000000000        0.0000000000000000     
  0.87500000000000000       0.90625000000000000        0.0000000000000000     
  0.75000000000000000       0.93750000000000000        0.0000000000000000     
  0.78125000000000000       0.93750000000000000        0.0000000000000000     
  0.81250000000000000       0.93750000000000000        0.0000000000000000     
  0.84375000000000000       0.93750000000000000        0.0000000000000000     
  0.87500000000000000       0.93750000000000000        0.0000000000000000     
  0.75000000000000000       0.96875000000000000        0.0000000000000000     
  0.78125000000000000       0.96875000000000000        0.0000000000000000     
  0.81250000000000000       0.96875000000000000        0.0000000000000000     
  0.84375000000000000       0.96875000000000000        0.0000000000000000     
  0.87500000000000000       0.96875000000000000        0.0000000000000000     
  0.75000000000000000        1.0000000000000000        0.0000000000000000     
  0.78125000000000000        1.0000000000000000        0.0000000000000000     
  0.81250000000000000        1.0000000000000000        0.0000000000000000     
  0.84375000000000000        1.0000000000000000        0.0000000000000000     
  0.87500000000000000        1.0000000000000000        0.0000000000000000     
  0.87500000000000000       0.87500000000000000        0.0000000000000000     
  0.90625000000000000       0.87500000000000000        0.0000000000000000     
  0.93750000000000000       0.87500000000000000        0.0000000000000000     
  0.96875000000000000       0.87500000000000000        0.0000000000000000     
   1.0000000000000000       0.87500000000000000        0.0000000000000000     
  0.87500000000000000       0.90625000000000000        0.0000000000000000     
  0.90625000000000000       0.90625000000000000        0.0000000000000000     
  0.93750000000000000       0.90625000000000000        0.0000000000000000     
  0.96875000000000000       0.90625000000000000        0.0000000000000000     
   1.0000000000000000       0.90625000000000000        0.0000000000000000     
  0.87500000000000000       0.93750000000000000        0.0000000000000000     
  0.90625000000000000       0.93750000000000000        0.0000000000000000     
  0.93750000000000000       0.93750000000000000        0.0000000000000000     
  0.96875000000000000       0.93750000000000000        0.0000000000000000     
   1.0000000000000000       0.93750000000000000        0.0000000000000000     
  0.87500000000000000       0.96875000000000000        0.0000000000000000     
  0.90625000000000000       0.96875000000000000        0.0000000000000000     
  0.93750000000000000       0.96875000000000000        0.0000000000000000     
  0.96875000000000000       0.96875000000000000        0.0000000000000000     
   1.0000000000000000       0.96875000000000000        0.0000000000000000     
  0.87500000000000000        1.0000000000000000        0.0000000000000000     
  0.90625000000000000        1.0000000000000000        0.0000000000000000     
  0.93750000000000000        1.0000000000000000        0.0000000000000000     
  0.96875000000000000        1.0000000000000000        0.0000000000000000     
   1.0000000000000000        1.0000000000000000        0.0000000000000000     
   1.0000000000000000       0.87500000000000000        0.0000000000000000     
   1.0312500000000000       0.87500000000000000        0.0000000000000000     
   1.0625000000000000       0.87500000000000000        0.0000000000000000     
   1.0937500000000000       0.87500000000000000        0.0000000000000000     
   1.1250000000000000       0.87500000000000000        0.0000000000000000     
   1.0000000000000000       0.90625000000000000        0.0000000000000000     
   1.0312500000000000       0.90625000000000000        0.0000000000000000     
   1.0625000000000000       0.90625000000000000        0.0000000000000000     
   1.0937500000000000       0.90625000000000000        0.0000000000000000     
   1.1250000000000000       0.90625000000000000        0.0000000000000000     
   1.0000000000000000       0.93750000000000000        0.0000000000000000     
   1.0312500000000000       0.93750000000000000        0.0000000000000000     
   1.0625000000000000       0.93750000000000000        0.0000000000000000     
   1.0937500000000000       0.93750000000000000        0.0000000000000000     
   1.1250000000000000       0.93750000000000000        0.0000000000000000     
   1.0000000000000000       0.96875000000000000        0.0000000000000000     
   1.0312500000000000       0.96875000000000000        0.0000000000000000     
   1.0625000000000000       0.96875000000000000        0.0000000000000000     
   1.0937500000000000       0.96875000000000000        0.0000000000000000     
   1.1250000000000000       0.96875000000000000        0.0000000000000000     
   1.0000000000000000        1.0000000000000000        0.0000000000000000     
   1.0312500000000000        1.0000000000000000        0.0000000000000000     
   1.0625000000000000        1.0000000000000000        0.0000000000000000     
   1.0937500000000000        1.0000000000000000        0.0000000000000000     
   1.1250000000000000        1.0000000000000000        0.0000000000000000     
   1.1250000000000000       0.87500000000000000        0.0000000000000000     
   1.1562500000000000       0.87500000000000000        0.0000000000000000     
   1.1875000000000000       0.87500000000000000        0.0000000000000000     
   1.2187500000000000       0.87500000000000000        0.0000000000000000     
   1.2500000000000000       0.87500000000000000        0.0000000000000000     
   1.1250000000000000       0.90625000000000000        0.0000000000000000     
   1.1562500000000000       0.90625000000000000        0.0000000000000000     
   1.1875000000000000       0.90625000000000000        0.0000000000000000     
   1.2187500000000000       0.90625000000000000        0.0000000000000000     
   1.2500000000000000       0.90625000000000000        0.0000000000000000     
   1.1250000000000000       0.93750000000000000        0.0000000000000000     
   1.1562500000000000       0.93750000000000000        0.0000000000000000     
   1.1875000000000000       0.93750000000000000        0.0000000000000000     
   1.2187500000000000       0.93750000000000000        0.0000000000000000     
   1.2500000000000000       0.93750000000000000        0.0000000000000000     
   1.1250000000000000       0.96875000000000000        0.0000000000000000     
   1.1562500000000000       0.96875000000000000        0.0000000000000000     
   1.1875000000000000       0.96875000000000000        0.0000000000000000     
   1.2187500000000000       0.96875000000000000        0.0000000000000000     
   1.2500000000000000       0.96875000000000000        0.0000000000000000     
   1.1250000000000000        1.0000000000000000        0.0000000000000000     
   1.1562500000000000        1.0000000000000000        0.0000000000000000     
   1.1875000000000000        1.0000000000000000        0.0000000000000000     
   1.2187500000000000        1.0000000000000000        0.0000000000000000     
   1.2500000000000000        1.0000000000000000        0.0000000000000000     
   1.2500000000000000       0.87500000000000000        0.0000000000000000     
   1.2812500000000000       0.87500000000000000        0.0000000000000000     
   1.3125000000000000       0.87500000000000000        0.0000000000000000     
   1.3437500000000000       0.87500000000000000        0.0000000000000000     
   1.3750000000000000       0.87500000000000000        0.0000000000000000     
   1.2500000000000000       0.90625000000000000        0.0000000000000000     
   1.2812500000000000       0.90625000000000000        0.0000000000000000     
   1.3125000000000000       0.90625000000000000        0.0000000000000000     
   1.3437500000000000       0.90625000000000000        0.0000000000000000     
   1.3750000000000000       0.90625000000000000        0.0000000000000000     
   1.2500000000000000       0.93750000000000000        0.0000000000000000     
   1.2812500000000000       0.93750000000000000        0.0000000000000000     
   1.3125000000000000       0.93750000000000000        0.0000000000000000     
   1.3437500000000000       0.93750000000000000        0.0000000000000000     
   1.3750000000000000       0.93750000000000000        0.0000000000000000     
   1.2500000000000000       0.96875000000000000        0.0000000000000000     
   1.2812500000000000       0.96875000000000000        0.0000000000000000     
   1.3125000000000000       0.96875000000000000        0.0000000000000000     
   1.3437500000000000       0.96875000000000000        0.0000000000000000     
   1.3750000000000000       0.96875000000000000        0.0000000000000000     
   1.2500000000000000        1.0000000000000000        0.0000000000000000     
   1.2812500000000000        1.0000000000000000        0.0000000000000000     
   1.3125000000000000        1.0000000000000000        0.0000000000000000     
   1.3437500000000000        1.0000000000000000        0.0000000000000000     
   1.3750000000000000        1.0000000000000000        0.0000000000000000     
   1.3750000000000000       0.87500000000000000        0.0000000000000000     
   1.4062500000000000       0.87500000000000000        0.0000000000000000     
   1.4375000000000000       0.87500000000000000        0.0000000000000000     
   1.4687500000000000       0.87500000000000000        0.0000000000000000     
   1.5000000000000000       0.87500000000000000        0.0000000000000000     
   1.3750000000000000       0.90625000000000000        0.0000000000000000     
   1.4062500000000000       0.90625000000000000        0.0000000000000000     
   1.4375000000000000       0.90625000000000000        0.0000000000000000     
   1.4687500000000000       0.90625000000000000        0.0000000000000000     
   1.5000000000000000       0.90625000000000000        0.0000000000000000     
   1.3750000000000000       0.93750000000000000        0.0000000000000000     
   1.4062500000000000       0.93750000000000000        0.0000000000000000     
   1.4375000000000000       0.93750000000000000        0.0000000000000000     
   1.4687500000000000       0.93750000000000000        0.0000000000000000     
   1.5000000000000000       0.93750000000000000        0.0000000000000000     
   1.3750000000000000       0.96875000000000000        0.0000000000000000     
   1.4062500000000000       0.96875000000000000        0.0000000000000000     
   1.4375000000000000       0.96875000000000000        0.0000000000000000     
   1.4687500000000000       0.96875000000000000        0.0000000000000000     
   1.5000000000000000       0.96875000000000000        0.0000000000000000     
   1.3750000000000000        1.0000000000000000        0.0000000000000000     
   1.4062500000000000        1.0000000000000000        0.0000000000000000     
   1.4375000000000000        1.0000000000000000        0.0000000000000000     
   1.4687500000000000        1.0000000000000000        0.0000000000000000     
   1.5000000000000000        1.0000000000000000        0.0000000000000000     
 </DataArray>
 </Points>
 <Cells>
 <DataArray  type="Int32"  Name="connectivity"  format="ascii">
           0           1           6           5
           1           2           7           6
           2           3           8           7
           3           4           9           8
           5           6          11          10
           6           7          12          11
           7           8          13          12
           8           9          14          13
          10          11          16          15
          11          12          17          16
          12          13          18          17
          13          14          19          18
          15          16          21          20
          16          17          22          21
          17          18          23          22
          18          19          24          23
          25          26          31          30
          26          27          32          31
          27          28          33          32
          28          29          34          33
          30          31          36          35
          31          32          37          36
          32          33          38          37
          33          34          39          38
          35          36          41          40
          36          37          42          41
          37          38          43          42
          38          39          44          43
          40          41          46          45
          41          42          47          46
          42          43          48          47
          43          44          49          48
          50          51          56          55
          51          52          57          56
          52          53          58          57
          53          54          59          58
          55          56          61          60
          56          57          62          61
          57          58          63          62
          58          59          64          63
          60          61          66          65
          61          62          67          66
          62          63          68          67
          63          64          69          68
          65          66          71          70
          66          67          72          71
          67          68          73          72
          68          69          74          73
          75          76          81          80
          76          77          82          81
          77          78          83          82
          78          79          84          83
          80          81          86          85
          81          82          87          86
          82          83          88          87
          83          84          89          88
          85          86          91          90
          86          87          92          91
          87          88          93          92
          88          89          94          93
          90          91          96          95
          91          92          97          96
          92          93          98          97
          93          94          99          98
         100         101         106         105
         101         102         107         106
         102         103         108         107
         103         104         109         108
         105         106         111         110
         106         107         112         111
         107         108         113         112
         108         109         114         113
         110         111         116         115
         111         112         117         116
         112         113         118         117
         113         114         119         118
         115         116         121         120
         116         117         122         121
         117         118         123         122
         118         119         124         123
         125         126         131         130
         126         127         132         131
         127         128         133         132
         128         129         134         133
         130         131         136         135
         131         132         137         136
         132         133         138         137
         133         134         139         138
         135         136         141         140
         136         137         142         141
         137         138         143         142
         138         139         144         143
         140         141         146         145
         141         142         147         146
         142         143         148         147
         143         144         149         148
         150         151         156         155
         151         152         157         156
         152         153         158         157
         153         154         159         158
         155         156         161         160
         156         157         162         161
         157         158         163         162
         158         159         164         163
         160         161         166         165
         161         162         167         166
         162         163         168         167
         163         164         169         168
         165         166         171         170
         166         167         172         171
         167         168         173         172
         168         169         174         173
         175         176         181         180
         176         177         182         181
         177         178         183         182
         178         179         184         183
         180         181         186         185
         181         182         187         186
         182         183         188         187
         183         184         189         188
         185         186         191         190
         186         187         192         191
         187         188         193         192
         188         189         194         193
         190         191         196         195
         191         192         197         196
         192         193         198         197
         193         194         199         198
         200         201         206         205
         201         202         207         206
         202         203         208         207
         203         204         209         208
         205         206         211         210
         206         207         212         211
         207         208         213         212
         208         209         214         213
         210         211         216         215
         211         212         217         216
         212         213         218         217
         213         214         219         218
         215         216         221         220
         216         217         222         221
         217         218         223         222
         218         219         224         223
         225         226         231         230
         226         227         232         231
         227         228         233         232
         228         229         234         233
         230         231         236         235
         231         232         237         236
         232         233         238         237
         233         234         239         238
         235         236         241         240
         236         237         242         241
         237         238         243         242
         238         239         244         243
         240         241         246         245
         241         242         247         246
         242         243         248         247
         243         244         249         248
         250         251         256         255
         251         252         257         256
         252         253         258         257
         253         254         259         258
         255         256         261         260
         256         257         262         261
         257         258         263         262
         258         259         264         263
         260         261         266         265
         261         262         267         266
         262         263         268         267
         263         264         269         268
         265         266         271         270
         266         267         272         271
         267         268         273         272
         268         269         274         273
         275         276         281         280
         276         277         282         281
         277         278         283         282
         278         279         284         283
         280         281         286         285
         281         282         287         286
         282         283         288         287
         283         284         289         288
         285         286         291         290
         286         287         292         291
         287         288         293         292
         288         289         294         293
         290         291         296         295
         291         292         297         296
         292         293         298         297
         293         294         299         298
         300         301         306         305
         301         302         307         306
         302         303         308         307
         303         304         309         308
         305         306         311         310
         306         307         312         311
         307         308         313         312
         308         309         314         313
         310         311         316         315
         311         312         317         316
         312         313         318         317
         313         314         319         318
         315         316         321         320
         316         317         322         321
         317         318         323         322
         318         319         324         323
         325         326         331         330
         326         327         332         331
         327         328         333         332
         328         329         334         333
         330         331         336         335
         331         332         337         336
         332         333         338         337
         333         334         339         338
         335         336         341         340
         336         337         342         341
         337         338         343         342
         338         339         344         343
         340         341         346         345
         341         342         347         346
         342         343         348         347
         343         344         349         348
         350         351         356         355
         351         352         357         356
         352         353         358         357
         353         354         359         358
         355         356         361         360
         356         357         362         361
         357         358         363         362
         358         359         364         363
         360         361         366         365
         361         362         367         366
         362         363         368         367
         363         364         369         368
         365         366         371         370
         366         367         372         371
         367         368         373         372
         368         369         374         373
         375         376         381         380
         376         377         382         381
         377         378         383         382
         378         379         384         383
         380         381         386         385
         381         382         387         386
         382         383         388         387
         383         384         389         388
         385         386         391         390
         386         387         392         391
         387         388         393         392
         388         389         394         393
         390         391         396         395
         391         392         397         396
         392         393         398         397
         393         394         399         398
         400         401         406         405
         401         402         407         406
         402         403         408         407
         403         404         409         408
         405         406         411         410
         406         407         412         411
         407         408         413         412
         408         409         414         413
         410         411         416         415
         411         412         417         416
         412         413         418         417
         413         414         419         418
         415         416         421         420
         416         417         422         421
         417         418         423         422
         418         419         424         423
         425         426         431         430
         426         427         432         431
         427         428         433         432
         428         429         434         433
         430         431         436         435
         431         432         437         436
         432         433         438         437
         433         434         439         438
         435         436         441         440
         436         437         442         441
         437         438         443         442
         438         439         444         443
         440         441         446         445
         441         442         447         446
         442         443         448         447
         443         444         449         448
         450         451         456         455
         451         452         457         456
         452         453         458         457
         453         454         459         458
         455         456         461         460
         456         457         462         461
         457         458         463         462
         458         459         464         463
         460         461         466         465
         461         462         467         466
         462         463         468         467
         463         464         469         468
         465         466         471         470
         466         467         472         471
         467         468         473         472
         468         469         474         473
         475         476         481         480
         476         477         482         481
         477         478         483         482
         478         479         484         483
         480         481         486         485
         481         482         487         486
         482         483         488         487
         483         484         489         488
         485         486         491         490
         486         487         492         491
         487         488         493         492
         488         489         494         493
         490         491         496         495
         491         492         497         496
         492         493         498         497
         493         494         499         498
         500         501         506         505
         501         502         507         506
         502         503         508         507
         503         504         509         508
         505         506         511         510
         506         507         512         511
         507         508         513         512
         508         509         514         513
         510         511         516         515
         511         512         517         516
         512         513         518         517
         513         514         519         518
         515         516         521         520
         516         517         522         521
         517         518         523         522
         518         519         524         523
         525         526         531         530
         526         527         532         531
         527         528         533         532
         528         529         534         533
         530         531         536         535
         531         532         537         536
         532         533         538         537
         533         534         539         538
         535         536         541         540
         536         537         542         541
         537         538         543         542
         538         539         544         543
         540         541         546         545
         541         542         547         546
         542         543         548         547
         543         544         549         548
         550         551         556         555
         551         552         557         556
         552         553         558         557
         553         554         559         558
         555         556         561         560
         556         557         562         561
         557         558         563         562
         558         559         564         563
         560         561         566         565
         561         562         567         566
         562         563         568         567
         563         564         569         568
         565         566         571         570
         566         567         572         571
         567         568         573         572
         568         569         574         573
         575         576         581         580
         576         577         582         581
         577         578         583         582
         578         579         584         583
         580         581         586         585
         581         582         587         586
         582         583         588         587
         583         584         589         588
         585         586         591         590
         586         587         592         591
         587         588         593         592
         588         589         594         593
         590         591         596         595
         591         592         597         596
         592         593         598         597
         593         594         599         598
         600         601         606         605
         601         602         607         606
         602         603         608         607
         603         604         609         608
         605         606         611         610
         606         607         612         611
         607         608         613         612
         608         609         614         613
         610         611         616         615
         611         612         617         616
         612         613         618         617
         613         614         619         618
         615         616         621         620
         616         617         622         621
         617         618         623         622
         618         619         624         623
         625         626         631         630
         626         627         632         631
         627         628         633         632
         628         629         634         633
         630         631         636         635
         631         632         637         636
         632         633         638         637
         633         634         639         638
         635         636         641         640
         636         637         642         641
         637         638         643         642
         638         639         644         643
         640         641         646         645
         641         642         647         646
         642         643         648         647
         643         644         649         648
         650         651         656         655
         651         652         657         656
         652         653         658         657
         653         654         659         658
         655         656         661         660
         656         657         662         661
         657         658         663         662
         658         659         664         663
         660         661         666         665
         661         662         667         666
         662         663         668         667
         663         664         669         668
         665         666         671         670
         666         667         672         671
         667         668         673         672
         668         669         674         673
         675         676         681         680
         676         677         682         681
         677         678         683         682
         678         679         684         683
         680         681         686         685
         681         682         687         686
         682         683         688         687
         683         684         689         688
         685         686         691         690
         686         687         692         691
         687         688         693         692
         688         689         694         693
         690         691         696         695
         691         692         697         696
         692         693         698         697
         693         694         699         698
         700         701         706         705
         701         702         707         706
         702         703         708         707
         703         704         709         708
         705         706         711         710
         706         707         712         711
         707         708         713         712
         708         709         714         713
         710         711         716         715
         711         712         717         716
         712         713         718         717
         713         714         719         718
         715         716         721         720
         716         717         722         721
         717         718         723         722
         718         719         724         723
         725         726         731         730
         726         727         732         731
         727         728         733         732
         728         729         734         733
         730         731         736         735
         731         732         737         736
         732         733         738         737
         733         734         739         738
         735         736         741         740
         736         737         742         741
         737         738         743         742
         738         739         744         743
         740         741         746         745
         741         742         747         746
         742         743         748         747
         743         744         749         748
         750         751         756         755
         751         752         757         756
         752         753         758         757
         753         754         759         758
         755         756         761         760
         756         757         762         761
         757         758         763         762
         758         759         764         763
         760         761         766         765
         761         762         767         766
         762         763         768         767
         763         764         769         768
         765         766         771         770
         766         767         772         771
         767         768         773         772
         768         769         774         773
         775         776         781         780
         776         777         782         781
         777         778         783         782
         778         779         784         783
         780         781         786         785
         781         782         787         786
         782         783         788         787
         783         784         789         788
         785         786         791         790
         786         787         792         791
         787         788         793         792
         788         789         794         793
         790         791         796         795
         791         792         797         796
         792         793         798         797
         793         794         799         798
         800         801         806         805
         801         802         807         806
         802         803         808         807
         803         804         809         808
         805         806         811         810
         806         807         812         811
         807         808         813         812
         808         809         814         813
         810         811         816         815
         811         812         817         816
         812         813         818         817
         813         814         819         818
         815         816         821         820
         816         817         822         821
         817         818         823         822
         818         819         824         823
         825         826         831         830
         826         827         832         831
         827         828         833         832
         828         829         834         833
         830         831         836         835
         831         832         837         836
         832         833         838         837
         833         834         839         838
         835         836         841         840
         836         837         842         841
         837         838         843         842
         838         839         844         843
         840         841         846         845
         841         842         847         846
         842         843         848         847
         843         844         849         848
         850         851         856         855
         851         852         857         856
         852         853         858         857
         853         854         859         858
         855         856         861         860
         856         857         862         861
         857         858         863         862
         858         859         864         863
         860         861         866         865
         861         862         867         866
         862         863         868         867
         863         864         869         868
         865         866         871         870
         866         867         872         871
         867         868         873         872
         868         869         874         873
         875         876         881         880
         876         877         882         881
         877         878         883         882
         878         879         884         883
         880         881         886         885
         881         882         887         886
         882         883         888         887
         883         884         889         888
         885         886         891         890
         886         887         892         891
         887         888         893         892
         888         889         894         893
         890         891         896         895
         891         892         897         896
         892         893         898         897
         893         894         899         898
         900         901         906         905
         901         902         907         906
         902         903         908         907
         903         904         909         908
         905         906         911         910
         906         907         912         911
         907         908         913         912
         908         909         914         913
         910         911         916         915
         911         912         917         916
         912         913         918         917
         913         914         919         918
         915         916         921         920
         916         917         922         921
         917         918         923         922
         918         919         924         923
         925         926         931         930
         926         927         932         931
         927         928         933         932
         928         929         934         933
         930         931         936         935
         931         932         937         936
         932         933         938         937
         933         934         939         938
         935         936         941         940
         936         937         942         941
         937         938         943         942
         938         939         944         943
         940         941         946         945
         941         942         947         946
         942         943         948         947
         943         944         949         948
         950         951         956         955
         951         952         957         956
         952         953         958         957
         953         954         959         958
         955         956         961         960
         956         957         962         961
         957         958         963         962
         958         959         964         963
         960         961         966         965
         961         962         967         966
         962         963         968         967
         963         964         969         968
         965         966         971         970
         966         967         972         971
         967         968         973         972
         968         969         974         973
         975         976         981         980
         976         977         982         981
         977         978         983         982
         978         979         984         983
         980         981         986         985
         981         982         987         986
         982         983         988         987
         983         984         989         988
         985         986         991         990
         986         987         992         991
         987         988         993         992
         988         989         994         993
         990         991         996         995
         991         992         997         996
         992         993         998         997
         993         994         999         998
        1000        1001        1006        1005
        1001        1002        1007        1006
        1002        1003        1008        1007
        1003        1004        1009        1008
        1005        1006        1011        1010
        1006        1007        1012        1011
        1007        1008        1013        1012
        1008        1009        1014        1013
        1010        1011        1016        1015
        1011        1012        1017        1016
        1012        1013        1018        1017
        1013        1014        1019        1018
        1015        1016        1021        1020
        1016        1017        1022        1021
        1017        1018        1023        1022
        1018        1019        1024        1023
        1025        1026        1031        1030
        1026        1027        1032        1031
        1027        1028        1033        1032
        1028        1029        1034        1033
        1030        1031        1036        1035
        1031        1032        1037        1036
        1032        1033        1038        1037
        1033        1034        1039        1038
        1035        1036        1041        1040
        1036        1037        1042        1041
        1037        1038        1043        1042
        1038        1039        1044        1043
        1040        1041        1046        1045
        1041        1042        1047        1046
        1042        1043        1048        1047
        1043        1044        1049        1048
        1050        1051        1056        1055
        1051        1052        1057        1056
        1052        1053        1058        1057
        1053        1054        1059        1058
        1055        1056        1061        1060
        1056        1057        1062        1061
        1057        1058        1063        1062
        1058        1059        1064        1063
        1060        1061        1066        1065
        1061        1062        1067        1066
        1062        1063        1068        1067
        1063        1064        1069        1068
        1065        1066        1071        1070
        1066        1067        1072        1071
        1067        1068        1073        1072
        1068        1069        1074        1073
        1075        1076        1081        1080
        1076        1077        1082        1081
        1077        1078        1083        1082
        1078        1079        1084        1083
        1080        1081        1086        1085
        1081        1082        1087        1086
        1082        1083        1088        1087
        1083        1084        1089        1088
        1085        1086        1091        1090
        1086        1087        1092        1091
        1087        1088        1093        1092
        1088        1089        1094        1093
        1090        1091        1096        1095
        1091        1092        1097        1096
        1092        1093        1098        1097
        1093        1094        1099        1098
        1100        1101        1106        1105
        1101        1102        1107        1106
        1102        1103        1108        1107
        1103        1104        1109        1108
        1105        1106        1111        1110
        1106        1107        1112        1111
        1107        1108        1113        1112
        1108        1109        1114        1113
        1110        1111        1116        1115
        1111        1112        1117        1116
        1112        1113        1118        1117
        1113        1114        1119        1118
        1115        1116        1121        1120
        1116        1117        1122        1121
        1117        1118        1123        1122
        1118        1119        1124        1123
        1125        1126        1131        1130
        1126        1127        1132        1131
        1127        1128        1133        1132
        1128        1129        1134        1133
        1130        1131        1136        1135
        1131        1132        1137        1136
        1132        1133        1138        1137
        1133        1134        1139        1138
        1135        1136        1141        1140
        1136        1137        1142        1141
        1137        1138        1143        1142
        1138        1139        1144        1143
        1140        1141        1146        1145
        1141        1142        1147        1146
        1142        1143        1148        1147
        1143        1144        1149        1148
        1150        1151        1156        1155
        1151        1152        1157        1156
        1152        1153        1158        1157
        1153        1154        1159        1158
        1155        1156        1161        1160
        1156        1157        1162        1161
        1157        1158        1163        1162
        1158        1159        1164        1163
        1160        1161        1166        1165
        1161        1162        1167        1166
        1162        1163        1168        1167
        1163        1164        1169        1168
        1165        1166        1171        1170
        1166        1167        1172        1171
        1167        1168        1173        1172
        1168        1169        1174        1173
        1175        1176        1181        1180
        1176        1177        1182        1181
        1177        1178        1183        1182
        1178        1179        1184        1183
        1180        1181        1186        1185
        1181        1182        1187        1186
        1182        1183        1188        1187
        1183        1184        1189        1188
        1185        1186        1191        1190
        1186        1187        1192        1191
        1187        1188        1193        1192
        1188        1189        1194        1193
        1190        1191        1196        1195
        1191        1192        1197        1196
        1192        1193        1198        1197
        1193        1194        1199        1198
        1200        1201        1206        1205
        1201        1202        1207        1206
        1202        1203        1208        1207
        1203        1204        1209        1208
        1205        1206        1211        1210
        1206        1207        1212        1211
        1207        1208        1213        1212
        1208        1209        1214        1213
        1210        1211        1216        1215
        1211        1212        1217        1216
        1212        1213        1218        1217
        1213        1214        1219        1218
        1215        1216        1221        1220
        1216        1217        1222        1221
        1217        1218        1223        1222
        1218        1219        1224        1223
        1225        1226        1231        1230
        1226        1227        1232        1231
        1227        1228        1233        1232
        1228        1229        1234        1233
        1230        1231        1236        1235
        1231        1232        1237        1236
        1232        1233        1238        1237
        1233        1234        1239        1238
        1235        1236        1241        1240
        1236        1237        1242        1241
        1237        1238        1243        1242
        1238        1239        1244        1243
        1240        1241        1246        1245
        1241        1242        1247        1246
        1242        1243        1248        1247
        1243        1244        1249        1248
        1250        1251        1256        1255
        1251        1252        1257        1256
        1252        1253        1258        1257
        1253        1254        1259        1258
        1255        1256        1261        1260
        1256        1257        1262        1261
        1257        1258        1263        1262
        1258        1259        1264        1263
        1260        1261        1266        1265
        1261        1262        1267        1266
        1262        1263        1268        1267
        1263        1264        1269        1268
        1265        1266        1271        1270
        1266        1267        1272        1271
        1267        1268        1273        1272
        1268        1269        1274        1273
        1275        1276        1281        1280
        1276        1277        1282        1281
        1277        1278        1283        1282
        1278        1279        1284        1283
        1280        1281        1286        1285
        1281        1282        1287        1286
        1282        1283        1288        1287
        1283        1284        1289        1288
        1285        1286        1291        1290
        1286        1287        1292        1291
        1287        1288        1293        1292
        1288        1289        1294        1293
        1290        1291        1296        1295
        1291        1292        1297        1296
        1292        1293        1298        1297
        1293        1294        1299        1298
        1300        1301        1306        1305
        1301        1302        1307        1306
        1302        1303        1308        1307
        1303        1304        1309        1308
        1305        1306        1311        1310
        1306        1307        1312        1311
        1307        1308        1313        1312
        1308        1309        1314        1313
        1310        1311        1316        1315
        1311        1312        1317        1316
        1312        1313        1318        1317
        1313        1314        1319        1318
        1315        1316        1321        1320
        1316        1317        1322        1321
        1317        1318        1323        1322
        1318        1319        1324        1323
        1325        1326        1331        1330
        1326        1327        1332        1331
        1327        1328        1333        1332
        1328        1329        1334        1333
        1330        1331        1336        1335
        1331        1332        1337        1336
        1332        1333        1338        1337
        1333        1334        1339        1338
        1335        1336        1341        1340
        1336        1337        1342        1341
        1337        1338        1343        1342
        1338        1339        1344        1343
        1340        1341        1346        1345
        1341        1342        1347        1346
        1342        1343        1348        1347
        1343        1344        1349        1348
        1350        1351        1356        1355
        1351        1352        1357        1356
        1352        1353        1358        1357
        1353        1354        1359        1358
        1355        1356        1361        1360
        1356        1357        1362        1361
        1357        1358        1363        1362
        1358        1359        1364        1363
        1360        1361        1366        1365
        1361        1362        1367        1366
        1362        1363        1368        1367
        1363        1364        1369        1368
        1365        1366        1371        1370
        1366        1367        1372        1371
        1367        1368        1373        1372
        1368        1369        1374        1373
        1375        1376        1381        1380
        1376        1377        1382        1381
        1377        1378        1383        1382
        1378        1379        1384        1383
        1380        1381        1386        1385
        1381        1382        1387        1386
        1382        1383        1388        1387
        1383        1384        1389        1388
        1385        1386        1391        1390
        1386        1387        1392        1391
        1387        1388        1393        1392
        1388        1389        1394        1393
        1390        1391        1396        1395
        1391        1392        1397        1396
        1392        1393        1398        1397
        1393        1394        1399        1398
        1400        1401        1406        1405
        1401        1402        1407        1406
        1402        1403        1408        1407
        1403        1404        1409        1408
        1405        1406        1411        1410
        1406        1407        1412        1411
        1407        1408        1413        1412
        1408        1409        1414        1413
        1410        1411        1416        1415
        1411        1412        1417        1416
        1412        1413        1418        1417
        1413        1414        1419        1418
        1415        1416        1421        1420
        1416        1417        1422        1421
        1417        1418        1423        1422
        1418        1419        1424        1423
        1425        1426        1431        1430
        1426        1427        1432        1431
        1427        1428        1433        1432
        1428        1429        1434        1433
        1430        1431        1436        1435
        1431        1432        1437        1436
        1432        1433        1438        1437
        1433        1434        1439        1438
        1435        1436        1441        1440
        1436        1437        1442        1441
        1437        1438        1443        1442
        1438        1439        1444        1443
        1440        1441        1446        1445
        1441        1442        1447        1446
        1442        1443        1448        1447
        1443        1444        1449        1448
        1450        1451        1456        1455
        1451        1452        1457        1456
        1452        1453        1458        1457
        1453        1454        1459        1458
        1455        1456        1461        1460
        1456        1457        1462        1461
        1457        1458        1463        1462
        1458        1459        1464        1463
        1460        1461        1466        1465
        1461        1462        1467        1466
        1462        1463        1468        1467
        1463        1464        1469        1468
        1465        1466        1471        1470
        1466        1467        1472        1471
        1467        1468        1473        1472
        1468        1469        1474        1473
        1475        1476        1481        1480
        1476        1477        1482        1481
        1477        1478        1483        1482
        1478        1479        1484        1483
        1480        1481        1486        1485
        1481        1482        1487        1486
        1482        1483        1488        1487
        1483        1484        1489        1488
        1485        1486        1491        1490
        1486        1487        1492        1491
        1487        1488        1493        1492
        1488        1489        1494        1493
        1490        1491        1496        1495
        1491        1492        1497        1496
        1492        1493        1498        1497
        1493        1494        1499        1498
        1500        1501        1506        1505
        1501        1502        1507        1506
        1502        1503        1508        1507
        1503        1504        1509        1508
        1505        1506        1511        1510
        1506        1507        1512        1511
        1507        1508        1513        1512
        1508        1509        1514        1513
        1510        1511        1516        1515
        1511        1512        1517        1516
        1512        1513        1518        1517
        1513        1514        1519        1518
        1515        1516        1521        1520
        1516        1517        1522        1521
        1517        1518        1523        1522
        1518        1519        1524        1523
        1525        1526        1531        1530
        1526        1527        1532        1531
        1527        1528        1533        1532
        1528        1529        1534        1533
        1530        1531        1536        1535
        1531        1532        1537        1536
        1532        1533        1538        1537
        1533        1534        1539        1538
        1535        1536        1541        1540
        1536        1537        1542        1541
        1537        1538        1543        1542
        1538        1539        1544        1543
        1540        1541        1546        1545
        1541        1542        1547        1546
        1542        1543        1548        1547
        1543        1544        1549        1548
        1550        1551        1556        1555
        1551        1552        1557        1556
        1552        1553        1558        1557
        1553        1554        1559        1558
        1555        1556        1561        1560
        1556        1557        1562        1561
        1557        1558        1563        1562
        1558        1559        1564        1563
        1560        1561        1566        1565
        1561        1562        1567        1566
        1562        1563        1568        1567
        1563        1564        1569        1568
        1565        1566        1571        1570
        1566        1567        1572        1571
        1567        1568        1573        1572
        1568        1569        1574        1573
        1575        1576        1581        1580
        1576        1577        1582        1581
        1577        1578        1583        1582
        1578        1579        1584        1583
        1580        1581        1586        1585
        1581        1582        1587        1586
        1582        1583        1588        1587
        1583        1584        1589        1588
        1585        1586        1591        1590
        1586        1587        1592        1591
        1587        1588        1593        1592
        1588        1589        1594        1593
        1590        1591        1596        1595
        1591        1592        1597        1596
        1592        1593        1598        1597
        1593        1594        1599        1598
 </DataArray>
 <DataArray  type="Int32"  Name="offsets"  format="ascii"> 
           4
           8
          12
          16
          20
          24
          28
          32
          36
          40
          44
          48
          52
          56
          60
          64
          68
          72
          76
          80
          84
          88
          92
          96
         100
         104
         108
         112
         116
         120
         124
         128
         132
         136
         140
         144
         148
         152
         156
         160
         164
         168
         172
         176
         180
         184
         188
         192
         196
         200
         204
         208
         212
         216
         220
         224
         228
         232
         236
         240
         244
         248
         252
         256
         260
         264
         268
         272
         276
         280
         284
         288
         292
         296
         300
         304
         308
         312
         316
         320
         324
         328
         332
         336
         340
         344
         348
         352
         356
         360
         364
         368
         372
         376
         380
         384
         388
         392
         396
         400
         404
         408
         412
         416
         420
         424
         428
         432
         436
         440
         444
         448
         452
         456
         460
         464
         468
         472
         476
         480
         484
         488
         492
         496
         500
         504
         508
         512
         516
         520
         524
         528
         532
         536
         540
         544
         548
         552
         556
         560
         564
         568
         572
         576
         580
         584
         588
         592
         596
         600
         604
         608
         612
         616
         620
         624
         628
         632
         636
         640
         644
         648
         652
         656
         660
         664
         668
         672
         676
         680
         684
         688
         692
         696
         700
         704
         708
         712
         716
         720
         724
         728
         732
         736
         740
         744
         748
         752
         756
         760
         764
         768
         772
         776
         780
         784
         788
         792
         796
         800
         804
         808
         812
         816
         820
         824
         828
         832
         836
         840
         844
         848
         852
         856
         860
         864
         868
         872
         876
         880
         884
         888
         892
         896
         900
         904
         908
         912
         916
         920
         924
         928
         932
         936
         940
         944
         948
         952
         956
         960
         964
         968
         972
         976
         980
         984
         988
         992
         996
        1000
        1004
        1008
        1012
        1016
        1020
        1024
        1028
        1032
        1036
        1040
        1044
        1048
        1052
        1056
        1060
        1064
        1068
        1072
        1076
        1080
        1084
        1088
        1092
        1096
        1100
        1104
        1108
        1112
        1116
        1120
        1124
        1128
        1132
        1136
        1140
        1144
        1148
        1152
        1156
        1160
        1164
        1168
        1172
        1176
        1180
        1184
        1188
        1192
        1196
        1200
        1204
        1208
        1212
        1216
        1220
        1224
        1228
        1232
        1236
        1240
        1244
        1248
        1252
        1256
        1260
        1264
        1268
        1272
        1276
        1280
        1284
        1288
        1292
        1296
        1300
        1304
        1308
        1312
        1316
        1320
        1324
        1328
        1332
        1336
        1340
        1344
        1348
        1352
        1356
        1360
        1364
        1368
        1372
        1376
        1380
        1384
        1388
        1392
        1396
        1400
        1404
        1408
        1412
        1416
        1420
        1424
        1428
        1432
        1436
        1440
        1444
        1448
        1452
        1456
        1460
        1464
        1468
        1472
        1476
        1480
        1484
        1488
        1492
        1496
        1500
        1504
        1508
        1512
        1516
        1520
        1524
        1528
        1532
        1536
        1540
        1544
        1548
        1552
        1556
        1560
        1564
        1568
        1572
        1576
        1580
        1584
        1588
        1592
        1596
        1600
        1604
        1608
        1612
        1616
        1620
        1624
        1628
        1632
        1636
        1640
        1644
        1648
        1652
        1656
        1660
        1664
        1668
        1672
        1676
        1680
        1684
        1688
        1692
        1696
        1700
        1704
        1708
        1712
        1716
        1720
        1724
        1728
        1732
        1736
        1740
        1744
        1748
        1752
        1756
        1760
        1764
        1768
        1772
        1776
        1780
        1784
        1788
        1792
        1796
        1800
        1804
        1808
        1812
        1816
        1820
        1824
        1828
        1832
        1836
        1840
        1844
        1848
        1852
        1856
        1860
        1864
        1868
        1872
        1876
        1880
        1884
        1888
        1892
        1896
        1900
        1904
        1908
        1912
        1916
        1920
        1924
        1928
        1932
        1936
        1940
        1944
        1948
        1952
        1956
        1960
        1964
        1968
        1972
        1976
        1980
        1984
        1988
        1992
        1996
        2000
        2004
        2008
        2012
        2016
        2020
        2024
        2028
        2032
        2036
        2040
        2044
        2048
        2052
        2056
        2060
        2064
        2068
        2072
        2076
        2080
        2084
        2088
        2092
        2096
        2100
        2104
        2108
        2112
        2116
        2120
        2124
        2128
        2132
        2136
        2140
        2144
        2148
        2152
        2156
        2160
        2164
        2168
        2172
        2176
        2180
        2184
        2188
        2192
        2196
        2200
        2204
        2208
        2212
        2216
        2220
        2224
        2228
        2232
        2236
        2240
        2244
        2248
        2252
        2256
        2260
        2264
        2268
        2272
        2276
        2280
        2284
        2288
        2292
        2296
        2300
        2304
        2308
        2312
        2316
        2320
        2324
        2328
        2332
        2336
        2340
        2344
        2348
        2352
        2356
        2360
        2364
        2368
        2372
        2376
        2380
        2384
        2388
        2392
        2396
        2400
        2404
        2408
        2412
        2416
        2420
        2424
        2428
        2432
        2436
        2440
        2444
        2448
        2452
        2456
        2460
        2464
        2468
        2472
        2476
        2480
        2484
        2488
        2492
        2496
        2500
        2504
        2508
        2512
        2516
        2520
        2524
        2528
        2532
        2536
        2540
        2544
        2548
        2552
        2556
        2560
        2564
        2568
        2572
        2576
        2580
        2584
        2588
        2592
        2596
        2600
        2604
        2608
        2612
        2616
        2620
        2624
        2628
        2632
        2636
        2640
        2644
        2648
        2652
        2656
        2660
        2664
        2668
        2672
        2676
        2680
        2684
        2688
        2692
        2696
        2700
        2704
        2708
        2712
        2716
        2720
        2724
        2728
        2732
        2736
        2740
        2744
        2748
        2752
        2756
        2760
        2764
        2768
        2772
        2776
        2780
        2784
        2788
        2792
        2796
        2800
        2804
        2808
        2812
        2816
        2820
        2824
        2828
        2832
        2836
        2840
        2844
        2848
        2852
        2856
        2860
        2864
        2868
        2872
        2876
        2880
        2884
        2888
        2892
        2896
        2900
        2904
        2908
        2912
        2916
        2920
        2924
        2928
        2932
        2936
        2940
        2944
        2948
        2952
        2956
        2960
        2964
        2968
        2972
        2976
        2980
        2984
        2988
        2992
        2996
        3000
        3004
        3008
        3012
        3016
        3020
        3024
        3028
        3032
        3036
        3040
        3044
        3048
        3052
        3056
        3060
        3064
        3068
        3072
        3076
        3080
        3084
        3088
        3092
        3096
        3100
        3104
        3108
        3112
        3116
        3120
        3124
        3128
        3132
        3136
        3140
        3144
        3148
        3152
        3156
        3160
        3164
        3168
        3172
        3176
        3180
        3184
        3188
        3192
        3196
        3200
        3204
        3208
        3212
        3216
        3220
        3224
        3228
        3232
        3236
        3240
        3244
        3248
        3252
        3256
        3260
        3264
        3268
        3272
        3276
        3280
        3284
        3288
        3292
        3296
        3300
        3304
        3308
        3312
        3316
        3320
        3324
        3328
        3332
        3336
        3340
        3344
        3348
        3352
        3356
        3360
        3364
        3368
        3372
        3376
        3380
        3384
        3388
        3392
        3396
        3400
        3404
        3408
        3412
        3416
        3420
        3424
        3428
        3432
        3436
        3440
        3444
        3448
        3452
        3456
        3460
        3464
        3468
        3472
        3476
        3480
        3484
        3488
        3492
        3496
        3500
        3504
        3508
        3512
        3516
        3520
        3524
        3528
        3532
        3536
        3540
        3544
        3548
        3552
        3556
        3560
        3564
        3568
        3572
        3576
        3580
        3584
        3588
        3592
        3596
        3600
        3604
        3608
        3612
        3616
        3620
        3624
        3628
        3632
        3636
        3640
        3644
        3648
        3652
        3656
        3660
        3664
        3668
        3672
        3676
        3680
        3684
        3688
        3692
        3696
        3700
        3704
        3708
        3712
        3716
        3720
        3724
        3728
        3732
        3736
        3740
        3744
        3748
        3752
        3756
        3760
        3764
        3768
        3772
        3776
        3780
        3784
        3788
        3792
        3796
        3800
        3804
        3808
        3812
        3816
        3820
        3824
        3828
        3832
        3836
        3840
        3844
        3848
        3852
        3856
        3860
        3864
        3868
        3872
        3876
        3880
        3884
        3888
        3892
        3896
        3900
        3904
        3908
        3912
        3916
        3920
        3924
        3928
        3932
        3936
        3940
        3944
        3948
        3952
        3956
        3960
        3964
        3968
        3972
        3976
        3980
        3984
        3988
        3992
        3996
        4000
        4004
        4008
        4012
        4016
        4020
        4024
        4028
        4032
        4036
        4040
        4044
        4048
        4052
        4056
        4060
        4064
        4068
        4072
        4076
        4080
        4084
        4088
        4092
        4096
 </DataArray>
 <DataArray  type="UInt8"  Name="types"  format="ascii">
 9
 9
 9
 9
 9
 9
 9
 9
 9
 9
 9
 9
 9
 9
 9
 9
 9
 9
 9
 9
 9
 9
 9
 9
 9
 9
 9
 9
 9
 9
 9
 9
 9
 9
 9
 9
 9
 9
 9
 9
 9
 9
 9
 9
 9
 9
 9
 9
 9
 9
 9
 9
 9
 9
 9
 9
 9
 9
 9
 9
 9
 9
 9
 9
 9
 9
 9
 9
 9
 9
 9
 9
 9
 9
 9
 9
 9
 9
 9
 9
 9
 9
 9
 9
 9
 9
 9
 9
 9
 9
 9
 9
 9
 9
 9
 9
 9
 9
 9
 9
 9
 9
 9
 9
 9
 9
 9
 9
 9
 9
 9
 9
 9
 9
 9
 9
 9
 9
 9
 9
 9
 9
 9
 9
 9
 9
 9
 9
 9
 9
 9
 9
 9
 9
 9
 9
 9
 9
 9
 9
 9
 9
 9
 9
 9
 9
 9
 9
 9
 9
 9
 9
 9
 9
 9
 9
 9
 9
 9
 9
 9
 9
 9
 9
 9
 9
 9
 9
 9
 9
 9
 9
 9
 9
 9
 9
 9
 9
 9
 9
 9
 9
 9
 9
 9
 9
 9
 9
 9
 9
 9
 9
 9
 9
 9
 9
 9
 9
 9
 9
 9
 9
 9
 9
 9
 9
 9
 9
 9
 9
 9
 9
 9
 9
 9
 9
 9
 9
 9
 9
 9
 9
 9
 9
 9
 9
 9
 9
 9
 9
 9
 9
 9
 9
 9
 9
 9
 9
 9
 9
 9
 9
 9
 9
 9
 9
 9
 9
 9
 9
 9
 9
 9
 9
 9
 9
 9
 9
 9
 9
 9
 9
 9
 9
 9
 9
 9
 9
 9
 9
 9
 9
 9
 9
 9
 9
 9
 9
 9
 9
 9
 9
 9
 9
 9
 9
 9
 9
 9
 9
 9
 9
 9
 9
 9
 9
 9
 9
 9
 9
 9
 9
 9
 9
 9
 9
 9
 9
 9
 9
 9
 9
 9
 9
 9
 9
 9
 9
 9
 9
 9
 9
 9
 9
 9
 9
 9
 9
 9
 9
 9
 9
 9
 9
 9
 9
 9
 9
 9
 9
 9
 9
 9
 9
 9
 9
 9
 9
 9
 9
 9
 9
 9
 9
 9
 9
 9
 9
 9
 9
 9
 9
 9
 9
 9
 9
 9
 9
 9
 9
 9
 9
 9
 9
 9
 9
 9
 9
 9
 9
 9
 9
 9
 9
 9
 9
 9
 9
 9
 9
 9
 9
 9
 9
 9
 9
 9
 9
 9
 9
 9
 9
 9
 9
 9
 9
 9
 9
 9
 9
 9
 9
 9
 9
 9
 9
 9
 9
 9
 9
 9
 9
 9
 9
 9
 9
 9
 9
 9
 9
 9
 9
 9
 9
 9
 9
 9
 9
 9
 9
 9
 9
 9
 9
 9
 9
 9
 9
 9
 9
 9
 9
 9
 9
 9
 9
 9
 9
 9
 9
 9
 9
 9
 9
 9
 9
 9
 9
 9
 9
 9
 9
 9
 9
 9
 9
 9
 9
 9
 9
 9
 9
 9
 9
 9
 9
 9
 9
 9
 9
 9
 9
 9
 9
 9
 9
 9
 9
 9
 9
 9
 9
 9
 9
 9
 9
 9
 9
 9
 9
 9
 9
 9
 9
 9
 9
 9
 9
 9
 9
 9
 9
 9
 9
 9
 9
 9
 9
 9
 9
 9
 9
 9
 9
 9
 9
 9
 9
 9
 9
 9
 9
 9
 9
 9
 9
 9
 9
 9
 9
 9
 9
 9
 9
 9
 9
 9
 9
 9
 9
 9
 9
 9
 9
 9
 9
 9
 9
 9
 9
 9
 9
 9
 9
 9
 9
 9
 9
 9
 9
 9
 9
 9
 9
 9
 9
 9
 9
 9
 9
 9
 9
 9
 9
 9
 9
 9
 9
 9
 9
 9
 9
 9
 9
 9
 9
 9
 9
 9
 9
 9
 9
 9
 9
 9
 9
 9
 9
 9
 9
 9
 9
 9
 9
 9
 9
 9
 9
 9
 9
 9
 9
 9
 9
 9
 9
 9
 9
 9
 9
 9
 9
 9
 9
 9
 9
 9
 9
 9
 9
 9
 9
 9
 9
 9
 9
 9
 9
 9
 9
 9
 9
 9
 9
 9
 9
 9
 9
 9
 9
 9
 9
 9
 9
 9
 9
 9
 9
 9
 9
 9
 9
 9
 9
 9
 9
 9
 9
 9
 9
 9
 9
 9
 9
 9
 9
 9
 9
 9
 9
 9
 9
 9
 9
 9
 9
 9
 9
 9
 9
 9
 9
 9
 9
 9
 9
 9
 9
 9
 9
 9
 9
 9
 9
 9
 9
 9
 9
 9
 9
 9
 9
 9
 9
 9
 9
 9
 9
 9
 9
 9
 9
 9
 9
 9
 9
 9
 9
 9
 9
 9
 9
 9
 9
 9
 9
 9
 9
 9
 9
 9
 9
 9
 9
 9
 9
 9
 9
 9
 9
 9
 9
 9
 9
 9
 9
 9
 9
 9
 9
 9
 9
 9
 9
 9
 9
 9
 9
 9
 9
 9
 9
 9
 9
 9
 9
 9
 9
 9
 9
 9
 9
 9
 9
 9
 9
 9
 9
 9
 9
 9
 9
 9
 9
 9
 9
 9
 9
 9
 9
 9
 9
 9
 9
 9
 9
 9
 9
 9
 9
 9
 9
 9
 9
 9
 9
 9
 9
 9
 9
 9
 9
 9
 9
 9
 9
 9
 9
 9
 9
 9
 9
 9
 9
 9
 9
 9
 9
 9
 9
 9
 9
 9
 9
 9
 9
 9
 9
 9
 9
 9
 9
 9
 9
 9
 9
 9
 9
 9
 9
 9
 9
 9
 9
 9
 9
 9
 9
 9
 9
 9
 9
 9
 9
 9
 9
 9
 9
 9
 9
 9
 9
 9
 9
 9
 9
 9
 9
 9
 9
 9
 9
 9
 9
 9
 9
 9
 9
 9
 9
 9
 9
 9
 9
 9
 9
 9
 9
 9
 9
 9
 9
 9
 9
 9
 9
 9
 9
 9
 9
 9
 9
 9
 9
 9
 9
 9
 9
 9
 9
 9
 9
 9
 9
 9
 9
 9
 9
 9
 9
 9
 9
 9
 9
 9
 9
 9
 9
 9
 9
 9
 9
 9
 9
 9
 9
 9
 9
 9
 9
 9
 9
 9
 9
 9
 9
 9
 9
 9
 9
 9
 9
 9
 9
 9
 9
 9
 9
 9
 9
 9
 9
 9
 9
 9
 9
 9
 9
 9
 9
 9
 9
 9
 9
 9
 9
 9
 9
 9
 9
 9
 9
 9
 9
 </DataArray>
 </Cells> 
 <PointData>
 <DataArray  type="Float64" Name="disp" NumberOfComponents="3" format="ascii">
   6.5316741527212549E-002   6.2781567865132726E-002   0.0000000000000000     
   6.8355647977191944E-002   6.8171724471197154E-002   0.0000000000000000     
   7.1305103599129088E-002   7.3736039967498668E-002   0.0000000000000000     
   7.4165108393023954E-002   7.9474514354037226E-002   0.0000000000000000     
   7.6935662358876597E-002   8.5387147630812871E-002   0.0000000000000000     
   6.0215314118770180E-002   6.1883460668984897E-002   0.0000000000000000     
   6.3076330279759646E-002   6.7296582145087366E-002   0.0000000000000000     
   6.5844219138118304E-002   7.2886345189983118E-002   0.0000000000000000     
   6.8518980693846154E-002   7.8652749803672165E-002   0.0000000000000000     
   7.1100614946943197E-002   8.4595795986154493E-002   0.0000000000000000     
   5.5259640593676385E-002   6.1038957879040283E-002   0.0000000000000000     
   5.7939590541444166E-002   6.6476011381215283E-002   0.0000000000000000     
   6.0527086037206516E-002   7.2090898656899341E-002   0.0000000000000000     
   6.3022127080963442E-002   7.7883619706092463E-002   0.0000000000000000     
   6.5424713672714935E-002   8.3854174528794623E-002   0.0000000000000000     
   5.0449720951931155E-002   6.0248059495298878E-002   0.0000000000000000     
   5.2945428762245512E-002   6.5710012179580918E-002   0.0000000000000000     
   5.5353704296393733E-002   7.1349700368247337E-002   0.0000000000000000     
   5.7674547554375837E-002   7.7167124061298123E-002   0.0000000000000000     
   5.9907958536191810E-002   8.3162283258733274E-002   0.0000000000000000     
   4.5785555193534500E-002   5.9510765517760689E-002   0.0000000000000000     
   4.8093844942163663E-002   6.4998584540184270E-002   0.0000000000000000     
   5.0324073915679932E-002   7.0662750324027107E-002   0.0000000000000000     
   5.2476242114083332E-002   7.6503262869289129E-002   0.0000000000000000     
   5.4550349537373845E-002   8.2520122175970406E-002   0.0000000000000000     
   7.6935662358876597E-002   8.5387147630812871E-002   0.0000000000000000     
   7.9618528978369435E-002   9.1471165798289136E-002   0.0000000000000000     
   8.2215471733184955E-002   9.7723794856929627E-002   0.0000000000000000     
   8.4726490623323159E-002  0.10414503480673433        0.0000000000000000     
   8.7151585648784044E-002  0.11073488564770326        0.0000000000000000     
   7.1100614946943197E-002   8.4595795986154493E-002   0.0000000000000000     
   7.3598229252274952E-002   9.0710466491230476E-002   0.0000000000000000     
   7.6020930964706968E-002   9.6991744072700434E-002   0.0000000000000000     
   7.8368720084239188E-002  0.10343962873056442        0.0000000000000000     
   8.0641596610871669E-002  0.11005412046482235        0.0000000000000000     
   6.5424713672714935E-002   8.3854174528794623E-002   0.0000000000000000     
   6.7747531236041950E-002   8.9996516570272495E-002   0.0000000000000000     
   7.0003265194525391E-002   9.6304599275792699E-002   0.0000000000000000     
   7.2191915548165300E-002  0.10277842264535522        0.0000000000000000     
   7.4313482296961664E-002  0.10941798667896005        0.0000000000000000     
   5.9907958536191810E-002   8.3162283258733274E-002   0.0000000000000000     
   6.2066434929670414E-002   8.9329316035415204E-002   0.0000000000000000     
   6.4162474422640295E-002   9.5662360466206381E-002   0.0000000000000000     
   6.6196077015101509E-002  0.10216141655110675        0.0000000000000000     
   6.8167242707054043E-002  0.10882648429011633        0.0000000000000000     
   5.4550349537373845E-002   8.2520122175970406E-002   0.0000000000000000     
   5.6554940333160331E-002   8.8708864886658606E-002   0.0000000000000000     
   5.8498558649051652E-002   9.5065027643941494E-002   0.0000000000000000     
   6.0381204485047808E-002  0.10158861044781901        0.0000000000000000     
   6.2202877841148779E-002  0.10827961329829119        0.0000000000000000     
   8.7151585648784044E-002  0.11073488564770326        0.0000000000000000     
   8.9477213529819591E-002  0.11747034125513950        0.0000000000000000     
   9.1689830986681820E-002  0.12432839550434625        0.0000000000000000     
   9.3789438019370716E-002  0.13130904839532345        0.0000000000000000     
   9.5776034627886281E-002  0.13841229992807114        0.0000000000000000     
   8.0641596610871669E-002  0.11005412046482235        0.0000000000000000     
   8.2823670278060701E-002  0.11681414535201119        0.0000000000000000     
   8.4899050819262675E-002  0.12369862946866775        0.0000000000000000     
   8.6867738234477535E-002  0.13070757281479203        0.0000000000000000     
   8.8729732523705321E-002  0.13784097539038401        0.0000000000000000     
   7.4313482296961664E-002  0.10941798667896005        0.0000000000000000     
   7.6351386088827355E-002  0.11620301141453504        0.0000000000000000     
   7.8289047571675291E-002  0.12311321689000793        0.0000000000000000     
   8.0126466745505442E-002  0.13014860310537874        0.0000000000000000     
   8.1863643610317852E-002  0.13730917006064747        0.0000000000000000     
   6.8167242707054043E-002  0.10882648429011633        0.0000000000000000     
   7.0060360962119539E-002  0.11563693944271107        0.0000000000000000     
   7.1859821243919680E-002  0.12257215776836683        0.0000000000000000     
   7.3565623552454454E-002  0.12963213926708361        0.0000000000000000     
   7.5177767887723873E-002  0.13681688393886152        0.0000000000000000     
   6.2202877841148779E-002  0.10827961329829119        0.0000000000000000     
   6.3950594897937238E-002  0.11511592943653927        0.0000000000000000     
   6.5611371835995830E-002  0.12207545210374442        0.0000000000000000     
   6.7185208655324541E-002  0.12915818129990669        0.0000000000000000     
   6.8672105355923413E-002  0.13636411702502604        0.0000000000000000     
   9.5776034627886281E-002  0.13841229992807114        0.0000000000000000     
   9.7664454704416259E-002  0.14563455158295877        0.0000000000000000     
   9.9469532141148370E-002  0.15297220484035579        0.0000000000000000     
  0.10119126693808267       0.16042525970026225        0.0000000000000000     
  0.10282965909521910       0.16799371616267808        0.0000000000000000     
   8.8729732523705321E-002  0.13784097539038401        0.0000000000000000     
   9.0498762575744907E-002  0.14509338695144311        0.0000000000000000     
   9.2188557279395233E-002  0.15245935725396867        0.0000000000000000     
   9.3799116634656274E-002  0.15993888629796069        0.0000000000000000     
   9.5330440641528055E-002  0.16753197408341916        0.0000000000000000     
   8.1863643610317852E-002  0.13730917006064747        0.0000000000000000     
   8.3513183488822584E-002  0.14458870455208161        0.0000000000000000     
   8.5087691703729706E-002  0.15198099337594864        0.0000000000000000     
   8.6587168255039260E-002  0.15948603653224860        0.0000000000000000     
   8.8011613142751202E-002  0.16710383402098145        0.0000000000000000     
   7.5177767887723873E-002  0.13681688393886152        0.0000000000000000     
   7.6707717443649237E-002  0.14412050438487423        0.0000000000000000     
   7.8166935414151789E-002  0.15153711320629570        0.0000000000000000     
   7.9555421799231571E-002  0.15906671040312598        0.0000000000000000     
   8.0873176598888569E-002  0.16670929597536494        0.0000000000000000     
   6.8672105355923413E-002  0.13636411702502604        0.0000000000000000     
   7.0082364440224892E-002  0.14368878644982094        0.0000000000000000     
   7.1426288410661509E-002  0.15112771674500985        0.0000000000000000     
   7.2703877267233250E-002  0.15868090791059275        0.0000000000000000     
   7.3915131009940113E-002  0.16634835994656960        0.0000000000000000     
  0.10282965909521910       0.16799371616267808        0.0000000000000000     
  0.10438202813423815       0.17566394751925768        0.0000000000000000     
  0.10584569357682029       0.18342232706165529        0.0000000000000000     
  0.10722065542296552       0.19126885478987099        0.0000000000000000     
  0.10850691367267383       0.19920353070390470        0.0000000000000000     
   9.5330440641528055E-002  0.16753197408341916        0.0000000000000000     
   9.6779578282672141E-002  0.17522645376581902        0.0000000000000000     
   9.8143578540750148E-002  0.18301015850063515        0.0000000000000000     
   9.9422441415762092E-002  0.19088308828786765        0.0000000000000000     
  0.10061616690770794       0.19884524312751639        0.0000000000000000     
   8.8011613142751202E-002  0.16710383402098145        0.0000000000000000     
   8.9357668253344527E-002  0.17482282993929349        0.0000000000000000     
   9.0621975473298116E-002  0.18263146838433092        0.0000000000000000     
   9.1804534802611984E-002  0.19052974935609382        0.0000000000000000     
   9.2905346241286130E-002  0.19851767285458216        0.0000000000000000     
   8.0873176598888569E-002  0.16670929597536494        0.0000000000000000     
   8.2116298046255240E-002  0.17445307603968102        0.0000000000000000     
   8.3280884374464112E-002  0.18228625671274254        0.0000000000000000     
   8.4366935583515143E-002  0.19020883799454952        0.0000000000000000     
   8.5374451673408347E-002  0.19822081988510196        0.0000000000000000     
   7.3915131009940113E-002  0.16634835994656960        0.0000000000000000     
   7.5055467661404349E-002  0.17411719206698165        0.0000000000000000     
   7.6120305244248176E-002  0.18197452348587007        0.0000000000000000     
   7.7109643758471610E-002  0.18992035420323478        0.0000000000000000     
   7.8023483204074637E-002  0.19795468421907586        0.0000000000000000     
  0.10850691367267383       0.19920353070390470        0.0000000000000000     
  0.10971163158351918       0.20722316694768297        0.0000000000000000     
  0.11084197241307547       0.21532457566513227        0.0000000000000000     
  0.11189793616134275       0.22350775685625257        0.0000000000000000     
  0.11287952282832101       0.23177271052104392        0.0000000000000000     
  0.10061616690770794       0.19884524312751639        0.0000000000000000     
  0.10173103753835874       0.20689072091613814        0.0000000000000000     
  0.10277333582948552       0.21501361955028958        0.0000000000000000     
  0.10374306178108826       0.22321393902997064        0.0000000000000000     
  0.10464021539316698       0.23149167935518139        0.0000000000000000     
   9.2905346241286130E-002  0.19851767285458216        0.0000000000000000     
   9.3929408987650467E-002  0.20658786798176371        0.0000000000000000     
   9.4881722240034938E-002  0.21473296383960636        0.0000000000000000     
   9.5762285998439528E-002  0.22295296042811000        0.0000000000000000     
   9.6571100262864223E-002  0.23124785774727466        0.0000000000000000     
   8.5374451673408347E-002  0.19822081988510196        0.0000000000000000     
   8.6306745931394355E-002  0.20631460814455971        0.0000000000000000     
   8.7167131644723742E-002  0.21448260853308257        0.0000000000000000     
   8.7955608813396521E-002  0.22272482105067057        0.0000000000000000     
   8.8672177437412708E-002  0.23104124569732373        0.0000000000000000     
   7.8023483204074637E-002  0.19795468421907586        0.0000000000000000     
   7.8863048369590363E-002  0.20607094140452611        0.0000000000000000     
   7.9629564043551912E-002  0.21426255363071828        0.0000000000000000     
   8.0323030225959269E-002  0.22252952089765246        0.0000000000000000     
   8.0943446916812434E-002  0.23087184320532858        0.0000000000000000     
  0.11287952282832101       0.23177271052104392        0.0000000000000000     
  0.11381435630977396       0.24013597510348905        0.0000000000000000     
  0.11473006050146542       0.24861408904757076        0.0000000000000000     
  0.11562663540339532       0.25720705235328900        0.0000000000000000     
  0.11650408101556371       0.26591486502064388        0.0000000000000000     
  0.10464021539316698       0.23149167935518139        0.0000000000000000     
  0.10546950744123998       0.23987041516860147        0.0000000000000000     
  0.10623564870082552       0.24837372111291051        0.0000000000000000     
  0.10693863917192362       0.25700159718810855        0.0000000000000000     
  0.10757847885453425       0.26575404339419556        0.0000000000000000     
   9.6571100262864223E-002  0.23124785774727466        0.0000000000000000     
   9.7298842580394840E-002  0.23964425279568410        0.0000000000000000     
   9.7936190498117123E-002  0.24816874257192212        0.0000000000000000     
   9.8483144016031102E-002  0.25682132707598865        0.0000000000000000     
   9.8939703134136775E-002  0.26560200630788378        0.0000000000000000     
   8.8672177437412708E-002  0.23104124569732373        0.0000000000000000     
   8.9302361727238516E-002  0.23945748798473707        0.0000000000000000     
   8.9831685893340216E-002  0.24799915342460566        0.0000000000000000     
   9.0260149935717779E-002  0.25666624201692945        0.0000000000000000     
   9.0587753854371247E-002  0.26545875376170863        0.0000000000000000     
   8.0943446916812434E-002  0.23087184320532858        0.0000000000000000     
   8.1480064881771064E-002  0.23931012073576025        0.0000000000000000     
   8.1922134886494802E-002  0.24786495367096106        0.0000000000000000     
   8.2269656930983703E-002  0.25653634201093095        0.0000000000000000     
   8.2522631015237685E-002  0.26532428575566996        0.0000000000000000     
  0.11650408101556371       0.26591486502064388        0.0000000000000000     
  0.11730284479420053       0.27490216478314111        0.0000000000000000     
  0.11796337419553575       0.28433358937428654        0.0000000000000000     
  0.11848566921956935       0.29420913879408028        0.0000000000000000     
  0.11886972986630133       0.30452881304252227        0.0000000000000000     
  0.10757847885453425       0.26575404339419556        0.0000000000000000     
  0.10813622738809360       0.27476318010227002        0.0000000000000000     
  0.10859294441203776       0.28416112768343044        0.0000000000000000     
  0.10894862992636674       0.29394788613767664        0.0000000000000000     
  0.10920328393108054       0.30412345546500880        0.0000000000000000     
   9.8939703134136775E-002  0.26560200630788378        0.0000000000000000     
   9.9316896773159524E-002  0.27460902507033308        0.0000000000000000     
   9.9625753853824731E-002  0.28394062816606208        0.0000000000000000     
   9.9866274376132394E-002  0.29359681559507084        0.0000000000000000     
  0.10003845834008253       0.30357758735735935        0.0000000000000000     
   9.0587753854371247E-002  0.26545875376170863        0.0000000000000000     
   9.0844852949398300E-002  0.27443969968733029        0.0000000000000000     
   9.1061802520896684E-002  0.28367209082218164        0.0000000000000000     
   9.1238602568866331E-002  0.29315592716626288        0.0000000000000000     
   9.1375253093307324E-002  0.30289120871957381        0.0000000000000000     
   8.2522631015237685E-002  0.26532428575566996        0.0000000000000000     
   8.2720095916809941E-002  0.27425520395326153        0.0000000000000000     
   8.2901090413253567E-002  0.28335551565178918        0.0000000000000000     
   8.3065614504568550E-002  0.29262522085125270        0.0000000000000000     
   8.3213668190754916E-002  0.30206431955165236        0.0000000000000000     
   4.5785555193534500E-002   5.9510765517760689E-002   0.0000000000000000     
   4.8093844942163663E-002   6.4998584540184270E-002   0.0000000000000000     
   5.0324073915679932E-002   7.0662750324027107E-002   0.0000000000000000     
   5.2476242114083332E-002   7.6503262869289129E-002   0.0000000000000000     
   5.4550349537373845E-002   8.2520122175970406E-002   0.0000000000000000     
   4.1285842440671995E-002   5.8831259960350948E-002   0.0000000000000000     
   4.3405577633367359E-002   6.4343236591668157E-002   0.0000000000000000     
   4.5457325319896019E-002   7.0030087622627329E-002   0.0000000000000000     
   4.7441085500257961E-002   7.5891813053228438E-002   0.0000000000000000     
   4.9356858174453185E-002   8.1928412883471496E-002   0.0000000000000000     
   3.6969281815529206E-002   5.8213726836994890E-002   0.0000000000000000     
   3.8901365388025348E-002   6.3745476462675393E-002   0.0000000000000000     
   4.0772588933872866E-002   6.9451751362436739E-002   0.0000000000000000     
   4.2582952453071740E-002   7.5332551536278936E-002   0.0000000000000000     
   4.4332455945621997E-002   8.1387876984201982E-002   0.0000000000000000     
   3.2835873318106140E-002   5.7658166147692543E-002   0.0000000000000000     
   3.4581208206137609E-002   6.3205304153205966E-002   0.0000000000000000     
   3.6269864757610452E-002   6.8927741543455337E-002   0.0000000000000000     
   3.7901842972524684E-002   7.4825478318440622E-002   0.0000000000000000     
   3.9477142850880297E-002   8.0898514478161848E-002   0.0000000000000000     
   2.8885616948402797E-002   5.7164577892443870E-002   0.0000000000000000     
   3.0445106087704149E-002   6.2722719663259888E-002   0.0000000000000000     
   3.1949152791108812E-002   6.8458058165683094E-002   0.0000000000000000     
   3.3397757058616785E-002   7.4370593399713525E-002   0.0000000000000000     
   3.4790918890228062E-002   8.0460325365351110E-002   0.0000000000000000     
   5.4550349537373845E-002   8.2520122175970406E-002   0.0000000000000000     
   5.6554940333160331E-002   8.8708864886658606E-002   0.0000000000000000     
   5.8498558649051652E-002   9.5065027643941494E-002   0.0000000000000000     
   6.0381204485047808E-002  0.10158861044781901        0.0000000000000000     
   6.2202877841148779E-002  0.10827961329829119        0.0000000000000000     
   4.9356858174453185E-002   8.1928412883471496E-002   0.0000000000000000     
   5.1208667698811897E-002   8.8136971796229951E-002   0.0000000000000000     
   5.3000538429664297E-002   9.4514574474377291E-002   0.0000000000000000     
   5.4732470367010413E-002  0.10106122091791347        0.0000000000000000     
   5.6404463510850218E-002  0.10777691112683853        0.0000000000000000     
   4.4332455945621997E-002   8.1387876984201982E-002   0.0000000000000000     
   4.6023237278925246E-002   8.7615445436356479E-002   0.0000000000000000     
   4.7657434320383107E-002   9.4012974622893000E-002   0.0000000000000000     
   4.9235047069995569E-002  0.10058046454381160        0.0000000000000000     
   5.0756075527762644E-002  0.10731791519911223        0.0000000000000000     
   3.9477142850880297E-002   8.0898514478161848E-002   0.0000000000000000     
   4.0998649073500371E-002   8.7144285807038147E-002   0.0000000000000000     
   4.2469246321208035E-002   9.3560228089488648E-002   0.0000000000000000     
   4.3888934594003275E-002  0.10014634132551337        0.0000000000000000     
   4.5257713891886084E-002  0.10690262551511227        0.0000000000000000     
   3.4790918890228062E-002   8.0460325365351110E-002   0.0000000000000000     
   3.6134903082537292E-002   8.6723492908274982E-002   0.0000000000000000     
   3.7435974432139113E-002   9.3156334874164193E-002   0.0000000000000000     
   3.8694132939033524E-002   9.9758851263018755E-002   0.0000000000000000     
   3.9909378603220524E-002  0.10653104207483870        0.0000000000000000     
   6.2202877841148779E-002  0.10827961329829119        0.0000000000000000     
   6.3950594897937238E-002  0.11511592943653927        0.0000000000000000     
   6.5611371835995830E-002  0.12207545210374442        0.0000000000000000     
   6.7185208655324541E-002  0.12915818129990669        0.0000000000000000     
   6.8672105355923413E-002  0.13636411702502604        0.0000000000000000     
   5.6404463510850218E-002  0.10777691112683853        0.0000000000000000     
   5.8006424626436320E-002  0.11463787825535458        0.0000000000000000     
   5.9528260479021294E-002  0.12162035545766377        0.0000000000000000     
   6.0969971068605175E-002  0.12872434273376612        0.0000000000000000     
   6.2331556395187948E-002  0.13594984008366157        0.0000000000000000     
   5.0756075527762644E-002  0.10731791519911223        0.0000000000000000     
   5.2212186877772578E-002  0.11420068275849196        0.0000000000000000     
   5.3595048304113622E-002  0.12120412339164791        0.0000000000000000     
   5.4904659806785765E-002  0.12832823709858002        0.0000000000000000     
   5.6141021385788997E-002  0.13557302387928832        0.0000000000000000     
   4.5257713891886084E-002  0.10690262551511227        0.0000000000000000     
   4.6567881651946065E-002  0.11380434294595143        0.0000000000000000     
   4.7811735311272814E-002  0.12082675590569682        0.0000000000000000     
   4.8989274869866324E-002  0.12796986439434846        0.0000000000000000     
   5.0100500327726588E-002  0.13523366841190634        0.0000000000000000     
   3.9909378603220524E-002  0.10653104207483870        0.0000000000000000     
   4.1073508948956755E-002  0.11344885881773295        0.0000000000000000     
   4.2178321500498855E-002  0.12048825299981053        0.0000000000000000     
   4.3223816257846846E-002  0.12764922462107142        0.0000000000000000     
   4.4209993221000693E-002  0.13493177368151565        0.0000000000000000     
   6.8672105355923413E-002  0.13636411702502604        0.0000000000000000     
   7.0082364440224892E-002  0.14368878644982094        0.0000000000000000     
   7.1426288410661509E-002  0.15112771674500985        0.0000000000000000     
   7.2703877267233250E-002  0.15868090791059275        0.0000000000000000     
   7.3915131009940113E-002  0.16634835994656960        0.0000000000000000     
   6.2331556395187948E-002  0.13594984008366157        0.0000000000000000     
   6.3622124300387467E-002  0.14329398141898475        0.0000000000000000     
   6.4850782625821557E-002  0.15075390065137015        0.0000000000000000     
   6.6017531371490218E-002  0.15832959778081790        0.0000000000000000     
   6.7122370537393478E-002  0.16602107280732789        0.0000000000000000     
   5.6141021385788997E-002  0.13557302387928832        0.0000000000000000     
   5.7311996845974801E-002  0.14293651996442835        0.0000000000000000     
   5.8425449992194622E-002  0.15041676158465567        0.0000000000000000     
   5.9481380824448454E-002  0.15801374873997023        0.0000000000000000     
   6.0479789342736297E-002  0.16572748143037216        0.0000000000000000     
   5.0100500327726588E-002  0.13523366841190634        0.0000000000000000     
   5.1151982076986950E-002  0.14261640208615187        0.0000000000000000     
   5.2150290509780733E-002  0.15011629954486638        0.0000000000000000     
   5.3095425626107938E-002  0.15773336078804989        0.0000000000000000     
   5.3987387425968557E-002  0.16546758581570237        0.0000000000000000     
   4.4209993221000693E-002  0.13493177368151565        0.0000000000000000     
   4.5142079993423886E-002  0.14233362778415526        0.0000000000000000     
   4.6025304178579876E-002  0.14985251453200227        0.0000000000000000     
   4.6859665776468676E-002  0.15748843392505674        0.0000000000000000     
   4.7645164787090251E-002  0.16524138596331855        0.0000000000000000     
   7.3915131009940113E-002  0.16634835994656960        0.0000000000000000     
   7.5055467661404349E-002  0.17411719206698165        0.0000000000000000     
   7.6120305244248176E-002  0.18197452348587007        0.0000000000000000     
   7.7109643758471610E-002  0.18992035420323478        0.0000000000000000     
   7.8023483204074637E-002  0.19795468421907586        0.0000000000000000     
   6.7122370537393478E-002  0.16602107280732789        0.0000000000000000     
   6.8160192477472015E-002  0.17381418268948090        0.0000000000000000     
   6.9125889545666563E-002  0.18169478438585768        0.0000000000000000     
   7.0019461741977068E-002  0.18966287789645825        0.0000000000000000     
   7.0840909066403585E-002  0.19771846322128250        0.0000000000000000     
   6.0479789342736297E-002  0.16572748143037216        0.0000000000000000     
   6.1415487873138538E-002  0.17354305257546432        0.0000000000000000     
   6.2283288741735533E-002  0.18144555509484983        0.0000000000000000     
   6.3083191948527281E-002  0.18943498898852862        0.0000000000000000     
   6.3815197493513817E-002  0.19751135425650077        0.0000000000000000     
   5.3987387425968557E-002  0.16546758581570237        0.0000000000000000     
   5.4821353848403843E-002  0.17330380172493187        0.0000000000000000     
   5.5592502832455079E-002  0.18122683561284639        0.0000000000000000     
   5.6300834378122243E-002  0.18923668747944597        0.0000000000000000     
   5.6946348485405342E-002  0.19733335732473056        0.0000000000000000     
   4.7645164787090251E-002  0.16524138596331855        0.0000000000000000     
   4.8377790403267985E-002  0.17309643013788356        0.0000000000000000     
   4.9053531817825201E-002  0.18103862593984749        0.0000000000000000     
   4.9672389030761932E-002  0.18906797336921022        0.0000000000000000     
   5.0234362042078144E-002  0.19718447242597192        0.0000000000000000     
   7.8023483204074637E-002  0.19795468421907586        0.0000000000000000     
   7.8863048369590363E-002  0.20607094140452611        0.0000000000000000     
   7.9629564043551912E-002  0.21426255363071828        0.0000000000000000     
   8.0323030225959269E-002  0.22252952089765246        0.0000000000000000     
   8.0943446916812434E-002  0.23087184320532858        0.0000000000000000     
   7.0840909066403585E-002  0.19771846322128250        0.0000000000000000     
   7.1589544814616587E-002  0.20585613675049264        0.0000000000000000     
   7.2264682282286594E-002  0.21407049487425067        0.0000000000000000     
   7.2866321469413603E-002  0.22236153759255661        0.0000000000000000     
   7.3394462375997629E-002  0.23072926490541038        0.0000000000000000     
   6.3815197493513817E-002  0.19751135425650077        0.0000000000000000     
   6.4477463778851052E-002  0.20566946317128923        0.0000000000000000     
   6.5068149206694917E-002  0.21390412800541692        0.0000000000000000     
   6.5587253777045426E-002  0.22221534875888391        0.0000000000000000     
   6.6034777489902552E-002  0.23060312543169018        0.0000000000000000     
   5.6946348485405342E-002  0.19733335732473056        0.0000000000000000     
   5.7526805262293763E-002  0.20551092066691573        0.0000000000000000     
   5.8039964816776868E-002  0.21376345302421701        0.0000000000000000     
   5.8485827148854690E-002  0.22209095439663440        0.0000000000000000     
   5.8864392258527194E-002  0.23049342478416796        0.0000000000000000     
   5.0234362042078144E-002  0.19718447242597192        0.0000000000000000     
   5.0737569264944701E-002  0.20538050923737225        0.0000000000000000     
   5.1180129112532460E-002  0.21364846993065098        0.0000000000000000     
   5.1562041584841400E-002  0.22198835450580814        0.0000000000000000     
   5.1883306681871549E-002  0.23040016296284371        0.0000000000000000     
   8.0943446916812434E-002  0.23087184320532858        0.0000000000000000     
   8.1480064881771064E-002  0.23931012073576025        0.0000000000000000     
   8.1922134886494802E-002  0.24786495367096106        0.0000000000000000     
   8.2269656930983703E-002  0.25653634201093095        0.0000000000000000     
   8.2522631015237685E-002  0.26532428575566996        0.0000000000000000     
   7.3394462375997629E-002  0.23072926490541038        0.0000000000000000     
   7.3845655406262756E-002  0.23918719454948387        0.0000000000000000     
   7.4216450964433037E-002  0.24774884426144878        0.0000000000000000     
   7.4506849050508528E-002  0.25641421404130521        0.0000000000000000     
   7.4716849664489188E-002  0.26518330388905309        0.0000000000000000     
   6.6034777489902552E-002  0.23060312543169018        0.0000000000000000     
   6.6412836662983907E-002  0.23907375292663791        0.0000000000000000     
   6.6723547614007089E-002  0.24763352614652928        0.0000000000000000     
   6.6966910342972058E-002  0.25628244509136433        0.0000000000000000     
   6.7142924849878841E-002  0.26502050976114305        0.0000000000000000     
   5.8864392258527194E-002  0.23049342478416796        0.0000000000000000     
   5.9181608651934552E-002  0.23896979586722236        0.0000000000000000     
   5.9443424835216932E-002  0.24751899932620253        0.0000000000000000     
   5.9649840808374294E-002  0.25614103516110837        0.0000000000000000     
   5.9800856571406664E-002  0.26483590337193996        0.0000000000000000     
   5.1883306681871549E-002  0.23040016296284371        0.0000000000000000     
   5.2151971373114676E-002  0.23887532337123735        0.0000000000000000     
   5.2376082628062565E-002  0.24740526380046854        0.0000000000000000     
   5.2555640446715214E-002  0.25598998425053732        0.0000000000000000     
   5.2690644829072625E-002  0.26462948472144376        0.0000000000000000     
   8.2522631015237685E-002  0.26532428575566996        0.0000000000000000     
   8.2720095916809941E-002  0.27425520395326153        0.0000000000000000     
   8.2901090413253567E-002  0.28335551565178918        0.0000000000000000     
   8.3065614504568550E-002  0.29262522085125270        0.0000000000000000     
   8.3213668190754916E-002  0.30206431955165236        0.0000000000000000     
   7.4716849664489188E-002  0.26518330388905309        0.0000000000000000     
   7.4887503671958636E-002  0.27404985743862365        0.0000000000000000     
   7.5059861938500463E-002  0.28300761832394822        0.0000000000000000     
   7.5233924464114713E-002  0.29205658654502681        0.0000000000000000     
   7.5409691248801314E-002  0.30119676210185931        0.0000000000000000     
   6.7142924849878841E-002  0.26502050976114305        0.0000000000000000     
   6.7291954211408586E-002  0.27381797971391325        0.0000000000000000     
   6.7454361504242472E-002  0.28264511450772256        0.0000000000000000     
   6.7630146728380469E-002  0.29150191414257126        0.0000000000000000     
   6.7819309883822579E-002  0.30038837861845913        0.0000000000000000     
   5.9800856571406664E-002  0.26483590337193996        0.0000000000000000     
   5.9933447535159820E-002  0.27355957077913023        0.0000000000000000     
   6.0084589110479536E-002  0.28226800420311238        0.0000000000000000     
   6.0254281297365833E-002  0.29096120364388628        0.0000000000000000     
   6.0442524095818684E-002  0.29963916910145194        0.0000000000000000     
   5.2690644829072625E-002  0.26462948472144376        0.0000000000000000     
   5.2811983643212282E-002  0.27327463063427476        0.0000000000000000     
   5.2950544757211671E-002  0.28187628741011744        0.0000000000000000     
   5.3106328171070791E-002  0.29043445504897175        0.0000000000000000     
   5.3279333884789642E-002  0.29894913355083763        0.0000000000000000     
   2.8885616948402797E-002   5.7164577892443870E-002   0.0000000000000000     
   3.0445106087704149E-002   6.2722719663259888E-002   0.0000000000000000     
   3.1949152791108812E-002   6.8458058165683094E-002   0.0000000000000000     
   3.3397757058616785E-002   7.4370593399713525E-002   0.0000000000000000     
   3.4790918890228062E-002   8.0460325365351110E-002   0.0000000000000000     
   2.5061287006890830E-002   5.6730773876166693E-002   0.0000000000000000     
   2.6433416892473482E-002   6.2297607624235168E-002   0.0000000000000000     
   2.7751377192275672E-002   6.8043735309573306E-002   0.0000000000000000     
   2.9015167906297396E-002   7.3969156932181118E-002   0.0000000000000000     
   3.0224789034538655E-002   8.0073872492058579E-002   0.0000000000000000     
   2.1305657794041900E-002   5.6354565903778804E-002   0.0000000000000000     
   2.2486498480194132E-002   6.1929852667529844E-002   0.0000000000000000     
   2.3617462119018797E-002   6.7685807055579236E-002   0.0000000000000000     
   2.4698548710515890E-002   7.3622429067926973E-002   0.0000000000000000     
   2.5729758254685414E-002   7.9739718704573082E-002   0.0000000000000000     
   1.7618729309856015E-002   5.6035953975280210E-002   0.0000000000000000     
   1.8604350850866095E-002   6.1619454793143881E-002   0.0000000000000000     
   1.9547407571338177E-002   6.7384273403700845E-002   0.0000000000000000     
   2.0447899471272256E-002   7.3330409806951088E-002   0.0000000000000000     
   2.1305826550668334E-002   7.9457864002894618E-002   0.0000000000000000     
   1.4000501554333168E-002   5.5774938090670904E-002   0.0000000000000000     
   1.4786974004489379E-002   6.1366414001077327E-002   0.0000000000000000     
   1.5541213549233823E-002   6.7139134353938174E-002   0.0000000000000000     
   1.6263220188566501E-002   7.3093099149253452E-002   0.0000000000000000     
   1.6952993922487416E-002   7.9228308387023189E-002   0.0000000000000000     
   3.4790918890228062E-002   8.0460325365351110E-002   0.0000000000000000     
   3.6134903082537292E-002   8.6723492908274982E-002   0.0000000000000000     
   3.7435974432139113E-002   9.3156334874164193E-002   0.0000000000000000     
   3.8694132939033524E-002   9.9758851263018755E-002   0.0000000000000000     
   3.9909378603220524E-002  0.10653104207483870        0.0000000000000000     
   3.0224789034538655E-002   8.0073872492058579E-002   0.0000000000000000     
   3.1390043866413503E-002   8.6352743936992549E-002   0.0000000000000000     
   3.2520735691335997E-002   9.2800633214769904E-002   0.0000000000000000     
   3.3616864509306135E-002   9.9417540325390630E-002   0.0000000000000000     
   3.4678430320323916E-002  0.10620346526885471        0.0000000000000000     
   2.5729758254685414E-002   7.9739718704573082E-002   0.0000000000000000     
   2.6722115985506518E-002   8.6031716090116450E-002   0.0000000000000000     
   2.7686647136958356E-002   9.2492461349155994E-002   0.0000000000000000     
   2.8623351709040925E-002   9.9121954481691699E-002   0.0000000000000000     
   2.9532229701754228E-002  0.10592019548772361        0.0000000000000000     
   2.1305826550668334E-002   7.9457864002894618E-002   0.0000000000000000     
   2.2131119439816327E-002   8.5760409367646659E-002   0.0000000000000000     
   2.2933708769006189E-002   9.2231819277322463E-002   0.0000000000000000     
   2.3713594538237889E-002   9.8872093731922031E-002   0.0000000000000000     
   2.4470776747511452E-002  0.10568123273144535        0.0000000000000000     
   1.6952993922487416E-002   7.9228308387023189E-002   0.0000000000000000     
   1.7617054229342951E-002   8.5538823769583175E-002   0.0000000000000000     
   1.8261920587479493E-002   9.2018706999269312E-002   0.0000000000000000     
   1.8887592996897042E-002   9.8667958076081586E-002   0.0000000000000000     
   1.9494071457595595E-002  0.10548657700001998        0.0000000000000000     
   3.9909378603220524E-002  0.10653104207483870        0.0000000000000000     
   4.1073508948956755E-002  0.11344885881773295        0.0000000000000000     
   4.2178321500498855E-002  0.12048825299981053        0.0000000000000000     
   4.3223816257846846E-002  0.12764922462107142        0.0000000000000000     
   4.4209993221000693E-002  0.13493177368151565        0.0000000000000000     
   3.4678430320323916E-002  0.10620346526885471        0.0000000000000000     
   3.5696570441642962E-002  0.11313526097004535        0.0000000000000000     
   3.6662422190516887E-002  0.12018978035384566        0.0000000000000000     
   3.7575985566945684E-002  0.12736702342025569        0.0000000000000000     
   3.8437260570929367E-002  0.13466699016927536        0.0000000000000000     
   2.9532229701754228E-002  0.10592019548772361        0.0000000000000000     
   3.0404567802843008E-002  0.11286457999909741        0.0000000000000000     
   3.1231652700051998E-002  0.11993250364765883        0.0000000000000000     
   3.2013484393381218E-002  0.12712396643340787        0.0000000000000000     
   3.2750062882830638E-002  0.13443896835634456        0.0000000000000000     
   2.4470776747511452E-002  0.10568123273144535        0.0000000000000000     
   2.5197501032556885E-002  0.11263681590488914        0.0000000000000000     
   2.5886013029104208E-002  0.11971642288125006        0.0000000000000000     
   2.6536312737153418E-002  0.12692005366052814        0.0000000000000000     
   2.7148400156704524E-002  0.13424770824272331        0.0000000000000000     
   1.9494071457595595E-002  0.10548657700001998        0.0000000000000000     
   2.0075370130784601E-002  0.11245196868742055        0.0000000000000000     
   2.0625503177673504E-002  0.11954153805461933        0.0000000000000000     
   2.1144470598262306E-002  0.12675528510161632        0.0000000000000000     
   2.1632272392551007E-002  0.13409320982841150        0.0000000000000000     
   4.4209993221000693E-002  0.13493177368151565        0.0000000000000000     
   4.5142079993423886E-002  0.14233362778415526        0.0000000000000000     
   4.6025304178579876E-002  0.14985251453200227        0.0000000000000000     
   4.6859665776468676E-002  0.15748843392505674        0.0000000000000000     
   4.7645164787090251E-002  0.16524138596331855        0.0000000000000000     
   3.8437260570929367E-002  0.13466699016927536        0.0000000000000000     
   3.9250290085630038E-002  0.14208668126597593        0.0000000000000000     
   4.0019116994209854E-002  0.14962309737542862        0.0000000000000000     
   4.0743741296668780E-002  0.15727623849763334        0.0000000000000000     
   4.1424162993006830E-002  0.16504610463259017        0.0000000000000000     
   3.2750062882830638E-002  0.13443896835634456        0.0000000000000000     
   3.3444611843949860E-002  0.14187404673915130        0.0000000000000000     
   3.4100354952288456E-002  0.14942573890451058        0.0000000000000000     
   3.4717292207846417E-002  0.15709404485242229        0.0000000000000000     
   3.5295423610623738E-002  0.16487896458288664        0.0000000000000000     
   2.7148400156704524E-002  0.13424770824272331        0.0000000000000000     
   2.7725045268383330E-002  0.14169572420368140        0.0000000000000000     
   2.8269018052815679E-002  0.14926043911924816        0.0000000000000000     
   2.8780318510001554E-002  0.15694185298942370        0.0000000000000000     
   2.9258946639940969E-002  0.16473996581420797        0.0000000000000000     
   2.1632272392551007E-002  0.13409320982841150        0.0000000000000000     
   2.2091590358930459E-002  0.14155171365956615        0.0000000000000000     
   2.2525106295791526E-002  0.14912719801964144        0.0000000000000000     
   2.2932820203134214E-002  0.15681966290863741        0.0000000000000000     
   2.3314732080958515E-002  0.16462910832655403        0.0000000000000000     
   4.7645164787090251E-002  0.16524138596331855        0.0000000000000000     
   4.8377790403267985E-002  0.17309643013788356        0.0000000000000000     
   4.9053531817825201E-002  0.18103862593984749        0.0000000000000000     
   4.9672389030761932E-002  0.18906797336921022        0.0000000000000000     
   5.0234362042078144E-002  0.19718447242597192        0.0000000000000000     
   4.1424162993006830E-002  0.16504610463259017        0.0000000000000000     
   4.2057249783267414E-002  0.17291811466176002        0.0000000000000000     
   4.2639869367493935E-002  0.18087768746660393        0.0000000000000000     
   4.3172021745686386E-002  0.18892482304712177        0.0000000000000000     
   4.3653706917844787E-002  0.19705952140331365        0.0000000000000000     
   3.5295423610623738E-002  0.16487896458288664        0.0000000000000000     
   3.5832184233938622E-002  0.17276603214400191        0.0000000000000000     
   3.6325009151109269E-002  0.18074078158386664        0.0000000000000000     
   3.6773898362135661E-002  0.18880321290248084        0.0000000000000000     
   3.7178851867017804E-002  0.19695332609984451        0.0000000000000000     
   2.9258946639940969E-002  0.16473996581420797        0.0000000000000000     
   2.9702593755281614E-002  0.17264018258460914        0.0000000000000000     
   3.0108951168671204E-002  0.18062790829163566        0.0000000000000000     
   3.0478018880109731E-002  0.18870314293528742        0.0000000000000000     
   3.0809796889597205E-002  0.19686588651556453        0.0000000000000000     
   2.3314732080958515E-002  0.16462910832655403        0.0000000000000000     
   2.3668478347296379E-002  0.17254056598358175        0.0000000000000000     
   2.3991695420179746E-002  0.18053906758991095        0.0000000000000000     
   2.4284383299608615E-002  0.18862461314554160        0.0000000000000000     
   2.4546541985582995E-002  0.19679720265047368        0.0000000000000000     
   5.0234362042078144E-002  0.19718447242597192        0.0000000000000000     
   5.0737569264944701E-002  0.20538050923737225        0.0000000000000000     
   5.1180129112532460E-002  0.21364846993065098        0.0000000000000000     
   5.1562041584841400E-002  0.22198835450580814        0.0000000000000000     
   5.1883306681871549E-002  0.23040016296284371        0.0000000000000000     
   4.3653706917844787E-002  0.19705952140331365        0.0000000000000000     
   4.4083756873654498E-002  0.20527210033453835        0.0000000000000000     
   4.4461003602800954E-002  0.21355287764015476        0.0000000000000000     
   4.4785447105284121E-002  0.22190185332016291        0.0000000000000000     
   4.5057087381104026E-002  0.23031902737456272        0.0000000000000000     
   3.7178851867017804E-002  0.19695332609984451        0.0000000000000000     
   3.7539369175273764E-002  0.20517956541029361        0.0000000000000000     
   3.7854949796421615E-002  0.21347037506816430        0.0000000000000000     
   3.8125593730461364E-002  0.22182575507345642        0.0000000000000000     
   3.8351300977392984E-002  0.23024570542617012        0.0000000000000000     
   3.0809796889597205E-002  0.19686588651556453        0.0000000000000000     
   3.1104406169802493E-002  0.20510290446463816        0.0000000000000000     
   3.1361967693394464E-002  0.21340096221467955        0.0000000000000000     
   3.1582481460373110E-002  0.22176005976568883        0.0000000000000000     
   3.1765947470738444E-002  0.23018019711766585        0.0000000000000000     
   2.4546541985582995E-002  0.19679720265047368        0.0000000000000000     
   2.4778867857240684E-002  0.20504211749757184        0.0000000000000000     
   2.4982057293719481E-002  0.21334463907970058        0.0000000000000000     
   2.5156110295019386E-002  0.22170476739686004        0.0000000000000000     
   2.5301026861140399E-002  0.23012250244905003        0.0000000000000000     
   5.1883306681871549E-002  0.23040016296284371        0.0000000000000000     
   5.2151971373114676E-002  0.23887532337123735        0.0000000000000000     
   5.2376082628062565E-002  0.24740526380046854        0.0000000000000000     
   5.2555640446715214E-002  0.25598998425053732        0.0000000000000000     
   5.2690644829072625E-002  0.26462948472144376        0.0000000000000000     
   4.5057087381104026E-002  0.23031902737456272        0.0000000000000000     
   4.5284782412821155E-002  0.23878895598777197        0.0000000000000000     
   4.5477390182996034E-002  0.24729619534420844        0.0000000000000000     
   4.5634910691628665E-002  0.25584074544387203        0.0000000000000000     
   4.5757343938719039E-002  0.26442260628676284        0.0000000000000000     
   3.8351300977392984E-002  0.23024570542617012        0.0000000000000000     
   3.8540899357350868E-002  0.23870931426591563        0.0000000000000000     
   3.8703216690469361E-002  0.24719566973230339        0.0000000000000000     
   3.8838252976748470E-002  0.25570477182533335        0.0000000000000000     
   3.8946008216188197E-002  0.26423662054500557        0.0000000000000000     
   3.1765947470738444E-002  0.23018019711766585        0.0000000000000000     
   3.1920322206703801E-002  0.23863639820566818        0.0000000000000000     
   3.2053562150482537E-002  0.24710368696475335        0.0000000000000000     
   3.2165667302074631E-002  0.25558206339492123        0.0000000000000000     
   3.2256637661480111E-002  0.26407152749617196        0.0000000000000000     
   2.5301026861140399E-002  0.23012250244905003        0.0000000000000000     
   2.5423050960879975E-002  0.23857020780702975        0.0000000000000000     
   2.5528426563035563E-002  0.24702024704155834        0.0000000000000000     
   2.5617153667607154E-002  0.25547262015263578        0.0000000000000000     
   2.5689232274594763E-002  0.26392732714026196        0.0000000000000000     
   5.2690644829072625E-002  0.26462948472144376        0.0000000000000000     
   5.2811983643212282E-002  0.27327463063427476        0.0000000000000000     
   5.2950544757211671E-002  0.28187628741011744        0.0000000000000000     
   5.3106328171070791E-002  0.29043445504897175        0.0000000000000000     
   5.3279333884789642E-002  0.29894913355083763        0.0000000000000000     
   4.5757343938719039E-002  0.26442260628676284        0.0000000000000000     
   4.5868833142669013E-002  0.27299188989743223        0.0000000000000000     
   4.5993521521880430E-002  0.28149870830043172        0.0000000000000000     
   4.6131409076353283E-002  0.28994306149576132        0.0000000000000000     
   4.6282495806087592E-002  0.29832494948342103        0.0000000000000000     
   3.8946008216188197E-002  0.26423662054500557        0.0000000000000000     
   3.9045266640633014E-002  0.27274007918668819        0.0000000000000000     
   3.9154812481927370E-002  0.28116401104574917        0.0000000000000000     
   3.9274645740071251E-002  0.28950841612218864        0.0000000000000000     
   3.9404766415064685E-002  0.29777329441600670        0.0000000000000000     
   3.2256637661480111E-002  0.26407152749617196        0.0000000000000000     
   3.2341284137104277E-002  0.27251919850204248        0.0000000000000000     
   3.2434417637352476E-002  0.28087219564606969        0.0000000000000000     
   3.2536038162224681E-002  0.28913051892825381        0.0000000000000000     
   3.2646145711720913E-002  0.29729416834859473        0.0000000000000000     
   2.5689232274594763E-002  0.26392732714026196        0.0000000000000000     
   2.5756885632082817E-002  0.27232924784349516        0.0000000000000000     
   2.5832336988155756E-002  0.28062326210139338        0.0000000000000000     
   2.5915586342813577E-002  0.28880936991395673        0.0000000000000000     
   2.6006633696056283E-002  0.29688757128118509        0.0000000000000000     
   1.4000501554333168E-002   5.5774938090670904E-002   0.0000000000000000     
   1.4786974004489379E-002   6.1366414001077327E-002   0.0000000000000000     
   1.5541213549233823E-002   6.7139134353938174E-002   0.0000000000000000     
   1.6263220188566501E-002   7.3093099149253452E-002   0.0000000000000000     
   1.6952993922487416E-002   7.9228308387023189E-002   0.0000000000000000     
   1.0437562168888012E-002   5.5571747463069240E-002   0.0000000000000000     
   1.1024044541132288E-002   6.1170097032928916E-002   0.0000000000000000     
   1.1589189884561748E-002   6.6949310324667943E-002   0.0000000000000000     
   1.2132998199176397E-002   7.2909387338286308E-002   0.0000000000000000     
   1.2655469484976237E-002   7.9050328073784037E-002   0.0000000000000000     
   6.9164987949352028E-003   5.5426611305593565E-002   0.0000000000000000     
   7.3052390608631373E-003   6.1029870630297418E-002   0.0000000000000000     
   7.6816464091779757E-003   6.6813721734266876E-002   0.0000000000000000     
   8.0457208398797189E-003   7.2778164617501889E-002   0.0000000000000000     
   8.3974623529683642E-003   7.8923199280002479E-002   0.0000000000000000     
   3.4373114324747350E-003   5.5339529618243878E-002   0.0000000000000000     
   3.6305575636819297E-003   6.0945734793182868E-002   0.0000000000000000     
   3.8185831230825051E-003   6.6732368582734972E-002   0.0000000000000000     
   4.0013881106764635E-003   7.2699430986900168E-002   0.0000000000000000     
   4.1789725264638035E-003   7.8846922005678485E-002   0.0000000000000000     
   8.1506611789711192E-011   5.5310502401020180E-002   0.0000000000000000     
   4.9588662820107543E-011   6.0917689521585230E-002   0.0000000000000000     
   2.6275336073577904E-011   6.6705250870072244E-002   0.0000000000000000     
   1.1566631658542492E-011   7.2673186446481186E-002   0.0000000000000000     
   5.4625485992193523E-012   7.8821496250812070E-002   0.0000000000000000     
   1.6952993922487416E-002   7.9228308387023189E-002   0.0000000000000000     
   1.7617054229342951E-002   8.5538823769583175E-002   0.0000000000000000     
   1.8261920587479493E-002   9.2018706999269312E-002   0.0000000000000000     
   1.8887592996897042E-002   9.8667958076081586E-002   0.0000000000000000     
   1.9494071457595595E-002  0.10548657700001998        0.0000000000000000     
   1.2655469484976237E-002   7.9050328073784037E-002   0.0000000000000000     
   1.3159288683091210E-002   8.5366689363928772E-002   0.0000000000000000     
   1.3647140734651271E-002   9.1853028041488094E-002   0.0000000000000000     
   1.4119025639656411E-002   9.8509344106462032E-002   0.0000000000000000     
   1.4574943398106641E-002  0.10533563755885056        0.0000000000000000     
   8.3974623529683642E-003   7.8923199280002479E-002   0.0000000000000000     
   8.7371911300659529E-003   8.5243736218686125E-002   0.0000000000000000     
   9.0652273527945179E-003   9.1734685930470294E-002   0.0000000000000000     
   9.3815710211540594E-003   9.8396048415354986E-002   0.0000000000000000     
   9.6862221351445774E-003  0.10522782367334020        0.0000000000000000     
   4.1789725264638035E-003   7.8846922005678485E-002   0.0000000000000000     
   4.3507615702671762E-003   8.5169964333855319E-002   0.0000000000000000     
   4.5161804419092365E-003   9.1663680666215969E-002   0.0000000000000000     
   4.6752291413899799E-003   9.8328071002760517E-002   0.0000000000000000     
   4.8279076687094101E-003  0.10516313534348887        0.0000000000000000     
   5.4625485992193523E-012   7.8821496250812070E-002   0.0000000000000000     
   3.6948814233911387E-012   8.5145373709436256E-002   0.0000000000000000     
   1.9954237372686590E-012   9.1640012248725089E-002   0.0000000000000000     
   3.6417514782862564E-013   9.8305411868678541E-002   0.0000000000000000     
  -1.1988660932049644E-012  0.10514157256929661        0.0000000000000000     
   1.9494071457595595E-002  0.10548657700001998        0.0000000000000000     
   2.0075370130784601E-002  0.11245196868742055        0.0000000000000000     
   2.0625503177673504E-002  0.11954153805461933        0.0000000000000000     
   2.1144470598262306E-002  0.12675528510161632        0.0000000000000000     
   2.1632272392551007E-002  0.13409320982841150        0.0000000000000000     
   1.4574943398106641E-002  0.10533563755885056        0.0000000000000000     
   1.5010912271833626E-002  0.11230900350594930        0.0000000000000000     
   1.5422950522669043E-002  0.11940653705505380        0.0000000000000000     
   1.5811058150612890E-002  0.12662823820616409        0.0000000000000000     
   1.6175235155665171E-002  0.13397410695928011        0.0000000000000000     
   9.6862221351445774E-003  0.10522782367334020        0.0000000000000000     
   9.9768646300114287E-003  0.11220688551973304        0.0000000000000000     
   1.0251182440999965E-002  0.11931010776984061        0.0000000000000000     
   1.0509175568110190E-002  0.12653749042366289        0.0000000000000000     
   1.0750844011342096E-002  0.13388903348119996        0.0000000000000000     
   4.8279076687094101E-003  0.10516313534348887        0.0000000000000000     
   4.9732272053180137E-003  0.11214561472877176        0.0000000000000000     
   5.1101989326662756E-003  0.11925225019897973        0.0000000000000000     
   5.2388228507542003E-003  0.12648304175411285        0.0000000000000000     
   5.3590989595817826E-003  0.13383798939417099        0.0000000000000000     
  -1.1988660932049644E-012  0.10514157256929661        0.0000000000000000     
  -2.2466245443858446E-012  0.11212519113306547        0.0000000000000000     
  -2.3320278000338313E-012  0.11923296434247120        0.0000000000000000     
  -1.4550758601489244E-012  0.12646489219751378        0.0000000000000000     
   3.8423214263061389E-013  0.13382097469819326        0.0000000000000000     
   2.1632272392551007E-002  0.13409320982841150        0.0000000000000000     
   2.2091590358930459E-002  0.14155171365956615        0.0000000000000000     
   2.2525106295791526E-002  0.14912719801964144        0.0000000000000000     
   2.2932820203134214E-002  0.15681966290863741        0.0000000000000000     
   2.3314732080958515E-002  0.16462910832655403        0.0000000000000000     
   1.6175235155665171E-002  0.13397410695928011        0.0000000000000000     
   1.6518066654359537E-002  0.14144071592961438        0.0000000000000000     
   1.6842137763229643E-002  0.14902463773237926        0.0000000000000000     
   1.7147448482275493E-002  0.15672587236757479        0.0000000000000000     
   1.7433998811497087E-002  0.16454441983520093        0.0000000000000000     
   1.0750844011342096E-002  0.13388903348119996        0.0000000000000000     
   1.0978293693438865E-002  0.14136143183663480        0.0000000000000000     
   1.1193630537143668E-002  0.14895138038415048        0.0000000000000000     
   1.1396854542456505E-002  0.15665887912374704        0.0000000000000000     
   1.1587965709377378E-002  0.16448392805542444        0.0000000000000000     
   5.3590989595817826E-003  0.13383798939417099        0.0000000000000000     
   5.4722714761684440E-003  0.14131386138062740        0.0000000000000000     
   5.5795846175335983E-003  0.14890742597495515        0.0000000000000000     
   5.6810383836772465E-003  0.15661868317715422        0.0000000000000000     
   5.7766327745993875E-003  0.16444763298722459        0.0000000000000000     
   3.8423214263061389E-013  0.13382097469819326        0.0000000000000000     
   2.5482766938256241E-012  0.14129800456159222        0.0000000000000000     
   4.3994386042175981E-012  0.14889277450479324        0.0000000000000000     
   5.9377184972227853E-012  0.15660528452779626        0.0000000000000000     
   7.1631177551989555E-012  0.16443553463060134        0.0000000000000000     
   2.3314732080958515E-002  0.16462910832655403        0.0000000000000000     
   2.3668478347296379E-002  0.17254056598358175        0.0000000000000000     
   2.3991695420179746E-002  0.18053906758991095        0.0000000000000000     
   2.4284383299608615E-002  0.18862461314554160        0.0000000000000000     
   2.4546541985582995E-002  0.19679720265047368        0.0000000000000000     
   1.7433998811497087E-002  0.16454441983520093        0.0000000000000000     
   1.7699415046609660E-002  0.17246487837685681        0.0000000000000000     
   1.7941323483328449E-002  0.18047184623414150        0.0000000000000000     
   1.8159724121653450E-002  0.18856532340705501        0.0000000000000000     
   1.8354616961584670E-002  0.19674530989559733        0.0000000000000000     
   1.1587965709377378E-002  0.16448392805542444        0.0000000000000000     
   1.1764980889848193E-002  0.17241081580037132        0.0000000000000000     
   1.1925916935810856E-002  0.18042383097977635        0.0000000000000000     
   1.2070773847265367E-002  0.18852297359363948        0.0000000000000000     
   1.2199551624211730E-002  0.19670824364196066        0.0000000000000000     
   5.7766327745993875E-003  0.16444763298722459        0.0000000000000000     
   5.8651758770119780E-003  0.17237837825412533        0.0000000000000000     
   5.9454757776269719E-003  0.18039502182681547        0.0000000000000000     
   6.0175324764443717E-003  0.18849756370529497        0.0000000000000000     
   6.0813459734641731E-003  0.19668600388956387        0.0000000000000000     
   7.1631177551989555E-012  0.16443553463060134        0.0000000000000000     
   8.1010159518057900E-012  0.17236756573811879        0.0000000000000000     
   8.7767956964690530E-012  0.18038541877525882        0.0000000000000000     
   9.1904568807685272E-012  0.18848909374202150        0.0000000000000000     
   9.3420006973266023E-012  0.19667859063840676        0.0000000000000000     
   2.4546541985582995E-002  0.19679720265047368        0.0000000000000000     
   2.4778867857240684E-002  0.20504211749757184        0.0000000000000000     
   2.4982057293719481E-002  0.21334463907970058        0.0000000000000000     
   2.5156110295019386E-002  0.22170476739686004        0.0000000000000000     
   2.5301026861140399E-002  0.23012250244905003        0.0000000000000000     
   1.8354616961584670E-002  0.19674530989559733        0.0000000000000000     
   1.8527069142170612E-002  0.20499587376697878        0.0000000000000000     
   1.8678147802459778E-002  0.21330108308840964        0.0000000000000000     
   1.8807852942452172E-002  0.22166093785988994        0.0000000000000000     
   1.8916184562147789E-002  0.23007543808141967        0.0000000000000000     
   1.2199551624211730E-002  0.19670824364196066        0.0000000000000000     
   1.2313324929174559E-002  0.20496284253074287        0.0000000000000000     
   1.2413168424678473E-002  0.21326997166598882        0.0000000000000000     
   1.2499082110723472E-002  0.22162963104769856        0.0000000000000000     
   1.2571065987309558E-002  0.23004182067587198        0.0000000000000000     
   6.0813459734641731E-003  0.19668600388956387        0.0000000000000000     
   6.1376352182525226E-003  0.20494302378886425        0.0000000000000000     
   6.1871191603755597E-003  0.21325130481243820        0.0000000000000000     
   6.2297977998332860E-003  0.22161084696028574        0.0000000000000000     
   6.2656711366257008E-003  0.23002165023240689        0.0000000000000000     
   9.3420006973266023E-012  0.19667859063840676        0.0000000000000000     
   9.4045027841660467E-012  0.20493641754134279        0.0000000000000000     
   9.5510393214107148E-012  0.21324508252775773        0.0000000000000000     
   9.7816114203678334E-012  0.22160458559765162        0.0000000000000000     
   1.0096218566041371E-011  0.23001492675102442        0.0000000000000000     
   2.5301026861140399E-002  0.23012250244905003        0.0000000000000000     
   2.5423050960879975E-002  0.23857020780702975        0.0000000000000000     
   2.5528426563035563E-002  0.24702024704155834        0.0000000000000000     
   2.5617153667607154E-002  0.25547262015263578        0.0000000000000000     
   2.5689232274594763E-002  0.26392732714026196        0.0000000000000000     
   1.8916184562147789E-002  0.23007543808141967        0.0000000000000000     
   1.9007396556418209E-002  0.23851523368511668        0.0000000000000000     
   1.9085742820135004E-002  0.24695097460309867        0.0000000000000000     
   1.9151223353298170E-002  0.25538266083536576        0.0000000000000000     
   1.9203838155907718E-002  0.26381029238191783        0.0000000000000000     
   1.2571065987309558E-002  0.23004182067587198        0.0000000000000000     
   1.2631669929857340E-002  0.23847596645504532        0.0000000000000000     
   1.2683443813787429E-002  0.24690149428975477        0.0000000000000000     
   1.2726387639099827E-002  0.25531840418000029        0.0000000000000000     
   1.2760501405794530E-002  0.26372669612578181        0.0000000000000000     
   6.2656711366257008E-003  0.23002165023240689        0.0000000000000000     
   6.2958710811973637E-003  0.23845240611681578        0.0000000000000000     
   6.3215295439928345E-003  0.24687180610152656        0.0000000000000000     
   6.3426465250121149E-003  0.25527985018653926        0.0000000000000000     
   6.3592220242552032E-003  0.26367653837185390        0.0000000000000000     
   1.0096218566041371E-011  0.23001492675102442        0.0000000000000000     
   1.0438281532534899E-011  0.23844455267042794        0.0000000000000000     
   1.0751221093951990E-011  0.24686191003841401        0.0000000000000000     
   1.1035039418696990E-011  0.25526699885498272        0.0000000000000000     
   1.1289732169961209E-011  0.26365981912013398        0.0000000000000000     
   2.5689232274594763E-002  0.26392732714026196        0.0000000000000000     
   2.5756885632082817E-002  0.27232924784349516        0.0000000000000000     
   2.5832336988155756E-002  0.28062326210139338        0.0000000000000000     
   2.5915586342813577E-002  0.28880936991395673        0.0000000000000000     
   2.6006633696056283E-002  0.29688757128118509        0.0000000000000000     
   1.9203838155907718E-002  0.26381029238191783        0.0000000000000000     
   1.9253625401472189E-002  0.27217657290360631        0.0000000000000000     
   1.9310623263500144E-002  0.28042420606128227        0.0000000000000000     
   1.9374831741991574E-002  0.28855319185494588        0.0000000000000000     
   1.9446250836946490E-002  0.29656353028459709        0.0000000000000000     
   1.2760501405794530E-002  0.26372669612578181        0.0000000000000000     
   1.2793057721175968E-002  0.27206751937493573        0.0000000000000000     
   1.2831329192548559E-002  0.28028202317529849        0.0000000000000000     
   1.2875315819912310E-002  0.28837020752686987        0.0000000000000000     
   1.2925017603267216E-002  0.29633207242964993        0.0000000000000000     
   6.3592220242552032E-003  0.26367653837185390        0.0000000000000000     
   6.3751825911941501E-003  0.27200208725748359        0.0000000000000000     
   6.3944547753010108E-003  0.28019671344344188        0.0000000000000000     
   6.4170385765757844E-003  0.28826041692972848        0.0000000000000000     
   6.4429339950184700E-003  0.29619319771634367        0.0000000000000000     
   1.1289732169961209E-011  0.26365981912013398        0.0000000000000000     
   1.1526738548026105E-011  0.27198027655124984        0.0000000000000000     
   1.1757492874263364E-011  0.28016827686571255        0.0000000000000000     
   1.1981996205770104E-011  0.28822382006352204        0.0000000000000000     
   1.2200248623861487E-011  0.29614690614467826        0.0000000000000000     
   8.1506611789711192E-011   5.5310502401020180E-002   0.0000000000000000     
   4.9588662820107543E-011   6.0917689521585230E-002   0.0000000000000000     
   2.6275336073577904E-011   6.6705250870072244E-002   0.0000000000000000     
   1.1566631658542492E-011   7.2673186446481186E-002   0.0000000000000000     
   5.4625485992193523E-012   7.8821496250812070E-002   0.0000000000000000     
  -3.4373112837595868E-003   5.5339529655077616E-002   0.0000000000000000     
  -3.6305574740176003E-003   6.0945734817118555E-002   0.0000000000000000     
  -3.8185830764973882E-003   6.6732368597951397E-002   0.0000000000000000     
  -4.0013880911989484E-003   7.2699430997576142E-002   0.0000000000000000     
  -4.1789725181222842E-003   7.8846922015992804E-002   0.0000000000000000     
  -6.9164986891142796E-003   5.5426611381571331E-002   0.0000000000000000     
  -7.3052389997377981E-003   6.1029870681396835E-002   0.0000000000000000     
  -7.6816463804895221E-003   6.6813721768045176E-002   0.0000000000000000     
  -8.0457208313694500E-003   7.2778164641516305E-002   0.0000000000000000     
  -8.3974623523775833E-003   7.8923199301810243E-002   0.0000000000000000     
  -1.0437562134557469E-002   5.5571747580501332E-002   0.0000000000000000     
  -1.1024044527571931E-002   6.1170097114420112E-002   0.0000000000000000     
  -1.1589189885701066E-002   6.6949310380353552E-002   0.0000000000000000     
  -1.2132998208944873E-002   7.2909387378301632E-002   0.0000000000000000     
  -1.2655469497303349E-002   7.9050328108264387E-002   0.0000000000000000     
  -1.4000501620089149E-002   5.5774938251867613E-002   0.0000000000000000     
  -1.4786974057519999E-002   6.1366414116188345E-002   0.0000000000000000     
  -1.5541213592132020E-002   6.7139134434876541E-002   0.0000000000000000     
  -1.6263220223925214E-002   7.3093099207932180E-002   0.0000000000000000     
  -1.6952993952899582E-002   7.9228308435355263E-002   0.0000000000000000     
   5.4625485992193523E-012   7.8821496250812070E-002   0.0000000000000000     
   3.6948814233911387E-012   8.5145373709436256E-002   0.0000000000000000     
   1.9954237372686590E-012   9.1640012248725089E-002   0.0000000000000000     
   3.6417514782862564E-013   9.8305411868678541E-002   0.0000000000000000     
  -1.1988660932049644E-012  0.10514157256929661        0.0000000000000000     
  -4.1789725181222842E-003   7.8846922015992804E-002   0.0000000000000000     
  -4.3507615650272072E-003   8.5169964345241947E-002   0.0000000000000000     
  -4.5161804396735318E-003   9.1663680677364148E-002   0.0000000000000000     
  -4.6752291420612546E-003   9.8328071012359394E-002   0.0000000000000000     
  -4.8279076721903800E-003  0.10516313535022774        0.0000000000000000     
  -8.3974623523775833E-003   7.8923199301810243E-002   0.0000000000000000     
  -8.7371911312753656E-003   8.5243736241085263E-002   0.0000000000000000     
  -9.0652273558242385E-003   9.1734685951499653E-002   0.0000000000000000     
  -9.3815710260242054E-003   9.8396048433053412E-002   0.0000000000000000     
  -9.6862221418752593E-003  0.10522782368574651        0.0000000000000000     
  -1.2655469497303349E-002   7.9050328108264387E-002   0.0000000000000000     
  -1.3159288695049592E-002   8.5366689396966247E-002   0.0000000000000000     
  -1.3647140746456702E-002   9.1853028071131618E-002   0.0000000000000000     
  -1.4119025651524673E-002   9.8509344130760540E-002   0.0000000000000000     
  -1.4574943410253508E-002  0.10533563757585297        0.0000000000000000     
  -1.6952993952899582E-002   7.9228308435355263E-002   0.0000000000000000     
  -1.7617054256349893E-002   8.5538823812884870E-002   0.0000000000000000     
  -1.8261920611570920E-002   9.2018707036260042E-002   0.0000000000000000     
  -1.8887593018562666E-002   9.8667958105480791E-002   0.0000000000000000     
  -1.9494071477325126E-002  0.10548657702054710        0.0000000000000000     
  -1.1988660932049644E-012  0.10514157256929661        0.0000000000000000     
  -2.2466245443858446E-012  0.11212519113306547        0.0000000000000000     
  -2.3320278000338313E-012  0.11923296434247120        0.0000000000000000     
  -1.4550758601489244E-012  0.12646489219751378        0.0000000000000000     
   3.8423214263061389E-013  0.13382097469819326        0.0000000000000000     
  -4.8279076721903800E-003  0.10516313535022774        0.0000000000000000     
  -4.9732272106488302E-003  0.11214561473238158        0.0000000000000000     
  -5.1101989380245355E-003  0.11925225020023343        0.0000000000000000     
  -5.2388228543174906E-003  0.12648304175378322        0.0000000000000000     
  -5.3590989595276983E-003  0.13383798939303104        0.0000000000000000     
  -9.6862221418752593E-003  0.10522782368574651        0.0000000000000000     
  -9.9768646378549548E-003  0.11220688552648748        0.0000000000000000     
  -1.0251182448440836E-002  0.11931010777218483        0.0000000000000000     
  -1.0509175573632901E-002  0.12653749042283852        0.0000000000000000     
  -1.0750844013431151E-002  0.13388903347844860        0.0000000000000000     
  -1.4574943410253508E-002  0.10533563757585297        0.0000000000000000     
  -1.5010912283865000E-002  0.11230900351538317        0.0000000000000000     
  -1.5422950533580931E-002  0.11940653705832542        0.0000000000000000     
  -1.5811058159401307E-002  0.12662823820467964        0.0000000000000000     
  -1.6175235161326122E-002  0.13397410695444592        0.0000000000000000     
  -1.9494071477325126E-002  0.10548657702054710        0.0000000000000000     
  -2.0075370148678960E-002  0.11245196869906868        0.0000000000000000     
  -2.0625503193444819E-002  0.11954153805865519        0.0000000000000000     
  -2.1144470611622702E-002  0.12675528509930664        0.0000000000000000     
  -2.1632272403212617E-002  0.13409320982102302        0.0000000000000000     
   3.8423214263061389E-013  0.13382097469819326        0.0000000000000000     
   2.5482766938256241E-012  0.14129800456159222        0.0000000000000000     
   4.3994386042175981E-012  0.14889277450479324        0.0000000000000000     
   5.9377184972227853E-012  0.15660528452779626        0.0000000000000000     
   7.1631177551989555E-012  0.16443553463060134        0.0000000000000000     
  -5.3590989595276983E-003  0.13383798939303104        0.0000000000000000     
  -5.4722714718665223E-003  0.14131386137911642        0.0000000000000000     
  -5.5795846095453207E-003  0.14890742597317888        0.0000000000000000     
  -5.6810383725640961E-003  0.15661868317521849        0.0000000000000000     
  -5.7766327609228441E-003  0.16444763298523518        0.0000000000000000     
  -1.0750844013431151E-002  0.13388903347844860        0.0000000000000000     
  -1.0978293691520830E-002  0.14136143183278715        0.0000000000000000     
  -1.1193630531587182E-002  0.14895138037962632        0.0000000000000000     
  -1.1396854533630209E-002  0.15665887911896614        0.0000000000000000     
  -1.1587965697649910E-002  0.16448392805080653        0.0000000000000000     
  -1.6175235161326122E-002  0.13397410695444592        0.0000000000000000     
  -1.6518066656414650E-002  0.14144071592260446        0.0000000000000000     
  -1.6842137761726148E-002  0.14902463772413554        0.0000000000000000     
  -1.7147448477260633E-002  0.15672587235903923        0.0000000000000000     
  -1.7433998803018082E-002  0.16454441982731544        0.0000000000000000     
  -2.1632272403212617E-002  0.13409320982102302        0.0000000000000000     
  -2.2091590366547981E-002  0.14155171364856833        0.0000000000000000     
  -2.2525106299962225E-002  0.14912719800670657        0.0000000000000000     
  -2.2932820203455353E-002  0.15681966289543772        0.0000000000000000     
  -2.3314732077027361E-002  0.16462910831476182        0.0000000000000000     
   7.1631177551989555E-012  0.16443553463060134        0.0000000000000000     
   8.1010159518057900E-012  0.17236756573811879        0.0000000000000000     
   8.7767956964690530E-012  0.18038541877525882        0.0000000000000000     
   9.1904568807685272E-012  0.18848909374202150        0.0000000000000000     
   9.3420006973266023E-012  0.19667859063840676        0.0000000000000000     
  -5.7766327609228441E-003  0.16444763298523518        0.0000000000000000     
  -5.8651758613200355E-003  0.17237837825218810        0.0000000000000000     
  -5.9454757604541315E-003  0.18039502182503633        0.0000000000000000     
  -6.0175324583251330E-003  0.18849756370377982        0.0000000000000000     
  -6.0813459549330373E-003  0.19668600388841859        0.0000000000000000     
  -1.1587965697649910E-002  0.16448392805080653        0.0000000000000000     
  -1.1764980875686518E-002  0.17241081579616974        0.0000000000000000     
  -1.1925916919780269E-002  0.18042383097607778        0.0000000000000000     
  -1.2070773829931158E-002  0.18852297359053072        0.0000000000000000     
  -1.2199551606139190E-002  0.19670824363952849        0.0000000000000000     
  -1.7433998803018082E-002  0.16454441982731544        0.0000000000000000     
  -1.7699415034998438E-002  0.17246487837006361        0.0000000000000000     
  -1.7941323469201617E-002  0.18047184622838322        0.0000000000000000     
  -1.8159724105627623E-002  0.18856532340227422        0.0000000000000000     
  -1.8354616944276456E-002  0.19674530989173653        0.0000000000000000     
  -2.3314732077027361E-002  0.16462910831476182        0.0000000000000000     
  -2.3668478339255786E-002  0.17254056597386982        0.0000000000000000     
  -2.3991695408718174E-002  0.18053906758195259        0.0000000000000000     
  -2.4284383285414528E-002  0.18862461313901024        0.0000000000000000     
  -2.4546541969344839E-002  0.19679720264504266        0.0000000000000000     
   9.3420006973266023E-012  0.19667859063840676        0.0000000000000000     
   9.4045027841660467E-012  0.20493641754134279        0.0000000000000000     
   9.5510393214107148E-012  0.21324508252775773        0.0000000000000000     
   9.7816114203678334E-012  0.22160458559765162        0.0000000000000000     
   1.0096218566041371E-011  0.23001492675102442        0.0000000000000000     
  -6.0813459549330373E-003  0.19668600388841859        0.0000000000000000     
  -6.1376351995034951E-003  0.20494302378805981        0.0000000000000000     
  -6.1871191412621535E-003  0.21325130481181048        0.0000000000000000     
  -6.2297977802090142E-003  0.22161084695967076        0.0000000000000000     
  -6.2656711163440789E-003  0.23002165023164059        0.0000000000000000     
  -1.2199551606139190E-002  0.19670824363952849        0.0000000000000000     
  -1.2313324910605465E-002  0.20496284252889638        0.0000000000000000     
  -1.2413168405531085E-002  0.21326997166445949        0.0000000000000000     
  -1.2499082090916058E-002  0.22162963104621780        0.0000000000000000     
  -1.2571065966760376E-002  0.23004182067417145        0.0000000000000000     
  -1.8354616944276456E-002  0.19674530989173653        0.0000000000000000     
  -1.8527069123901407E-002  0.20499587376385264        0.0000000000000000     
  -1.8678147783255758E-002  0.21330108308570470        0.0000000000000000     
  -1.8807852922339517E-002  0.22166093785729288        0.0000000000000000     
  -1.8916184541152677E-002  0.23007543807861702        0.0000000000000000     
  -2.4546541969344839E-002  0.19679720264504266        0.0000000000000000     
  -2.4778867839391316E-002  0.20504211749292847        0.0000000000000000     
  -2.4982057274436167E-002  0.21334463907554618        0.0000000000000000     
  -2.5156110274479386E-002  0.22170476739289574        0.0000000000000000     
  -2.5301026839520985E-002  0.23012250244497728        0.0000000000000000     
   1.0096218566041371E-011  0.23001492675102442        0.0000000000000000     
   1.0438281532534899E-011  0.23844455267042794        0.0000000000000000     
   1.0751221093951990E-011  0.24686191003841401        0.0000000000000000     
   1.1035039418696990E-011  0.25526699885498272        0.0000000000000000     
   1.1289732169961209E-011  0.26365981912013398        0.0000000000000000     
  -6.2656711163440789E-003  0.23002165023164059        0.0000000000000000     
  -6.2958710602169709E-003  0.23845240611584648        0.0000000000000000     
  -6.3215295223773308E-003  0.24687180610041495        0.0000000000000000     
  -6.3426465028251508E-003  0.25527985018534605        0.0000000000000000     
  -6.3592220015604370E-003  0.26367653837063970        0.0000000000000000     
  -1.2571065966760376E-002  0.23004182067417145        0.0000000000000000     
  -1.2631669908565466E-002  0.23847596645303593        0.0000000000000000     
  -1.2683443791832741E-002  0.24690149428752700        0.0000000000000000     
  -1.2726387616562206E-002  0.25531840417764456        0.0000000000000000     
  -1.2760501382753860E-002  0.26372669612338884        0.0000000000000000     
  -1.8916184541152677E-002  0.23007543807861702        0.0000000000000000     
  -1.9007396534607191E-002  0.23851523368199640        0.0000000000000000     
  -1.9085742797615015E-002  0.24695097459975024        0.0000000000000000     
  -1.9151223330176124E-002  0.25538266083187844        0.0000000000000000     
  -1.9203838132290537E-002  0.26381029237838116        0.0000000000000000     
  -2.5301026839520985E-002  0.23012250244497728        0.0000000000000000     
  -2.5423050938342160E-002  0.23857020780272778        0.0000000000000000     
  -2.5528426539724133E-002  0.24702024703708456        0.0000000000000000     
  -2.5617153643666901E-002  0.25547262014804756        0.0000000000000000     
  -2.5689232250170470E-002  0.26392732713561678        0.0000000000000000     
   1.1289732169961209E-011  0.26365981912013398        0.0000000000000000     
   1.1526738548026105E-011  0.27198027655124984        0.0000000000000000     
   1.1757492874263364E-011  0.28016827686571255        0.0000000000000000     
   1.1981996205770104E-011  0.28822382006352204        0.0000000000000000     
   1.2200248623861487E-011  0.29614690614467826        0.0000000000000000     
  -6.3592220015604370E-003  0.26367653837063970        0.0000000000000000     
  -6.3751825680291559E-003  0.27200208725624808        0.0000000000000000     
  -6.3944547516772768E-003  0.28019671344212294        0.0000000000000000     
  -6.4170385525047979E-003  0.28826041692826448        0.0000000000000000     
  -6.4429339705117236E-003  0.29619319771467267        0.0000000000000000     
  -1.2760501382753860E-002  0.26372669612338884        0.0000000000000000     
  -1.2793057697676411E-002  0.27206751937249168        0.0000000000000000     
  -1.2831329168598573E-002  0.28028202317268552        0.0000000000000000     
  -1.2875315795520342E-002  0.28837020752397025        0.0000000000000000     
  -1.2925017578441719E-002  0.29633207242634585        0.0000000000000000     
  -1.9203838132290537E-002  0.26381029237838116        0.0000000000000000     
  -1.9253625377415037E-002  0.27217657289998082        0.0000000000000000     
  -1.9310623239006400E-002  0.28042420605740026        0.0000000000000000     
  -1.9374831717064635E-002  0.28855319185063927        0.0000000000000000     
  -1.9446250811589742E-002  0.29656353027969784        0.0000000000000000     
  -2.5689232250170470E-002  0.26392732713561678        0.0000000000000000     
  -2.5756885607245025E-002  0.27232924783871559        0.0000000000000000     
  -2.5832336962900760E-002  0.28062326209626709        0.0000000000000000     
  -2.5915586317137682E-002  0.28880936990827144        0.0000000000000000     
  -2.6006633669955787E-002  0.29688757127472853        0.0000000000000000     
  -1.4000501620089149E-002   5.5774938251867613E-002   0.0000000000000000     
  -1.4786974057519999E-002   6.1366414116188345E-002   0.0000000000000000     
  -1.5541213592132020E-002   6.7139134434876541E-002   0.0000000000000000     
  -1.6263220223925214E-002   7.3093099207932180E-002   0.0000000000000000     
  -1.6952993952899582E-002   7.9228308435355263E-002   0.0000000000000000     
  -1.7618729461772509E-002   5.6035954162233947E-002   0.0000000000000000     
  -1.8604350958876865E-002   6.1619454931667025E-002   0.0000000000000000     
  -1.9547407646431779E-002   6.7384273505135595E-002   0.0000000000000000     
  -2.0447899524437242E-002   7.3330409882639697E-002   0.0000000000000000     
  -2.1305826592893269E-002   7.9457864064179304E-002   0.0000000000000000     
  -2.1305657975670723E-002   5.6354566078164102E-002   0.0000000000000000     
  -2.2486498600937394E-002   6.1929852805821591E-002   0.0000000000000000     
  -2.3617462195249728E-002   6.7685807164652237E-002   0.0000000000000000     
  -2.4698548758607733E-002   7.3622429154656041E-002   0.0000000000000000     
  -2.5729758291011401E-002   7.9739718775832968E-002   0.0000000000000000     
  -2.5061287161783796E-002   5.6730773999658077E-002   0.0000000000000000     
  -2.6433416983701580E-002   6.2297607738652040E-002   0.0000000000000000     
  -2.7751377238585870E-002   6.8043735413426398E-002   0.0000000000000000     
  -2.9015167926436675E-002   7.3969157023981144E-002   0.0000000000000000     
  -3.0224789047253984E-002   8.0073872570316271E-002   0.0000000000000000     
  -2.8885617020111724E-002   5.7164577926715879E-002   0.0000000000000000     
  -3.0445106107169419E-002   6.2722719730158388E-002   0.0000000000000000     
  -3.1949152776440205E-002   6.8458058251458107E-002   0.0000000000000000     
  -3.3397757027924066E-002   7.4370593490615033E-002   0.0000000000000000     
  -3.4790918861621001E-002   8.0460325447629183E-002   0.0000000000000000     
  -1.6952993952899582E-002   7.9228308435355263E-002   0.0000000000000000     
  -1.7617054256349893E-002   8.5538823812884870E-002   0.0000000000000000     
  -1.8261920611570920E-002   9.2018707036260042E-002   0.0000000000000000     
  -1.8887593018562666E-002   9.8667958105480791E-002   0.0000000000000000     
  -1.9494071477325126E-002  0.10548657702054710        0.0000000000000000     
  -2.1305826592893269E-002   7.9457864064179304E-002   0.0000000000000000     
  -2.2131119476820366E-002   8.5760409420003528E-002   0.0000000000000000     
  -2.2933708801239034E-002   9.2231819320361508E-002   0.0000000000000000     
  -2.3713594566149299E-002   9.8872093765253230E-002   0.0000000000000000     
  -2.4470776771551135E-002  0.10568123275467867        0.0000000000000000     
  -2.5729758291011401E-002   7.9739718775832968E-002   0.0000000000000000     
  -2.6722116018105101E-002   8.6031716149484641E-002   0.0000000000000000     
  -2.7686647165533197E-002   9.2492461396912612E-002   0.0000000000000000     
  -2.8623351733295679E-002   9.9121954518116867E-002   0.0000000000000000     
  -2.9532229721392557E-002  0.10592019551309742        0.0000000000000000     
  -3.0224789047253984E-002   8.0073872570316271E-002   0.0000000000000000     
  -3.1390043880204117E-002   8.6352744001328197E-002   0.0000000000000000     
  -3.2520735704453400E-002   9.2800633265913340E-002   0.0000000000000000     
  -3.3616864520001823E-002   9.9417540364071744E-002   0.0000000000000000     
  -3.4678430326849391E-002  0.10620346529580334        0.0000000000000000     
  -3.4790918861621001E-002   8.0460325447629183E-002   0.0000000000000000     
  -3.6134903063117403E-002   8.6723492975534194E-002   0.0000000000000000     
  -3.7435974417999646E-002   9.3156334927363749E-002   0.0000000000000000     
  -3.8694132926267721E-002   9.9758851303117832E-002   0.0000000000000000     
  -3.9909378587921630E-002  0.10653104210279646        0.0000000000000000     
  -1.9494071477325126E-002  0.10548657702054710        0.0000000000000000     
  -2.0075370148678960E-002  0.11245196869906868        0.0000000000000000     
  -2.0625503193444819E-002  0.11954153805865519        0.0000000000000000     
  -2.1144470611622702E-002  0.12675528509930664        0.0000000000000000     
  -2.1632272403212617E-002  0.13409320982102302        0.0000000000000000     
  -2.4470776771551135E-002  0.10568123275467867        0.0000000000000000     
  -2.5197501053160768E-002  0.11263681591835538        0.0000000000000000     
  -2.5886013046694405E-002  0.11971642288600089        0.0000000000000000     
  -2.6536312752152052E-002  0.12692005365761513        0.0000000000000000     
  -2.7148400169533703E-002  0.13424770823319826        0.0000000000000000     
  -2.9532229721392557E-002  0.10592019551309742        0.0000000000000000     
  -3.0404567818174352E-002  0.11286458001405471        0.0000000000000000     
  -3.1231652711991603E-002  0.11993250365318925        0.0000000000000000     
  -3.2013484402844308E-002  0.12712396643050106        0.0000000000000000     
  -3.2750062890732463E-002  0.13443896834599003        0.0000000000000000     
  -3.4678430326849391E-002  0.10620346529580334        0.0000000000000000     
  -3.5696570443719711E-002  0.11313526098616668        0.0000000000000000     
  -3.6662422189336401E-002  0.12018978036022031        0.0000000000000000     
  -3.7575985563699461E-002  0.12736702341796416        0.0000000000000000     
  -3.8437260566808899E-002  0.13466699015939831        0.0000000000000000     
  -3.9909378587921630E-002  0.10653104210279646        0.0000000000000000     
  -4.1073508929796852E-002  0.11344885883469127        0.0000000000000000     
  -4.2178321478728811E-002  0.12048825300709400        0.0000000000000000     
  -4.3223816234717528E-002  0.12764922462000464        0.0000000000000000     
  -4.4209993197762990E-002  0.13493177367342313        0.0000000000000000     
  -2.1632272403212617E-002  0.13409320982102302        0.0000000000000000     
  -2.2091590366547981E-002  0.14155171364856833        0.0000000000000000     
  -2.2525106299962225E-002  0.14912719800670657        0.0000000000000000     
  -2.2932820203455353E-002  0.15681966289543772        0.0000000000000000     
  -2.3314732077027361E-002  0.16462910831476182        0.0000000000000000     
  -2.7148400169533703E-002  0.13424770823319826        0.0000000000000000     
  -2.7725045278871378E-002  0.14169572418923665        0.0000000000000000     
  -2.8269018060197097E-002  0.14926043910221698        0.0000000000000000     
  -2.8780318513510861E-002  0.15694185297213914        0.0000000000000000     
  -2.9258946638812663E-002  0.16473996579900324        0.0000000000000000     
  -3.2750062890732463E-002  0.13443896834599003        0.0000000000000000     
  -3.3444611850335405E-002  0.14187404672316745        0.0000000000000000     
  -3.4100354956332457E-002  0.14942573888554445        0.0000000000000000     
  -3.4717292208723646E-002  0.15709404483312100        0.0000000000000000     
  -3.5295423607508938E-002  0.16487896456589718        0.0000000000000000     
  -3.8437260566808899E-002  0.13466699015939831        0.0000000000000000     
  -3.9250290080940060E-002  0.14208668125036061        0.0000000000000000     
  -4.0019116988368325E-002  0.14962309735668891        0.0000000000000000     
  -4.0743741289093693E-002  0.15727623847838332        0.0000000000000000     
  -4.1424162983116172E-002  0.16504610461544358        0.0000000000000000     
  -4.4209993197762990E-002  0.13493177367342313        0.0000000000000000     
  -4.5142079970685325E-002  0.14233362777081621        0.0000000000000000     
  -4.6025304156304674E-002  0.14985251451565049        0.0000000000000000     
  -4.6859665754621020E-002  0.15748843390792591        0.0000000000000000     
  -4.7645164765634358E-002  0.16524138594764254        0.0000000000000000     
  -2.3314732077027361E-002  0.16462910831476182        0.0000000000000000     
  -2.3668478339255786E-002  0.17254056597386982        0.0000000000000000     
  -2.3991695408718174E-002  0.18053906758195259        0.0000000000000000     
  -2.4284383285414528E-002  0.18862461313901024        0.0000000000000000     
  -2.4546541969344839E-002  0.19679720264504266        0.0000000000000000     
  -2.9258946638812663E-002  0.16473996579900324        0.0000000000000000     
  -2.9702593749470201E-002  0.17264018257235417        0.0000000000000000     
  -3.0108951158851142E-002  0.18062790828173697        0.0000000000000000     
  -3.0478018866955500E-002  0.18870314292715157        0.0000000000000000     
  -3.0809796873783268E-002  0.19686588650859799        0.0000000000000000     
  -3.5295423607508938E-002  0.16487896456589718        0.0000000000000000     
  -3.5832184226653310E-002  0.17276603213028269        0.0000000000000000     
  -3.6325009140121732E-002  0.18074078157268725        0.0000000000000000     
  -3.6773898347914176E-002  0.18880321289311092        0.0000000000000000     
  -3.7178851850030670E-002  0.19695332609155364        0.0000000000000000     
  -4.1424162983116172E-002  0.16504610461544358        0.0000000000000000     
  -4.2057249770805119E-002  0.17291811464765527        0.0000000000000000     
  -4.2639869352529912E-002  0.18087768745480348        0.0000000000000000     
  -4.3172021728290565E-002  0.18892482303688823        0.0000000000000000     
  -4.3653706898087043E-002  0.19705952139390956        0.0000000000000000     
  -4.7645164765634358E-002  0.16524138594764254        0.0000000000000000     
  -4.8377790381925627E-002  0.17309643012447193        0.0000000000000000     
  -4.9053531796075717E-002  0.18103862592808562        0.0000000000000000     
  -4.9672389008084641E-002  0.18906797335848352        0.0000000000000000     
  -5.0234362017952394E-002  0.19718447241566578        0.0000000000000000     
  -2.4546541969344839E-002  0.19679720264504266        0.0000000000000000     
  -2.4778867839391316E-002  0.20504211749292847        0.0000000000000000     
  -2.4982057274436167E-002  0.21334463907554618        0.0000000000000000     
  -2.5156110274479386E-002  0.22170476739289574        0.0000000000000000     
  -2.5301026839520985E-002  0.23012250244497728        0.0000000000000000     
  -3.0809796873783268E-002  0.19686588650859799        0.0000000000000000     
  -3.1104406151824079E-002  0.20510290445842475        0.0000000000000000     
  -3.1361967673567595E-002  0.21340096220898019        0.0000000000000000     
  -3.1582481439013786E-002  0.22176005976026439        0.0000000000000000     
  -3.1765947448162669E-002  0.23018019711227738        0.0000000000000000     
  -3.7178851850030670E-002  0.19695332609155364        0.0000000000000000     
  -3.7539369155948583E-002  0.20517956540264215        0.0000000000000000     
  -3.7854949775145294E-002  0.21347037506100311        0.0000000000000000     
  -3.8125593707620822E-002  0.22182575506663660        0.0000000000000000     
  -3.8351300953375127E-002  0.23024570541954259        0.0000000000000000     
  -4.3653706898087043E-002  0.19705952139390956        0.0000000000000000     
  -4.4083756851764813E-002  0.20527210032558071        0.0000000000000000     
  -4.4461003579169288E-002  0.21355287763161498        0.0000000000000000     
  -4.4785447080300467E-002  0.22190185331201237        0.0000000000000000     
  -4.5057087355158357E-002  0.23031902736677287        0.0000000000000000     
  -5.0234362017952394E-002  0.19718447241566578        0.0000000000000000     
  -5.0737569239272778E-002  0.20538050922724049        0.0000000000000000     
  -5.1180129085639563E-002  0.21364846992081579        0.0000000000000000     
  -5.1562041557052754E-002  0.22198835449639170        0.0000000000000000     
  -5.1883306653512352E-002  0.23040016295396826        0.0000000000000000     
  -2.5301026839520985E-002  0.23012250244497728        0.0000000000000000     
  -2.5423050938342160E-002  0.23857020780272778        0.0000000000000000     
  -2.5528426539724133E-002  0.24702024703708456        0.0000000000000000     
  -2.5617153643666901E-002  0.25547262014804756        0.0000000000000000     
  -2.5689232250170470E-002  0.26392732713561678        0.0000000000000000     
  -3.1765947448162669E-002  0.23018019711227738        0.0000000000000000     
  -3.1920322183154784E-002  0.23863639820019833        0.0000000000000000     
  -3.2053562126130621E-002  0.24710368695920651        0.0000000000000000     
  -3.2165667277090207E-002  0.25558206338930189        0.0000000000000000     
  -3.2256637636033529E-002  0.26407152749048457        0.0000000000000000     
  -3.8351300953375127E-002  0.23024570541954259        0.0000000000000000     
  -3.8540899332429455E-002  0.23870931425937619        0.0000000000000000     
  -3.8703216664804974E-002  0.24719566972579243        0.0000000000000000     
  -3.8838252950501688E-002  0.25570477181879148        0.0000000000000000     
  -3.8946008189519606E-002  0.26423662053837316        0.0000000000000000     
  -4.5057087355158357E-002  0.23031902736677287        0.0000000000000000     
  -4.5284782386166178E-002  0.23878895598026129        0.0000000000000000     
  -4.5477390155747179E-002  0.24729619533684241        0.0000000000000000     
  -4.5634910663901344E-002  0.25584074543651619        0.0000000000000000     
  -4.5757343910628683E-002  0.26442260627928271        0.0000000000000000     
  -5.1883306653512352E-002  0.23040016295396826        0.0000000000000000     
  -5.2151971344364986E-002  0.23887532336285366        0.0000000000000000     
  -5.2376082598957263E-002  0.24740526379235631        0.0000000000000000     
  -5.2555640417289190E-002  0.25598998424247610        0.0000000000000000     
  -5.2690644799360767E-002  0.26462948471321313        0.0000000000000000     
  -2.5689232250170470E-002  0.26392732713561678        0.0000000000000000     
  -2.5756885607245025E-002  0.27232924783871559        0.0000000000000000     
  -2.5832336962900760E-002  0.28062326209626709        0.0000000000000000     
  -2.5915586317137682E-002  0.28880936990827144        0.0000000000000000     
  -2.6006633669955787E-002  0.29688757127472853        0.0000000000000000     
  -3.2256637636033529E-002  0.26407152749048457        0.0000000000000000     
  -3.2341284111275924E-002  0.27251919849616657        0.0000000000000000     
  -3.2434417611132714E-002  0.28087219563976018        0.0000000000000000     
  -3.2536038135603886E-002  0.28913051892126529        0.0000000000000000     
  -3.2646145684689445E-002  0.29729416834068201        0.0000000000000000     
  -3.8946008189519606E-002  0.26423662053837316        0.0000000000000000     
  -3.9045266613617284E-002  0.27274007917980481        0.0000000000000000     
  -3.9154812454553295E-002  0.28116401103835348        0.0000000000000000     
  -3.9274645712327645E-002  0.28950841611401923        0.0000000000000000     
  -3.9404766386940321E-002  0.29777329440680206        0.0000000000000000     
  -4.5757343910628683E-002  0.26442260627928271        0.0000000000000000     
  -4.5868833114269099E-002  0.27299188988963019        0.0000000000000000     
  -4.5993521493162527E-002  0.28149870829204698        0.0000000000000000     
  -4.6131409047308967E-002  0.28994306148653326        0.0000000000000000     
  -4.6282495776708413E-002  0.29832494947308874        0.0000000000000000     
  -5.2690644799360767E-002  0.26462948471321313        0.0000000000000000     
  -5.2811983613231375E-002  0.27327463062564283        0.0000000000000000     
  -5.2950544726960397E-002  0.28187628740084097        0.0000000000000000     
  -5.3106328140547845E-002  0.29043445503880733        0.0000000000000000     
  -5.3279333853993714E-002  0.29894913353954206        0.0000000000000000     
  -2.8885617020111724E-002   5.7164577926715879E-002   0.0000000000000000     
  -3.0445106107169419E-002   6.2722719730158388E-002   0.0000000000000000     
  -3.1949152776440205E-002   6.8458058251458107E-002   0.0000000000000000     
  -3.3397757027924066E-002   7.4370593490615033E-002   0.0000000000000000     
  -3.4790918861621001E-002   8.0460325447629183E-002   0.0000000000000000     
  -3.2835873287768845E-002   5.7658166093550796E-002   0.0000000000000000     
  -3.4581208144111447E-002   6.3205304171222346E-002   0.0000000000000000     
  -3.6269864678308381E-002   6.8927741608537776E-002   0.0000000000000000     
  -3.7901842890359645E-002   7.4825478405497109E-002   0.0000000000000000     
  -3.9477142780265248E-002   8.0898514562100343E-002   0.0000000000000000     
  -3.6969281701869479E-002   5.8213726734376116E-002   0.0000000000000000     
  -3.8901365267298156E-002   6.3745476452725644E-002   0.0000000000000000     
  -4.0772588813686041E-002   6.9451751414455865E-002   0.0000000000000000     
  -4.2582952341033160E-002   7.5332551619566757E-002   0.0000000000000000     
  -4.4332455849339480E-002   8.1387877068058362E-002   0.0000000000000000     
  -4.1285842262413643E-002   5.8831259849191832E-002   0.0000000000000000     
  -4.3405577476729552E-002   6.4343236574668297E-002   0.0000000000000000     
  -4.5457325182573199E-002   7.0030087669212343E-002   0.0000000000000000     
  -4.7441085379944577E-002   7.5891813132824004E-002   0.0000000000000000     
  -4.9356858068843691E-002   8.1928412965503239E-002   0.0000000000000000     
  -4.5785554969401329E-002   5.9510765437997964E-002   0.0000000000000000     
  -4.8093844772405636E-002   6.4998584537050291E-002   0.0000000000000000     
  -5.0324073784969843E-002   7.0662750372807240E-002   0.0000000000000000     
  -5.2476242007093929E-002   7.6503262945268796E-002   0.0000000000000000     
  -5.4550349438777901E-002   8.2520122254434988E-002   0.0000000000000000     
  -3.4790918861621001E-002   8.0460325447629183E-002   0.0000000000000000     
  -3.6134903063117403E-002   8.6723492975534194E-002   0.0000000000000000     
  -3.7435974417999646E-002   9.3156334927363749E-002   0.0000000000000000     
  -3.8694132926267721E-002   9.9758851303117832E-002   0.0000000000000000     
  -3.9909378587921630E-002  0.10653104210279646        0.0000000000000000     
  -3.9477142780265248E-002   8.0898514562100343E-002   0.0000000000000000     
  -4.0998649018911162E-002   8.7144285875781199E-002   0.0000000000000000     
  -4.2469246277183376E-002   9.3560228143973495E-002   0.0000000000000000     
  -4.3888934555081881E-002  0.10014634136667717        0.0000000000000000     
  -4.5257713852606678E-002  0.10690262554389229        0.0000000000000000     
  -4.4332455849339480E-002   8.1387877068058362E-002   0.0000000000000000     
  -4.6023237199651575E-002   8.7615445505747805E-002   0.0000000000000000     
  -4.7657434253016009E-002   9.4012974678452307E-002   0.0000000000000000     
  -4.9235047009432785E-002  0.10058046458617186        0.0000000000000000     
  -5.0756075468901894E-002  0.10731791522890645        0.0000000000000000     
  -4.9356858068843691E-002   8.1928412965503239E-002   0.0000000000000000     
  -5.1208667605338667E-002   8.8136971865433983E-002   0.0000000000000000     
  -5.3000538345497575E-002   9.4514574530800186E-002   0.0000000000000000     
  -5.4732470289320455E-002  0.10106122096160182        0.0000000000000000     
  -5.6404463436807280E-002  0.10777691115783890        0.0000000000000000     
  -5.4550349438777901E-002   8.2520122254434988E-002   0.0000000000000000     
  -5.6554940235972392E-002   8.8708864954839789E-002   0.0000000000000000     
  -5.8498558554628065E-002   9.5065027701017157E-002   0.0000000000000000     
  -6.0381204394744876E-002  0.10158861049296712        0.0000000000000000     
  -6.2202877756322855E-002  0.10827961333068968        0.0000000000000000     
  -3.9909378587921630E-002  0.10653104210279646        0.0000000000000000     
  -4.1073508929796852E-002  0.11344885883469127        0.0000000000000000     
  -4.2178321478728811E-002  0.12048825300709400        0.0000000000000000     
  -4.3223816234717528E-002  0.12764922462000464        0.0000000000000000     
  -4.4209993197762990E-002  0.13493177367342313        0.0000000000000000     
  -4.5257713852606678E-002  0.10690262554389229        0.0000000000000000     
  -4.6567881610112521E-002  0.11380434296364006        0.0000000000000000     
  -4.7811735267954153E-002  0.12082675591394172        0.0000000000000000     
  -4.8989274826131572E-002  0.12796986439479727        0.0000000000000000     
  -5.0100500284644793E-002  0.13523366840620674        0.0000000000000000     
  -5.0756075468901894E-002  0.10731791522890645        0.0000000000000000     
  -5.2212186818373509E-002  0.11420068277702460        0.0000000000000000     
  -5.3595048244797765E-002  0.12120412340089479        0.0000000000000000     
  -5.4904659748174704E-002  0.12832823710051702        0.0000000000000000     
  -5.6141021328504313E-002  0.13557302387589129        0.0000000000000000     
  -5.6404463436807280E-002  0.10777691115783890        0.0000000000000000     
  -5.8006424554579786E-002  0.11463787827484487        0.0000000000000000     
  -5.9528260409259660E-002  0.12162035546795318        0.0000000000000000     
  -6.0969971000846925E-002  0.12872434273716385        0.0000000000000000     
  -6.2331556329341557E-002  0.13594984008247682        0.0000000000000000     
  -6.2202877756322855E-002  0.10827961333068968        0.0000000000000000     
  -6.3950594818731374E-002  0.11511592945710090        0.0000000000000000     
  -6.5611371761339826E-002  0.12207545211511693        0.0000000000000000     
  -6.7185208584148212E-002  0.12915818130473775        0.0000000000000000     
  -6.8672105287156532E-002  0.13636411702596335        0.0000000000000000     
  -4.4209993197762990E-002  0.13493177367342313        0.0000000000000000     
  -4.5142079970685325E-002  0.14233362777081621        0.0000000000000000     
  -4.6025304156304674E-002  0.14985251451565049        0.0000000000000000     
  -4.6859665754621020E-002  0.15748843390792591        0.0000000000000000     
  -4.7645164765634358E-002  0.16524138594764254        0.0000000000000000     
  -5.0100500284644793E-002  0.13523366840620674        0.0000000000000000     
  -5.1151982035358770E-002  0.14261640207597778        0.0000000000000000     
  -5.2150290470138499E-002  0.15011629953191810        0.0000000000000000     
  -5.3095425588983981E-002  0.15773336077402772        0.0000000000000000     
  -5.3987387391895215E-002  0.16546758580230661        0.0000000000000000     
  -5.6141021328504313E-002  0.13557302387589129        0.0000000000000000     
  -5.7311996790747888E-002  0.14293651995728884        0.0000000000000000     
  -5.8425449939866765E-002  0.15041676157498085        0.0000000000000000     
  -5.9481380775860945E-002  0.15801374872896740        0.0000000000000000     
  -6.0479789298730401E-002  0.16572748141924842        0.0000000000000000     
  -6.2331556329341557E-002  0.13594984008247682        0.0000000000000000     
  -6.3622124236852692E-002  0.14329398141474939        0.0000000000000000     
  -6.4850782565489484E-002  0.15075390064483876        0.0000000000000000     
  -6.6017531315251898E-002  0.15832959777274497        0.0000000000000000     
  -6.7122370486139948E-002  0.16602107279846789        0.0000000000000000     
  -6.8672105287156532E-002  0.13636411702596335        0.0000000000000000     
  -7.0082364373673184E-002  0.14368878644835945        0.0000000000000000     
  -7.1426288347006622E-002  0.15112771674149178        0.0000000000000000     
  -7.2703877207156847E-002  0.15868090790536032        0.0000000000000000     
  -7.3915130954123831E-002  0.16634835993996511        0.0000000000000000     
  -4.7645164765634358E-002  0.16524138594764254        0.0000000000000000     
  -4.8377790381925627E-002  0.17309643012447193        0.0000000000000000     
  -4.9053531796075717E-002  0.18103862592808562        0.0000000000000000     
  -4.9672389008084641E-002  0.18906797335848352        0.0000000000000000     
  -5.0234362017952394E-002  0.19718447241566578        0.0000000000000000     
  -5.3987387391895215E-002  0.16546758580230661        0.0000000000000000     
  -5.4821353817124926E-002  0.17330380171280044        0.0000000000000000     
  -5.5592502802925867E-002  0.18122683560155475        0.0000000000000000     
  -5.6300834349298050E-002  0.18923668746856950        0.0000000000000000     
  -5.6946348456241441E-002  0.19733335731384483        0.0000000000000000     
  -6.0479789298730401E-002  0.16572748141924842        0.0000000000000000     
  -6.1415487833513131E-002  0.17354305256470839        0.0000000000000000     
  -6.2283288705247124E-002  0.18144555508423182        0.0000000000000000     
  -6.3083191913932357E-002  0.18943498897781880        0.0000000000000000     
  -6.3815197459568859E-002  0.19751135424546917        0.0000000000000000     
  -6.7122370486139948E-002  0.16602107279846789        0.0000000000000000     
  -6.8160192431090269E-002  0.17381418268019588        0.0000000000000000     
  -6.9125889503039481E-002  0.18169478437611702        0.0000000000000000     
  -7.0019461701987626E-002  0.18966287788623137        0.0000000000000000     
  -7.0840909027934662E-002  0.19771846321053888        0.0000000000000000     
  -7.3915130954123831E-002  0.16634835993996511        0.0000000000000000     
  -7.5055467609856291E-002  0.17411719205926279        0.0000000000000000     
  -7.6120305196302959E-002  0.18197452347721019        0.0000000000000000     
  -7.7109643713463807E-002  0.18992035419380721        0.0000000000000000     
  -7.8023483161338877E-002  0.19795468420905393        0.0000000000000000     
  -5.0234362017952394E-002  0.19718447241566578        0.0000000000000000     
  -5.0737569239272778E-002  0.20538050922724049        0.0000000000000000     
  -5.1180129085639563E-002  0.21364846992081579        0.0000000000000000     
  -5.1562041557052754E-002  0.22198835449639170        0.0000000000000000     
  -5.1883306653512352E-002  0.23040016295396826        0.0000000000000000     
  -5.6946348456241441E-002  0.19733335731384483        0.0000000000000000     
  -5.7526805232372670E-002  0.20551092065593521        0.0000000000000000     
  -5.8039964786308379E-002  0.21376345301339525        0.0000000000000000     
  -5.8485827118048554E-002  0.22209095438622486        0.0000000000000000     
  -5.8864392227593224E-002  0.23049342477442414        0.0000000000000000     
  -6.3815197459568859E-002  0.19751135424546917        0.0000000000000000     
  -6.4477463744964700E-002  0.20566946315997875        0.0000000000000000     
  -6.5068149172928025E-002  0.21390412799414307        0.0000000000000000     
  -6.5587253743458807E-002  0.22221534874796217        0.0000000000000000     
  -6.6034777456557073E-002  0.23060312542143604        0.0000000000000000     
  -7.0840909027934662E-002  0.19771846321053888        0.0000000000000000     
  -7.1589544777048875E-002  0.20585613673937106        0.0000000000000000     
  -7.2264682245498466E-002  0.21407049486305926        0.0000000000000000     
  -7.2866321433283490E-002  0.22236153758160357        0.0000000000000000     
  -7.3394462340403921E-002  0.23072926489500387        0.0000000000000000     
  -7.8023483161338877E-002  0.19795468420905393        0.0000000000000000     
  -7.8863048328625174E-002  0.20607094139411217        0.0000000000000000     
  -7.9629564004019743E-002  0.21426255362014388        0.0000000000000000     
  -8.0323030187522598E-002  0.22252952088714908        0.0000000000000000     
  -8.0943446879133726E-002  0.23087184319512777        0.0000000000000000     
  -5.1883306653512352E-002  0.23040016295396826        0.0000000000000000     
  -5.2151971344364986E-002  0.23887532336285366        0.0000000000000000     
  -5.2376082598957263E-002  0.24740526379235631        0.0000000000000000     
  -5.2555640417289190E-002  0.25598998424247610        0.0000000000000000     
  -5.2690644799360767E-002  0.26462948471321313        0.0000000000000000     
  -5.8864392227593224E-002  0.23049342477442414        0.0000000000000000     
  -5.9181608620952890E-002  0.23896979585812714        0.0000000000000000     
  -5.9443424804138112E-002  0.24751899931746779        0.0000000000000000     
  -5.9649840777148896E-002  0.25614103515244613        0.0000000000000000     
  -5.9800856539985237E-002  0.26483590336306223        0.0000000000000000     
  -6.6034777456557073E-002  0.23060312542143604        0.0000000000000000     
  -6.6412836629856975E-002  0.23907375291705524        0.0000000000000000     
  -6.6723547580992679E-002  0.24763352613731027        0.0000000000000000     
  -6.6966910309964184E-002  0.25628244508220116        0.0000000000000000     
  -6.7142924816771490E-002  0.26502050975172792        0.0000000000000000     
  -7.3394462340403921E-002  0.23072926489500387        0.0000000000000000     
  -7.3845655371077221E-002  0.23918719453963808        0.0000000000000000     
  -7.4216450929520950E-002  0.24774884425188382        0.0000000000000000     
  -7.4506849015735052E-002  0.25641421403174108        0.0000000000000000     
  -7.4716849629719528E-002  0.26518330387921002        0.0000000000000000     
  -8.0943446879133726E-002  0.23087184319512777        0.0000000000000000     
  -8.1480064844613648E-002  0.23931012072587565        0.0000000000000000     
  -8.1922134849722911E-002  0.24786495366118841        0.0000000000000000     
  -8.2269656894461460E-002  0.25653634200106612        0.0000000000000000     
  -8.2522630978829364E-002  0.26532428574550870        0.0000000000000000     
  -5.2690644799360767E-002  0.26462948471321313        0.0000000000000000     
  -5.2811983613231375E-002  0.27327463062564283        0.0000000000000000     
  -5.2950544726960397E-002  0.28187628740084097        0.0000000000000000     
  -5.3106328140547845E-002  0.29043445503880733        0.0000000000000000     
  -5.3279333853993714E-002  0.29894913353954206        0.0000000000000000     
  -5.9800856539985237E-002  0.26483590336306223        0.0000000000000000     
  -5.9933447503519907E-002  0.27355957076978271        0.0000000000000000     
  -6.0084589078625711E-002  0.28226800419307435        0.0000000000000000     
  -6.0254281265302662E-002  0.29096120363293704        0.0000000000000000     
  -6.0442524063550725E-002  0.29963916908937088        0.0000000000000000     
  -6.7142924816771490E-002  0.26502050975172792        0.0000000000000000     
  -6.7291954178150551E-002  0.27381797970398986        0.0000000000000000     
  -6.7454361470837318E-002  0.28264511449708657        0.0000000000000000     
  -6.7630146694831791E-002  0.29150191413101789        0.0000000000000000     
  -6.7819309850133930E-002  0.30038837860578410        0.0000000000000000     
  -7.4716849629719528E-002  0.26518330387921002        0.0000000000000000     
  -7.4887503637123279E-002  0.27404985742826427        0.0000000000000000     
  -7.5059861903595176E-002  0.28300761831287757        0.0000000000000000     
  -7.5233924429135179E-002  0.29205658653305017        0.0000000000000000     
  -7.5409691213743357E-002  0.30119676208878171        0.0000000000000000     
  -8.2522630978829364E-002  0.26532428574550870        0.0000000000000000     
  -8.2720095880438119E-002  0.27425520394260594        0.0000000000000000     
  -8.2901090376899300E-002  0.28335551564044753        0.0000000000000000     
  -8.3065614468212937E-002  0.29262522083903347        0.0000000000000000     
  -8.3213668154378986E-002  0.30206431953836377        0.0000000000000000     
  -4.5785554969401329E-002   5.9510765437997964E-002   0.0000000000000000     
  -4.8093844772405636E-002   6.4998584537050291E-002   0.0000000000000000     
  -5.0324073784969843E-002   7.0662750372807240E-002   0.0000000000000000     
  -5.2476242007093929E-002   7.6503262945268796E-002   0.0000000000000000     
  -5.4550349438777901E-002   8.2520122254434988E-002   0.0000000000000000     
  -5.0449720713978172E-002   6.0248059484872475E-002   0.0000000000000000     
  -5.2945428600247896E-002   6.5710012211033453E-002   0.0000000000000000     
  -5.5353704185148130E-002   7.1349700427705942E-002   0.0000000000000000     
  -5.7674547468678880E-002   7.7167124134889922E-002   0.0000000000000000     
  -5.9907958450840133E-002   8.3162283332585421E-002   0.0000000000000000     
  -5.5259640387289824E-002   6.1038957973893367E-002   0.0000000000000000     
  -5.7939590406177813E-002   6.6476011467779622E-002   0.0000000000000000     
  -6.0527085947380252E-002   7.2090898736373879E-002   0.0000000000000000     
  -6.3022127010897114E-002   7.7883619779676116E-002   0.0000000000000000     
  -6.5424713596728412E-002   8.3854174597686404E-002   0.0000000000000000     
  -6.0215313989336286E-002   6.1883460905060625E-002   0.0000000000000000     
  -6.3076330190195401E-002   6.7296582307288799E-002   0.0000000000000000     
  -6.5844219071666196E-002   7.2886345298811078E-002   0.0000000000000000     
  -6.8518980633748630E-002   7.8652749879627434E-002   0.0000000000000000     
  -7.1100614876442744E-002   8.4595796049737895E-002   0.0000000000000000     
  -6.5316741520117558E-002   6.2781568278374264E-002   0.0000000000000000     
  -6.8355647952300647E-002   6.8171724729560984E-002   0.0000000000000000     
  -7.1305103558005942E-002   7.3736040115017498E-002   0.0000000000000000     
  -7.4165108337233443E-002   7.9474514434743820E-002   0.0000000000000000     
  -7.6935662289983137E-002   8.5387147688739937E-002   0.0000000000000000     
  -5.4550349438777901E-002   8.2520122254434988E-002   0.0000000000000000     
  -5.6554940235972392E-002   8.8708864954839789E-002   0.0000000000000000     
  -5.8498558554628065E-002   9.5065027701017157E-002   0.0000000000000000     
  -6.0381204394744876E-002  0.10158861049296712        0.0000000000000000     
  -6.2202877756322855E-002  0.10827961333068968        0.0000000000000000     
  -5.9907958450840133E-002   8.3162283332585421E-002   0.0000000000000000     
  -6.2066434834759765E-002   8.9329316101765463E-002   0.0000000000000000     
  -6.4162474323565657E-002   9.5662360523403045E-002   0.0000000000000000     
  -6.6196076917257818E-002  0.10216141659749819        0.0000000000000000     
  -6.8167242615836218E-002  0.10882648432405088        0.0000000000000000     
  -6.5424713596728412E-002   8.3854174597686404E-002   0.0000000000000000     
  -6.7747531144907724E-002   8.9996516634011370E-002   0.0000000000000000     
  -7.0003265095468600E-002   9.6304599332257726E-002   0.0000000000000000     
  -7.2191915448411040E-002  0.10277842269242550        0.0000000000000000     
  -7.4313482203735043E-002  0.10941798671451464        0.0000000000000000     
  -7.1100614876442744E-002   8.4595796049737895E-002   0.0000000000000000     
  -7.3598229166416257E-002   9.0710466551577495E-002   0.0000000000000000     
  -7.6020930870336831E-002   9.6991744127581200E-002   0.0000000000000000     
  -7.8368719988204522E-002  0.10343962877774904        0.0000000000000000     
  -8.0641596520019329E-002  0.11005412050208099        0.0000000000000000     
  -7.6935662289983137E-002   8.5387147688739937E-002   0.0000000000000000     
  -7.9618528899285348E-002   9.1471165854463826E-002   0.0000000000000000     
  -8.2215471648170405E-002   9.7723794909373454E-002   0.0000000000000000     
  -8.4726490536638277E-002  0.10414503485346882        0.0000000000000000     
  -8.7151585564689008E-002  0.11073488568674991        0.0000000000000000     
  -6.2202877756322855E-002  0.10827961333068968        0.0000000000000000     
  -6.3950594818731374E-002  0.11511592945710090        0.0000000000000000     
  -6.5611371761339826E-002  0.12207545211511693        0.0000000000000000     
  -6.7185208584148212E-002  0.12915818130473775        0.0000000000000000     
  -6.8672105287156532E-002  0.13636411702596335        0.0000000000000000     
  -6.8167242615836218E-002  0.10882648432405088        0.0000000000000000     
  -7.0060360879341241E-002  0.11563693946473021        0.0000000000000000     
  -7.1859821167813240E-002  0.12257215778120534        0.0000000000000000     
  -7.3565623481252229E-002  0.12963213927347622        0.0000000000000000     
  -7.5177767819658167E-002  0.13681688394154287        0.0000000000000000     
  -7.4313482203735043E-002  0.10941798671451464        0.0000000000000000     
  -7.6351386004922431E-002  0.11620301143867033        0.0000000000000000     
  -7.8289047495454941E-002  0.12311321690503771        0.0000000000000000     
  -8.0126466675332630E-002  0.13014860311361673        0.0000000000000000     
  -8.1863643544555428E-002  0.13730917006440746        0.0000000000000000     
  -8.0641596520019329E-002  0.11005412050208099        0.0000000000000000     
  -8.2823670195474874E-002  0.11681414537892126        0.0000000000000000     
  -8.4899050744264890E-002  0.12369862948661402        0.0000000000000000     
  -8.6867738166389388E-002  0.13070757282515927        0.0000000000000000     
  -8.8729732461848329E-002  0.13784097539455703        0.0000000000000000     
  -8.7151585564689008E-002  0.11073488568674991        0.0000000000000000     
  -8.9477213450998613E-002  0.11747034128548300        0.0000000000000000     
  -9.1689830914243098E-002  0.12432839552593432        0.0000000000000000     
  -9.3789437954422517E-002  0.13130904840810392        0.0000000000000000     
  -9.5776034571536828E-002  0.13841229993199169        0.0000000000000000     
  -6.8672105287156532E-002  0.13636411702596335        0.0000000000000000     
  -7.0082364373673184E-002  0.14368878644835945        0.0000000000000000     
  -7.1426288347006622E-002  0.15112771674149178        0.0000000000000000     
  -7.2703877207156847E-002  0.15868090790536032        0.0000000000000000     
  -7.3915130954123831E-002  0.16634835993996511        0.0000000000000000     
  -7.5177767819658167E-002  0.13681688394154287        0.0000000000000000     
  -7.6707717377930376E-002  0.14412050438530907        0.0000000000000000     
  -7.8166935350968150E-002  0.15153711320467858        0.0000000000000000     
  -7.9555421738771462E-002  0.15906671039965142        0.0000000000000000     
  -8.0873176541340297E-002  0.16670929597022754        0.0000000000000000     
  -8.1863643544555428E-002  0.13730917006440746        0.0000000000000000     
  -8.3513183426345242E-002  0.14458870455278830        0.0000000000000000     
  -8.5087691643923893E-002  0.15198099337413778        0.0000000000000000     
  -8.6587168197291328E-002  0.15948603652845594        0.0000000000000000     
  -8.8011613086447629E-002  0.16710383401574269        0.0000000000000000     
  -8.8729732461848329E-002  0.13784097539455703        0.0000000000000000     
  -9.0498762518917822E-002  0.14509338695079713        0.0000000000000000     
  -9.2188557225873852E-002  0.15245935724986942        0.0000000000000000     
  -9.3799116582716557E-002  0.15993888629177391        0.0000000000000000     
  -9.5330440589445800E-002  0.16753197407651058        0.0000000000000000     
  -9.5776034571536828E-002  0.13841229993199169        0.0000000000000000     
  -9.7664454655648034E-002  0.14563455157933558        0.0000000000000000     
  -9.9469532096818108E-002  0.15297220483187349        0.0000000000000000     
 -0.10119126689504702       0.16042525968960533        0.0000000000000000     
 -0.10282965905033481       0.16799371615253120        0.0000000000000000     
  -7.3915130954123831E-002  0.16634835993996511        0.0000000000000000     
  -7.5055467609856291E-002  0.17411719205926279        0.0000000000000000     
  -7.6120305196302959E-002  0.18197452347721019        0.0000000000000000     
  -7.7109643713463807E-002  0.18992035419380721        0.0000000000000000     
  -7.8023483161338877E-002  0.19795468420905393        0.0000000000000000     
  -8.0873176541340297E-002  0.16670929597022754        0.0000000000000000     
  -8.2116297991671028E-002  0.17445307603312071        0.0000000000000000     
  -8.3280884322759915E-002  0.18228625670504472        0.0000000000000000     
  -8.4366935534606988E-002  0.19020883798599952        0.0000000000000000     
  -8.5374451627212217E-002  0.19822081987598514        0.0000000000000000     
  -8.8011613086447629E-002  0.16710383401574269        0.0000000000000000     
  -8.9357668198394247E-002  0.17482282993298109        0.0000000000000000     
  -9.0621975420132783E-002  0.18263146837715394        0.0000000000000000     
  -9.1804534751663169E-002  0.19052974934826142        0.0000000000000000     
  -9.2905346192985433E-002  0.19851767284630337        0.0000000000000000     
  -9.5330440589445800E-002  0.16753197407651058        0.0000000000000000     
  -9.6779578230026031E-002  0.17522645375884380        0.0000000000000000     
  -9.8143578488421548E-002  0.18301015849353788        0.0000000000000000     
  -9.9422441364632380E-002  0.19088308828059283        0.0000000000000000     
 -0.10061616685865853       0.19884524312000867        0.0000000000000000     
 -0.10282965905033481       0.16799371615253120        0.0000000000000000     
 -0.10438202808656627       0.17566394751070896        0.0000000000000000     
 -0.10584569352762620       0.18342232705419653        0.0000000000000000     
 -0.10722065537351463       0.19126885478299388        0.0000000000000000     
 -0.10850691362423151       0.19920353069710106        0.0000000000000000     
  -7.8023483161338877E-002  0.19795468420905393        0.0000000000000000     
  -7.8863048328625174E-002  0.20607094139411217        0.0000000000000000     
  -7.9629564004019743E-002  0.21426255362014388        0.0000000000000000     
  -8.0323030187522598E-002  0.22252952088714908        0.0000000000000000     
  -8.0943446879133726E-002  0.23087184319512777        0.0000000000000000     
  -8.5374451627212217E-002  0.19822081987598514        0.0000000000000000     
  -8.6306745887617983E-002  0.20631460813508135        0.0000000000000000     
  -8.7167131602866599E-002  0.21448260852336798        0.0000000000000000     
  -8.7955608772958133E-002  0.22272482104084509        0.0000000000000000     
  -8.8672177397892488E-002  0.23104124568751261        0.0000000000000000     
  -9.2905346192985433E-002  0.19851767284630337        0.0000000000000000     
  -9.3929408941951620E-002  0.20658786797315781        0.0000000000000000     
  -9.4881722196413831E-002  0.21473296383070264        0.0000000000000000     
  -9.5762285956371984E-002  0.22295296041893789        0.0000000000000000     
  -9.6571100221826162E-002  0.23124785773786347        0.0000000000000000     
 -0.10061616685865853       0.19884524312000867        0.0000000000000000     
 -0.10173103749162617       0.20689072090834162        0.0000000000000000     
 -0.10277333578466140       0.21501361954214790        0.0000000000000000     
 -0.10374306173776426       0.22321393902142747        0.0000000000000000     
 -0.10464021535093473       0.23149167934618040        0.0000000000000000     
 -0.10850691362423151       0.19920353069710106        0.0000000000000000     
 -0.10971163153664154       0.20722316694063278        0.0000000000000000     
 -0.11084197236760931       0.21532457565770372        0.0000000000000000     
 -0.11189793611713487       0.22350775684831392        0.0000000000000000     
 -0.11287952278521821       0.23177271051246334        0.0000000000000000     
  -8.0943446879133726E-002  0.23087184319512777        0.0000000000000000     
  -8.1480064844613648E-002  0.23931012072587565        0.0000000000000000     
  -8.1922134849722911E-002  0.24786495366118841        0.0000000000000000     
  -8.2269656894461460E-002  0.25653634200106612        0.0000000000000000     
  -8.2522630978829364E-002  0.26532428574550870        0.0000000000000000     
  -8.8672177397892488E-002  0.23104124568751261        0.0000000000000000     
  -8.9302361688320619E-002  0.23945748797494798        0.0000000000000000     
  -8.9831685854893359E-002  0.24799915341472867        0.0000000000000000     
  -9.0260149897610706E-002  0.25666624200685462        0.0000000000000000     
  -9.0587753816472674E-002  0.26545875375132588        0.0000000000000000     
  -9.6571100221826162E-002  0.23124785773786347        0.0000000000000000     
  -9.7298842540052471E-002  0.23964425278603532        0.0000000000000000     
  -9.7936190458327077E-002  0.24816874256200930        0.0000000000000000     
  -9.8483143976649992E-002  0.25682132706578531        0.0000000000000000     
  -9.8939703095021203E-002  0.26560200629736347        0.0000000000000000     
 -0.10464021535093473       0.23149167934618040        0.0000000000000000     
 -0.10546950739980920       0.23987041515913762        0.0000000000000000     
 -0.10623564866002409       0.24837372110303027        0.0000000000000000     
 -0.10693863913157932       0.25700159717785814        0.0000000000000000     
 -0.10757847881447498       0.26575404338362146        0.0000000000000000     
 -0.11287952278521821       0.23177271051246334        0.0000000000000000     
 -0.11381435626759083       0.24013597509425494        0.0000000000000000     
 -0.11473006045998434       0.24861408903779153        0.0000000000000000     
 -0.11562663536239869       0.25720705234307323        0.0000000000000000     
 -0.11650408097483392       0.26591486501009998        0.0000000000000000     
  -8.2522630978829364E-002  0.26532428574550870        0.0000000000000000     
  -8.2720095880438119E-002  0.27425520394260594        0.0000000000000000     
  -8.2901090376899300E-002  0.28335551564044753        0.0000000000000000     
  -8.3065614468212937E-002  0.29262522083903347        0.0000000000000000     
  -8.3213668154378986E-002  0.30206431953836377        0.0000000000000000     
  -9.0587753816472674E-002  0.26545875375132588        0.0000000000000000     
  -9.0844852911624530E-002  0.27443969967648763        0.0000000000000000     
  -9.1061802483211524E-002  0.28367209081068517        0.0000000000000000     
  -9.1238602531233670E-002  0.29315592715391847        0.0000000000000000     
  -9.1375253055690969E-002  0.30289120870618752        0.0000000000000000     
  -9.8939703095021203E-002  0.26560200629736347        0.0000000000000000     
  -9.9316896734211998E-002  0.27460902505938206        0.0000000000000000     
  -9.9625753814993626E-002  0.28394062815447940        0.0000000000000000     
  -9.9866274337366112E-002  0.29359681558265555        0.0000000000000000     
 -0.10003845830132943       0.30357758734391044        0.0000000000000000     
 -0.10757847881447498       0.26575404338362146        0.0000000000000000     
 -0.10813622734820055       0.27476318009128914        0.0000000000000000     
 -0.10859294437224563       0.28416112767183022        0.0000000000000000     
 -0.10894862988661026       0.29394788612524464        0.0000000000000000     
 -0.10920328389129438       0.30412345545153247        0.0000000000000000     
 -0.11650408097483392       0.26591486501009998        0.0000000000000000     
 -0.11730284475359015       0.27490216477220902        0.0000000000000000     
 -0.11796337415496755       0.28433358936273767        0.0000000000000000     
 -0.11848566917896611       0.29420913878168592        0.0000000000000000     
 -0.11886972982558583       0.30452881302905366        0.0000000000000000     
 </DataArray>
 <DataArray  type="Float64" Name="stress" NumberOfComponents="3" format="ascii">
   5920687214.1904669        380117.69822740555        95093767.996979624     
   5746185713.4902954       -8806251.8319389820        93510922.480445936     
   5573664080.1686106       -11393063.433775187        87607237.188743666     
   5403122314.2254381       -7380317.1072566509        77382712.121898398     
   5234560415.6607590        3231987.1475746632        62837347.279892221     
   5583166553.4403582        2044379.3833622932        218769396.87710539     
   5401520273.2521009       -7428484.4069821835        216674616.09247023     
   5221037033.0444403       -13024548.262024879        213470804.92143869     
   5041716832.8173656       -14743812.181781530        209157963.36400822     
   4863559672.5708752       -12586276.166249037        203736091.42017236     
   5234356742.4371195        321895.99255800247        343635715.93916720     
   5054742281.0143652       -6684482.5818808079        340076034.58889395     
   4875474032.1742887       -12536819.214062452        338619132.24095756     
   4696551995.9168739       -17235113.904029369        339265008.89537579     
   4517976172.2421360       -20779366.651741982        342013664.55213273     
   4874257781.1807699       -4787332.4741809368        469692725.18320215     
   4705851736.7770805       -6574246.3566403389        463715177.96970212     
   4536975077.5581436       -9929876.2899148464        463052219.14730340     
   4367627803.5239687       -14854222.273992538        467703848.71599704     
   4197809914.6745472       -21347284.308890343        477670066.67578375     
   4502869669.6712904       -13283306.016855955        596940424.60918593     
   4354848640.5402317       -7097775.7312774658        587592046.23490524     
   4205540169.1960216       -5203719.4895484447        586770065.64046931     
   4054944255.6386480       -7601137.2916893959        594474482.82587481     
   3903060899.8681183       -14290029.137680531        610705297.79112875     
   5234560415.6607590        3231987.1475746632        62837347.279892221     
   5073615797.0035543        16662658.891745329        46687777.501405522     
   4911042860.5395441        24665604.613233328        39844605.486542515     
   4746841606.2687330        27240824.312050343        42307831.235296167     
   4581012034.1911221        24388317.988201857        54077454.747659422     
   4863559672.5708752       -12586276.166249037        203736091.42017236     
   4723960878.4444065        1525004.6373324394        193827819.40373486     
   4583453704.7453032        12608353.532130003        190875951.01822782     
   4442038151.4735518        20663770.518102884        194880486.26364926     
   4299714218.6291666        25691255.595277309        205841425.14001143     
   4517976172.2421360       -20779366.651741982        342013664.55213273     
   4393008933.6958742       -8001757.4738938808        339186618.23760182     
   4267853253.8111372        4147713.9090344906        340965981.42131281     
   4142509132.5879221        15669047.497027874        347351754.10326731     
   4016976570.0262179        26562243.290078163        358343936.28346407     
   4197809914.6745472       -21347284.308890343        477670066.67578375     
   4080759962.7579646       -11917627.441921234        482764174.00301397     
   3964241507.7370510       -716314.25603628159        490114696.69580150     
   3848254549.6118212        12256655.248801231        499721634.75414062     
   3732799088.3822827        27001281.072578430        511584988.17803836     
   3903060899.8681183       -14290029.137680531        610705297.79112875     
   3787213965.6306591       -10222605.266785383        624560486.69997394     
   3672618466.5230460       -1983730.9630708694        638322096.84168589     
   3559274402.5452704        10426593.773444414        651990128.21626699     
   3447181773.6973453        27008368.942774296        665564580.82371235     
   4581012034.1911221        24388317.988201857        54077454.747659422     
   4357987734.1451979        4240699.2111027241        38829891.913733520     
   4136501623.9525900       -10779620.054931641        28198111.574359797     
   3916553703.6133342       -20672639.809796333        22182113.729520965     
   3698143973.1274047       -25438360.053578377        20781898.379235592     
   4299714218.6291666        25691255.595277309        205841425.14001143     
   4090291259.2981014        10450730.809116840        191513192.43807957     
   3881685491.4623246       -2065822.3260886669        181899340.71666417     
   3673896915.1218219       -11858403.810379982        176999869.97576654     
   3466925530.2765923       -18927013.643757582        176814780.21537641     
   4016976570.0262179        26562243.290078163        358343936.28346407     
   3821436661.3699484        16313325.482874155        344093868.96246868     
   3625992945.8508868        6385051.4663834572        334656781.10795367     
   3430645423.4690619       -3222578.7593240738        330032672.71992511     
   3235394094.2244596       -12509565.194306612        330221543.79837662     
   3732799088.3822827        27001281.072578430        511584988.17803836     
   3551423940.3606949        21828483.232264757        496571921.48690641     
   3369423987.1182842        14573001.322516203        486470432.74822700     
   3186799228.6550436        5234835.3433473110        481280521.96200222     
   3003549664.9709754       -6186014.7052474022        481002189.12823457     
   3447181773.6973453        27008368.942774296        665564580.82371235     
   3280253096.2703700        26996204.057338834        648947350.01138628     
   3111978615.2645159        22498027.242306232        637340295.63747525     
   2942358330.6797738        13513838.497646809        630743417.70199704     
   2771392242.5161524        43637.823390007019        629156716.20493972     
   3698143973.1274047       -25438360.053578377        20781898.379235592     
   3542351540.7892537       -11353573.141218185        17873580.255870577     
   3385063985.2209358       -2252530.3293912411        17962747.461994436     
   3226281306.4224591        1864768.3818943501        21049399.997605886     
   3066003504.3938284        998322.99266552925        27133537.862713892     
   3466925530.2765923       -18927013.643757582        176814780.21537641     
   3317876725.9007616       -8650131.8718595505        172471623.87359905     
   3167990104.1820378       -1165974.5762497187        171197135.66729221     
   3017265665.1204147        3525458.2430185080        172991315.59645912     
   2865703408.7159095        5424166.5860031843        177854163.66111580     
   3235394094.2244596       -12509565.194306612        330221543.79837662     
   3093292297.2566357       -5979574.7291606665        325210406.10664415     
   2951009988.8331871       -51289.116092324257        323339119.35639274     
   2808547168.9541121        5275291.6448791027        324607683.54760158     
   2665903837.6194038        10000167.553751230        329016098.68028694     
   3003549664.9709754       -6186014.7052474022        481002189.12823457     
   2868598254.8568602       -3341901.7131451368        476089926.95503384     
   2734123639.1743741        1091526.0510888100        474388698.52930427     
   2600125817.9235277        7114268.5874415636        475898503.85102916     
   2466604791.1043296        14726325.895948768        480619342.92022574     
   2771392242.5161524        43637.823390007019        629156716.20493972     
   2643794598.7014227       -737112.82384812832        625110186.41875613     
   2517331055.2055988        2262470.9252648354        624345873.18602395     
   2392001612.0286813        9042389.0707379580        626863776.50675225     
   2267806269.1706710        19602641.612557650        632663896.38092923     
   3066003504.3938284        998322.99266552925        27133537.862713892     
   2894112265.2807951       -4269456.8545373678        15940199.485615818     
   2723111334.0137558       -6569543.8817241192        7445623.3310764395     
   2553000710.5927114       -5901938.0889374018        1649809.3991239411     
   2383780395.0176835       -2266639.4761161804       -1447242.3102647350     
   2865703408.7159095        5424166.5860031843        177854163.66111580     
   2701506066.1797214        2978943.0883071423        167565982.64210984     
   2537781657.9087186        2110167.1412183046        159846062.22514492     
   2374530183.9029126        2817838.7448090315        154694402.41022104     
   2211751644.1623101        5101957.8990538120        152111003.19734332     
   2665903837.6194038        10000167.553751230        329016098.68028694     
   2509027529.8871145        10265641.873645186        319146139.17511296     
   2352206782.8392138        10716318.474858880        311713938.65143353     
   2195441596.4756932        11352197.357329011        306719497.10927230     
   2038731970.7965717        12173278.521127582        304162814.54862225     
   2466604791.1043296        14726325.895948768        480619342.92022574     
   2316676656.4029865        17590639.501550198        470680669.08459532     
   2166386708.8052249        19248910.119095206        463049252.60993731     
   2015734948.3110559        19701137.748610139        457725093.49627036     
   1864721374.9204783        18947322.390094876        454708191.74357498     
   2267806269.1706710        19602641.612557650        632663896.38092923     
   2124453445.7273369        24953935.971998572        622169572.37057340     
   1980321435.8067837        27707942.074047565        613852004.10066450     
   1835410239.4090083        27864659.918684602        607711191.57121027     
   1689719856.5340159        25424089.505944729        603747134.78220308     
   2383780395.0176835       -2266639.4761161804       -1447242.3102647350     
   2243565565.5282321        6363915.8088485003       -7055491.7706244774     
   2100016655.1245236        3880868.0462770462       -10968462.553733012     
   1953133663.8065751       -9715782.7637611628       -13186154.659586493     
   1802916591.5743568       -34426036.621353865       -13708568.088206701     
   2211751644.1623101        5101957.8990538120        152111003.19734332     
   2074633035.9579403        12502903.504905224        142579874.54934740     
   1935339634.3613980        12654537.803535461        134018931.98472258     
   1793871439.3726885        5556860.7949253321        126428175.50348996     
   1650228450.9917903       -8790127.5209689140        119807605.10561430     
   2038731970.7965717        12173278.521127582        304162814.54862225     
   1902637890.7519467        17723106.510291338        292061308.82207203     
   1765528304.8372200        19887914.932450056        280204896.58503008     
   1627403213.0524127        18667703.787668169        268593577.83749789     
   1488262615.3975039        14062473.075886846        257227352.57948232     
   1864721374.9204783        18947322.390094876        454708191.74357498     
   1727580129.9102497        22024524.824933290        441388811.04757285     
   1590582666.5520098        25580999.433068931        427589431.24719924     
   1453728984.8457611        29616746.214511573        413310052.34248406     
   1317019084.7915063        34131765.169249177        398550674.33339894     
   1689719856.5340159        25424089.505944729        603747134.78220308     
   1549459753.4328520        25407158.448881745        590562381.22583342     
   1410502719.5057561        29733791.305389881        576172535.97123790     
   1272848754.7527282        38403988.075441182        560577599.01841342     
   1136497859.1737688        51417748.759076238        543777570.36735678     
   1802916591.5743568       -34426036.621353865       -13708568.088206701     
   1771656204.2592635       -16199873.197914243       -8308880.5772244195     
   1748509729.8183310        29072666.472760677       -41612289.013408348     
   1733477168.2515898        101391582.39071745       -113618793.39674696     
   1726558519.5590069        200756874.55588073       -224328393.72724411     
   1650228450.9917903       -8790127.5209689140        119807605.10561430     
   1527472473.3014958       -13811673.502301514        135333425.85229519     
   1408908435.6807468       -4860085.9184715152        124545975.19709897     
   1294536338.1295390        18064635.230490625        87445253.140012249     
   1184356180.6479063        54962489.944702446        24031259.681011308     
   1488262615.3975039        14062473.075886846        257227352.57948232     
   1309410546.0327840       -3586932.6999886632        278303671.62315220     
   1130828443.9329965       -20336447.592755258        285456543.81019574     
   952516309.09813106       -36186071.602437377        278685969.14063054     
   774474141.52820349       -51135804.729009837        257991947.61444989     
   1317019084.7915063        34131765.169249177        398550674.33339894     
   1117470422.4531348        14474349.209057987        420601856.73531884     
   914269754.57507527       -17356418.550082743        441119416.82589144     
   707417081.15732086       -61360538.108212471        460103354.60512692     
   496912402.19986767       -117538009.46533540        477553670.07301682     
   1136497859.1737688        51417748.759076238        543777570.36735678     
   951652102.56252205        40372172.224795580        562227981.18880939     
   759232367.60697663        4080001.2095032036        591534594.24419868     
   559238654.30711043       -57458764.286855906        631697409.53350914     
   351670962.66293323       -144244124.26424050        682716427.05673552     
   1726558519.5590069        200756874.55588073       -224328393.72724411     
   1456302568.8993218        184603720.42057401       -96663599.905481100     
   1153855393.9081023        61146485.180153549        60138542.273815773     
   819216994.58536208       -169614831.16533107        246078032.81063497     
   452387370.93108082       -507680228.61596310        461154871.70503670     
   1184356180.6479063        54962489.944702446        24031259.681011308     
   977431536.16994286        11815336.555284858        155496468.25617087     
   732674295.35556710       -157440471.28884068        312770102.28761578     
   450084458.20477521       -452804933.58767533        495852161.77529621     
   129662024.71761912       -874278050.34112358        704742646.71929014     
   774474141.52820349       -51135804.729009837        257991947.61444989     
   621369594.94261062       -124130319.85941702        386675970.27064288     
   424791080.01575792       -342038062.79402864        537839495.48184276     
   184738596.74761432       -704859033.53296483        711482523.24806130     
  -98787854.861799240       -1212593232.0760977        907605053.56929111     
   496912402.19986767       -117538009.46533540        477553670.07301682     
   388116745.21736097       -223233248.82345411        596874906.13789916     
   230205747.88868695       -492646289.33544284        735346721.85653412     
   23179410.213871181       -925777131.00121582        892969117.22892380     
  -232962267.80709121       -1522625773.8208473        1069742092.2550434     
   351670962.66293323       -144244124.26424050        682716427.05673552     
   277672986.99415731       -285493450.33693063        786093275.85795498     
   148918298.97437236       -609265150.91298997        905291781.41167080     
  -34593101.396444857       -1115559225.9924953        1040311943.7178741     
  -272861214.11826742       -1804375675.5753353        1191153762.7765663     
   4502869669.6712904       -13283306.016855955        596940424.60918593     
   4354848640.5402317       -7097775.7312774658        587592046.23490524     
   4205540169.1960216       -5203719.4895484447        586770065.64046931     
   4054944255.6386480       -7601137.2916893959        594474482.82587481     
   3903060899.8681183       -14290029.137680531        610705297.79112875     
   4133640039.3786893       -5065121.7215528488        750574332.91834891     
   4004097184.3214378       -1754599.1120939255        740805455.31251919     
   3873977858.5461006       -365645.56290602684        737387623.29349053     
   3743282062.0526819       -898261.07398557663        740320836.86125994     
   3612009794.8411846       -3352445.6453337669        749605096.01583409     
   3769423150.2523618        4656884.9236354828        900555638.66373992     
   3652143177.2887826        3227812.2629277706        891195728.57061923     
   3534997705.1022000        2247075.5255429745        886011511.87125409     
   3417986733.6926193        1714674.7114880085        885002988.56564665     
   3301110263.0600290        1630609.8207449913        888170158.65379739     
   3410219002.2923036        15882713.918703318        1046884341.8453603     
   3298986619.4422827        7849458.3938009739        1038762866.0092063     
   3188599708.8643336        2634443.7758055925        1032641731.3737603     
   3079058270.5584598        237670.06472826004        1028520937.9390337     
   2970362304.5246592        659137.26055979729        1026400485.7050228     
   3056027595.4985175        28612365.263652325        1189560442.4632154     
   2944627510.7819281        12110339.280513048        1183506867.6282794     
   2834783869.8324900        796459.18786966801        1177278281.8010144     
   2726496672.6502094       -5329275.0142501593        1170874684.9814212     
   2619765919.2350698       -6266863.3258876801        1164296077.1695042     
   3903060899.8681183       -14290029.137680531        610705297.79112875     
   3787213965.6306591       -10222605.266785383        624560486.69997394     
   3672618466.5230460       -1983730.9630708694        638322096.84168589     
   3559274402.5452704        10426593.773444414        651990128.21626699     
   3447181773.6973453        27008368.942774296        665564580.82371235     
   3612009794.8411846       -3352445.6453337669        749605096.01583409     
   3497833234.4128151       -332701.96621489525        758569305.84764445     
   3384460759.7896786        5367327.7303502560        769153769.72860241     
   3271892370.9717898        13747643.444409251        781358487.65871382     
   3160128067.9591408        24808245.175926685        795183459.63796997     
   3301110263.0600290        1630609.8207449913        888170158.65379739     
   3193500741.6301250        5071672.8648890257        891721481.86320221     
   3086247956.6808581        9701857.5111588240        898606891.93803799     
   2979351908.2122273        15521163.759546399        908826388.87830615     
   2872812596.2242341        22529591.610066772        922379972.68400598     
   2970362304.5246592        659137.26055979729        1026400485.7050228     
   2874216487.2826014        5990519.2265491486        1024017014.7466477     
   2777980057.1965737        11019858.379316568        1026681463.4699905     
   2681653014.2665820        15747154.718863487        1034393831.8750463     
   2585235358.4926267        20172408.245198965        1047154119.9618201     
   2619765919.2350698       -6266863.3258876801        1164296077.1695042     
   2539980471.3702335        2423837.1187542677        1155455904.4979825     
   2459657061.3368297        9321330.3348363638        1153377484.3244634     
   2378795689.1348543        14425616.322347522        1158060816.6489382     
   2297396354.7643161        17736695.081317067        1169505901.4714115     
   3447181773.6973453        27008368.942774296        665564580.82371235     
   3280253096.2703700        26996204.057338834        648947350.01138628     
   3111978615.2645159        22498027.242306232        637340295.63747525     
   2942358330.6797738        13513838.497646809        630743417.70199704     
   2771392242.5161524        43637.823390007019        629156716.20493972     
   3160128067.9591408        24808245.175926685        795183459.63796997     
   3005773677.1061735        23095292.206452131        777244176.24391091     
   2850617489.4486923        18709683.221941233        764359734.10312998     
   2694659504.9867067        11651418.222403526        756530133.21563053     
   2537899723.7202125        1920497.2078356743        753755373.58141148     
   2872812596.2242341        22529591.610066772        922379972.68400598     
   2731160105.7020020        19154134.683570385        903753311.27831566     
   2589249825.1496391        14919377.656626582        890226155.94076443     
   2447081754.5671344        9825320.5292117596        881798506.67134404     
   2304655893.9544950        3871963.3013582230        878470363.47006691     
   2585235358.4926267        20172408.245198965        1047154119.9618201     
   2456412382.0578642        15172731.488700032        1028474755.1146038     
   2327875622.3673387        11127110.546323061        1014939561.1503781     
   2199625079.4210515        8035545.4180752039        1006548538.0691488     
   2071660753.2189975        5898036.1039384604        1003301685.8709120     
   2297396354.7643161        17736695.081317067        1169505901.4714115     
   2181530506.1737523        11151082.621837258        1151408507.7527740     
   2066494881.1018021        7332881.8910595179        1138499949.7319791     
   1952289479.5484538        6282092.8889628649        1130780227.4090347     
   1838914301.5137243        7998715.6155959368        1128249340.7839425     
   2771392242.5161524        43637.823390007019        629156716.20493972     
   2643794598.7014227       -737112.82384812832        625110186.41875613     
   2517331055.2055988        2262470.9252648354        624345873.18602395     
   2392001612.0286813        9042389.0707379580        626863776.50675225     
   2267806269.1706710        19602641.612557650        632663896.38092923     
   2537899723.7202125        1920497.2078356743        753755373.58141148     
   2419565311.6650400        3693767.5226018429        750902020.96930051     
   2302017255.0292864        8088222.5687566996        751302625.24293315     
   2185255553.8129478        15103862.346294522        754957186.40230989     
   2069280208.0160308        24740686.855236292        761865704.44743037     
   2304655893.9544950        3871963.3013582230        878470363.47006691     
   2195503971.7511339        8175032.0057950020        876404485.64929724     
   2086790660.0676992        13940135.776659727        877564305.04655790     
   1978515958.9041958        21167274.613958478        881949821.66185200     
   1870679868.2606163        29856448.517682314        889561035.49517715     
   2071660753.2189975        5898036.1039384604        1003301685.8709120     
   1971610578.9596972        12706680.625725508        1001617580.4587437     
   1871651270.3208387        19818210.548984051        1003130912.5969015     
   1771782827.3024192        27232625.873705387        1007841682.2853680     
   1672005249.9044411        34949926.599900126        1015749889.5241635     
   1838914301.5137243        7998715.6155959368        1128249340.7839425     
   1747885133.2907376        17288713.382405877        1126541305.3976431     
   1656599085.7887070        25722446.885727823        1128002447.8939493     
   1565056159.0076227        33299916.125549734        1132632768.2728667     
   1473256352.9474962        40021121.101887047        1140432266.5343926     
   2267806269.1706710        19602641.612557650        632663896.38092923     
   2124453445.7273369        24953935.971998572        622169572.37057340     
   1980321435.8067837        27707942.074047565        613852004.10066450     
   1835410239.4090083        27864659.918684602        607711191.57121027     
   1689719856.5340159        25424089.505944729        603747134.78220308     
   2069280208.0160308        24740686.855236292        761865704.44743037     
   1931896785.0386419        28395123.654971004        750916353.32823992     
   1794017139.9022231        30395486.591256618        742773675.49465120     
   1655641272.6067905        30741775.664148390        737437670.94665360     
   1516769183.1523232        29433990.873618841        734908339.68426359     
   1870679868.2606163        29856448.517682314        889561035.49517715     
   1741065610.1638899        32353957.082092762        878486782.30504692     
   1611238094.2263343        34140606.177074671        870849119.94566059     
   1481197320.4479437        35216395.802616954        866648048.41702402     
   1350943288.8287292        35581325.958732605        865883567.71914387     
   1672005249.9044411        34949926.599900126        1015749889.5241635     
   1551959921.1030850        36830436.253402054        1004880859.3009820     
   1431984298.7791030        38943300.831486344        998078337.45370090     
   1312078382.9324815        41288520.334104121        995342323.98232281     
   1192242173.5632200        43866094.761266768        996672818.88684428     
   1473256352.9474962        40021121.101887047        1140432266.5343926     
   1364579717.8562360        41824561.168924868        1130098584.3160603     
   1256255753.5605330        44803570.554482996        1124461328.0187786     
   1148284460.0603974        48958149.258604646        1123520497.6425450     
   1040665837.3558158        54288297.281239092        1127276093.1873655     
   1689719856.5340159        25424089.505944729        603747134.78220308     
   1549459753.4328520        25407158.448881745        590562381.22583342     
   1410502719.5057561        29733791.305389881        576172535.97123790     
   1272848754.7527282        38403988.075441182        560577599.01841342     
   1136497859.1737688        51417748.759076238        543777570.36735678     
   1516769183.1523232        29433990.873618841        734908339.68426359     
   1374941270.4125988        27063277.216366768        726072761.43833697     
   1233493415.9542315        25959424.496963799        717779448.07640052     
   1092425619.7772012        26122432.715355873        710028399.59846735     
   951737881.88151276        27552301.871551692        702819616.00453782     
   1350943288.8287292        35581325.958732605        865883567.71914387     
   1212540013.8282399        32354563.914625168        860320318.74214494     
   1073593786.2163746        27317959.832603931        857046691.23137152     
   934104605.99313569        20471513.712668955        856062685.18682623     
   794072473.15852368        11815225.554820627        857368300.60850155     
   1192242173.5632200        43866094.761266768        996672818.88684428     
   1062255983.6797618        41281018.543648601        993305053.13727248     
   930803830.29220235        33809397.312369823        993974265.43614650     
   797885713.40054429        21451231.067434311        998680455.78348005     
   663501633.00480270        4206519.8088666499        1007423624.1792631     
   1040665837.3558158        54288297.281239092        1127276093.1873655     
   924089179.96717060        53842641.103434741        1125026964.6237047     
   805123548.18170726        45433736.936228901        1128562170.6907265     
   683768941.99943388        29061584.779659748        1137881711.3884292     
   560025361.42033434        4726184.6336818039        1152985586.7168157     
   1136497859.1737688        51417748.759076238        543777570.36735678     
   951652102.56252205        40372172.224795580        562227981.18880939     
   759232367.60697663        4080001.2095032036        591534594.24419868     
   559238654.30711043       -57458764.286855906        631697409.53350914     
   351670962.66293323       -144244124.26424050        682716427.05673552     
   951737881.88151276        27552301.871551692        702819616.00453782     
   792346281.17664838        10790787.595508367        720868112.21586025     
   624279968.61494696       -34886432.870011687        748959588.67703056     
   447538944.19638765       -109479359.52504250        787094045.38804853     
   262123207.92098454       -212987992.36955291        835271482.34892726     
   794072473.15852368        11815225.554820627        857368300.60850155     
   657811536.97697639       -11359273.877915055        873730693.11173224     
   511775155.42604148       -67118591.208596021        899322843.88073349     
   355963328.50572169       -155462726.43722546        934144752.91551054     
   190376056.21602875       -276391679.56378073        978196420.21607733     
   663501633.00480270        4206519.8088666499        1007423624.1792631     
   548047869.96349609       -26078012.195489347        1020815723.8764344     
   421717928.04027748       -92616473.806224555        1042624359.8553195     
   284511807.23513317       -195408865.02336514        1072849532.1159036     
   136429507.54807907       -334455185.84689343        1111491240.6581926     
   560025361.42033434        4726184.6336818039        1152985586.7168157     
   463055280.13621187       -33365427.357198089        1162123204.5099742     
   354108286.45763284       -111380080.66293889        1178864136.6007721     
   233184380.38459784       -229317775.28351927        1203208382.9892046     
   100283561.91711700       -387178511.21892977        1235155943.6752675     
   351670962.66293323       -144244124.26424050        682716427.05673552     
   277672986.99415731       -285493450.33693063        786093275.85795498     
   148918298.97437236       -609265150.91298997        905291781.41167080     
  -34593101.396444857       -1115559225.9924953        1040311943.7178741     
  -272861214.11826742       -1804375675.5753353        1191153762.7765663     
   262123207.92098454       -212987992.36955291        835271482.34892726     
   223484837.49287593       -352689818.52653998        884740700.12079692     
   140624649.42710552       -639797703.47571957        945230842.11398017     
   13542643.723681986       -1074311647.2170997        1016741908.3284943     
  -157761179.61740929       -1656231649.7506721        1099273898.7643259     
   190376056.21602875       -276391679.56378073        978196420.21607733     
   173380912.36811423       -418660919.40321344        986048717.45750070     
   122698845.59589994       -673219902.32364392        1000121206.3890831     
   38329855.899384797       -1040068628.3250675        1020413887.0108268     
  -79726056.721420944       -1519207097.4074697        1046926759.3227236     
   136429507.54807907       -334455185.84689343        1111491240.6581926     
   127361211.61987746       -483406752.96693265        1090017327.8680975     
   95140887.480745584       -709531747.45674634        1069962874.2369977     
   39768535.130685747       -1012830169.3163445        1051327879.7648854     
  -38755845.430325627       -1393302018.5457351        1034112344.4517810     
   100283561.91711700       -387178511.21892977        1235155943.6752675     
   85425735.248183489       -546927319.21766257        1196646531.3525708     
   57950775.081659466       -748733238.87502992        1154755845.6577148     
   17858681.417567432       -992596270.19095767        1109483886.5906823     
  -34850545.744100869       -1278516413.1654620        1060830654.1514789     
   3056027595.4985175        28612365.263652325        1189560442.4632154     
   2944627510.7819281        12110339.280513048        1183506867.6282794     
   2834783869.8324900        796459.18786966801        1177278281.8010144     
   2726496672.6502094       -5329275.0142501593        1170874684.9814212     
   2619765919.2350698       -6266863.3258876801        1164296077.1695042     
   2695833769.1564908        31138621.628484011        1245937626.2792900     
   2586968003.5155988        14938085.153826475        1238530643.4079747     
   2479200718.1989470        2399149.7599601746        1233178573.2391093     
   2372531913.2065306       -6478184.5531101227        1229881415.7726891     
   2266961588.5383496       -11693917.785402179        1228639171.0087097     
   2324162583.9466400        30221670.332968593        1302405491.5085146     
   2224202347.9379439        16233986.533751369        1293110809.9174309     
   2124882628.8105664        4381359.0056021214        1288100964.7235601     
   2026203426.5645118       -5336212.2514690161        1287375955.9269066     
   1928164741.1997797       -12918727.237469912        1290935783.5274723     
   1941014039.8689792        25861511.377111673        1358964038.1508954     
   1856330544.0489578        15998043.420270920        1347247367.1566343     
   1771829601.6673503        6743086.9247919321        1342045456.2543609     
   1687511212.7241476       -1903358.1093313694        1343358305.4440763     
   1603375377.2193534       -9941291.6820937395        1351185914.7257824     
   1546388136.9234898        18058144.760903001        1415613266.2064307     
   1483352591.8486466        14230255.813397706        1400940315.1255903     
   1420041636.7692990        9484333.5175312757        1395012047.8315146     
   1356455271.6854420        3820377.8733062744        1397828464.3242004     
   1292593496.5970781       -2761611.1192722917        1409389564.6036444     
   2619765919.2350698       -6266863.3258876801        1164296077.1695042     
   2539980471.3702335        2423837.1187542677        1155455904.4979825     
   2459657061.3368297        9321330.3348363638        1153377484.3244634     
   2378795689.1348543        14425616.322347522        1158060816.6489382     
   2297396354.7643161        17736695.081317067        1169505901.4714115     
   2266961588.5383496       -11693917.785402179        1228639171.0087097     
   2203161611.9733944       -3157261.8401758671        1223621031.0205090     
   2139068397.7742414        4401935.3243931532        1224173203.6494701     
   2074681945.9408875        10983673.708285689        1230295688.8955905     
   2010002256.4733360        16587953.311520219        1241988486.7588699     
   1928164741.1997797       -12918727.237469912        1290935783.5274723     
   1876946121.9894600       -5557349.9752203226        1290025188.1793525     
   1825678989.6793065        1642316.9542524815        1293493465.5675523     
   1774363344.2693202        8680273.5509505272        1301340615.6920769     
   1722999185.7595024        15556519.814870834        1313566638.5529251     
   1603375377.2193534       -9941291.6820937395        1351185914.7257824     
   1561334001.4184186       -4776427.2864040136        1354668375.9745045     
   1519488837.0520189        1042475.2244042754        1361338270.0787113     
   1477839884.1201539        7515415.8503271937        1371195597.0384095     
   1436387142.6228242        14642394.591368020        1384240356.8535879     
   1292593496.5970781       -2761611.1192722917        1409389564.6036444     
   1256325250.2602782       -814493.77371418476        1417550594.4059720     
   1220497939.8923793        2602410.1348455548        1427707617.1829498     
   1185111565.4933865        7489100.6064264774        1439860632.9345737     
   1150166127.0632932        13845577.641006112        1454009641.6608477     
   2297396354.7643161        17736695.081317067        1169505901.4714115     
   2181530506.1737523        11151082.621837258        1151408507.7527740     
   2066494881.1018021        7332881.8910595179        1138499949.7319791     
   1952289479.5484538        6282092.8889628649        1130780227.4090347     
   1838914301.5137243        7998715.6155959368        1128249340.7839425     
   2010002256.4733360        16587953.311520219        1241988486.7588699     
   1908087797.3826480        11518673.324670911        1224876531.2777321     
   1806794183.3746445        8518876.9467592239        1212957655.2972779     
   1706121414.4493232        7588564.1777925491        1206231858.8175025     
   1606069490.6066785        8727735.0177468657        1204699141.8384078     
   1722999185.7595024        15556519.814870834        1313566638.5529251     
   1635048241.3196430        12007209.845940888        1297195846.4673769     
   1547508763.5265336        9829455.3661857247        1286022377.6853423     
   1460380752.3801758        9023256.3755972385        1280046232.2068141     
   1373664207.8805683        9588612.8741766214        1279267410.0318027     
   1436387142.6228242        14642394.591368020        1384240356.8535879     
   1362411837.9847367        12616692.185647190        1368366453.3217072     
   1288638621.5574718        11264617.149330556        1357694116.8961723     
   1215067493.3410223        10586169.482403338        1352223347.5769770     
   1141698453.3354006        10581349.184896827        1351954145.3641305     
   1150166127.0632932        13845577.641006112        1454009641.6608477     
   1090178587.3779211        13347120.343760669        1438388351.8407214     
   1030183757.4674473        12824362.296169102        1427972872.9297667     
   970181637.33186221        12277303.498209774        1422763204.9279897     
   910172226.97116816        11705943.949887514        1422759347.8353865     
   1838914301.5137243        7998715.6155959368        1128249340.7839425     
   1747885133.2907376        17288713.382405877        1126541305.3976431     
   1656599085.7887070        25722446.885727823        1128002447.8939493     
   1565056159.0076227        33299916.125549734        1132632768.2728667     
   1473256352.9474962        40021121.101887047        1140432266.5343926     
   1606069490.6066785        8727735.0177468657        1204699141.8384078     
   1523321786.1408000        15798732.638440609        1203189805.5430963     
   1440441518.5489805        22427853.172651350        1205393725.0582120     
   1357428687.8312085        28615096.620359182        1211310900.3837514     
   1274283293.9874897        34360462.981580138        1220941331.5197239     
   1373664207.8805683        9588612.8741766214        1279267410.0318027     
   1300752475.5370002        14906962.858326554        1278101808.3394294     
   1227832496.2205822        20197822.932979465        1281193540.3853021     
   1154904269.9313135        25461193.098130882        1288542606.1694181     
   1081967796.6691992        30697073.353794694        1300149005.6917753     
   1141698453.3354006        10581349.184896827        1351954145.3641305     
   1080177201.4793277        14613404.042052388        1351277313.7866473     
   1018772018.8035034        19032356.166697085        1355401893.8752239     
   957482905.30793095        23838205.558853030        1364327885.6298614     
   896309860.99261177        29030952.218516827        1378055289.0505624     
   910172226.97116816        11705943.949887514        1422759347.8353865     
   861595963.96778488        14918056.189600468        1422716321.8847394     
   813260086.29774976        18931452.873813093        1428018785.5279708     
   765164593.96106589        23746134.002523988        1438666738.7650826     
   717309486.95773554        29362099.575752407        1454660181.5960748     
   1473256352.9474962        40021121.101887047        1140432266.5343926     
   1364579717.8562360        41824561.168924868        1130098584.3160603     
   1256255753.5605330        44803570.554482996        1124461328.0187786     
   1148284460.0603974        48958149.258604646        1123520497.6425450     
   1040665837.3558158        54288297.281239092        1127276093.1873655     
   1274283293.9874897        34360462.981580138        1220941331.5197239     
   1177937909.0875771        36199298.599868953        1213283691.5757737     
   1081760339.9997082        38597520.258318901        1210407034.5769069     
   985750586.72389257        41555127.956932843        1212311360.5231209     
   889908649.26011956        45072121.695694327        1218996669.4144118     
   1081967796.6691992        30697073.353794694        1300149005.6917753     
   998195253.45785093        32643781.972486198        1294951743.8747826     
   914405671.07504261        34533693.352975845        1294620022.0269070     
   830599049.52077687        36366807.495271146        1299153840.1481345     
   746775388.79504716        38143124.399360090        1308553198.2384806     
   896309860.99261177        29030952.218516827        1378055289.0505624     
   825351750.96706152        31158011.286784500        1375102741.2131016     
   754191746.78654051        32612089.838485241        1377100290.3687816     
   682829848.45105219        33393187.873623371        1384047936.5175986     
   611266055.96058905        33501305.392185092        1395945679.6595607     
   717309486.95773554        29362099.575752407        1454660181.5960748     
   659407401.61521351        31741986.542775214        1453736683.5907190     
   601118567.13420904        32832709.714862436        1457847839.6025300     
   542442983.51472533        32634269.092017502        1466993649.6315033     
   483380650.75675613        31146664.674217641        1481174113.6776524     
   1040665837.3558158        54288297.281239092        1127276093.1873655     
   924089179.96717060        53842641.103434741        1125026964.6237047     
   805123548.18170726        45433736.936228901        1128562170.6907265     
   683768941.99943388        29061584.779659748        1137881711.3884292     
   560025361.42033434        4726184.6336818039        1152985586.7168157     
   889908649.26011956        45072121.695694327        1218996669.4144118     
   788058236.65855885        43511397.002119660        1216673038.9551470     
   683880551.61348021        34193097.496815115        1220150277.9742923     
   577375594.12490022        17117223.179842383        1229428386.4718385     
   468543364.19280207       -7716225.9488602281        1244507364.4477983     
   746775388.79504716        38143124.399360090        1308553198.2384806     
   659698463.40264475        35481503.916605502        1306227051.4957962     
   570355967.52003706        25267981.799831539        1309718309.0792534     
   478747901.14723337        7502558.0490721464        1319026970.9888489     
   384874264.28422302       -17814767.335709587        1334153037.2245820     
   611266055.96058905        33501305.392185092        1395945679.6595607     
   539009860.19943297        29752961.846899569        1393689002.2456563     
   464549795.90138030        18658389.845289707        1397266264.0056112     
   387885863.06643283        217589.38736489415        1406677464.9394372     
   309018061.69458407       -25569439.526896924        1421922605.0471294     
   483380650.75675613        31146664.674217641        1481174113.6776524     
   425992427.04892826        26325770.793022454        1479058891.2047150     
   366462036.75750607        14364321.633179292        1482794142.7533717     
   304789479.88250053       -4737682.8052776903        1492379868.3236198     
   240974756.42390451       -30980242.522369817        1507816067.9154649     
   560025361.42033434        4726184.6336818039        1152985586.7168157     
   463055280.13621187       -33365427.357198089        1162123204.5099742     
   354108286.45763284       -111380080.66293889        1178864136.6007721     
   233184380.38459784       -229317775.28351927        1203208382.9892046     
   100283561.91711700       -387178511.21892977        1235155943.6752675     
   468543364.19280207       -7716225.9488602281        1244507364.4477983     
   390857217.01503313       -42111576.004336312        1242866198.3563888     
   303033028.59740609       -110300396.85934483        1247602529.9102232     
   205070798.93992752       -212282688.51385179        1258716359.1092882     
   96970528.042589635       -348058450.96789229        1276207685.9535880     
   384874264.28422302       -17814767.335709587        1334153037.2245820     
   322969717.92025399       -49564555.443551317        1323878436.9289541     
   252766001.47102749       -108978243.83558880        1318755517.6261795     
   174263114.93654945       -196055832.51180309        1318784279.3162429     
   87461058.316809893       -310797321.47221386        1323964721.9991608     
   309018061.69458407       -25569439.526896924        1421922605.0471294     
   259392782.85186714       -55724365.674860284        1405159920.2276626     
   203307205.07849395       -107413621.59168637        1392323099.7486417     
   140761328.37446249       -180637207.27737045        1383412143.6100760     
   71755152.739770025       -275395122.73192179        1378427051.8119638     
   240974756.42390451       -30980242.522369817        1507816067.9154649     
   200126411.80988678       -60591006.698227331        1486710648.2525129     
   154656639.41980815       -105606530.12762126        1468305276.2776163     
   104565439.25366725       -166026812.81055322        1452599951.9907796     
   49852811.311471418       -241851854.74700737        1439594675.3920052     
   100283561.91711700       -387178511.21892977        1235155943.6752675     
   85425735.248183489       -546927319.21766257        1196646531.3525708     
   57950775.081659466       -748733238.87502992        1154755845.6577148     
   17858681.417567432       -992596270.19095767        1109483886.5906823     
  -34850545.744100869       -1278516413.1654620        1060830654.1514789     
   96970528.042589635       -348058450.96789229        1276207685.9535880     
   79977651.571405977       -489176094.21175170        1221926773.3254046     
   51579454.284442365       -668311473.50821090        1165085288.5088422     
   11775936.181714296       -885464588.85720181        1105683231.5039051     
  -39432902.736775041       -1140635440.2587578        1043720602.3105887     
   87461058.316809893       -310797321.47221386        1323964721.9991608     
   70677992.568494648       -432580341.80366111        1255326090.5275881     
   43701418.686207235       -588341722.58167648        1184947588.0514212     
   6531336.6699607074       -778081463.80622244        1112829214.5706704     
  -40832253.480245411       -1001799565.4773057        1038970970.0853374     
   71755152.739770025       -275395122.73192179        1378427051.8119638     
   57526758.239439815       -377140061.99341685        1296844482.9591110     
   34316668.286948979       -508823986.09545285        1214342744.2854550     
   2124882.8823013008       -670446895.03801155        1130921835.7910163     
  -39048597.974501789       -862008788.82108295        1046581757.4757732     
   49852811.311471418       -241851854.74700737        1439594675.3920052     
   40523948.584247530       -322855254.78101385        1346481950.6199737     
   23425203.086667985       -429758264.04953921        1253270757.2109439     
  -1443425.1812657714       -562560882.55257726        1159961095.1649084     
  -34081936.219542772       -721263110.29009557        1066552964.4818594     
   1546388136.9234898        18058144.760903001        1415613266.2064307     
   1483352591.8486466        14230255.813397706        1400940315.1255903     
   1420041636.7692990        9484333.5175312757        1395012047.8315146     
   1356455271.6854420        3820377.8733062744        1397828464.3242004     
   1292593496.5970781       -2761611.1192722917        1409389564.6036444     
   1149683064.0318151        10511205.535298645        1451753596.9632058     
   1108393534.3540382        9436424.3575111032        1438459538.9436755     
   1066897447.5351769        7673119.3760982752        1432513168.7267287     
   1025194803.5752246        5221290.5910544991        1433914486.3123686     
   983285602.47418606        2080938.0023896694        1442663491.7005944     
   759716672.72582734        4985870.7854004204        1486403495.5306587     
   736181741.34747541        5466772.2480421960        1474568658.9130893     
   712509105.69145525        5488659.4517904222        1468684514.1139269     
   688698765.75776434        5051532.3966348469        1468751061.1331761     
   664750721.54640734        4155391.0825937986        1474768299.9708366     
   376488963.00552952        1482140.5112091303        1519562961.9087782     
   366717212.82895452        2321299.4849838465        1509267675.0338264     
   356876611.23813057        2930953.7445925325        1503526083.9931109     
   346967158.23305738        3311103.2900386304        1502338188.7866268     
   336988853.81373733        3461748.1213280857        1505703989.4143758     
  -65.129082255515740        14.712723667581049        1551231996.0975735     
  -51.201523698518727        6.0683366298974413        1542556587.3058953     
  -35.824792400006956        2.2545267850417847        1537037878.3642776     
  -18.998894719362323        3.2712701595169085        1534675869.2727160     
 -0.72382356518775115        9.1185917790918083        1535470560.0312123     
   1292593496.5970781       -2761611.1192722917        1409389564.6036444     
   1256325250.2602782       -814493.77371418476        1417550594.4059720     
   1220497939.8923793        2602410.1348455548        1427707617.1829498     
   1185111565.4933865        7489100.6064264774        1439860632.9345737     
   1150166127.0632932        13845577.641006112        1454009641.6608477     
   983285602.47418606        2080938.0023896694        1442663491.7005944     
   952768335.19745469        2546451.6980762482        1448432074.4961386     
   922581769.76755822        4114304.8832161427        1456970402.8978252     
   892725906.18450320        6784497.5578254461        1468278476.9056590     
   863200744.44828320        10557029.721885264        1482356296.5196328     
   664750721.54640734        4155391.0825937986        1474768299.9708366     
   642195155.13401079        3802517.6696839035        1478015829.2838588     
   619860056.44638681        4184536.6726815999        1484806856.8345184     
   597745425.48353899        5301448.0916001499        1495141382.6228175     
   575851262.24546301        7153251.9264248312        1509019406.6487479     
   336988853.81373733        3461748.1213280857        1505703989.4143758     
   324605710.06994772        2953704.1411074698        1506301858.7691333     
   312332799.92886263        2813105.5032378584        1511216978.9930220     
   300170123.39049143        3039952.2077465355        1520449350.0860419     
   288117680.45482957        3634244.2546186894        1533998972.0481906     
 -0.72382356518775115        9.1185917790918083        1535470560.0312123     
   5.2603983440264734E-003   11.112335433695407        1533290162.9519618     
  0.21498942735954785        11.374895279355426        1536200769.3733368     
  -9.4637770605491500E-002   9.9062682221639555        1544202379.2953384     
 -0.92361768416576906        6.7064650993769952        1557294992.7179651     
   1150166127.0632932        13845577.641006112        1454009641.6608477     
   1090178587.3779211        13347120.343760669        1438388351.8407214     
   1030183757.4674473        12824362.296169102        1427972872.9297667     
   970181637.33186221        12277303.498209774        1422763204.9279897     
   910172226.97116816        11705943.949887514        1422759347.8353865     
   863200744.44828320        10557029.721885264        1482356296.5196328     
   817036139.87461400        9831000.9823614657        1466730090.6203313     
   770866067.70529544        9086746.9240049124        1456583617.3075340     
   724690527.94032788        8324267.5468190610        1451916876.5812440     
   678509520.57971168        7543562.8508040011        1452729868.4414599     
   575851262.24546301        7153251.9264248312        1509019406.6487479     
   544292226.14729691        6434441.7537492514        1493390411.0713065     
   512729545.08294189        5703481.6937773228        1483515069.7577021     
   481163219.05239701        4960371.7465061247        1479393382.7079363     
   449593248.05566430        4205111.9119416773        1481025349.9220071     
   288117680.45482957        3634244.2546186894        1533998972.0481906     
   271946846.19597048        3157442.6579308957        1518369313.1936469     
   255774189.60038319        2674566.6054796576        1508767230.2802691     
   239599710.66807097        2185616.0972796381        1505192723.3080657     
   223423409.39902547        1690591.1333026737        1507645792.2770293     
 -0.92361768416576906        6.7064650993769952        1557294992.7179651     
   2.0643148362858854E-002   3.6949272625058462        1541666796.9873481     
   1.2576288911368985        1.6591391264527358        1532340098.8752382     
   2.7873477107007130       0.59912791303220936        1529314898.3816295     
   4.6097954208424863       0.51487966820487774        1532591195.5065198     
   910172226.97116816        11705943.949887514        1422759347.8353865     
   861595963.96778488        14918056.189600468        1422716321.8847394     
   813260086.29774976        18931452.873813093        1428018785.5279708     
   765164593.96106589        23746134.002523988        1438666738.7650826     
   717309486.95773554        29362099.575752407        1454660181.5960748     
   678509520.57971168        7543562.8508040011        1452729868.4414599     
   643324547.53589630        10326814.246670991        1453747978.1935515     
   608319863.49222231        13711028.976339072        1459820558.5154037     
   573495468.44869804        17696207.039840311        1470947609.4070046     
   538851362.40531766        22282348.437156320        1487129130.8683667     
   449593248.05566430        4205111.9119416773        1481025349.9220071     
   426968082.04534334        6310057.5861171484        1483034482.9881020     
   404463108.70196623        8815645.4834360629        1489807067.5998266     
   382078328.02553338        11721875.603904083        1501343103.7571843     
   359813740.01604182        15028747.947509542        1517642591.4601734     
   223423409.39902547        1690591.1333026737        1507645792.2770293     
   212526567.49613500        2867786.2079758868        1510575836.2683854     
   201689821.92698276        4245302.3951100782        1517978312.7812536     
   190913172.69157544        5823139.6947266310        1529853221.8156295     
   180196619.78990582        7601298.1068047285        1546200563.3715141     
   4.6097954208424863       0.51487966820487774        1532591195.5065198     
   3.8882673637606775       0.11223018851254896        1536372038.0344067     
   3.1672795338825006      -0.28861853383434433        1544334294.0596776     
   2.4468303985511688      -0.68767195463644759        1556477963.5823312     
   1.7269091834182360       -1.0849649475544971        1572803046.6023710     
   717309486.95773554        29362099.575752407        1454660181.5960748     
   659407401.61521351        31741986.542775214        1453736683.5907190     
   601118567.13420904        32832709.714862436        1457847839.6025300     
   542442983.51472533        32634269.092017502        1466993649.6315033     
   483380650.75675613        31146664.674217641        1481174113.6776524     
   538851362.40531766        22282348.437156320        1487129130.8683667     
   494135859.55329728        23680581.983972251        1485758378.3971903     
   449130294.86074275        24111942.729007393        1489723032.3062029     
   403834668.32765627        23576430.672273472        1499023092.5954080     
   358248979.95403707        22074045.813755482        1513658559.2648001     
   359813740.01604182        15028747.947509542        1517642591.4601734     
   329144112.12029529        15703115.813855171        1515937386.3707893     
   298281109.68196255        15732901.871578142        1519868340.0246117     
   267224732.70103848        15118106.120664835        1529435452.4216433     
   235974981.17752934        13858728.561133415        1544638723.5618789     
   180196619.78990582        7601298.1068047285        1546200563.3715141     
   164432159.31620240        7809588.0324050114        1544273707.5115175     
   148571011.59786111        7695587.1425458640        1548283762.7577527     
   132613176.63487144        7259295.4371947721        1558230729.1102118     
   116558654.42724334        6500712.9163795151        1574114606.5689018     
   1.7269091834182360       -1.0849649475544971        1572803046.6023710     
   1.1410196048073846       -1.3603721171518113        1570767341.8193712     
  0.60843848274668133       -1.4580844315819634        1574969300.5056233     
  0.12915383048753681       -1.3781425405629781        1585408922.6611168     
 -0.29681925415693977       -1.1204940363829852        1602086208.2858620     
   483380650.75675613        31146664.674217641        1481174113.6776524     
   425992427.04892826        26325770.793022454        1479058891.2047150     
   366462036.75750607        14364321.633179292        1482794142.7533717     
   304789479.88250053       -4737682.8052776903        1492379868.3236198     
   240974756.42390451       -30980242.522369817        1507816067.9154649     
   358248979.95403707        22074045.813755482        1513658559.2648001     
   316218040.43226314        18761443.973866060        1510238866.9832075     
   272580475.95746893        10093425.623904660        1512433928.8136029     
   227336286.52965042       -3930009.2361349016        1520243744.7559917     
   180485472.14879638       -23308860.606294282        1533668314.8103769     
   235974981.17752934        13858728.561133415        1544638723.5618789     
   208627840.38581282        11852373.125799105        1540539360.0406244     
   180209616.27163202        6275739.9489150867        1541819030.7217555     
   150720308.83497989       -2871170.9695386291        1548477735.6052761     
   120159918.07586497       -15588359.629535772        1560515474.6911733     
   116558654.42724334        6500712.9163795151        1574114606.5689018     
   103221826.90956306        5598558.2487731464        1569960370.3769674     
   89349457.699988514        2911264.6081843600        1570949448.4778166     
   74941546.798489690       -1561168.0054847337        1577081840.8714423     
   59998094.205095880       -7818739.5921368785        1588357547.5578585     
 -0.29681925415693977       -1.1204940363829852        1602086208.2858620     
   3.5258426215286909E-003 -0.65716905360725497        1598501897.9922361     
  0.24252957700751368      -0.39831597269585983        1599825182.0817873     
  0.42017801783710051      -0.34398019002776348        1606056060.5545206     
  0.53649118115039662      -0.49409533241396963        1617194533.4104230     
   240974756.42390451       -30980242.522369817        1507816067.9154649     
   200126411.80988678       -60591006.698227331        1486710648.2525129     
   154656639.41980815       -105606530.12762126        1468305276.2776163     
   104565439.25366725       -166026812.81055322        1452599951.9907796     
   49852811.311471418       -241851854.74700737        1439594675.3920052     
   180485472.14879638       -23308860.606294282        1533668314.8103769     
   149048811.31452304       -45757054.510675482        1507995873.4731233     
   114146079.65421960       -79758817.835150182        1485210240.3695831     
   75777277.167901143       -125314150.57967760        1465311415.4997458     
   33942403.855558872       -182423052.74428579        1448299398.8636208     
   120159918.07586497       -15588359.629535772        1560515474.6911733     
   98668542.580321506       -30713902.794781648        1531623928.1213338     
   74866453.208799690       -53541825.546622664        1505805950.3308616     
   48753649.961294979       -84072127.885074154        1483061541.3197467     
   20330132.837818362       -122304809.81009929        1463390701.0879858     
   59998094.205095880       -7818739.5921368785        1588357547.5578585     
   48985605.607287996       -15461551.550537392        1557594812.1971505     
   36817760.083542958       -26955553.262059122        1530092406.1614509     
   23494557.633859739       -42300744.726709343        1505850329.4507668     
   9015998.2582391277       -61497125.944484383        1484868582.0650868     
  0.53649118115039662      -0.49409533241396963        1617194533.4104230     
  0.39542307157573958      -0.77793257184029863        1585908525.7005634     
  0.27846054217040977      -0.98141995903704138        1558069607.8613615     
  0.18558602457006151       -1.1046118918823411        1533677779.8928177     
  0.11683410649200054       -1.1473972413215212        1512733041.7949395     
   49852811.311471418       -241851854.74700737        1439594675.3920052     
   40523948.584247530       -322855254.78101385        1346481950.6199737     
   23425203.086667985       -429758264.04953921        1253270757.2109439     
  -1443425.1812657714       -562560882.55257726        1159961095.1649084     
  -34081936.219542772       -721263110.29009557        1066552964.4818594     
   33942403.855558872       -182423052.74428579        1448299398.8636208     
   29819675.102885231       -242313427.28614071        1347723976.0458729     
   19869534.267316326       -321628508.77097839        1246379503.6550450     
   4091981.3488670588       -420368297.19874448        1144265981.6911585     
  -17512983.652475595       -538532792.56949949        1041383410.1541995     
   20330132.837818362       -122304809.81009929        1463390701.0879858     
   19497592.528076179       -161656942.51930824        1357618796.0265458     
   14780110.822909415       -213958879.87993249        1250407260.4559712     
   6177687.7223237455       -279210621.89195406        1141756094.3762591     
  -6309676.7736858130       -357412168.55538660        1031665297.7874285     
   9015998.2582391277       -61497125.944484383        1484868582.0650868     
   9557700.8598228544       -80885800.480512396        1376166410.5620070     
   8156932.7534448951       -106749377.37641133        1265354027.6137302     
   4813693.9391193241       -139087856.63213557        1152431433.2202506     
  -472015.58317598701       -177901238.24775767        1037398627.3815854     
  0.11683410649200054       -1.1473972413215212        1512733041.7949395     
   9.8132491144087397E-002  -1.1697276846767501        1403366819.6522493     
   5.8930241638880221E-002  -1.2603935752229591        1291219805.1283028     
  -7.5390701008049010E-004  -1.4193314220809277        1176291998.2230966     
  -8.0940382601441374E-002  -1.6466110526362872        1058583398.9366300     
  -65.129082255515740        14.712723667581049        1551231996.0975735     
  -51.201523698518727        6.0683366298974413        1542556587.3058953     
  -35.824792400006956        2.2545267850417847        1537037878.3642776     
  -18.998894719362323        3.2712701595169085        1534675869.2727160     
 -0.72382356518775115        9.1185917790918083        1535470560.0312123     
  -376489080.39972657       -1482102.7908131182        1519562929.7239692     
  -366717304.39840126       -2321277.9003735930        1509267653.0020854     
  -356876674.59108931       -2930940.3233158588        1503526070.2865491     
  -346967190.97778970       -3311090.0596296936        1502338181.5773499     
  -336988853.55850089       -3461727.1093146056        1505703986.8744907     
  -759716754.45279932       -4985817.9290718436        1486403432.1342750     
  -736181804.50261855       -5466735.9412899017        1474568615.2318158     
  -712509148.38963330       -5488633.4108251631        1468684486.4919779     
  -688698786.11384177       -5051510.3376747966        1468751045.9147620     
  -664750717.67524588       -4155366.7218446434        1474768293.5001712     
  -1149683087.2883048       -10511130.702061892        1451753503.3285034     
  -1108393551.5141780       -9436368.0544091463        1438459473.9950829     
  -1066897457.2204261       -7673077.0080111027        1432513126.9805648     
  -1025194804.4070518       -5221257.5628682375        1433914462.2849536     
  -983285593.07405794       -2080909.7189947963        1442663479.9082441     
  -1546388078.9062426       -18058041.109785140        1415613143.3066480     
  -1483352545.4330750       -14230174.239728153        1400940229.2918847     
  -1420041601.0834694       -9484271.1148722768        1395011991.7523117     
  -1356455245.8574219       -3820331.7352130413        1397828430.6879213     
  -1292593479.7549357        2761643.8992387056        1409389546.0987198     
 -0.72382356518775115        9.1185917790918083        1535470560.0312123     
   5.2603983440264734E-003   11.112335433695407        1533290162.9519618     
  0.21498942735954785        11.374895279355426        1536200769.3733368     
  -9.4637770605491500E-002   9.9062682221639555        1544202379.2953384     
 -0.92361768416576906        6.7064650993769952        1557294992.7179651     
  -336988853.55850089       -3461727.1093146056        1505703986.8744907     
  -324605709.42228830       -2953682.4436412305        1506301855.9019403     
  -312332799.50946242       -2813085.1892545819        1511216975.7407277     
  -300170123.82001507       -3039935.3461315930        1520449346.3908472     
  -288117682.35395402       -3634232.9142947644        1533998967.8523037     
  -664750717.67524588       -4155366.7218446434        1474768293.5001712     
  -642195152.10130763       -3802495.9750615656        1478015822.6462867     
  -619860054.45478177       -4184518.3196543157        1484806849.9144478     
  -597745424.73566794       -5301433.7556205988        1495141375.3046556     
  -575851262.94396627       -7153242.2829590738        1509019398.8169031     
  -983285593.07405794       -2080909.7189947963        1442663479.9082441     
  -952768328.03179824       -2546429.4819304347        1448432063.1849968     
  -922581764.62097418       -4114288.0163211226        1456970391.8945005     
  -892725902.84159184       -6784485.3221843243        1468278466.0367582     
  -863200742.69365144       -10557021.399521053        1482356285.6117721     
  -1292593479.7549357        2761643.8992387056        1409389546.0987198     
  -1256325237.2137501        814517.03578239679        1417550577.5180712     
  -1220497930.0080369       -2602394.2792481780        1427707601.6808841     
  -1185111558.1377907       -7489090.0458353162        1439860618.5871608     
  -1150166121.6030154       -13845570.263993323        1454009628.2369010     
 -0.92361768416576906        6.7064650993769952        1557294992.7179651     
   2.0643148362858854E-002   3.6949272625058462        1541666796.9873481     
   1.2576288911368985        1.6591391264527358        1532340098.8752382     
   2.7873477107007130       0.59912791303220936        1529314898.3816295     
   4.6097954208424863       0.51487966820487774        1532591195.5065198     
  -288117682.35395402       -3634232.9142947644        1533998967.8523037     
  -271946846.03873724       -3157436.1264928132        1518369309.9313312     
  -255774186.99383307       -2674563.5730658323        1508767227.8004382     
  -239599705.21925113       -2185615.2540462911        1505192721.4596193     
  -223423400.71497628       -1690591.1693842858        1507645790.9088831     
  -575851262.94396627       -7153242.2829590738        1509019398.8169031     
  -544292225.05328667       -6434435.8344460726        1493390404.8820229     
  -512729541.99596864       -5703478.8304724693        1483515064.9087918     
  -481163213.77201486       -4960371.2710432410        1479393378.8972168     
  -449593240.38142228       -4205113.1561538577        1481025346.8472919     
  -863200742.69365144       -10557021.399521053        1482356285.6117721     
  -817036137.02301013       -9830995.4289520085        1466730081.8394239     
  -770866063.74878013       -9086744.1130870283        1456583610.2003050     
  -724690522.87095535       -8324267.4519065619        1451916870.6944103     
  -678509514.38954020       -7543565.4454266131        1452729863.3217490     
  -1150166121.6030154       -13845570.263993323        1454009628.2369010     
  -1090178581.9479141       -13347114.910028696        1438388340.8035362     
  -1030183752.2522622       -12824359.420893729        1427972863.6749723     
  -970181632.51606894       -12277303.796620309        1422763196.8512115     
  -910172222.73933053       -11705948.037197828        1422759340.3322551     
   4.6097954208424863       0.51487966820487774        1532591195.5065198     
   3.8882673637606775       0.11223018851254896        1536372038.0344067     
   3.1672795338825006      -0.28861853383434433        1544334294.0596776     
   2.4468303985511688      -0.68767195463644759        1556477963.5823312     
   1.7269091834182360       -1.0849649475544971        1572803046.6023710     
  -223423400.71497628       -1690591.1693842858        1507645790.9088831     
  -212526560.34370670       -2867787.7559702322        1510575834.8598413     
  -201689816.17332974       -4245305.0121997744        1517978311.4272437     
  -190913168.20384318       -5823142.9380643219        1529853220.6110921     
  -180196616.43525192       -7601301.5335790589        1546200562.4113894     
  -449593240.38142228       -4205113.1561538577        1481025346.8472919     
  -426968075.72003561       -6310060.9674837738        1483034479.9863195     
  -404463103.46096998       -8815650.1198836267        1489807064.8608558     
  -382078323.60422778       -11721880.613363326        1501343101.4709003     
  -359813736.14980698       -15028752.447911337        1517642589.8164518     
  -678509514.38954020       -7543565.4454266131        1452729863.3217490     
  -643324542.24071622       -10326819.522299469        1453747973.4138453     
  -608319858.69564497       -13711035.611681253        1459820554.3605115     
  -573495463.75432444       -17696213.713565946        1470947606.1617451     
  -538851357.41675794       -22282353.827962428        1487129128.8175516     
  -910172222.73933053       -11705948.037197828        1422759340.3322551     
  -861595959.90575123       -14918063.420424908        1422716315.1424160     
  -813260081.87735343       -18931461.487589747        1428018779.9262121     
  -765164588.65413821       -23746142.238697231        1438666734.6836410     
  -717309480.23610318       -29362105.673738420        1454660179.4146967     
   1.7269091834182360       -1.0849649475544971        1572803046.6023710     
   1.1410196048073846       -1.3603721171518113        1570767341.8193712     
  0.60843848274668133       -1.4580844315819634        1574969300.5056233     
  0.12915383048753681       -1.3781425405629781        1585408922.6611168     
 -0.29681925415693977       -1.1204940363829852        1602086208.2858620     
  -180196616.43525192       -7601301.5335790589        1546200562.4113894     
  -164432156.95754236       -7809591.3583563268        1544273706.8357847     
  -148571010.20772952       -7695590.2761236876        1548283762.3512490     
  -132613176.18581802       -7259298.2868958414        1558230728.9577796     
  -116558654.89179975       -6500715.3906437159        1574114606.6553805     
  -359813736.14980698       -15028752.447911337        1517642589.8164518     
  -329144109.11757582       -15703119.574775323        1515937385.2035015     
  -298281107.59444964       -15732905.065321073        1519868339.3034427     
  -267224731.58042330       -15118108.919532299        1529435452.1162765     
  -235974981.07549652       -13858731.137411602        1544638723.6419976     
  -538851357.41675794       -22282353.827962428        1487129128.8175516     
  -494135855.33908546       -23680586.009637177        1485758376.9225237     
  -449130291.55172598       -24111945.825685754        1489723031.3622084     
  -403834666.05466145       -23576433.276052058        1499023092.1366038     
  -358248978.84790689       -22074048.360785261        1513658559.2457108     
  -717309480.23610318       -29362105.673738420        1454660179.4146967     
  -659407395.62207222       -31741990.662952155        1453736681.9928522     
  -601118562.07955825       -32832712.557223916        1457847838.5275397     
  -542442979.60854208       -32634271.356487900        1466993649.0187600     
  -483380648.20903492       -31146667.060780853        1481174113.4665213     
 -0.29681925415693977       -1.1204940363829852        1602086208.2858620     
   3.5258426215286909E-003 -0.65716905360725497        1598501897.9922361     
  0.24252957700751368      -0.39831597269585983        1599825182.0817873     
  0.42017801783710051      -0.34398019002776348        1606056060.5545206     
  0.53649118115039662      -0.49409533241396963        1617194533.4104230     
  -116558654.89179975       -6500715.3906437159        1574114606.6553805     
  -103221826.87968574       -5598560.0124411620        1569960370.4794924     
  -89349457.260653988       -2911265.9445137903        1570949448.5645049     
  -74941546.034695625        1561166.8131689578        1577081840.9104266     
  -59998093.201804534        7818738.2606284767        1588357547.5172474     
  -235974981.07549652       -13858731.137411602        1544638723.6419976     
  -208627839.98668808       -11852375.234887123        1540539360.1968265     
  -180209615.62267733       -6275741.7483576983        1541819030.8902876     
  -150720307.98347923        2871169.3221315816        1548477735.7223830     
  -120159917.06907390        15588357.976643533        1560515474.6931107     
  -358248978.84790689       -22074048.360785261        1513658559.2457108     
  -316218039.31746095       -18761446.324439272        1510238867.1442401     
  -272580474.84354770       -10093427.809871957        1512433929.0591311     
  -227336285.42616060        3930007.1829449683        1520243744.9903831     
  -180485471.06530976        23308858.653970316        1533668314.9379902     
  -483380648.20903492       -31146667.060780853        1481174113.4665213     
  -425992424.87201798       -26325773.281143323        1479058891.3217342     
  -366462034.92325038       -14364324.129004285        1482794143.0710392     
  -304789478.36275560        4737680.3955588937        1492379868.7144322     
  -240974755.19051135        30980240.292620704        1507816068.2519088     
  0.53649118115039662      -0.49409533241396963        1617194533.4104230     
  0.39542307157573958      -0.77793257184029863        1585908525.7005634     
  0.27846054217040977      -0.98141995903704138        1558069607.8613615     
  0.18558602457006151       -1.1046118918823411        1533677779.8928177     
  0.11683410649200054       -1.1473972413215212        1512733041.7949395     
  -59998093.201804534        7818738.2606284767        1588357547.5172474     
  -48985604.836060904        15461549.852871917        1557594812.2229946     
  -36817759.515737623        26955551.293715239        1530092406.2457643     
  -23494557.240829341        42300742.583175033        1505850329.5855467     
  -9015998.0113353468        61497123.721253172        1484868582.2423677     
  -120159917.06907390        15588357.976643533        1560515474.6931107     
  -98668541.778340444        30713900.970429420        1531623928.2333498     
  -74866452.602546707        53541823.581085473        1505805950.5369828     
  -48753649.541688100        84072125.808621868        1483061541.6039903     
  -20330132.595765099        122304807.65304217        1463390701.4343915     
  -180485471.06530976        23308858.653970316        1533668314.9379902     
  -149048810.43141022        45757052.574753992        1507995873.7316320     
  -114146078.98196748        79758815.880683050        1485210240.7350192     
  -75777276.716986299        125314148.57174039        1465311415.9481523     
  -33942403.636456713        182423050.64795759        1448299399.3710315     
  -240974755.19051135        30980240.292620704        1507816068.2519088     
  -200126410.79527274        60591004.665844098        1486710648.7178431     
  -154656638.65401304        105606528.19246987        1468305276.8398755     
  -104565438.76672514        166026810.87252426        1452599952.6180184     
  -49852811.133416682        241851852.70597917        1439594676.0522668     
  0.11683410649200054       -1.1473972413215212        1512733041.7949395     
   9.8132491144087397E-002  -1.1697276846767501        1403366819.6522493     
   5.8930241638880221E-002  -1.2603935752229591        1291219805.1283028     
  -7.5390701008049010E-004  -1.4193314220809277        1176291998.2230966     
  -8.0940382601441374E-002  -1.6466110526362872        1058583398.9366300     
  -9015998.0113353468        61497123.721253172        1484868582.2423677     
  -9557700.6533058248        80885798.196194336        1376166410.6880293     
  -8156932.6246220022        106749374.90665221        1265354027.6899936     
  -4813693.9252529293        139087853.85272399        1152431433.2482631     
   472015.44478179514        177901235.03434998        1037398627.3628203     
  -20330132.595765099        122304807.65304217        1463390701.4343915     
  -19497592.325125128        161656940.28599873        1357618796.2747753     
  -14780110.692652866        213958877.45839524        1250407260.6090095     
  -6177687.6983587146        279210619.17020422        1141756094.4371166     
   6309676.6577780247        357412165.42147994        1031665297.7590716     
  -33942403.636456713        182423050.64795759        1448299399.3710315     
  -29819674.917322859        242313425.09969127        1347723976.4124780     
  -19869534.145196080        321628506.39473748        1246379503.8853457     
  -4091981.3200669885        420368294.53312695        1144265981.7896404     
   17512983.558046818        538532789.51479161        1041383410.1253328     
  -49852811.133416682        241851852.70597917        1439594676.0522668     
  -40523948.429897651        322855252.63727731        1346481951.1011424     
  -23425202.982210577        429758261.71580166        1253270757.5189974     
   1443425.2096033394        562560879.94141567        1159961095.3058252     
   34081936.145598799        721263107.31430173        1066552964.4616396     
  -1546388078.9062426       -18058041.109785140        1415613143.3066480     
  -1483352545.4330750       -14230174.239728153        1400940229.2918847     
  -1420041601.0834694       -9484271.1148722768        1395011991.7523117     
  -1356455245.8574219       -3820331.7352130413        1397828430.6879213     
  -1292593479.7549357        2761643.8992387056        1409389546.0987198     
  -1941013931.4664247       -25861466.195298195        1358963955.4150460     
  -1856330455.6687121       -15997994.652706027        1347247310.5788095     
  -1771829534.9039207       -6743039.8865160942        1342045420.7464530     
  -1687511169.1720476        1903398.1032781601        1343358285.9179752     
  -1603375358.4730954        9941319.3166685104        1351185906.0933766     
  -2324162458.2967186       -30221693.561848164        1302405461.2174239     
  -2224202244.3781981       -16233978.607843518        1293110791.9987981     
  -2124882551.4019573       -4381333.4614371061        1288100956.3127415     
  -2026203379.3679950        5336241.8773728609        1287375954.1592577     
  -1928164728.2763152        12918747.408580303        1290935785.5383425     
  -2695833659.3971214       -31138723.209427357        1245937660.7137978     
  -2586967911.5615339       -14938126.105135202        1238530673.5518587     
  -2479200650.5775809       -2399151.8396384716        1233178598.4511821     
  -2372531876.4452658        6478199.5870671272        1229881435.4117672     
  -2266961589.1645889        11693928.174977541        1228639184.4336183     
  -3056027534.7676420       -28612555.138045311        1189560553.9041538     
  -2944627457.2187133       -12110437.144579768        1183506955.2379811     
  -2834783832.4307876       -796495.02110981941        1177278347.1617672     
  -2726496660.4038582        5329271.2323695421        1170874729.6755056     
  -2619765941.1379251        6266861.6158493757        1164296102.7792032     
  -1292593479.7549357        2761643.8992387056        1409389546.0987198     
  -1256325237.2137501        814517.03578239679        1417550577.5180712     
  -1220497930.0080369       -2602394.2792481780        1427707601.6808841     
  -1185111558.1377907       -7489090.0458353162        1439860618.5871608     
  -1150166121.6030154       -13845570.263993323        1454009628.2369010     
  -1603375358.4730954        9941319.3166685104        1351185906.0933766     
  -1561333985.7925270        4776447.3980308771        1354668367.1730428     
  -1519488824.0525646       -1042460.9892961383        1361338261.3984258     
  -1477839873.2532115       -7515405.8453254104        1371195588.7695312     
  -1436387133.3944688       -14642387.170049965        1384240349.2863553     
  -1928164728.2763152        12918747.408580303        1290935785.5383425     
  -1876946110.0213394        5557365.0652751923        1290025188.0723250     
  -1825678978.3121099       -1642305.7638533115        1293493464.1542864     
  -1774363333.1486299       -8680265.0788116455        1301340613.7842252     
  -1722999174.5308940       -15556512.879584670        1313566636.9621406     
  -2266961589.1645889        11693928.174977541        1228639184.4336183     
  -2203161609.9001856        3157270.0375097990        1223621040.2159243     
  -2139068392.7866702       -4401928.6029129028        1224173209.9484644     
  -2074681937.8240395       -10983667.746290088        1230295693.6312399     
  -2010002245.0122979       -16587947.392624617        1241988491.2642467     
  -2619765941.1379251        6266861.6158493757        1164296102.7792032     
  -2539980485.4290748       -2423837.6852773428        1155455923.6038353     
  -2459657067.4762464       -9321329.5064765215        1153377498.7809601     
  -2378795687.2794490       -14425613.847778201        1158060828.3105791     
  -2297396344.8386703       -17736690.709145308        1169505912.1926877     
  -1150166121.6030154       -13845570.263993323        1454009628.2369010     
  -1090178581.9479141       -13347114.910028696        1438388340.8035362     
  -1030183752.2522622       -12824359.420893729        1427972863.6749723     
  -970181632.51606894       -12277303.796620309        1422763196.8512115     
  -910172222.73933053       -11705948.037197828        1422759340.3322551     
  -1436387133.3944688       -14642387.170049965        1384240349.2863553     
  -1362411830.1335847       -12616686.653471053        1368366447.4437509     
  -1288638615.1712313       -11264613.798660040        1357694112.2632642     
  -1215067488.5074041       -10586168.605603576        1352223343.7448974     
  -1141698450.1421008       -10581351.074298382        1351954141.8886497     
  -1722999174.5308940       -15556512.879584670        1313566636.9621406     
  -1635048232.3576190       -12007204.608439326        1297195845.9813783     
  -1547508756.8219404       -9829451.7959513664        1286022378.0200534     
  -1460380747.9238551       -9023254.4421115518        1280046233.0781629     
  -1373664205.6633756       -9588612.5469485521        1279267411.1557066     
  -2010002245.0122979       -16587947.392624617        1241988491.2642467     
  -1908087788.6200070       -11518668.774905324        1224876536.4164176     
  -1806794177.2043915       -8518873.4127671719        1212957660.9453335     
  -1706121410.7654362       -7588561.3061634302        1206231864.8510063     
  -1606069489.3031576       -8727732.4551450610        1204699148.1334286     
  -2297396344.8386703       -17736690.709145308        1169505912.1926877     
  -2181530498.9207549       -11151079.152892351        1151408518.7488663     
  -2066494876.3185792       -7332878.6490957737        1138499961.0391126     
  -1952289477.0321398       -6282089.1977552176        1130780239.0634265     
  -1838914301.0614469       -7998710.7989071608        1128249352.8218093     
  -910172222.73933053       -11705948.037197828        1422759340.3322551     
  -861595959.90575123       -14918063.420424908        1422716315.1424160     
  -813260081.87735343       -18931461.487589747        1428018779.9262121     
  -765164588.65413821       -23746142.238697231        1438666734.6836410     
  -717309480.23610318       -29362105.673738420        1454660179.4146967     
  -1141698450.1421008       -10581351.074298382        1351954141.8886497     
  -1080177197.3102365       -14613407.577926219        1351277311.4700155     
  -1018772013.3501074       -19032360.320684135        1355401892.8734479     
  -957482898.26172066       -23838209.302580297        1364327886.0989485     
  -896309852.04507542       -29030954.523608238        1378055291.1465139     
  -1373664205.6633756       -9588612.5469485521        1279267411.1557066     
  -1300752471.8376975       -14906962.872325122        1278101810.7639577     
  -1227832490.9503143       -20197822.992020488        1281193544.0427113     
  -1154904263.0012276       -25461192.906037390        1288542610.9919655     
  -1081967787.9904413       -30697072.614386082        1300149011.6117218     
  -1606069489.3031576       -8727732.4551450610        1204699148.1334286     
  -1523321783.4881368       -15798729.303611815        1203189813.0242462     
  -1440441514.6779699       -22427849.501591861        1205393733.4340031     
  -1357428682.8726561       -28615093.049079299        1211310909.3626993     
  -1274283288.0721974       -34360459.946082771        1220941340.8103228     
  -1838914301.0614469       -7998710.7989071608        1128249352.8218093     
  -1747885132.2615578       -17288706.871806264        1126541318.2508821     
  -1656599084.5330751       -25722439.849387884        1128002461.0473232     
  -1565056157.8760078       -33299909.731690586        1132632781.2111366     
  -1473256352.2903545       -40021116.518706322        1140432278.7423196     
  -717309480.23610318       -29362105.673738420        1454660179.4146967     
  -659407395.62207222       -31741990.662952155        1453736681.9928522     
  -601118562.07955825       -32832712.557223916        1457847838.5275397     
  -542442979.60854208       -32634271.356487900        1466993649.0187600     
  -483380648.20903492       -31146667.060780853        1481174113.4665213     
  -896309852.04507542       -29030954.523608238        1378055291.1465139     
  -825351743.06597829       -31158012.763462275        1375102742.8933609     
  -754191740.05968583       -32612090.912661970        1377100291.7146440     
  -682829843.02620280       -33393188.971224576        1384047937.6103582     
  -611266051.96552598       -33501306.939148366        1395945680.5805044     
  -1081967787.9904413       -30697072.614386082        1300149011.6117218     
  -998195245.73799288       -32643781.432376564        1294951748.4757490     
  -914405664.35965097       -34533693.164064676        1294620025.5321083     
  -830599043.85541499       -36366807.809433430        1299153842.7807956     
  -746775384.22528577       -38143125.368493110        1308553200.2218218     
  -1274283288.0721974       -34360459.946082771        1220941340.8103228     
  -1177937903.6381176       -36199296.669738054        1213283698.7400110     
  -1081760334.9794416       -38597519.311404943        1210407039.9799316     
  -985750582.09617758       -41555127.871107280        1212311364.5300856     
  -889908644.98831463       -45072122.348823637        1218996672.3904586     
  -1473256352.2903545       -40021116.518706322        1140432278.7423196     
  -1364579716.7663586       -41824558.475531161        1130098593.6861548     
  -1256255751.9190671       -44803569.354702413        1124461335.0581169     
  -1148284457.7484841       -48958149.156234384        1123520502.8582087     
  -1040665834.2546084       -54288297.880126953        1127276097.0864286     
  -483380648.20903492       -31146667.060780853        1481174113.4665213     
  -425992424.87201798       -26325773.281143323        1479058891.3217342     
  -366462034.92325038       -14364324.129004285        1482794143.0710392     
  -304789478.36275560        4737680.3955588937        1492379868.7144322     
  -240974755.19051135        30980240.292620704        1507816068.2519088     
  -611266051.96552598       -33501306.939148366        1395945680.5805044     
  -539009856.91804063       -29752963.750304341        1393689003.2584367     
  -464549793.28627485       -18658391.947196648        1397266265.0328245     
  -387885861.07023871       -217591.52985401452        1406677465.9036713     
  -309018060.26992148        25569437.501757532        1421922605.8709626     
  -746775384.22528577       -38143125.368493110        1308553200.2218218     
  -659698459.74627662       -35481505.454121083        1306227053.3570926     
  -570355964.71045852       -25267983.683722585        1309718310.7911856     
  -478747899.11783272       -7502560.0572999716        1319026972.5240991     
  -384874262.96839702        17814765.425161436        1334153038.5558434     
  -889908644.98831463       -45072122.348823637        1218996672.3904586     
  -788058233.35672867       -43511398.392603457        1216673041.6176913     
  -683880549.19581234       -34193099.338606715        1220150280.3461151     
  -577375592.50553954       -17117225.186759919        1229428388.5757368     
  -468543363.28593278        7716224.0628672838        1244507366.3065419     
  -1040665834.2546084       -54288297.880126953        1127276097.0864286     
  -924089177.74940515       -53842642.565766424        1125026968.0402486     
  -805123546.74233031       -45433738.911840051        1128562173.6976264     
  -683768941.23337281       -29061586.918304384        1137881714.0585651     
  -560025361.22253644       -4726186.5851672888        1152985589.1230652     
  -240974755.19051135        30980240.292620704        1507816068.2519088     
  -200126410.79527274        60591004.665844098        1486710648.7178431     
  -154656638.65401304        105606528.19246987        1468305276.8398755     
  -104565438.76672514        166026810.87252426        1452599952.6180184     
  -49852811.133416682        241851852.70597917        1439594676.0522668     
  -309018060.26992148        25569437.501757532        1421922605.8709626     
  -259392781.68626314        55724363.876554698        1405159921.0492918     
  -203307204.20894772        107413619.89688417        1392323100.5622463     
  -140761327.83797854        180637205.56272668        1383412144.4098177     
  -71755152.573345318        275395120.87410688        1378427052.5920060     
  -384874262.96839702        17814765.425161436        1334153038.5558434     
  -322969716.82913840        49564553.811691508        1323878438.1188171     
  -252766000.64858881        108978242.33585829        1318755518.6949160     
  -174263114.42673993        196055830.99768966        1318784280.2841582     
  -87461058.163602754        310797319.79714268        1323964722.8865285     
  -468543363.28593278        7716224.0628672838        1244507366.3065419     
  -390857216.22389448        42111574.471261561        1242866199.9263906     
  -303033027.97292215        110300395.50943889        1247602531.2378931     
  -205070798.53302169        212282687.17737672        1258716360.2410386     
  -96970527.904187620        348058449.47509027        1276207686.9358385     
  -560025361.22253644       -4726186.5851672888        1152985589.1230652     
  -463055279.87052625        33365425.855282247        1162123206.4720330     
  -354108286.18194920        111380079.41762133        1178864138.1911705     
  -233184380.15681100        229317774.10183066        1203208384.2804699     
  -100283561.79511425        387178509.90790200        1235155944.7399237     
  -49852811.133416682        241851852.70597917        1439594676.0522668     
  -40523948.429897651        322855252.63727731        1346481951.1011424     
  -23425202.982210577        429758261.71580166        1253270757.5189974     
   1443425.2096033394        562560879.94141567        1159961095.3058252     
   34081936.145598799        721263107.31430173        1066552964.4616396     
  -71755152.573345318        275395120.87410688        1378427052.5920060     
  -57526758.089568153        377140060.01880050        1296844483.5335441     
  -34316668.169183284        508823983.95218819        1214342744.6570539     
  -2124882.8122037351        670446892.67421520        1130921835.9625375     
   39048597.981385469        862008786.18495846        1046581757.4500047     
  -87461058.163602754        310797319.79714268        1323964722.8865285     
  -70677992.433863431        432580339.99494624        1255326091.1952484     
  -43701418.575069994        588341720.62292206        1184947588.4989328     
  -6531336.5872318447        778081461.68105865        1112829214.7975976     
   40832253.529665470        1001799563.1693765        1038970970.0912174     
  -96970527.904187620        348058449.47509027        1276207686.9358385     
  -79977651.462786347        489176092.56569207        1221926774.0862534     
  -51579454.199877739        668311471.72798216        1165085289.0446503     
  -11775936.115475416        885464586.96191895        1105683231.8110075     
   39432902.790425897        1140635438.2675254        1043720602.3853270     
  -100283561.79511425        387178509.90790200        1235155944.7399237     
  -85425735.176333100        546927317.73106408        1196646532.2065749     
  -57950775.043613374        748733237.26734889        1154755846.2941852     
  -17858681.396938562        992596268.51682293        1109483887.0027616     
   34850545.763679385        1278516411.4794354        1060830654.3323087     
  -3056027534.7676420       -28612555.138045311        1189560553.9041538     
  -2944627457.2187133       -12110437.144579768        1183506955.2379811     
  -2834783832.4307876       -796495.02110981941        1177278347.1617672     
  -2726496660.4038582        5329271.2323695421        1170874729.6755056     
  -2619765941.1379251        6266861.6158493757        1164296102.7792032     
  -3410218963.5510917       -15882833.711506605        1046884472.8399211     
  -3298986592.1083331       -7849523.9679245949        1038762961.7938205     
  -3188599698.3021069       -2634473.0127776861        1032641795.8260657     
  -3079058282.1324058       -237680.84605419636        1028520974.9366622     
  -2970362343.5992322       -659147.46776139736        1026400499.1256077     
  -3769423145.3599820       -4656938.1925952435        900555773.04871106     
  -3652143181.4851270       -3227847.1374244690        891195820.60122252     
  -3534997720.1223335       -2247097.7891185284        886011567.72048116     
  -3417986761.2715940       -1714690.1476731300        885003014.40648019     
  -3301110304.9329162       -1630624.2130866051        888170160.65922391     
  -4133640080.1943159        5065131.4186813831        750574454.53051734     
  -4004097225.3490973        1754593.3469188213        740805531.66019690     
  -3873977897.8914647        365630.64986944199        737387662.84501100     
  -3743282097.8214226        898243.32751750946        740320848.08496439     
  -3612009825.1389685        3352431.3798716068        749605087.38005102     
  -4502869768.0540915        13283375.122324228        596940517.28534245     
  -4354848723.7002373        7097797.4851179123        587592094.97073472     
  -4205540231.6095033        5203712.3041870594        586770081.19965649     
  -4054944291.7818871        7601119.5795185566        594474475.97211099     
  -3903060904.2173877        14290019.311129808        610705279.28809631     
  -2619765941.1379251        6266861.6158493757        1164296102.7792032     
  -2539980485.4290748       -2423837.6852773428        1155455923.6038353     
  -2459657067.4762464       -9321329.5064765215        1153377498.7809601     
  -2378795687.2794490       -14425613.847778201        1158060828.3105791     
  -2297396344.8386703       -17736690.709145308        1169505912.1926877     
  -2970362343.5992322       -659147.46776139736        1026400499.1256077     
  -2874216514.6592050       -5990525.3926945925        1024017025.9713161     
  -2777980072.9784427       -11019860.848515630        1026681472.9401633     
  -2681653018.5569453       -15747153.835221648        1034393840.0321525     
  -2585235351.3947134       -20172404.352806091        1047154127.2472795     
  -3301110304.9329162       -1630624.2130866051        888170160.65922391     
  -3193500771.9884305       -5071681.5298479795        891721485.77222645     
  -3086247975.8064485       -9701861.3882912397        898606896.77901578     
  -2979351916.3869739       -15521163.788431525        908826393.67959225     
  -2872812593.7300067       -22529588.730252028        922379976.47395539     
  -3612009825.1389685        3352431.3798716068        749605087.38005102     
  -3497833257.4167442        332693.90327429771        758569303.00656903     
  -3384460775.9602680       -5367331.1258108616        769153770.29752183     
  -3271892380.7695398       -13747643.707399249        781358489.25290561     
  -3160128071.8445611       -24808243.841470957        795183459.87272704     
  -3903060904.2173877        14290019.311129808        610705279.28809631     
  -3787213970.9441485        10222600.906671047        624560477.67434371     
  -3672618473.4399004        1983729.9389150143        638322093.49567652     
  -3559274411.7046371       -10426593.592125654        651990126.75208700     
  -3447181785.7383623       -27008369.686464310        665564577.44358540     
  -2297396344.8386703       -17736690.709145308        1169505912.1926877     
  -2181530498.9207549       -11151079.152892351        1151408518.7488663     
  -2066494876.3185792       -7332878.6490957737        1138499961.0391126     
  -1952289477.0321398       -6282089.1977552176        1130780239.0634265     
  -1838914301.0614469       -7998710.7989071608        1128249352.8218093     
  -2585235351.3947134       -20172404.352806091        1047154127.2472795     
  -2456412377.2984486       -15172728.549558043        1028474762.3899460     
  -2327875619.7402983       -11127107.873345017        1014939568.6479720     
  -2199625078.7202625       -8035542.3241881132        1006548546.0213506     
  -2071660754.2383418       -5898031.9020824432        1003301694.5100837     
  -2872812593.7300067       -22529588.730252028        922379976.47395539     
  -2731160104.6517119       -19154132.638890982        903753314.77700937     
  -2589249825.3339090       -14919375.749166369        890226159.57670677     
  -2447081755.7765999       -9825318.0610823631        881798510.87304640     
  -2304655895.9797831       -3871959.5746418238        878470368.66603231     
  -3160128071.8445611       -24808243.841470957        795183459.87272704     
  -3005773680.9805555       -23095291.420906425        777244175.91005826     
  -2850617493.0994210       -18709682.276562452        764359733.82532120     
  -2694659508.2011490       -11651416.408438206        756530133.61851776     
  -2537899726.2857471       -1920493.8165478706        753755375.28964221     
  -3447181785.7383623       -27008369.686464310        665564577.44358540     
  -3280253106.2849665       -26996204.895582199        648947345.78909063     
  -3111978623.0368147       -22498027.455506325        637340291.39381158     
  -2942358335.9939113       -13513837.366253972        630743414.25775576     
  -2771392245.1562500       -43634.627822279930        629156714.38091934     
  -1838914301.0614469       -7998710.7989071608        1128249352.8218093     
  -1747885132.2615578       -17288706.871806264        1126541318.2508821     
  -1656599084.5330751       -25722439.849387884        1128002461.0473232     
  -1565056157.8760078       -33299909.731690586        1132632781.2111366     
  -1473256352.2903545       -40021116.518706322        1140432278.7423196     
  -2071660754.2383418       -5898031.9020824432        1003301694.5100837     
  -1971610580.6262071       -12706675.174150944        1001617589.7780240     
  -1871651272.9593956       -19818204.930640221        1003130922.2724372     
  -1771782831.2379093       -27232621.171552777        1007841691.9933270     
  -1672005255.4617603       -34949923.896911621        1015749898.9406923     
  -2304655895.9797831       -3871959.5746418238        878470368.66603231     
  -2195503975.1008029       -8175027.3094894886        876404491.41993117     
  -2086790665.0410728       -13940131.108492732        877564311.25941348     
  -1978515965.8005862       -21167270.971654296        881949828.18447804     
  -1870679877.3793528       -29856446.898979664        889561042.19511831     
  -2537899726.2857471       -1920493.8165478706        753755375.28964221     
  -2419565315.6853490       -3693763.2778080702        750902023.17660058     
  -2302017260.7781124       -8088218.3829541206        751302628.00824726     
  -2185255561.5640421       -15103859.131992698        754957189.78457689     
  -2069280218.0431333       -24740685.524890780        761865708.50559604     
  -2771392245.1562500       -43634.627822279930        629156714.38091934     
  -2643794602.3798361        737116.92089068890        625110185.04803216     
  -2517331060.1705122       -2262466.7540284395        624345872.51893842     
  -2392001618.5282669       -9042385.6525464058        626863776.79363489     
  -2267806277.4531059       -19602639.774679303        632663897.87212110     
  -1473256352.2903545       -40021116.518706322        1140432278.7423196     
  -1364579716.7663586       -41824558.475531161        1130098593.6861548     
  -1256255751.9190671       -44803569.354702413        1124461335.0581169     
  -1148284457.7484841       -48958149.156234384        1123520502.8582087     
  -1040665834.2546084       -54288297.880126953        1127276097.0864286     
  -1672005255.4617603       -34949923.896911621        1015749898.9406923     
  -1551959925.0564144       -36830434.889930189        1004880866.8285191     
  -1431984301.0066628       -38943300.401589811        998078343.35914588     
  -1312078383.3125131       -41288520.431923330        995342328.53257000     
  -1192242171.9739599       -43866094.980916619        996672822.34879482     
  -1870679877.3793528       -29856446.898979664        889561042.19511831     
  -1741065617.1935973       -32353956.458455801        878486788.06822920     
  -1611238099.0423217       -34140606.132882774        870849124.79880989     
  -1481197322.9255426       -35216395.922292292        866648052.38686502     
  -1350943288.8432553       -35581325.826669574        865883570.83238304     
  -2069280218.0431333       -24740685.524890780        761865708.50559604     
  -1931896793.1779063       -28395123.181125045        750916357.40527821     
  -1794017146.0260513       -30395486.548610330        742773679.37711060     
  -1655641276.5875828       -30741775.627374589        737437674.42108083     
  -1516769184.8624983       -29433990.417416632        734908342.53719366     
  -2267806277.4531059       -19602639.774679303        632663897.87212110     
  -2124453453.0093427       -24953935.057932377        622169574.83967900     
  -1980321441.9578474       -27707941.648747921        613852007.09404695     
  -1835410244.2986286       -27864659.547152519        607711194.63522983     
  -1689719860.0316885       -25424088.753147900        603747137.46322525     
  -1040665834.2546084       -54288297.880126953        1127276097.0864286     
  -924089177.74940515       -53842642.565766424        1125026968.0402486     
  -805123546.74233031       -45433738.911840051        1128562173.6976264     
  -683768941.23337281       -29061586.918304384        1137881714.0585651     
  -560025361.22253644       -4726186.5851672888        1152985589.1230652     
  -1192242171.9739599       -43866094.980916619        996672822.34879482     
  -1062255982.6765456       -41281019.374237776        993305056.19389427     
  -930803829.81384969       -33809398.549972177        993974268.18505943     
  -797885713.38589430       -21451232.508161545        998680458.32229340     
  -663501633.39264870       -4206521.2487250566        1007423626.6056020     
  -1350943288.8432553       -35581325.826669574        865883570.83238304     
  -1212540014.0607433       -32354564.119809508        860320321.47605550     
  -1073593786.6495594       -27317960.317381382        857046693.70830786     
  -934104606.60970271       -20471514.419371545        856062687.52913535     
  -794072473.94117451       -11815226.425797015        857368302.93853903     
  -1516769184.8624983       -29433990.417416632        734908342.53719366     
  -1374941271.9020047       -27063276.802498698        726072763.88673878     
  -1233493417.2494433       -25959424.214032829        717779450.26736689     
  -1092425620.9048131       -26122432.651992083        710028401.67908382     
  -951737882.86811483       -27552302.116391599        702819618.12188351     
  -1689719860.0316885       -25424088.753147900        603747137.46322525     
  -1549459756.2003338       -25407157.422321618        590562383.42593253     
  -1410502721.6135128       -29733790.239939988        576172537.86224067     
  -1272848756.2712278       -38403987.206017137        560577600.77214205     
  -1136497860.1734774       -51417748.320532918        543777572.15563905     
  -560025361.22253644       -4726186.5851672888        1152985589.1230652     
  -463055279.87052625        33365425.855282247        1162123206.4720330     
  -354108286.18194920        111380079.41762133        1178864138.1911705     
  -233184380.15681100        229317774.10183066        1203208384.2804699     
  -100283561.79511425        387178509.90790200        1235155944.7399237     
  -663501633.39264870       -4206521.2487250566        1007423626.6056020     
  -548047870.19016314        26078010.976451606        1020815725.8652159     
  -421717928.13343787        92616472.715761334        1042624361.4585662     
  -284511807.22244686        195408863.96929264        1072849533.3856438     
  -136429507.45719707        334455184.73701429        1111491241.6464477     
  -794072473.94117451       -11815226.425797015        857368302.93853903     
  -657811537.56375957        11359272.981399745        873730695.04611754     
  -511775155.81439579        67118590.295082241        899322845.45098960     
  -355963328.69308424        155462725.51526797        934144754.15314734     
  -190376056.19982338        276391678.64194030        978196421.15260315     
  -951737882.86811483       -27552302.116391599        702819618.12188351     
  -792346281.99130082       -10790788.129832149        720868114.01472735     
  -624279969.22484434        34886432.155518472        748959590.16843081     
  -447538944.56873584        109479358.73971212        787094046.58298469     
  -262123208.02299184        212987991.62270197        835271483.25839484     
  -1136497860.1734774       -51417748.320532918        543777572.15563905     
  -951652103.47277844       -40372172.357221723        562227982.77105916     
  -759232368.36474884       -4080001.7028254271        591534595.61089778     
  -559238654.84938335        57458763.642701685        631697410.67515552     
  -351670962.92668712        144244123.67932561        682716427.96383309     
  -100283561.79511425        387178509.90790200        1235155944.7399237     
  -85425735.176333100        546927317.73106408        1196646532.2065749     
  -57950775.043613374        748733237.26734889        1154755846.2941852     
  -17858681.396938562        992596268.51682293        1109483887.0027616     
   34850545.763679385        1278516411.4794354        1060830654.3323087     
  -136429507.45719707        334455184.73701429        1111491241.6464477     
  -127361211.57245517        483406751.74138105        1090017328.6496899     
  -95140887.464497358        709531746.15645659        1069962874.8101226     
  -39768535.133332491        1012830167.9822150        1051327880.1277488     
   38755845.421035707        1393302017.2186875        1034112344.6025540     
  -190376056.19982338        276391678.64194030        978196421.15260315     
  -173380912.37418014        418660918.43003738        986048718.18657839     
  -122698845.61607033        673219901.32634485        1000121206.9139643     
  -38329855.925487220        1040068627.3308957        1020413887.3347672     
   79726056.697564602        1519207096.4436779        1046926759.4489790     
  -262123208.02299184        212987991.62270197        835271483.25839484     
  -223484837.58151463        352689817.79701406        884740700.81724572     
  -140624649.49832258        639797702.77704239        945230842.60573578     
  -13542643.773390591        1074311646.5628700        1016741908.6238549     
   157761179.59325927        1656231649.1544249        1099273898.8716247     
  -351670962.92668712        144244123.67932561        682716427.96383309     
  -277672987.19446528        285493449.84229922        786093276.54169261     
  -148918299.11126375        609265150.50852156        905291781.88541102     
   34593101.322924078        1115559225.6780567        1040311943.9949851     
   272861214.10811734        1804375675.3509207        1191153762.8704295     
  -4502869768.0540915        13283375.122324228        596940517.28534245     
  -4354848723.7002373        7097797.4851179123        587592094.97073472     
  -4205540231.6095033        5203712.3041870594        586770081.19965649     
  -4054944291.7818871        7601119.5795185566        594474475.97211099     
  -3903060904.2173877        14290019.311129808        610705279.28809631     
  -4874257912.7634211        4787460.6305596828        469692754.67886317     
  -4705851842.0583696        6574300.8826501369        463715191.03800529     
  -4536975148.3368645        9929884.5229244232        463052219.61085439     
  -4367627831.5989075        14854211.551375151        467703840.39740729     
  -4197809891.8444881        21347281.968015909        477670053.39766651     
  -5234356841.5702267       -321689.09044098854        343635669.30697417     
  -5054742362.5991974        6684583.6253764629        340076002.16603184     
  -4875474085.3321352        12536850.661286116        338619110.90896976     
  -4696552009.7690458        17235112.017301559        339264995.53579330     
  -4517976135.9099331        20779367.693393469        342013656.04649395     
  -5583166554.4745150       -2044074.0406944752        218769261.16966525     
  -5401520285.3227119        7428645.7132956982        216674528.35480773     
  -5221037042.5953178        13024610.719283581        213470755.09400830     
  -5041716826.2923164        14743820.977276087        209157941.38726908     
  -4863559636.4137163        12586276.487272501        203736087.23458067     
  -5920687051.4762812       -379694.22018527985        95093530.266936287     
  -5746185610.2289343        8806487.1464018822        93510769.604340583     
  -5573664020.1264076        11393164.696900845        87607152.165969580     
  -5403122281.1687050        7380338.4313297272        77382677.951833382     
  -5234560393.3558331       -3231991.6503419876        62837346.961926058     
  -3903060904.2173877        14290019.311129808        610705279.28809631     
  -3787213970.9441485        10222600.906671047        624560477.67434371     
  -3672618473.4399004        1983729.9389150143        638322093.49567652     
  -3559274411.7046371       -10426593.592125654        651990126.75208700     
  -3447181785.7383623       -27008369.686464310        665564577.44358540     
  -4197809891.8444881        21347281.968015909        477670053.39766651     
  -4080759949.6869106        11917627.098660231        482764165.61808562     
  -3964241504.8360858        716314.54012846947        490114691.03711760     
  -3848254557.2920079       -12256655.707563400        499721629.65476924     
  -3732799107.0546775       -27001283.644422054        511584981.47103816     
  -4517976135.9099331        20779367.693393469        342013656.04649395     
  -4393008911.2579203        8001758.4421644211        339186610.30702382     
  -4267853245.4504137       -4147713.6241037846        340965973.52970493     
  -4142509138.4874206       -15669048.505406857        347351745.71454191     
  -4016976590.3689437       -26562246.201768637        358343926.86152714     
  -4863559636.4137163        12586276.487272501        203736087.23458067     
  -4723960855.6571569       -1525005.0627827644        193827811.74116373     
  -4583453695.2828760       -12608354.553769827        190875940.97343832     
  -4442038155.2908735       -20663771.985675812        194880474.93139860     
  -4299714235.6811438       -25691257.358500242        205841413.61504695     
  -5234560393.3558331       -3231991.6503419876        62837346.961926058     
  -5073615782.8846455       -16662663.416228771        46687769.920514479     
  -4911042854.3334846       -24665608.248887777        39844593.368322626     
  -4746841607.7023621       -27240826.148344994        42307817.305352591     
  -4581012042.9912863       -24388317.114601851        54077441.731601961     
  -3447181785.7383623       -27008369.686464310        665564577.44358540     
  -3280253106.2849665       -26996204.895582199        648947345.78909063     
  -3111978623.0368147       -22498027.455506325        637340291.39381158     
  -2942358335.9939113       -13513837.366253972        630743414.25775576     
  -2771392245.1562500       -43634.627822279930        629156714.38091934     
  -3732799107.0546775       -27001283.644422054        511584981.47103816     
  -3551423955.1713691       -21828484.244752645        496571915.43264437     
  -3369423998.1729136       -14573001.127934456        486470427.55601984     
  -3186799236.0593100       -5234834.2939529419        481280517.84115559     
  -3003549668.8305645        6186016.2571665049        481002186.28806067     
  -4016976590.3689437       -26562246.201768637        358343926.86152714     
  -3821436677.7627234       -16313325.705410719        344093861.31302249     
  -3625992958.7209702       -6385050.4239435196        334656774.82883400     
  -3430645433.2436767        3222579.6426610947        330032667.40895277     
  -3235394101.3308592        12509564.494351149        330221539.05338693     
  -4299714235.6811438       -25691257.358500242        205841413.61504695     
  -4090291274.0590210       -10450729.277534246        191513183.43022582     
  -3881685504.6809907        2065824.6564586163        181899333.21226218     
  -3673896927.5470300        11858404.443553925        176999862.96114737     
  -3466925542.6571431        18927010.083734512        176814772.67690337     
  -4581012042.9912863       -24388317.114601851        54077441.731601961     
  -4357987744.0602903       -4240694.9611892700        38829881.784235001     
  -4136501636.0529799        10779624.113258362        28198102.706295822     
  -3916553718.9693375        20672640.108808994        22182104.497739919     
  -3698143992.8094068        25438353.025336742        20781887.158595789     
  -2771392245.1562500       -43634.627822279930        629156714.38091934     
  -2643794602.3798361        737116.92089068890        625110185.04803216     
  -2517331060.1705122       -2262466.7540284395        624345872.51893842     
  -2392001618.5282669       -9042385.6525464058        626863776.79363489     
  -2267806277.4531059       -19602639.774679303        632663897.87212110     
  -3003549668.8305645        6186016.2571665049        481002186.28806067     
  -2868598259.3209481        3341902.4553987980        476089923.86350328     
  -2734123644.1817274       -1091525.9143400192        474388695.66464847     
  -2600125823.4129176       -7114268.8521226645        475898501.69149917     
  -2466604797.0144906       -14726326.357849360        480619341.94404668     
  -3235394101.3308592        12509564.494351149        330221539.05338693     
  -3093292303.8825755        5979571.7037720680        325210400.76661897     
  -2951009994.6080074        51285.000818014145        323339114.12747002     
  -2808547173.5071583       -5275295.6145430803        324607679.13593054     
  -2665903840.5800300       -10000170.142285585        329016095.79200500     
  -3466925542.6571431        18927010.083734512        176814772.67690337     
  -3317876736.0647283        8650124.6659908295        172471615.75738582     
  -3167990111.4493461        1165965.9914773703        171197127.90739924     
  -3017265668.8110089       -3525465.9398525953        172991309.12693945     
  -2865703408.1497025       -5424171.1279553175        177854159.41601074     
  -3698143992.8094068        25438353.025336742        20781887.158595789     
  -3542351555.8674116        11353561.342037678        17873568.835801840     
  -3385063994.7057528        2252517.0575945377        17962737.004444223     
  -3226281309.3244581       -1864779.8280605078        21049391.664533190     
  -3066003499.7235126       -998329.31485950947        27133532.816048246     
  -2267806277.4531059       -19602639.774679303        632663897.87212110     
  -2124453453.0093427       -24953935.057932377        622169574.83967900     
  -1980321441.9578474       -27707941.648747921        613852007.09404695     
  -1835410244.2986286       -27864659.547152519        607711194.63522983     
  -1689719860.0316885       -25424088.753147900        603747137.46322525     
  -2466604797.0144906       -14726326.357849360        480619341.94404668     
  -2316676662.1230474       -17590639.867395043        470680669.39540219     
  -2166386714.3238573       -19248910.351138592        463049253.80269378     
  -2015734953.6169281       -19701137.809073806        457725095.16591930     
  -1864721380.0022485       -18947322.241177797        454708193.48507780     
  -2665903840.5800300       -10000170.142285585        329016095.79200500     
  -2509027533.3291240       -10265643.304596066        319146137.74385428     
  -2352206786.8704562       -10716319.107699513        311713938.32075858     
  -2195441601.2040310       -11352197.551609516        306719497.52270985     
  -2038731976.3298478       -12173278.636319399        304162815.34973019     
  -2865703408.1497025       -5424171.1279553175        177854159.41601074     
  -2701506066.6275611       -2978945.3694918156        167565979.88503012     
  -2537781659.5976577       -2110167.9184845686        159846060.64822653     
  -2374530187.0599575       -2817838.7748188972        154694401.70561311     
  -2211751649.0144796       -5101957.9385675192        152111003.05716795     
  -3066003499.7235126       -998329.31485950947        27133532.816048246     
  -2894112262.0183640        4269453.9379159212        15940195.818930913     
  -2723111332.5054283        6569543.2166265249        7445620.7851258097     
  -2553000711.1846828        5901938.5213755369        1649807.7145989856     
  -2383780398.0561585        2266639.8520636559       -1447243.3926066435     
  -1689719860.0316885       -25424088.753147900        603747137.46322525     
  -1549459756.2003338       -25407157.422321618        590562383.42593253     
  -1410502721.6135128       -29733790.239939988        576172537.86224067     
  -1272848756.2712278       -38403987.206017137        560577600.77214205     
  -1136497860.1734774       -51417748.320532918        543777572.15563905     
  -1864721380.0022485       -18947322.241177797        454708193.48507780     
  -1727580133.9154553       -22024524.290803432        441388812.57467145     
  -1590582669.5446231       -25580998.726968348        427589432.62880033     
  -1453728986.8897648       -29616745.549701452        413310053.64746720     
  -1317019085.9508481       -34131764.758938074        398550675.63067240     
  -2038731976.3298478       -12173278.636319399        304162815.34973019     
  -1902637895.1563532       -17723106.217008233        292061309.68286300     
  -1765528308.1702554       -19887914.422353506        280204897.47147900     
  -1627403215.3715436       -18667703.252325177        268593578.71557999     
  -1488262616.7602394       -14062472.706986248        257227353.41514847     
  -2211751649.0144796       -5101957.9385675192        152111003.05716795     
  -2074633039.9230328       -12502903.200972557        142579874.75052190     
  -1935339637.4903979       -12654537.326088309        134018932.39028342     
  -1793871441.7165935       -5556860.3139733076        126428175.97646779     
  -1650228452.6016216        8790127.8353734016        119807605.50907859     
  -2383780398.0561585        2266639.8520636559       -1447243.3926066435     
  -2243565568.2154765       -6363915.2426127195       -7055492.2223913074     
  -2100016657.5050740       -3880867.4382231236       -10968462.614799548     
  -1953133665.9248936        9715783.2654284239       -13186154.569854425     
  -1802916593.4749918        34426036.868149877       -13708568.087545691     
  -1136497860.1734774       -51417748.320532918        543777572.15563905     
  -951652103.47277844       -40372172.357221723        562227982.77105916     
  -759232368.36474884       -4080001.7028254271        591534595.61089778     
  -559238654.84938335        57458763.642701685        631697410.67515552     
  -351670962.92668712        144244123.67932561        682716427.96383309     
  -1317019085.9508481       -34131764.758938074        398550675.63067240     
  -1117470423.5107970       -14474349.299896121        420601857.88698959     
  -914269755.47480500        17356418.145612299        441119417.83475512     
  -707417081.84286797        61360537.577611804        460103355.47397637     
  -496912402.61499393        117538008.99605662        477553670.80464923     
  -1488262616.7602394       -14062472.706986248        257227353.41514847     
  -1309410547.2464483        3586932.6481345296        278303672.36573768     
  -1130828444.9480999        20336447.285083413        285456544.47480899     
  -952516309.86521029        36186071.203850865        278685969.74236590     
  -774474141.99776256        51135804.404479116        257991948.16840869     
  -1650228452.6016216        8790127.8353734016        119807605.50907859     
  -1527472474.6797080        13811673.486878574        135333426.20731217     
  -1408908436.7846348        4860085.7155833840        124545975.53106725     
  -1294536338.9164095       -18064635.478533685        87445253.480334252     
  -1184356181.0750201       -54962490.095446885        24031260.055117343     
  -1802916593.4749918        34426036.868149877       -13708568.087545691     
  -1771656205.8105831        16199873.216364622       -8308880.5882860832     
  -1748509730.9844069       -29072666.562884569       -41612288.996486627     
  -1733477168.9964664       -101391582.46957952       -113618793.31212892     
  -1726558519.8467708       -200756874.50374728       -224328393.53523102     
  -351670962.92668712        144244123.67932561        682716427.96383309     
  -277672987.19446528        285493449.84229922        786093276.54169261     
  -148918299.11126375        609265150.50852156        905291781.88541102     
   34593101.322924078        1115559225.6780567        1040311943.9949851     
   272861214.10811734        1804375675.3509207        1191153762.8704295     
  -496912402.61499393        117538008.99605662        477553670.80464923     
  -388116745.53601515        223233248.44424802        596874906.67769170     
  -230205748.11385018        492646289.03642976        735346722.21655273     
  -23179410.348465681        925777130.77266395        892969117.42122471     
   232962267.76011890        1522625773.6528652        1069742092.2917230     
  -774474141.99776256        51135804.404479116        257991948.16840869     
  -621369595.28646266        124130319.62353751        386675970.66089159     
  -424791080.23973709        342038062.62734705        537839495.71915007     
  -184738596.85758501        704859033.41591227        711482523.34317923     
   98787854.859961867        1212593231.9891489        907605053.53298163     
  -1184356181.0750201       -54962490.095446885        24031260.055117343     
  -977431536.44580293       -11815336.619825780        155496468.49128839     
  -732674295.48894954        157440471.28125376        312770102.39320099     
  -450084458.20445919        452804933.60778761        495852161.76082635     
  -129662024.59232521        874278050.35980022        704742646.59419155     
  -1726558519.8467708       -200756874.50374728       -224328393.53523102     
  -1456302569.0140474       -184603720.28587371       -96663599.831108540     
  -1153855393.8614659       -61146485.001817405        60138542.238691948     
  -819216994.38901782        169614831.34846073        246078032.67419204     
  -452387370.59675193        507680228.76480961        461154871.47535378     
 </DataArray>
 <DataArray  type="Float64" Name="VM" NumberOfComponents="1" format="ascii">
   5922787785.2332125     
   5752874328.5706158     
   5581432367.4934607     
   5408477255.2000027     
   5234076877.1194382     
   5594990525.4054127     
   5418251122.0535307     
   5240620988.1802225     
   5062084678.2016735     
   4882633550.9678555     
   5267927695.7891159     
   5092269403.1659546     
   4916860369.8828888     
   4741744989.6520395     
   4566983818.5233526     
   4944044932.7233009     
   4777145226.6721840     
   4612216943.1900282     
   4449439477.3442926     
   4289077022.6010947     
   4626536319.4984674     
   4475651912.0487032     
   4329131203.2041159     
   4187320457.5020919     
   4050771078.3562913     
   5234076877.1194382     
   5065950475.0970640     
   4899242727.8539476     
   4733847196.2063932     
   4569826690.6521187     
   4882633550.9678555     
   4735114815.4179535     
   4589086828.0569715     
   4444578257.3088932     
   4301726330.4898243     
   4566983818.5233526     
   4436089043.0306845     
   4306467249.0051785     
   4178238622.1354403     
   4051584571.2483902     
   4289077022.6010947     
   4171397921.9813981     
   4054465209.5226388     
   3938427568.4092245     
   3823465096.7965770     
   4050771078.3562913     
   3943607069.8281503     
   3836376040.0606341     
   3729169513.4470010     
   3622101256.1065202     
   4569826690.6521187     
   4356388118.7127600     
   4142189904.0873103     
   3927118780.2055440     
   3711103115.7810588     
   4301726330.4898243     
   4098521340.6076784     
   3895480394.6704159     
   3692588872.2919192     
   3489891088.6516747     
   4051584571.2483902     
   3859599164.8556166     
   3668882519.7996230     
   3479534254.2994876     
   3291738691.2512641     
   3823465096.7965770     
   3643530884.8069444     
   3466134475.5981364     
   3291493153.6436753     
   3119938809.8100748     
   3622101256.1065202     
   3454798514.8107591     
   3291430029.7529564     
   3132316138.5134454     
   2977920171.3435993     
   3711103115.7810588     
   3548177008.5607090     
   3386333739.9192533     
   3225555380.0673757     
   3065864692.1286087     
   3489891088.6516747     
   3335613923.6119285     
   3182417608.2647252     
   3030353983.3615589     
   2879520395.1750312     
   3291738691.2512641     
   3147105811.4960012     
   3003707021.3048792     
   2861688237.4189334     
   2721256799.5870905     
   3119938809.8100748     
   2986375486.2945924     
   2854397101.0388813     
   2724269635.3927827     
   2596346835.9466391     
   2977920171.3435993     
   2857251727.4216375     
   2738738519.8387976     
   2622784522.2974463     
   2509913417.2035537     
   3065864692.1286087     
   2896380946.9125943     
   2726432542.2912960     
   2555958387.5541062     
   2384915839.9410725     
   2879520395.1750312     
   2715572010.1850252     
   2551791006.9956431     
   2388200486.9230385     
   2224859630.0752354     
   2721256799.5870905     
   2564201732.6085553     
   2408169705.4737649     
   2253308709.2876983     
   2099834097.8777370     
   2596346835.9466391     
   2447686502.3458214     
   2301118236.9916539     
   2156942286.7657609     
   2015562439.8586340     
   2509913417.2035537     
   2371117162.2411289     
   2235623612.4074416     
   2103878033.8104475     
   1976454349.9138064     
   2384915839.9410725     
   2240423715.2311525     
   2098164923.6692622     
   1958142832.2621059     
   1820528614.2479122     
   2224859630.0752354     
   2083100257.2384665     
   1942959606.2405417     
   1804436082.6889305     
   1667602624.1437063     
   2099834097.8777370     
   1960235654.7552297     
   1821515138.5083227     
   1683697523.3278401     
   1546833037.3136914     
   2015562439.8586340     
   1879212947.2335432     
   1743105584.1569927     
   1607366165.1068203     
   1472168462.1699800     
   1976454349.9138064     
   1846184026.6074200     
   1715921560.0381155     
   1586025877.4496882     
   1457023385.3681495     
   1820528614.2479122     
   1779869618.9133089     
   1735653307.2006721     
   1696523222.1637383     
   1680969612.0737808     
   1667602624.1437063     
   1552225910.9300013     
   1427735660.5582004     
   1294490383.0979526     
   1158601647.5025311     
   1546833037.3136914     
   1397005516.2991035     
   1243639774.7367370     
   1084464006.9762642     
   917446434.39912951     
   1472168462.1699800     
   1327965647.2909327     
   1198256190.3141515     
   1087518655.4140120     
   1001656496.5909971     
   1457023385.3681495     
   1348017908.8254011     
   1274006394.8100028     
   1243103936.0071905     
   1262343242.8317006     
   1680969612.0737808     
   1383505832.3473334     
   1129343567.6345463     
   1010198110.3174460     
   1153279289.1986852     
   1158601647.5025311     
   1008216634.6764365     
   985102594.70343781     
   1161471863.4632468     
   1544189627.7498701     
   917446434.39912951     
   962909255.51316476     
   1144790891.3256204     
   1476411669.4551513     
   1957445453.2174752     
   1001656496.5909971     
   1164425701.3598704     
   1425240142.6684120     
   1808657259.4614530     
   2334735690.3643546     
   1262343242.8317006     
   1446274708.3666849     
   1715450681.9664984     
   2110408784.2569470     
   2663535722.1080036     
   4626536319.4984674     
   4475651912.0487032     
   4329131203.2041159     
   4187320457.5020919     
   4050771078.3562913     
   4335669326.4446163     
   4205496533.5065517     
   4079257604.7580218     
   3957240032.1431723     
   3839851359.5381269     
   4077256452.2462392     
   3963465813.3410134     
   3852702897.3313541     
   3745192436.4045730     
   3641220605.3909545     
   3855331742.7928796     
   3754272758.6636882     
   3654835385.2302241     
   3557166575.9899430     
   3461443145.4665289     
   3673941383.9766235     
   3582929376.4363914     
   3491660764.1281533     
   3400174310.4626060     
   3308532382.5013514     
   4050771078.3562913     
   3943607069.8281503     
   3836376040.0606341     
   3729169513.4470010     
   3622101256.1065202     
   3839851359.5381269     
   3736613889.3081431     
   3634725642.6225562     
   3534409587.7427688     
   3435924595.5754118     
   3641220605.3909545     
   3545106193.2262897     
   3452182103.6775765     
   3362801199.2968540     
   3277375618.2322459     
   3461443145.4665289     
   3374873448.3579259     
   3293767777.3255887     
   3218570219.0805540     
   3149808504.4415822     
   3308532382.5013514     
   3232736489.8331671     
   3165108423.8370237     
   3106103024.7409616     
   3056276908.8125453     
   3622101256.1065202     
   3454798514.8107591     
   3291430029.7529564     
   3132316138.5134454     
   2977920171.3435993     
   3435924595.5754118     
   3283003974.6613870     
   3134608968.0432463     
   2991144016.2406092     
   2853157225.9943972     
   3277375618.2322459     
   3139681438.9816999     
   3007210513.9217548     
   2880445817.3974557     
   2760011010.3188071     
   3149808504.4415822     
   3028234218.6055670     
   2912650534.2689891     
   2803597644.3218865     
   2701747055.5095329     
   3056276908.8125453     
   2951626318.5353179     
   2853742789.4791670     
   2763186743.7593966     
   2680634357.7896166     
   2977920171.3435993     
   2857251727.4216375     
   2738738519.8387976     
   2622784522.2974463     
   2509913417.2035537     
   2853157225.9943972     
   2745347731.1356297     
   2640851479.7261634     
   2540166377.0220480     
   2443901659.6561756     
   2760011010.3188071     
   2665822701.0219588     
   2576073906.0958619     
   2491304904.3244519     
   2412144114.1581101     
   2701747055.5095329     
   2621463415.9768963     
   2546604277.0002484     
   2477688494.1060991     
   2415290894.8041010     
   2680634357.7896166     
   2613899116.6446042     
   2553338786.8982153     
   2499392804.2089152     
   2452525609.3213968     
   2509913417.2035537     
   2371117162.2411289     
   2235623612.4074416     
   2103878033.8104475     
   1976454349.9138064     
   2443901659.6561756     
   2317283135.9325848     
   2195456571.8709149     
   2079095640.7392397     
   1969030560.3767214     
   2412144114.1581101     
   2300270191.8383203     
   2194853002.1789980     
   2096725968.0301414     
   2006865343.1196840     
   2415290894.8041010     
   2319942529.6699328     
   2232668923.1454005     
   2154344372.5662904     
   2085937858.6746054     
   2452525609.3213968     
   2374473116.9759989     
   2305892662.2088275     
   2247583401.2282858     
   2200384238.8836741     
   1976454349.9138064     
   1846184026.6074200     
   1715921560.0381155     
   1586025877.4496882     
   1457023385.3681495     
   1969030560.3767214     
   1853518401.8531291     
   1742349312.8435161     
   1636447459.0393949     
   1536947557.2201014     
   2006865343.1196840     
   1911157254.6721542     
   1824173399.0099077     
   1747105585.0945189     
   1681234592.6344407     
   2085937858.6746054     
   2011518251.0131974     
   1949364883.8437142     
   1900540474.2996509     
   1866056846.5912113     
   2200384238.8836741     
   2145726323.1503057     
   2105864691.7933581     
   2081546900.7476377     
   2073434650.1705112     
   1457023385.3681495     
   1348017908.8254011     
   1274006394.8100028     
   1243103936.0071905     
   1262343242.8317006     
   1536947557.2201014     
   1475917184.5324187     
   1447598991.4486856     
   1455961614.3853297     
   1504306120.6114535     
   1681234592.6344407     
   1652432535.6722262     
   1651397309.8628089     
   1680504935.5214872     
   1742371507.6898437     
   1866056846.5912113     
   1855134161.1507022     
   1867264983.0107095     
   1904664295.3569076     
   1970365745.8328261     
   2073434650.1705112     
   2069438210.9398918     
   2084802333.1016209     
   2122160728.9136896     
   2185319713.0242324     
   1262343242.8317006     
   1446274708.3666849     
   1715450681.9664984     
   2110408784.2569470     
   2663535722.1080036     
   1504306120.6114535     
   1612902578.2145090     
   1788706727.1650078     
   2066439029.5593560     
   2476269799.9530096     
   1742371507.6898437     
   1787400888.9968956     
   1884571736.7216308     
   2060779248.8624442     
   2341237488.1399846     
   1970365745.8328261     
   1968726380.6736929     
   2003610297.9384336     
   2093694388.5740533     
   2257644559.1839290     
   2185319713.0242324     
   2156162674.7801790     
   2146562977.4346383     
   2167061658.6700244     
   2228754543.4374099     
   3673941383.9766235     
   3582929376.4363914     
   3491660764.1281533     
   3400174310.4626060     
   3308532382.5013514     
   3441166442.1683784     
   3354974919.9146814     
   3271495401.7571111     
   3190947231.8168378     
   3113586981.5490026     
   3228186051.5617108     
   3150815554.1228719     
   3079520708.6251836     
   3014689305.4223537     
   2956761943.1829448     
   3042754760.9076490     
   2976868786.9047494     
   2920742375.7505422     
   2874846824.5125484     
   2839711460.7499270     
   2894062926.7788420     
   2840304600.6922755     
   2800234971.3968697     
   2774270458.1004896     
   2762881113.7931519     
   3308532382.5013514     
   3232736489.8331671     
   3165108423.8370237     
   3106103024.7409616     
   3056276908.8125453     
   3113586981.5490026     
   3058207366.6656151     
   3010318429.0453105     
   2970272821.5946326     
   2938477260.6507096     
   2956761943.1829448     
   2919911545.5585413     
   2889547397.6734710     
   2865920595.4767814     
   2849304523.9531832     
   2839711460.7499270     
   2819685000.6989508     
   2804815330.8117452     
   2795262549.2598853     
   2791192285.1193404     
   2762881113.7931519     
   2758210675.4267211     
   2757080499.0239887     
   2759577144.4869070     
   2765787630.9615312     
   3056276908.8125453     
   2951626318.5353179     
   2853742789.4791670     
   2763186743.7593966     
   2680634357.7896166     
   2938477260.6507096     
   2849547443.5369191     
   2768209666.1303320     
   2694985481.7752109     
   2630478682.6964822     
   2849304523.9531832     
   2775255979.0883479     
   2709470333.9927411     
   2652389684.9641037     
   2604505535.0889444     
   2791192285.1193404     
   2730643938.3671765     
   2678843092.2726336     
   2636126346.5809326     
   2602853558.4627481     
   2765787630.9615312     
   2716799570.3272018     
   2676854715.1742349     
   2646177873.6657333     
   2625000680.4491820     
   2680634357.7896166     
   2613899116.6446042     
   2553338786.8982153     
   2499392804.2089152     
   2452525609.3213968     
   2630478682.6964822     
   2576759483.3338885     
   2530215576.4489627     
   2491266907.7017207     
   2460342820.7955656     
   2604505535.0889444     
   2563868492.8751993     
   2531314226.0990734     
   2507204229.4505272     
   2491896002.9513326     
   2602853558.4627481     
   2574696566.3072901     
   2555427930.2546020     
   2545326862.7441759     
   2544661583.2743917     
   2625000680.4491820     
   2608080139.5268841     
   2600782022.4573569     
   2603297330.2019033     
   2615806195.4494562     
   2452525609.3213968     
   2374473116.9759989     
   2305892662.2088275     
   2247583401.2282858     
   2200384238.8836741     
   2460342820.7955656     
   2400495684.1270885     
   2350573866.7798500     
   2311182502.6772213     
   2282918629.6000357     
   2491896002.9513326     
   2448586238.8734488     
   2415341695.6042714     
   2392574594.6840343     
   2380667648.0677047     
   2544661583.2743917     
   2515786688.4922700     
   2496895792.6842418     
   2488239520.8767333     
   2490036814.8877959     
   2615806195.4494562     
   2599027858.6037431     
   2592035134.3033652     
   2594960165.3531995     
   2607911336.3558903     
   2200384238.8836741     
   2145726323.1503057     
   2105864691.7933581     
   2081546900.7476377     
   2073434650.1705112     
   2282918629.6000357     
   2242658993.7838278     
   2216253118.4267550     
   2204144954.7399292     
   2206717823.2006392     
   2380667648.0677047     
   2351965398.6190357     
   2336154704.5937452     
   2333486759.7436643     
   2344183224.6908526     
   2490036814.8877959     
   2470321200.4244990     
   2462629881.8080134     
   2467102665.3485551     
   2483875814.4409032     
   2607911336.3558903     
   2594955418.8987508     
   2593312975.5024219     
   2603066668.8919730     
   2624313614.8426023     
   2073434650.1705112     
   2069438210.9398918     
   2084802333.1016209     
   2122160728.9136896     
   2185319713.0242324     
   2206717823.2006392     
   2192065583.7310309     
   2192477155.0005255     
   2209921168.5087795     
   2247313407.9251399     
   2344183224.6908526     
   2319641412.2955737     
   2306655858.5708609     
   2306631038.7401056     
   2321653468.9115715     
   2483875814.4409032     
   2451176762.9555383     
   2427014691.1822419     
   2412334504.7344499     
   2408513173.3427830     
   2624313614.8426023     
   2585879611.7447720     
   2553265618.6551785     
   2527053494.0595560     
   2508053648.8622594     
   2185319713.0242324     
   2156162674.7801790     
   2146562977.4346383     
   2167061658.6700244     
   2228754543.4374099     
   2247313407.9251399     
   2182688239.1279278     
   2134488930.7095923     
   2112396650.8611288     
   2127365432.1910541     
   2321653468.9115715     
   2224910295.1826158     
   2141511037.5063000     
   2079832184.8361299     
   2050059984.1372998     
   2408513173.3427830     
   2283124271.3411574     
   2168277087.5263739     
   2070719867.9036477     
   1999230810.9887257     
   2508053648.8622594     
   2357541517.2865100     
   2215258642.4416308     
   2086191276.5610058     
   1977221709.2310429     
   2894062926.7788420     
   2840304600.6922755     
   2800234971.3968697     
   2774270458.1004896     
   2762881113.7931519     
   2762709285.6585031     
   2725007070.9800663     
   2699337797.4176412     
   2685894835.8676605     
   2684891543.5853000     
   2683578299.0512218     
   2657259319.9620805     
   2641001938.1349497     
   2634870312.2826686     
   2638934085.1274920     
   2658646819.7329855     
   2639564810.1240282     
   2628325621.5776572     
   2624939700.0042129     
   2629418264.9358497     
   2686812631.5674849     
   2671786382.7638683     
   2662227698.4848008     
   2658136578.7302766     
   2659513023.5002975     
   2762881113.7931519     
   2758210675.4267211     
   2757080499.0239887     
   2759577144.4869070     
   2765787630.9615312     
   2684891543.5853000     
   2683135149.3567567     
   2686199272.4837718     
   2694155513.9751945     
   2707074936.1020150     
   2638934085.1274920     
   2638859506.0810647     
   2644920486.3464532     
   2657160522.9618673     
   2675622421.9832368     
   2629418264.9358497     
   2628926524.5232978     
   2635908067.2789106     
   2650376863.7662816     
   2672346619.4024763     
   2659513023.5002975     
   2655736464.9783611     
   2660777783.1810188     
   2674636978.1082726     
   2697314049.7601204     
   2765787630.9615312     
   2716799570.3272018     
   2676854715.1742349     
   2646177873.6657333     
   2625000680.4491820     
   2707074936.1020150     
   2667115276.0128627     
   2636706259.9132361     
   2615989485.1428032     
   2605107657.5892706     
   2675622421.9832368     
   2642619528.5167475     
   2619627961.9680257     
   2606716371.7250819     
   2603952657.6102180     
   2672346619.4024763     
   2643755380.8496814     
   2625619768.6963348     
   2617958083.7332101     
   2620788176.3398690     
   2697314049.7601204     
   2670245220.7240605     
   2654090905.7270293     
   2648851104.7690167     
   2654525817.8500185     
   2625000680.4491820     
   2608080139.5268841     
   2600782022.4573569     
   2603297330.2019033     
   2615806195.4494562     
   2605107657.5892706     
   2597591033.1993256     
   2599063013.1938391     
   2609621068.7356997     
   2629355353.6250858     
   2603952657.6102180     
   2603424898.0760784     
   2611259813.6799574     
   2627496131.6965175     
   2652169177.6740603     
   2620788176.3398690     
   2624897018.3007421     
   2636781190.5427289     
   2656449260.8156300     
   2683908981.2813916     
   2654525817.8500185     
   2661074429.2037358     
   2674865461.1823769     
   2695898913.7859383     
   2724174787.0144272     
   2615806195.4494562     
   2599027858.6037431     
   2592035134.3033652     
   2594960165.3531995     
   2607911336.3558903     
   2629355353.6250858     
   2618293999.8897276     
   2617115615.0516324     
   2625895657.4412031     
   2644694366.6229620     
   2652169177.6740603     
   2645300044.3177981     
   2648494974.5455694     
   2661788138.1517510     
   2685206193.5479593     
   2683908981.2813916     
   2679581801.0266438     
   2685616699.4640145     
   2702022444.2423506     
   2728805755.0292335     
   2724174787.0144272     
   2720648842.9010606     
   2727926848.8369546     
   2746008804.8220911     
   2774894710.8564878     
   2607911336.3558903     
   2594955418.8987508     
   2593312975.5024219     
   2603066668.8919730     
   2624313614.8426023     
   2644694366.6229620     
   2633795253.9758811     
   2633252720.3884311     
   2643106845.4114032     
   2663407726.7499280     
   2685206193.5479593     
   2676000351.0887680     
   2676378469.5943098     
   2686355801.4323092     
   2705952723.0045643     
   2728805755.0292335     
   2721109128.5828776     
   2722384651.3961263     
   2732635553.3525882     
   2751866477.5246110     
   2774894710.8564878     
   2768686503.3178358     
   2770978498.5937858     
   2781770696.6843472     
   2801063097.5894966     
   2624313614.8426023     
   2585879611.7447720     
   2553265618.6551785     
   2527053494.0595560     
   2508053648.8622594     
   2663407726.7499280     
   2617877757.6525111     
   2577992111.5458541     
   2544082237.3448601     
   2516611924.8161850     
   2705952723.0045643     
   2655433089.4840865     
   2610523870.7262225     
   2571372876.5371995     
   2538187401.6562271     
   2751866477.5246110     
   2698462680.7776723     
   2650777792.7583766     
   2608848563.7630887     
   2572726522.7218328     
   2801063097.5894966     
   2746874142.6700287     
   2698655722.5447950     
   2656407837.2137976     
   2620130486.6770492     
   2508053648.8622594     
   2357541517.2865100     
   2215258642.4416308     
   2086191276.5610058     
   1977221709.2310429     
   2516611924.8161850     
   2348597552.7041297     
   2184173964.2521162     
   2026445237.2072175     
   1879981696.2166660     
   2538187401.6562271     
   2357764074.3609953     
   2177088455.0046663     
   1997634237.8848231     
   1821682731.6990070     
   2572726522.7218328     
   2385143373.7465878     
   2194469220.1554785     
   2001082895.5109730     
   1805589332.4595351     
   2620130486.6770492     
   2430702633.2940454     
   2236458306.2214055     
   2037397505.4591229     
   1833520231.0071969     
   2686812631.5674849     
   2671786382.7638683     
   2662227698.4848008     
   2658136578.7302766     
   2659513023.5002975     
   2658646783.7879519     
   2639564786.4936385     
   2628325607.5182738     
   2624939692.7911987     
   2629418261.8588014     
   2683578224.1520381     
   2657259269.6296329     
   2641001906.9862261     
   2634870294.9748578     
   2638934076.3368869     
   2762709162.9682474     
   2725006986.3319030     
   2699337743.0214596     
   2685894803.9410758     
   2684891526.2944942     
   2894062742.6576424     
   2840304470.4514360     
   2800234885.1597195     
   2774270405.8623972     
   2762881085.2869921     
   2659513023.5002975     
   2655736464.9783611     
   2660777783.1810188     
   2674636978.1082726     
   2697314049.7601204     
   2629418261.8588014     
   2628926520.8303919     
   2635908062.8174677     
   2650376858.3906784     
   2672346612.9761853     
   2638934076.3368869     
   2638859496.8007169     
   2644920476.3484592     
   2657160512.0248227     
   2675622409.8933911     
   2684891526.2944942     
   2683135132.4207854     
   2686199255.6864467     
   2694155497.0978618     
   2707074918.9213791     
   2762881085.2869921     
   2758210648.7489009     
   2757080474.0651197     
   2759577121.1188946     
   2765787609.0300522     
   2697314049.7601204     
   2670245220.7240605     
   2654090905.7270293     
   2648851104.7690167     
   2654525817.8500185     
   2672346612.9761853     
   2643755375.5408578     
   2625619764.3133812     
   2617958080.0863953     
   2620788173.2396989     
   2675622409.8933911     
   2642619518.3949103     
   2619627953.4032393     
   2606716364.3102899     
   2603952650.9396639     
   2707074918.9213791     
   2667115261.4880171     
   2636706247.3858991     
   2615989473.9575114     
   2605107647.0906339     
   2765787609.0300522     
   2716799551.6944795     
   2676854698.9082098     
   2646177858.8300896     
   2625000666.1007609     
   2654525817.8500185     
   2661074429.2037358     
   2674865461.1823769     
   2695898913.7859383     
   2724174787.0144272     
   2620788173.2396989     
   2624897015.2328048     
   2636781187.6728959     
   2656449258.3075042     
   2683908979.2961969     
   2603952650.9396639     
   2603424891.6474237     
   2611259807.8455839     
   2627496126.8024497     
   2652169174.0589685     
   2605107647.0906339     
   2597591023.2412019     
   2599063004.3412681     
   2609621061.5442104     
   2629355348.6374393     
   2625000666.1007609     
   2608080126.0096893     
   2600782010.5798182     
   2603297320.7644091     
   2615806189.2370982     
   2724174787.0144272     
   2720648842.9010606     
   2727926848.8369546     
   2746008804.8220911     
   2774894710.8564878     
   2683908979.2961969     
   2679581799.6246891     
   2685616698.6083460     
   2702022443.8949213     
   2728805755.1512303     
   2652169174.0589685     
   2645300041.7346354     
   2648494972.9142437     
   2661788137.3914537     
   2685206193.5776138     
   2629355348.6374393     
   2618293996.2595882     
   2617115612.6497912     
   2625895656.1392651     
   2644694366.2937155     
   2615806189.2370982     
   2599027853.9662046     
   2592035131.0557404     
   2594960163.3138275     
   2607911335.3464675     
   2774894710.8564878     
   2768686503.3178358     
   2770978498.5937858     
   2781770696.6843472     
   2801063097.5894966     
   2728805755.1512303     
   2721109128.7294097     
   2722384651.5115118     
   2732635553.3818898     
   2751866477.4126921     
   2685206193.5776138     
   2676000351.2554321     
   2676378469.7862792     
   2686355801.5386143     
   2705952722.9140878     
   2644694366.2937155     
   2633795253.9986558     
   2633252720.5935621     
   2643106845.6287665     
   2663407726.8089800     
   2607911335.3464675     
   2594955418.5735369     
   2593312975.6306882     
   2603066669.2393608     
   2624313615.1732907     
   2801063097.5894966     
   2746874142.6700287     
   2698655722.5447950     
   2656407837.2137976     
   2620130486.6770492     
   2751866477.4126921     
   2698462680.7810793     
   2650777792.8599205     
   2608848563.9453435     
   2572726522.9679346     
   2705952722.9140878     
   2655433089.5884829     
   2610523870.9908061     
   2571372876.9266286     
   2538187402.1350389     
   2663407726.8089800     
   2617877757.9522972     
   2577992112.0335479     
   2544082237.9663191     
   2516611925.5152326     
   2624313615.1732907     
   2585879612.3306975     
   2553265619.4243212     
   2527053494.9376340     
   2508053649.7699823     
   2620130486.6770492     
   2430702633.2940454     
   2236458306.2214055     
   2037397505.4591229     
   1833520231.0071969     
   2572726522.9679346     
   2385143373.8783498     
   2194469220.1590581     
   2001082895.3623257     
   1805589332.1177814     
   2538187402.1350389     
   2357764074.6187987     
   2177088455.0148706     
   1997634237.6027949     
   1821682731.0523567     
   2516611925.5152326     
   2348597553.0838566     
   2184173964.2755513     
   2026445236.8153501     
   1879981695.3205280     
   2508053649.7699823     
   2357541517.7857294     
   2215258642.4881511     
   2086191276.0890408     
   1977221708.1506534     
   2894062742.6576424     
   2840304470.4514360     
   2800234885.1597195     
   2774270405.8623972     
   2762881085.2869921     
   3042754595.3887272     
   2976868670.1563067     
   2920742300.5390878     
   2874846783.3254790     
   2839711445.7084684     
   3228185916.8799291     
   3150815461.9804339     
   3079520653.4902000     
   3014689281.4031582     
   2956761944.0260510     
   3441166355.2112498     
   3354974866.9929252     
   3271495378.2614837     
   3190947232.7747135     
   3113587001.7200489     
   3673941364.4534216     
   3582929379.4393096     
   3491660785.3419375     
   3400174345.2830133     
   3308532426.2216835     
   2762881085.2869921     
   2758210648.7489009     
   2757080474.0651197     
   2759577121.1188946     
   2765787609.0300522     
   2839711445.7084684     
   2819684984.9499598     
   2804815314.9832664     
   2795262533.9783831     
   2791192271.0066409     
   2956761944.0260510     
   2919911542.5908117     
   2889547392.1255403     
   2865920588.6066022     
   2849304517.0527306     
   3113587001.7200489     
   3058207379.1697154     
   3010318435.5677657     
   2970272823.8848538     
   2938477260.5470977     
   3308532426.2216835     
   3232736521.1385179     
   3165108444.7224565     
   3106103037.3039613     
   3056276915.3058796     
   2765787609.0300522     
   2716799551.6944795     
   2676854698.9082098     
   2646177858.8300896     
   2625000666.1007609     
   2791192271.0066409     
   2730643926.9860458     
   2678843082.9616570     
   2636126338.6641397     
   2602853551.2462320     
   2849304517.0527306     
   2775255974.6664329     
   2709470331.6588025     
   2652389684.3053193     
   2604505535.6648259     
   2938477260.5470977     
   2849547445.8185492     
   2768209670.6794648     
   2694985488.4506145     
   2630478691.3255029     
   3056276915.3058796     
   2951626327.3256955     
   2853742800.7200270     
   2763186757.5879807     
   2680634374.3175950     
   2625000666.1007609     
   2608080126.0096893     
   2600782010.5798182     
   2603297320.7644091     
   2615806189.2370982     
   2602853551.2462320     
   2574696560.2008829     
   2555427925.7096796     
   2545326860.2118058     
   2544661583.1993346     
   2604505535.6648259     
   2563868494.6316004     
   2531314229.1033273     
   2507204233.7712150     
   2491896008.6541457     
   2630478691.3255029     
   2576759493.2188420     
   2530215587.2454586     
   2491266919.0576468     
   2460342832.3481984     
   2680634374.3175950     
   2613899134.7120399     
   2553338805.7340975     
   2499392823.0139565     
   2452525627.2639737     
   2615806189.2370982     
   2599027853.9662046     
   2592035131.0557404     
   2594960163.3138275     
   2607911335.3464675     
   2544661583.1993346     
   2515786688.4803958     
   2496895792.7749448     
   2488239521.1120553     
   2490036815.3137569     
   2491896008.6541457     
   2448586243.1804657     
   2415341698.7793579     
   2392574596.9991221     
   2380667649.8048620     
   2460342832.3481984     
   2400495692.8016233     
   2350573873.0597444     
   2311182507.0672598     
   2282918632.6299081     
   2452525627.2639737     
   2374473130.4644585     
   2305892671.9321437     
   2247583407.9178429     
   2200384243.3209500     
   2607911335.3464675     
   2594955418.5735369     
   2593312975.6306882     
   2603066669.2393608     
   2624313615.1732907     
   2490036815.3137569     
   2470321201.2576985     
   2462629882.8907666     
   2467102666.5159030     
   2483875815.5243459     
   2380667649.8048620     
   2351965400.5297771     
   2336154706.5926886     
   2333486761.7344618     
   2344183226.5714540     
   2282918632.6299081     
   2242658996.7716861     
   2216253121.3610196     
   2204144957.5952935     
   2206717825.9444733     
   2200384243.3209500     
   2145726327.3188138     
   2105864695.7578559     
   2081546904.5588431     
   2073434653.8723838     
   2624313615.1732907     
   2585879612.3306975     
   2553265619.4243212     
   2527053494.9376340     
   2508053649.7699823     
   2483875815.5243459     
   2451176764.0959268     
   2427014692.3444057     
   2412334505.8805346     
   2408513174.4274974     
   2344183226.5714540     
   2319641414.0207806     
   2306655860.1413293     
   2306631040.1542110     
   2321653470.1578660     
   2206717825.9444733     
   2192065586.0867357     
   2192477157.0037866     
   2209921170.1949377     
   2247313409.3184471     
   2073434653.8723838     
   2069438213.9915197     
   2084802335.5730417     
   2122160730.8800776     
   2185319714.5507169     
   2508053649.7699823     
   2357541517.7857294     
   2215258642.4881511     
   2086191276.0890408     
   1977221708.1506534     
   2408513174.4274974     
   2283124271.9528036     
   2168277087.6151185     
   2070719867.4067056     
   1999230809.8360329     
   2321653470.1578660     
   2224910295.9149718     
   2141511037.6735024     
   2079832184.3862753     
   2050059983.0303211     
   2247313409.3184471     
   2182688239.9905400     
   2134488930.9928019     
   2112396650.5293741     
   2127365431.2384791     
   2185319714.5507169     
   2156162675.7835722     
   2146562977.8716848     
   2167061658.5243392     
   2228754542.7363110     
   3673941364.4534216     
   3582929379.4393096     
   3491660785.3419375     
   3400174345.2830133     
   3308532426.2216835     
   3855331762.8282318     
   3754272785.5067315     
   3654835417.9179201     
   3557166613.4350224     
   3461443186.5547757     
   4077256512.2093158     
   3963465863.2468228     
   3852702939.4388371     
   3745192472.8498836     
   3641220638.2932377     
   4335669433.1752529     
   4205496610.1773529     
   4079257656.4911675     
   3957240063.8837333     
   3839851376.2718682     
   4626536485.0930185     
   4475652022.8429470     
   4329131266.7012072     
   4187320481.0081639     
   4050771069.4171553     
   3308532426.2216835     
   3232736521.1385179     
   3165108444.7224565     
   3106103037.3039613     
   3056276915.3058796     
   3461443186.5547757     
   3374873479.2516942     
   3293767798.4323688     
   3218570230.8731694     
   3149808507.4772172     
   3641220638.2932377     
   3545106219.6113210     
   3452182122.8071189     
   3362801210.4007010     
   3277375620.4967628     
   3839851376.2718682     
   3736613905.3382134     
   3634725656.4531488     
   3534409597.7303262     
   3435924599.9019547     
   4050771069.4171553     
   3943607068.5446577     
   3836376044.5230837     
   3729169521.4943285     
   3622101265.3095098     
   3056276915.3058796     
   2951626327.3256955     
   2853742800.7200270     
   2763186757.5879807     
   2680634374.3175950     
   3149808507.4772172     
   3028234223.3468828     
   2912650541.0701637     
   2803597653.5428987     
   2701747067.5163727     
   3277375620.4967628     
   3139681441.9693999     
   3007210518.1207185     
   2880445823.3217092     
   2760011018.5206389     
   3435924599.9019547     
   3283003978.3119354     
   3134608971.5733228     
   2991144020.2458873     
   2853157231.1354499     
   3622101265.3095098     
   3454798521.5095272     
   3291430034.5104275     
   3132316141.9396906     
   2977920174.1314011     
   2680634374.3175950     
   2613899134.7120399     
   2553338805.7340975     
   2499392823.0139565     
   2452525627.2639737     
   2701747067.5163727     
   2621463429.9321189     
   2546604292.3839674     
   2477688510.3749118     
   2415290911.3878193     
   2760011018.5206389     
   2665822711.3863893     
   2576073918.3260756     
   2491304918.1146536     
   2412144129.1936293     
   2853157231.1354499     
   2745347738.3521919     
   2640851488.9002686     
   2540166388.0463161     
   2443901672.4405255     
   2977920174.1314011     
   2857251731.8225989     
   2738738525.8576245     
   2622784529.9665451     
   2509913426.5982995     
   2452525627.2639737     
   2374473130.4644585     
   2305892671.9321437     
   2247583407.9178429     
   2200384243.3209500     
   2415290911.3878193     
   2319942542.4992385     
   2232668932.6048450     
   2154344379.0730548     
   2085937862.6872213     
   2412144129.1936293     
   2300270203.9398642     
   2194853011.4692183     
   2096725974.6419425     
   2006865347.2011633     
   2443901672.4405255     
   2317283146.8235550     
   2195456580.7900200     
   2079095647.5909724     
   1969030565.0446262     
   2509913426.5982995     
   2371117171.0707932     
   2235623620.4667940     
   2103878040.8560348     
   1976454355.6505802     
   2200384243.3209500     
   2145726327.3188138     
   2105864695.7578559     
   2081546904.5588431     
   2073434653.8723838     
   2085937862.6872213     
   2011518254.8195992     
   1949364887.5504293     
   1900540478.0096462     
   1866056850.4056487     
   2006865347.2011633     
   1911157258.4481471     
   1824173402.6174121     
   1747105588.6830356     
   1681234596.3664839     
   1969030565.0446262     
   1853518405.9718726     
   1742349316.5545216     
   1636447462.5115194     
   1536947560.6554596     
   1976454355.6505802     
   1846184031.4390388     
   1715921564.0767746     
   1586025880.8373365     
   1457023388.2880764     
   2073434653.8723838     
   2069438213.9915197     
   2084802335.5730417     
   2122160730.8800776     
   2185319714.5507169     
   1866056850.4056487     
   1855134164.3051279     
   1867264985.5424471     
   1904664297.3131306     
   1970365747.2644377     
   1681234596.3664839     
   1652432538.7916687     
   1651397312.3777785     
   1680504937.4508076     
   1742371509.0675385     
   1536947560.6554596     
   1475917187.4630780     
   1447598993.8626363     
   1455961616.2719822     
   1504306121.9805930     
   1457023388.2880764     
   1348017911.3913629     
   1274006397.0186796     
   1243103937.8294306     
   1262343244.2437007     
   2185319714.5507169     
   2156162675.7835722     
   2146562977.8716848     
   2167061658.5243392     
   2228754542.7363110     
   1970365747.2644377     
   1968726381.6224599     
   2003610298.3616223     
   2093694388.4633095     
   2257644558.5862250     
   1742371509.0675385     
   1787400889.9296710     
   1884571737.1734645     
   2060779248.8397217     
   2341237487.7072988     
   1504306121.9805930     
   1612902579.1725054     
   1788706727.6855667     
   2066439029.6663101     
   2476269799.7226434     
   1262343244.2437007     
   1446274709.3946853     
   1715450682.5915015     
   2110408784.5213389     
   2663535722.0957994     
   4626536485.0930185     
   4475652022.8429470     
   4329131266.7012072     
   4187320481.0081639     
   4050771069.4171553     
   4944045134.2165270     
   4777145361.1914883     
   4612217017.0969772     
   4449439497.0281239     
   4289076994.6065288     
   5267927887.9409180     
   5092269527.9893017     
   4916860433.9251738     
   4741744999.5885553     
   4566983781.1074286     
   5594990662.7554617     
   5418251204.1945839     
   5240621022.8854399     
   5062084673.3749065     
   4882633514.5421009     
   5922787822.7680511     
   5752874335.7760944     
   5581432354.2377424     
   5408477231.3673410     
   5234076852.5590744     
   4050771069.4171553     
   3943607068.5446577     
   3836376044.5230837     
   3729169521.4943285     
   3622101265.3095098     
   4289076994.6065288     
   4171397906.0955906     
   4054465204.7727966     
   3938427573.7378373     
   3823465111.0307755     
   4566983781.1074286     
   4436089019.4524422     
   4306467238.9898996     
   4178238625.3851786     
   4051584587.4263678     
   4882633514.5421009     
   4735114791.5349817     
   4589086816.8583794     
   4444578258.8979664     
   4301726344.9577980     
   5234076852.5590744     
   5065950458.5196323     
   4899242719.5489960     
   4733847196.3562441     
   4569826699.4214668     
   3622101265.3095098     
   3454798521.5095272     
   3291430034.5104275     
   3132316141.9396906     
   2977920174.1314011     
   3823465111.0307755     
   3643530896.2360830     
   3466134484.2286725     
   3291493159.5052381     
   3119938812.9659853     
   4051584587.4263678     
   3859599178.8965273     
   3668882531.3031192     
   3479534262.8663406     
   3291738696.4748526     
   4301726344.9577980     
   4098521354.8177457     
   3895480407.9568172     
   3692588883.9824872     
   3489891098.0509152     
   4569826699.4214668     
   4356388130.4774046     
   4142189918.0426574     
   3927118795.5548954     
   3711103131.7232585     
   2977920174.1314011     
   2857251731.8225989     
   2738738525.8576245     
   2622784529.9665451     
   2509913426.5982995     
   3119938812.9659853     
   2986375489.4638820     
   2854397104.4714460     
   2724269639.3675017     
   2596346840.7858005     
   3291738696.4748526     
   3147105814.8669043     
   3003707023.2681990     
   2861688238.4413009     
   2721256800.1759953     
   3489891098.0509152     
   3335613928.8735905     
   3182417609.9720240     
   3030353982.1032648     
   2879520391.5739517     
   3711103131.7232585     
   3548177017.5379925     
   3386333742.5950146     
   3225555377.0882945     
   3065864684.1656680     
   2509913426.5982995     
   2371117171.0707932     
   2235623620.4667940     
   2103878040.8560348     
   1976454355.6505802     
   2596346840.7858005     
   2447686507.7479663     
   2301118242.7768464     
   2156942292.7352939     
   2015562445.7823365     
   2721256800.1759953     
   2564201734.7408485     
   2408169708.9676981     
   2253308713.9578614     
   2099834103.5268357     
   2879520391.5739517     
   2715572008.9877357     
   2551791007.9924164     
   2388200489.9083443     
   2224859634.8449535     
   3065864684.1656680     
   2896380942.1283073     
   2726432540.4283843     
   2555958388.3597817     
   2384915843.1697564     
   1976454355.6505802     
   1846184031.4390388     
   1715921564.0767746     
   1586025880.8373365     
   1457023388.2880764     
   2015562445.7823365     
   1879212952.2074087     
   1743105588.1943207     
   1607366168.2316744     
   1472168464.4213302     
   2099834103.5268357     
   1960235659.5347469     
   1821515142.3714459     
   1683697526.2295918     
   1546833039.2096415     
   2224859634.8449535     
   2083100261.3663757     
   1942959609.6656811     
   1804436085.3525083     
   1667602625.9851897     
   2384915843.1697564     
   2240423718.2045236     
   2098164926.3538401     
   1958142834.6311290     
   1820528616.2749867     
   1457023388.2880764     
   1348017911.3913629     
   1274006397.0186796     
   1243103937.8294306     
   1262343244.2437007     
   1472168464.4213302     
   1327965649.2322454     
   1198256191.9611902     
   1087518656.7795484     
   1001656497.6962721     
   1546833039.2096415     
   1397005517.8575935     
   1243639775.9807992     
   1084464007.9383676     
   917446435.12086356     
   1667602625.9851897     
   1552225912.3774991     
   1427735661.6360128     
   1294490383.8277643     
   1158601647.8823905     
   1820528616.2749867     
   1779869620.4740350     
   1735653308.3205161     
   1696523222.8500037     
   1680969612.2958393     
   1262343244.2437007     
   1446274709.3946853     
   1715450682.5915015     
   2110408784.5213389     
   2663535722.0957994     
   1001656497.6962721     
   1164425702.1908109     
   1425240143.1734409     
   1808657259.6640017     
   2334735690.3242316     
   917446435.12086356     
   962909256.12083960     
   1144790891.6959369     
   1476411669.5694685     
   1957445453.1157761     
   1158601647.8823905     
   1008216635.0205142     
   985102594.90983629     
   1161471863.4562681     
   1544189627.5439599     
   1680969612.2958393     
   1383505832.4977732     
   1129343567.6639967     
   1010198110.1470301     
   1153279288.8131444     
 </DataArray>
 <DataArray  type="Float64" Name="strain" NumberOfComponents="3" format="ascii">
   9.8676219648016650E-002  -2.9597100775981877E-002   4.1207299465357838E-003
   9.5813793150664628E-002  -2.8877699431317128E-002   4.0521399741526576E-003
   9.2951366653312384E-002  -2.8058204791405972E-002   3.7963136115122253E-003
   9.0088940155960251E-002  -2.7138616856248132E-002   3.3532508586155974E-003
   8.7226513658608118E-002  -2.6118935625844220E-002   2.7229517154619964E-003
   9.3042553993755828E-002  -2.7881759777479087E-002   9.4800071980079004E-003
   9.0062480309569926E-002  -2.7131409439710208E-002   9.3892333640070436E-003
   8.7082406625384134E-002  -2.6322260969589284E-002   9.2504015465956768E-003
   8.4102332941198343E-002  -2.5454314367116523E-002   9.0635117457736891E-003
   8.1122259257012497E-002  -2.4527569632291857E-002   8.8285639615408029E-003
   8.7237669560655873E-002  -2.6166418778976297E-002   1.4890881024030578E-002
   8.4279127096482165E-002  -2.5385119448103177E-002   1.4736628165518739E-002
   8.1320584632308457E-002  -2.4586317147772485E-002   1.4673495730441494E-002
   7.8362042168134707E-002  -2.3770011877984859E-002   1.4701483718799618E-002
   7.5403499703960986E-002  -2.2936203638739716E-002   1.4820592130592419E-002
   8.1261566348717076E-002  -2.4451077780473535E-002   2.0353351424605426E-002
   7.8463733511401221E-002  -2.3638829456496077E-002   2.0094324378687092E-002
   7.5665900674085296E-002  -2.2850373325955964E-002   2.0065596163049815E-002
   7.2868067836769454E-002  -2.2085709388853056E-002   2.0267166777693205E-002
   7.0070234999453571E-002  -2.1344837645187575E-002   2.0699036222617297E-002
   7.5114244357939119E-002  -2.2735736781970717E-002   2.5867418399731390E-002
   7.2616299554326913E-002  -2.1892539464889116E-002   2.5462322003512561E-002
   7.0118354750714762E-002  -2.1114429504139248E-002   2.5426702844420335E-002
   6.7620409947102583E-002  -2.0401406899721398E-002   2.5760560922454573E-002
   6.5122465143490377E-002  -1.9753471651635268E-002   2.6463896237615581E-002
   8.7226513658608118E-002  -2.6118935625844220E-002   2.7229517154619964E-003
   8.4476949988933847E-002  -2.5090368003488683E-002   2.0231370250609060E-003
   8.1727386319259576E-002  -2.4144120892477167E-002   1.7265995710835091E-003
   7.8977822649585305E-002  -2.3280194292809496E-002   1.8333393535295006E-003
   7.6228258979911034E-002  -2.2498588204485581E-002   2.3433563723985751E-003
   8.1122259257012497E-002  -2.4527569632291857E-002   8.8285639615408029E-003
   7.8725056284220107E-002  -2.3594387648266490E-002   8.3992055074951777E-003
   7.6327853311427746E-002  -2.2707129298191020E-002   8.2712912107898717E-003
   7.3930650338635343E-002  -2.1865794582066042E-002   8.4448210714248018E-003
   7.1533447365843050E-002  -2.1070383499891210E-002   8.9197950894004951E-003
   7.5403499703960986E-002  -2.2936203638739716E-002   1.4820592130592419E-002
   7.3256824348967381E-002  -2.2098407293044270E-002   1.4698086790296078E-002
   7.1110148993973776E-002  -2.1270137703905109E-002   1.4775192528256889E-002
   6.8963473638980227E-002  -2.0451394871322481E-002   1.5051909344474916E-002
   6.6816798283986567E-002  -1.9642178795296450E-002   1.5528237238950110E-002
   7.0070234999453571E-002  -2.1344837645187575E-002   2.0699036222617297E-002
   6.8072254183175682E-002  -2.0602426937821841E-002   2.0919780873463939E-002
   6.6074273366897696E-002  -1.9833146109619192E-002   2.1238303523484731E-002
   6.4076292550619682E-002  -1.9036995160579086E-002   2.1654604172679427E-002
   6.2078311734341821E-002  -1.8213974090701773E-002   2.2168682821048329E-002
   6.5122465143490377E-002  -1.9753471651635268E-002   2.6463896237615581E-002
   6.3171345786844912E-002  -1.9106446582599718E-002   2.7064287756998873E-002
   6.1220226430199462E-002  -1.8396154515333080E-002   2.7660624196473055E-002
   5.9269107073553949E-002  -1.7622595449835611E-002   2.8252905556038238E-002
   5.7317987716908547E-002  -1.6785769386107152E-002   2.8841131835694200E-002
   7.6228258979911034E-002  -2.2498588204485581E-002   2.3433563723985751E-003
   7.2611925406364464E-002  -2.1719260350540948E-002   1.6826286495951193E-003
   6.8995591832817837E-002  -2.0862168454011815E-002   1.2219181682222580E-003
   6.5379258259271211E-002  -1.9927312514896607E-002   9.6122492827924177E-004
   6.1762924685724641E-002  -1.8914692533196664E-002   9.0054892976687562E-004
   7.1533447365843050E-002  -2.1070383499891210E-002   8.9197950894004951E-003
   6.8119267334256106E-002  -2.0277277449671893E-002   8.2989050056501146E-003
   6.4705087302669190E-002  -1.9442857829413102E-002   7.8823047643887811E-003
   6.1290907271082259E-002  -1.8567124639115438E-002   7.6699943656165503E-003
   5.7876727239495329E-002  -1.7650077878778925E-002   7.6619738093329781E-003
   6.6816798283986567E-002  -1.9642178795296450E-002   1.5528237238950110E-002
   6.3609044395418105E-002  -1.8835294548801840E-002   1.4910734321706975E-002
   6.0401290506849531E-002  -1.8023547204814708E-002   1.4501793848011327E-002
   5.7193536618280985E-002  -1.7206936763334044E-002   1.4301415817863421E-002
   5.3985782729712523E-002  -1.6385463224360741E-002   1.4309600231262987E-002
   6.2078311734341821E-002  -1.8213974090701773E-002   2.2168682821048329E-002
   5.9081256589850265E-002  -1.7393311647932397E-002   2.1518116597765945E-002
   5.6084201445358826E-002  -1.6604236580216154E-002   2.1080385419089836E-002
   5.3087146300867319E-002  -1.5846748887552761E-002   2.0855489285020096E-002
   5.0090091156375832E-002  -1.5120848569942336E-002   2.0843428195556832E-002
   5.7317987716908547E-002  -1.6785769386107152E-002   2.8841131835694200E-002
   5.4535903917552808E-002  -1.5951328747062871E-002   2.8121051833826738E-002
   5.1753820118197069E-002  -1.5184925955617476E-002   2.7618079477623930E-002
   4.8971736318841330E-002  -1.4486561011771423E-002   2.7332214767086541E-002
   4.6189652519485591E-002  -1.3856233915524263E-002   2.7263457702214056E-002
   6.1762924685724641E-002  -1.8914692533196664E-002   9.0054892976687562E-004
   5.9095960212193654E-002  -1.7900983922966573E-002   7.7452181108772500E-004
   5.6428995738662557E-002  -1.6962862098261200E-002   7.7838572335309220E-004
   5.3762031265131516E-002  -1.6100327059080724E-002   9.1214066656292170E-004
   5.1095066791600474E-002  -1.5313378805424716E-002   1.1757866407176021E-003
   5.7876727239495329E-002  -1.7650077878778925E-002   7.6619738093329781E-003
   5.5341196091038658E-002  -1.6733552494034798E-002   7.4737703678559586E-003
   5.2805664942581876E-002  -1.5859383430514351E-002   7.4185425455826626E-003
   5.0270133794125149E-002  -1.5027570688218431E-002   7.4962903425132288E-003
   4.7734602645668478E-002  -1.4238114267146162E-002   7.7070137586483511E-003
   5.3985782729712523E-002  -1.6385463224360741E-002   1.4309600231262987E-002
   5.1584769494589733E-002  -1.5566121065102523E-002   1.4092450931287914E-002
   4.9183756259466915E-002  -1.4755904762767474E-002   1.4011361838777020E-002
   4.6782743024344139E-002  -1.3954814317355908E-002   1.4066332953729402E-002
   4.4381729789221308E-002  -1.3162849728867831E-002   1.4257364276145768E-002
   5.0090091156375832E-002  -1.5120848569942336E-002   2.0843428195556832E-002
   4.7826680422846726E-002  -1.4398689636170053E-002   2.0630563501384799E-002
   4.5563269689317454E-002  -1.3652426095020390E-002   2.0556843602936518E-002
   4.3299858955788251E-002  -1.2882057946493611E-002   2.0622268500211264E-002
   4.1036448222259082E-002  -1.2087585190589167E-002   2.0826838193209782E-002
   4.6189652519485591E-002  -1.3856233915524263E-002   2.7263457702214056E-002
   4.4066928875809624E-002  -1.3231258207237917E-002   2.7088108078146100E-002
   4.1944205232133658E-002  -1.2548947427273582E-002   2.7054987838061040E-002
   3.9821481588457663E-002  -1.1809301575631106E-002   2.7164096981959263E-002
   3.7698757944781724E-002  -1.1012320652310725E-002   2.7415435509840269E-002
   5.1095066791600474E-002  -1.5313378805424716E-002   1.1757866407176021E-003
   4.8256551705619266E-002  -1.4541718940646264E-002   6.9074197771001877E-004
   4.5418036619637892E-002  -1.3725049068097517E-002   3.2264367767997904E-004
   4.2579521533656545E-002  -1.2863369187779181E-002   7.1491740628704115E-005
   3.9741006447675309E-002  -1.1956679299690354E-002  -6.2713833444805189E-005
   4.7734602645668478E-002  -1.4238114267146162E-002   7.7070137586483511E-003
   4.5010206387553819E-002  -1.3457881279426820E-002   7.2611925811580935E-003
   4.2285810129439216E-002  -1.2653738837189954E-002   6.9266626964229472E-003
   3.9561413871324502E-002  -1.1825686940434413E-002   6.7034241044429121E-003
   3.6837017613209899E-002  -1.0973725589160654E-002   6.5914768052182104E-003
   4.4381729789221308E-002  -1.3162849728867831E-002   1.4257364276145768E-002
   4.1765797288750350E-002  -1.2374043618208153E-002   1.3829666030921561E-002
   3.9149864788279268E-002  -1.1582428606281753E-002   1.3507604008228785E-002
   3.6533932287808248E-002  -1.0788004693089652E-002   1.3291178208068466E-002
   3.3917999787337227E-002  -9.9907718786307331E-003   1.3180388630440298E-002
   4.1036448222259082E-002  -1.2087585190589167E-002   2.0826838193209782E-002
   3.8523324409208692E-002  -1.1290205956989097E-002   2.0396162326999132E-002
   3.6010200596158268E-002  -1.0511118375374537E-002   2.0065467613097285E-002
   3.3497076783107878E-002  -9.7503224457451097E-003   1.9834754051505050E-002
   3.0983952970057502E-002  -9.0078181681008118E-003   1.9704021642221584E-002
   3.7698757944781724E-002  -1.1012320652310725E-002   2.7415435509840269E-002
   3.5282787748928957E-002  -1.0206368295770041E-002   2.6960681469391512E-002
   3.2866817553076161E-002  -9.4398081444664605E-003   2.6600253511028793E-002
   3.0450847357223379E-002  -8.7126401984002969E-003   2.6334151634752445E-002
   2.8034877161370542E-002  -8.0248644575710015E-003   2.6162375840562135E-002
   3.9741006447675309E-002  -1.1956679299690354E-002  -6.2713833444805189E-005
   3.7360939846426300E-002  -1.1111762564160355E-002  -3.0573797672706071E-004
   3.4980873245177346E-002  -1.0435402141518002E-002  -4.7530004399509718E-004
   3.2600806643928393E-002  -9.9275980317622275E-003  -5.7140003524874805E-004
   3.0220740042679384E-002  -9.5883502348943495E-003  -5.9403795048895702E-004
   3.6837017613209899E-002  -1.0973725589160654E-002   6.5914768052182104E-003
   3.4514702748441151E-002  -1.0164783454707949E-002   6.1784612304717212E-003
   3.2192387883672291E-002  -9.4657892084147321E-003   5.8074870526713118E-003
   2.9870073018903515E-002  -8.8767428502813522E-003   5.4785542718178981E-003
   2.7547758154134683E-002  -8.3976443803084333E-003   5.1916628879099536E-003
   3.3917999787337227E-002  -9.9907718786307331E-003   1.3180388630440298E-002
   3.1622015979980989E-002  -9.2178043452548764E-003   1.2655990048956456E-002
   2.9326032172624750E-002  -8.4961762753119341E-003   1.2142212185351303E-002
   2.7030048365268539E-002  -7.8258876688009280E-003   1.1639055039624910E-002
   2.4734064557912300E-002  -7.2069385257227392E-003   1.1146518611777567E-002
   3.0983952970057502E-002  -9.0078181681008118E-003   1.9704021642221584E-002
   2.8682879541046161E-002  -8.2708252358023593E-003   1.9126848478728156E-002
   2.6381806112034820E-002  -7.5265633422089001E-003   1.8528875354045300E-002
   2.4080732683023458E-002  -6.7750324873202782E-003   1.7910102268174310E-002
   2.1779659254012193E-002  -6.0162326711367120E-003   1.7270529221113953E-002
   2.8034877161370542E-002  -8.0248644575710015E-003   2.6162375840562135E-002
   2.5697293431636459E-002  -7.3238461263495647E-003   2.5591036519786114E-002
   2.3359709701902320E-002  -6.5569504091056163E-003   2.4967476558753643E-002
   2.1022125972168265E-002  -5.7241773058396214E-003   2.4291695957464582E-002
   1.8684542242434099E-002  -4.8255268165509069E-003   2.3563694715918793E-002
   3.0220740042679384E-002  -9.5883502348943495E-003  -5.9403795048895702E-004
   2.9608602770310632E-002  -9.1282789079282223E-003  -3.6005149167972483E-004
   2.8996465497941715E-002  -8.2580042078789773E-003  -1.8031991905810285E-003
   2.8384328225572908E-002  -6.9775261347459899E-003  -4.9234810471923685E-003
   2.7772190953204046E-002  -5.2868446885303566E-003  -9.7208970615139112E-003
   2.7547758154134683E-002  -8.3976443803084333E-003   5.1916628879099536E-003
   2.5526932922536438E-002  -7.8675569248791710E-003   5.8644484535994579E-003
   2.3506107690938138E-002  -7.1255436103782599E-003   5.3969922585409558E-003
   2.1485282459339866E-002  -6.1716044368061856E-003   3.7892943027338644E-003
   1.9464457227741594E-002  -5.0057394041611580E-003   1.0413545861771567E-003
   2.4734064557912300E-002  -7.2069385257227392E-003   1.1146518611777567E-002
   2.1841443764046342E-002  -6.6068349418303973E-003   1.2059825770336596E-002
   1.8948822970180385E-002  -5.9930830128775703E-003   1.2369783565108483E-002
   1.6056202176314371E-002  -5.3656827388646119E-003   1.2076391996093991E-002
   1.3163581382448442E-002  -4.7246341197911823E-003   1.1179651063292828E-002
   2.1779659254012193E-002  -6.0162326711367120E-003   1.7270529221113953E-002
   1.8552135294840288E-002  -5.3461129587813738E-003   1.8226080458530483E-002
   1.5324611335668335E-002  -4.8606224153767558E-003   1.9115174729121963E-002
   1.2097087376496410E-002  -4.5597610409234789E-003   1.9937812032888833E-002
   8.8695634173244706E-003  -4.4435288354215952E-003   2.0693992369830730E-002
   1.8684542242434099E-002  -4.8255268165509069E-003   2.3563694715918793E-002
   1.5659007514918055E-002  -4.0853909757326834E-003   2.4363212518181743E-002
   1.2633472787402095E-002  -3.7281618178764964E-003   2.5633165750581943E-002
   9.6079380598861203E-003  -3.7538393429831507E-003   2.7373554413118728E-002
   6.5824033323700903E-003  -4.1624235510520080E-003   2.9584378505791875E-002
   2.7772190953204046E-002  -5.2868446885303566E-003  -9.7208970615139112E-003
   2.3348690879552492E-002  -4.2047841708203748E-003  -4.1887559959041809E-003
   1.8925190805900938E-002  -4.7501688832046196E-003   2.6060034985320168E-003
   1.4501690732249356E-002  -6.9229988256823277E-003   1.0663381421794182E-002
   1.0078190658597830E-002  -1.0723273998254790E-002   1.9983377773884925E-002
   1.9464457227741594E-002  -5.0057394041611580E-003   1.0413545861771567E-003
   1.6231448920055958E-002  -4.6902354049283002E-003   6.7381802911007371E-003
   1.2998440612370321E-002  -6.2873793315918469E-003   1.3553371099130018E-002
   9.7654323046846292E-003  -9.7971711841517983E-003   2.1486927010262835E-002
   6.5324239969992703E-003  -1.5219610962606822E-002   3.0538848024502574E-002
   1.3163581382448442E-002  -4.7246341197911823E-003   1.1179651063292828E-002
   1.0976811515007262E-002  -5.1756866390366696E-003   1.6755958711727859E-002
   8.7900416475661103E-003  -7.8245897799792685E-003   2.3306378137546518E-002
   6.6032717801250626E-003  -1.2671343542620818E-002   3.0830909340749321E-002
   4.4165019126838345E-003  -1.9715947926959299E-002   3.9329552321335948E-002
   8.8695634173244706E-003  -4.4435288354215952E-003   2.0693992369830730E-002
   7.5847786644066204E-003  -5.6611378731443729E-003   2.5864579265975629E-002
   6.2999939114886626E-003  -9.3618002283674812E-003   3.1865024613783148E-002
   5.0152091585705990E-003  -1.5545515901089619E-002   3.8695328413253363E-002
   3.7304244056527158E-003  -2.4212284891311997E-002   4.6355490664385213E-002
   6.5824033323700903E-003  -4.1624235510520080E-003   2.9584378505791875E-002
   6.0553503682539422E-003  -6.1465891072529644E-003   3.4064041953844715E-002
   5.5282974041378219E-003  -1.0899010676755028E-002   3.9229310527839067E-002
   5.0012444400217293E-003  -1.8419688259559364E-002   4.5080184227774545E-002
   4.4741914759055534E-003  -2.8708621855664251E-002   5.1616663053651202E-002
   7.5114244357939119E-002  -2.2735736781970717E-002   2.5867418399731390E-002
   7.2616299554326913E-002  -2.1892539464889116E-002   2.5462322003512561E-002
   7.0118354750714762E-002  -2.1114429504139248E-002   2.5426702844420335E-002
   6.7620409947102583E-002  -2.0401406899721398E-002   2.5760560922454573E-002
   6.5122465143490377E-002  -1.9753471651635268E-002   2.6463896237615581E-002
   6.8919326264919256E-002  -2.0752618892252661E-002   3.2524887759795118E-002
   6.6743726067584441E-002  -2.0049729240142089E-002   3.2101569730209167E-002
   6.4568125870249543E-002  -1.9375983385445605E-002   3.1953463676051258E-002
   6.2392525672914631E-002  -1.8731381328163169E-002   3.2080569597321265E-002
   6.0216925475579747E-002  -1.8115923068294820E-002   3.2482887494019480E-002
   6.2800434746254519E-002  -1.8769501002534550E-002   3.9024077675428731E-002
   6.0852913893498409E-002  -1.8206919015395118E-002   3.8618481571393498E-002
   5.8905393040742285E-002  -1.7637537266751949E-002   3.8393832181087675E-002
   5.6957872187986217E-002  -1.7061355756604963E-002   3.8350129504511353E-002
   5.5010351335230100E-002  -1.6478374484954400E-002   3.8487373541664552E-002
   5.6757569801944879E-002  -1.6786383112816466E-002   4.5364988146632278E-002
   5.4943863032069037E-002  -1.6364108790648063E-002   4.5013057527065609E-002
   5.3130156262193202E-002  -1.5899091148058243E-002   4.4747808359529614E-002
   5.1316449492317354E-002  -1.5391330185046828E-002   4.4569240644024795E-002
   4.9502742722441519E-002  -1.4840825901613966E-002   4.4477354380550990E-002
   5.0790731431990366E-002  -1.4803265223098383E-002   5.1547619173406001E-002
   4.9016573483296244E-002  -1.4521298565901092E-002   5.1285297597225443E-002
   4.7242415534602150E-002  -1.4160645029364621E-002   5.1015392211377297E-002
   4.5468257585908070E-002  -1.3721304613488548E-002   5.0737903015861591E-002
   4.3694099637213935E-002  -1.3203277318273476E-002   5.0452830010678518E-002
   6.5122465143490377E-002  -1.9753471651635268E-002   2.6463896237615581E-002
   6.3171345786844912E-002  -1.9106446582599718E-002   2.7064287756998873E-002
   6.1220226430199462E-002  -1.8396154515333080E-002   2.7660624196473055E-002
   5.9269107073553949E-002  -1.7622595449835611E-002   2.8252905556038238E-002
   5.7317987716908547E-002  -1.6785769386107152E-002   2.8841131835694200E-002
   6.0216925475579747E-002  -1.8115923068294820E-002   3.2482887494019480E-002
   5.8298884083377994E-002  -1.7494711204834326E-002   3.2871336586731262E-002
   5.6380842691176228E-002  -1.6832848336775889E-002   3.3329996688239438E-002
   5.4462801298974454E-002  -1.6130334464118795E-002   3.3858867798544266E-002
   5.2544759906772709E-002  -1.5387169586863592E-002   3.4457949917645364E-002
   5.5010351335230100E-002  -1.6478374484954400E-002   3.8487373541664552E-002
   5.3199653996177640E-002  -1.5882975827069143E-002   3.8641264214072095E-002
   5.1388956657125173E-002  -1.5269542158218311E-002   3.8939631983981648E-002
   4.9578259318072727E-002  -1.4638073478402031E-002   3.9382476851393268E-002
   4.7767561979020240E-002  -1.3988569787620059E-002   3.9969798816306926E-002
   4.9502742722441519E-002  -1.4840825901613966E-002   4.4477354380550990E-002
   4.7873655525243947E-002  -1.4271240449303856E-002   4.4374070639021400E-002
   4.6244568328046312E-002  -1.3706235979660926E-002   4.4489530083699588E-002
   4.4615481130848719E-002  -1.3145812492685186E-002   4.4823732714585340E-002
   4.2986393933651119E-002  -1.2589969988376484E-002   4.5376678531678871E-002
   4.3694099637213935E-002  -1.3203277318273476E-002   5.0452830010678518E-002
   4.2320888670576789E-002  -1.2659505071538596E-002   5.0069755861579246E-002
   4.0947677703939644E-002  -1.2142929801103541E-002   4.9979690987393410E-002
   3.9574466737302499E-002  -1.1653551506968479E-002   5.0182635388120650E-002
   3.8201255770665354E-002  -1.1191370189132965E-002   5.0678589063761159E-002
   5.7317987716908547E-002  -1.6785769386107152E-002   2.8841131835694200E-002
   5.4535903917552808E-002  -1.5951328747062871E-002   2.8121051833826738E-002
   5.1753820118197069E-002  -1.5184925955617476E-002   2.7618079477623930E-002
   4.8971736318841330E-002  -1.4486561011771423E-002   2.7332214767086541E-002
   4.6189652519485591E-002  -1.3856233915524263E-002   2.7263457702214056E-002
   5.2544759906772709E-002  -1.5387169586863592E-002   3.4457949917645364E-002
   4.9980751490737302E-002  -1.4643946848756667E-002   3.3680580970569474E-002
   4.7416743074701839E-002  -1.3941259393544445E-002   3.3122255144468968E-002
   4.4852734658666432E-002  -1.3279107221226810E-002   3.2782972439343992E-002
   4.2288726242631025E-002  -1.2657490331803800E-002   3.2662732855194498E-002
   4.7767561979020240E-002  -1.3988569787620059E-002   3.9969798816306926E-002
   4.5423564421615520E-002  -1.3336564950450505E-002   3.9162643488727014E-002
   4.3079566864210855E-002  -1.2697592831471087E-002   3.8576466757433127E-002
   4.0735569306806177E-002  -1.2071653430682143E-002   3.8211268622424910E-002
   3.8391571749401457E-002  -1.1458746748083171E-002   3.8067049083702897E-002
   4.2986393933651119E-002  -1.2589969988376484E-002   4.5376678531678871E-002
   4.0864342710187573E-002  -1.2029183052144322E-002   4.4567239388299498E-002
   3.8742291486724027E-002  -1.1453926269397976E-002   4.3980714316516387E-002
   3.6620240263260481E-002  -1.0864199640137337E-002   4.3617103316329779E-002
   3.4498189039796935E-002  -1.0260003164362680E-002   4.3476406387739516E-002
   3.8201255770665354E-002  -1.1191370189132965E-002   5.0678589063761159E-002
   3.6303086356453351E-002  -1.0721801153838140E-002   4.9894368669286870E-002
   3.4404916942241404E-002  -1.0210259707324684E-002   4.9334997821719101E-002
   3.2506747528029414E-002  -9.6567458495928869E-003   4.9000476521058170E-002
   3.0608578113817425E-002  -9.0612595806420226E-003   4.8890804767304175E-002
   4.6189652519485591E-002  -1.3856233915524263E-002   2.7263457702214056E-002
   4.4066928875809624E-002  -1.3231258207237917E-002   2.7088108078146100E-002
   4.1944205232133658E-002  -1.2548947427273582E-002   2.7054987838061040E-002
   3.9821481588457663E-002  -1.1809301575631106E-002   2.7164096981959263E-002
   3.7698757944781724E-002  -1.1012320652310725E-002   2.7415435509840269E-002
   4.2288726242631025E-002  -1.2657490331803800E-002   3.2662732855194498E-002
   4.0307619690137658E-002  -1.2036263766281835E-002   3.2539087575336356E-002
   3.8326513137644319E-002  -1.1375282565667152E-002   3.2556447093860436E-002
   3.6345406585150994E-002  -1.0674546729959832E-002   3.2714811410766764E-002
   3.4364300032657669E-002  -9.9340562591595516E-003   3.3014180526055315E-002
   3.8391571749401457E-002  -1.1458746748083171E-002   3.8067049083702897E-002
   3.6550857702489926E-002  -1.0841269325325753E-002   3.7977527711469547E-002
   3.4710143655578354E-002  -1.0201617704060834E-002   3.8027786552017509E-002
   3.2869429608666803E-002  -9.5397918842883359E-003   3.8217825605346922E-002
   3.1028715561755196E-002  -8.8557918660083779E-003   3.8547644871457676E-002
   3.4498189039796935E-002  -1.0260003164362680E-002   4.3476406387739516E-002
   3.2796642912866325E-002  -9.6462748843697266E-003   4.3403428486545562E-002
   3.1095096785935725E-002  -9.0279528424544592E-003   4.3469006212532399E-002
   2.9393550659005126E-002  -8.4050370386170060E-003   4.3673139565699279E-002
   2.7692004532074519E-002  -7.7775274728572041E-003   4.4015828546047082E-002
   3.0608578113817425E-002  -9.0612595806420226E-003   4.8890804767304175E-002
   2.9044975321266930E-002  -8.4512804434135891E-003   4.8816789900564539E-002
   2.7481372528716477E-002  -7.8542879808480709E-003   4.8880106075404467E-002
   2.5917769736165962E-002  -7.2702821929456173E-003   4.9080753291824222E-002
   2.4354166943615502E-002  -6.6992630797060304E-003   4.9418731549823680E-002
   3.7698757944781724E-002  -1.1012320652310725E-002   2.7415435509840269E-002
   3.5282787748928957E-002  -1.0206368295770041E-002   2.6960681469391512E-002
   3.2866817553076161E-002  -9.4398081444664605E-003   2.6600253511028793E-002
   3.0450847357223379E-002  -8.7126401984002969E-003   2.6334151634752445E-002
   2.8034877161370542E-002  -8.0248644575710015E-003   2.6162375840562135E-002
   3.4364300032657669E-002  -9.9340562591595516E-003   3.3014180526055315E-002
   3.2056304132369179E-002  -9.1862318642770280E-003   3.2539708644223730E-002
   2.9748308232080772E-002  -8.4634942563235060E-003   3.2186859271434887E-002
   2.7440312331792435E-002  -7.7658434352981462E-003   3.1955632407688325E-002
   2.5132316431503959E-002  -7.0932794012013023E-003   3.1846028052984754E-002
   3.1028715561755196E-002  -8.8557918660083779E-003   3.8547644871457676E-002
   2.8855990383987701E-002  -8.1660954327845703E-003   3.8067760566552034E-002
   2.6683265206220198E-002  -7.4871803681804266E-003   3.7736795197645293E-002
   2.4510540028452644E-002  -6.8190466721961031E-003   3.7554748764737710E-002
   2.2337814850685159E-002  -6.1616943448314365E-003   3.7521621267829569E-002
   2.7692004532074519E-002  -7.7775274728572041E-003   4.4015828546047082E-002
   2.5681846503784404E-002  -7.1459590012920571E-003   4.3544837236375887E-002
   2.3671688475494286E-002  -6.5108664800374097E-003   4.3250061289660371E-002
   2.1661530447204171E-002  -5.8722499090940062E-003   4.3131500705900654E-002
   1.9651372418914001E-002  -5.2301092884616540E-003   4.3189155485096588E-002
   2.4354166943615502E-002  -6.6992630797060304E-003   4.9418731549823680E-002
   2.2533872491759310E-002  -6.1258225697990998E-003   4.8970938653695950E-002
   2.0713578039903133E-002  -5.5345525918946148E-003   4.8726657547480401E-002
   1.8893283588046934E-002  -4.9254531459919093E-003   4.8685888231176949E-002
   1.7072989136190736E-002  -4.2985242320917605E-003   4.8848630704785845E-002
   2.8034877161370542E-002  -8.0248644575710015E-003   2.6162375840562135E-002
   2.5697293431636459E-002  -7.3238461263495647E-003   2.5591036519786114E-002
   2.3359709701902320E-002  -6.5569504091056163E-003   2.4967476558753643E-002
   2.1022125972168265E-002  -5.7241773058396214E-003   2.4291695957464582E-002
   1.8684542242434099E-002  -4.8255268165509069E-003   2.3563694715918793E-002
   2.5132316431503959E-002  -7.0932794012013023E-003   3.1846028052984754E-002
   2.2780371454128145E-002  -6.4236517317902142E-003   3.1463152995661270E-002
   2.0428426476752373E-002  -5.7348100048217610E-003   3.1103776083310691E-002
   1.8076481499376573E-002  -5.0267542202967405E-003   3.0767897315933587E-002
   1.5724536522000787E-002  -4.2994843782150349E-003   3.0455516693529971E-002
   2.2337814850685159E-002  -6.1616943448314365E-003   3.7521621267829569E-002
   2.0047227410897539E-002  -5.5234573372307805E-003   3.7280547145492948E-002
   1.7756639971109892E-002  -4.9126696005384746E-003   3.7138689953359436E-002
   1.5466052531322251E-002  -4.3293311347545292E-003   3.7096049691429135E-002
   1.3175465091534624E-002  -3.7734419398789409E-003   3.7152626359701735E-002
   1.9651372418914001E-002  -5.2301092884616540E-003   4.3189155485096588E-002
   1.7497861301944456E-002  -4.6232629426713329E-003   4.3043218969281809E-002
   1.5344350184974858E-002  -4.0905291962548482E-003   4.3072218168899681E-002
   1.3190839068005233E-002  -3.6319080492121496E-003   4.3276153083950802E-002
   1.1037327951035712E-002  -3.2473995015429025E-003   4.3655023714434735E-002
   1.7072989136190736E-002  -4.2985242320917605E-003   4.8848630704785845E-002
   1.5132273127269003E-002  -3.7230685481119408E-003   4.8751168467027206E-002
   1.3191557118347311E-002  -3.2683887919713883E-003   4.8904360729931484E-002
   1.1250841109425598E-002  -2.9344849636695064E-003   4.9308207493498596E-002
   9.3101251005038299E-003  -2.7213570632069750E-003   4.9962708757728680E-002
   1.8684542242434099E-002  -4.8255268165509069E-003   2.3563694715918793E-002
   1.5659007514918055E-002  -4.0853909757326834E-003   2.4363212518181743E-002
   1.2633472787402095E-002  -3.7281618178764964E-003   2.5633165750581943E-002
   9.6079380598861203E-003  -3.7538393429831507E-003   2.7373554413118728E-002
   6.5824033323700903E-003  -4.1624235510520080E-003   2.9584378505791875E-002
   1.5724536522000787E-002  -4.2994843782150349E-003   3.0455516693529971E-002
   1.3151817414966599E-002  -3.7818849459581028E-003   3.1237618196020611E-002
   1.0579098307932508E-002  -3.7028403909082630E-003   3.2454915509337989E-002
   8.0063792008983406E-003  -4.0623507130659806E-003   3.4107408633482106E-002
   5.4336600938641733E-003  -4.8604159124308044E-003   3.6195097568453516E-002
   1.3175465091534624E-002  -3.7734419398789409E-003   3.7152626359701735E-002
   1.1020321985672515E-002  -3.4783789161834666E-003   3.7861663368175064E-002
   8.8651788798103370E-003  -3.6775189639401407E-003   3.8970656568165118E-002
   6.7100357739481552E-003  -4.3708620831490325E-003   4.0479605959672121E-002
   4.5548926680860496E-003  -5.5584082738098228E-003   4.2388511542696683E-002
   1.1037327951035712E-002  -3.2473995015429025E-003   4.3655023714434735E-002
   9.2645212270357144E-003  -3.1748728864089693E-003   4.4235348034645496E-002
   7.4917145030357468E-003  -3.6521975369717963E-003   4.5180388927063844E-002
   5.7189077790357123E-003  -4.6793734532317513E-003   4.6490146391689156E-002
   3.9461010550357854E-003  -6.2564006351886192E-003   4.8164620428521682E-002
   9.3101251005038299E-003  -2.7213570632069750E-003   4.9962708757728680E-002
   7.8844151390561890E-003  -2.8713668566343609E-003   5.0358672195432219E-002
   6.4587051776085758E-003  -3.6268761100038127E-003   5.1084112586033459E-002
   5.0329952161608932E-003  -4.9878848233149767E-003   5.2139029929532205E-002
   3.6072852547132661E-003  -6.9543929965677487E-003   5.3523424225928262E-002
   6.5824033323700903E-003  -4.1624235510520080E-003   2.9584378505791875E-002
   6.0553503682539422E-003  -6.1465891072529644E-003   3.4064041953844715E-002
   5.5282974041378219E-003  -1.0899010676755028E-002   3.9229310527839067E-002
   5.0012444400217293E-003  -1.8419688259559364E-002   4.5080184227774545E-002
   4.4741914759055534E-003  -2.8708621855664251E-002   5.1616663053651202E-002
   5.4336600938641733E-003  -4.8604159124308044E-003   3.6195097568453516E-002
   5.4881963841806325E-003  -6.9955878295733798E-003   3.8338763671901199E-002
   5.5427326744970223E-003  -1.1366418305064185E-002   4.0960003158272473E-002
   5.5972689648135301E-003  -1.7972907338903402E-002   4.4058816027568087E-002
   5.6518052551298714E-003  -2.6815054931090820E-002   4.7635202279787459E-002
   4.5548926680860496E-003  -5.5584082738098228E-003   4.2388511542696683E-002
   4.9829864698179710E-003  -7.8445865518941282E-003   4.2728777756491698E-002
   5.4110802715498854E-003  -1.1833825933373565E-002   4.3338585610193603E-002
   5.8391740732817513E-003  -1.7526126418248050E-002   4.4217935103802494E-002
   6.2672678750136657E-003  -2.4921488006517389E-002   4.5366826237318025E-002
   3.9461010550357854E-003  -6.2564006351886192E-003   4.8164620428521682E-002
   4.5397206251659543E-003  -8.6935852742149322E-003   4.7234084207617558E-002
   5.1333401952961578E-003  -1.2301233561682834E-002   4.6365057883603233E-002
   5.7269597654264846E-003  -1.7079345497592505E-002   4.5557541456478369E-002
   6.3205793355565823E-003  -2.3027921081943958E-002   4.4811534926243846E-002
   3.6072852547132661E-003  -6.9543929965677487E-003   5.3523424225928262E-002
   4.1583988502247038E-003  -9.5425839965352921E-003   5.1854683025278070E-002
   4.7095124457361415E-003  -1.2768641189992130E-002   5.0039419978500976E-002
   5.2606260412475792E-003  -1.6632564576937132E-002   4.8077635085596232E-002
   5.8117396367589613E-003  -2.1134354157370527E-002   4.5969328346564087E-002
   5.0790731431990366E-002  -1.4803265223098383E-002   5.1547619173406001E-002
   4.9016573483296244E-002  -1.4521298565901092E-002   5.1285297597225443E-002
   4.7242415534602150E-002  -1.4160645029364621E-002   5.1015392211377297E-002
   4.5468257585908070E-002  -1.3721304613488548E-002   5.0737903015861591E-002
   4.3694099637213935E-002  -1.3203277318273476E-002   5.0452830010678518E-002
   4.4774869711132426E-002  -1.2960191818641054E-002   5.3990630472102563E-002
   4.3041442966157514E-002  -1.2685871931680887E-002   5.3669661214345576E-002
   4.1308016221182645E-002  -1.2356017761662064E-002   5.3437738173694738E-002
   3.9574589476207726E-002  -1.1970629308584488E-002   5.3294861350149866E-002
   3.7841162731232836E-002  -1.1529706572448450E-002   5.3241030743710754E-002
   3.8584934714112493E-002  -1.1117118414183724E-002   5.6437571298702305E-002
   3.6988869199630306E-002  -1.0850445297460529E-002   5.6034801763088671E-002
   3.5392803685148098E-002  -1.0551390493959464E-002   5.5817708471354269E-002
   3.3796738170665877E-002  -1.0219954003680375E-002   5.5786291423499286E-002
   3.2200672656183676E-002  -9.8561358266233967E-003   5.5940550619523799E-002
   3.2220926440930761E-002  -9.2740450097263671E-003   5.8888441653205469E-002
   3.0858852183714612E-002  -9.0150186632402748E-003   5.8380719243454157E-002
   2.9496777926498546E-002  -8.7467632262568859E-003   5.8155303104355641E-002
   2.8134703669282449E-002  -8.4692786987762610E-003   5.8212193235909974E-002
   2.6772629412066359E-002  -8.1825650807983291E-003   5.8551389638117235E-002
   2.5682844891586981E-002  -7.4309716052690655E-003   6.1343241535611992E-002
   2.4651391918410454E-002  -7.1795920290199378E-003   6.0707413655442244E-002
   2.3619938945233995E-002  -6.9421359585543074E-003   6.0450522072698964E-002
   2.2588485972057502E-002  -6.7186033938721051E-003   6.0572566787382015E-002
   2.1557032998880996E-002  -6.5089943349732615E-003   6.1073547799491257E-002
   4.3694099637213935E-002  -1.3203277318273476E-002   5.0452830010678518E-002
   4.2320888670576789E-002  -1.2659505071538596E-002   5.0069755861579246E-002
   4.0947677703939644E-002  -1.2142929801103541E-002   4.9979690987393410E-002
   3.9574466737302499E-002  -1.1653551506968479E-002   5.0182635388120650E-002
   3.8201255770665354E-002  -1.1191370189132965E-002   5.0678589063761159E-002
   3.7841162731232836E-002  -1.1529706572448450E-002   5.3241030743710754E-002
   3.6735146508757449E-002  -1.1068429090536569E-002   5.3023578010888722E-002
   3.5629130286282062E-002  -1.0621976400131322E-002   5.3047505491477034E-002
   3.4523114063806697E-002  -1.0190348501233008E-002   5.3312813185475587E-002
   3.3417097841331331E-002  -9.7735453938413430E-003   5.3819501092884359E-002
   3.2200672656183676E-002  -9.8561358266233967E-003   5.5940550619523799E-002
   3.1310222116367102E-002  -9.4773531095343061E-003   5.5901091487771948E-002
   3.0419771576550514E-002  -9.1010229991589919E-003   5.6051383507927266E-002
   2.9529321036733919E-002  -8.7271454954974265E-003   5.6391426679990003E-002
   2.8638870496917351E-002  -8.3557205985496652E-003   5.6921221003960090E-002
   2.6772629412066359E-002  -8.1825650807983291E-003   5.8551389638117235E-002
   2.6046115493405665E-002  -7.8862771285321612E-003   5.8702296292228527E-002
   2.5319601574744961E-002  -7.5800695981866895E-003   5.8991325036744161E-002
   2.4593087656084263E-002  -7.2639424897619834E-003   5.9418475871664413E-002
   2.3866573737423562E-002  -6.9378958032579874E-003   5.9983748796988812E-002
   2.1557032998880996E-002  -6.5089943349732615E-003   6.1073547799491257E-002
   2.0942826639873208E-002  -6.2952011475299607E-003   6.1427192424258786E-002
   2.0328620280865427E-002  -6.0591161972144703E-003   6.1867330077927829E-002
   1.9714413921857642E-002  -5.8007394840264917E-003   6.2393960760498191E-002
   1.9100207562849858E-002  -5.5200710079663651E-003   6.3007084471970065E-002
   3.8201255770665354E-002  -1.1191370189132965E-002   5.0678589063761159E-002
   3.6303086356453351E-002  -1.0721801153838140E-002   4.9894368669286870E-002
   3.4404916942241404E-002  -1.0210259707324684E-002   4.9334997821719101E-002
   3.2506747528029414E-002  -9.6567458495928869E-003   4.9000476521058170E-002
   3.0608578113817425E-002  -9.0612595806420226E-003   4.8890804767304175E-002
   3.3417097841331331E-002  -9.7735453938413430E-003   5.3819501092884359E-002
   3.1743869923087448E-002  -9.3484610981687255E-003   5.3077983022035063E-002
   3.0070642004843613E-002  -8.8919896344272359E-003   5.2561498396215378E-002
   2.8397414086599754E-002  -8.4041310026167389E-003   5.2270047215425108E-002
   2.6724186168355910E-002  -7.8848852027376126E-003   5.2203629479664337E-002
   2.8638870496917351E-002  -8.3557205985496652E-003   5.6921221003960090E-002
   2.7190767972764346E-002  -7.9751210424992003E-003   5.6211820013586336E-002
   2.5742665448611299E-002  -7.5737195615295724E-003   5.5727636366364831E-002
   2.4294562924458279E-002  -7.1515161556409256E-003   5.5468670062295278E-002
   2.2846460400305253E-002  -6.7085108248332304E-003   5.5434921101378112E-002
   2.3866573737423562E-002  -6.9378958032579874E-003   5.9983748796988812E-002
   2.2643780505484042E-002  -6.6017809868295640E-003   5.9295879643940647E-002
   2.1420987273544544E-002  -6.2554494886318500E-003   5.8833411732167468E-002
   2.0198194041605021E-002  -5.8989013086650560E-003   5.8596345061669004E-002
   1.8975400809665526E-002  -5.5321364469287232E-003   5.8584679632445652E-002
   1.9100207562849858E-002  -5.5200710079663651E-003   6.3007084471970065E-002
   1.8102907521246547E-002  -5.2284409311602609E-003   6.2330161913097926E-002
   1.7105607479643278E-002  -4.9371794157344190E-003   6.1878824493623225E-002
   1.6108307438039988E-002  -4.6462864616891482E-003   6.1653072213546226E-002
   1.5111007396436699E-002  -4.3557620690243826E-003   6.1652905072866748E-002
   3.0608578113817425E-002  -9.0612595806420226E-003   4.8890804767304175E-002
   2.9044975321266930E-002  -8.4512804434135891E-003   4.8816789900564539E-002
   2.7481372528716477E-002  -7.8542879808480709E-003   4.8880106075404467E-002
   2.5917769736165962E-002  -7.2702821929456173E-003   4.9080753291824222E-002
   2.4354166943615502E-002  -6.6992630797060304E-003   4.9418731549823680E-002
   2.6724186168355910E-002  -7.8848852027376126E-003   5.2203629479664337E-002
   2.5309702772487799E-002  -7.3532967200633237E-003   5.2138224906867509E-002
   2.3895219376619752E-002  -6.8284100398673803E-003   5.2233728085855857E-002
   2.2480735980751679E-002  -6.3102251621500564E-003   5.2490139016629231E-002
   2.1066252584883594E-002  -5.7987420869111128E-003   5.2907457699188032E-002
   2.2846460400305253E-002  -6.7085108248332304E-003   5.5434921101378112E-002
   2.1604673111325037E-002  -6.2553129967128918E-003   5.5384411694708605E-002
   2.0362885822344804E-002  -5.8025320988865856E-003   5.5518386750029756E-002
   1.9121098533364571E-002  -5.3501681313543863E-003   5.5836846267341450E-002
   1.7879311244384348E-002  -4.8982210941160842E-003   5.6339790246643595E-002
   1.8975400809665526E-002  -5.5321364469287232E-003   5.8584679632445652E-002
   1.7929886337778533E-002  -5.1573292733624321E-003   5.8555350264088049E-002
   1.6884371865891569E-002  -4.7766541579058984E-003   5.8734082067926366E-002
   1.5838857394004584E-002  -4.3901111005587709E-003   5.9120875043960658E-002
   1.4793342922117611E-002  -3.9977001013211111E-003   5.9715729192191036E-002
   1.5111007396436699E-002  -4.3557620690243826E-003   6.1652905072866748E-002
   1.4285342451848412E-002  -4.0593455500122499E-003   6.1651040615005370E-002
   1.3459677507260098E-002  -3.7507762169251974E-003   6.1880814039545401E-002
   1.2634012562671812E-002  -3.4300540697632630E-003   6.2342225346486910E-002
   1.1808347618083498E-002  -3.0971791085261380E-003   6.3035274535829910E-002
   2.4354166943615502E-002  -6.6992630797060304E-003   4.9418731549823680E-002
   2.2533872491759310E-002  -6.1258225697990998E-003   4.8970938653695950E-002
   2.0713578039903133E-002  -5.5345525918946148E-003   4.8726657547480401E-002
   1.8893283588046934E-002  -4.9254531459919093E-003   4.8685888231176949E-002
   1.7072989136190736E-002  -4.2985242320917605E-003   4.8848630704785845E-002
   2.1066252584883594E-002  -5.7987420869111128E-003   5.2907457699188032E-002
   1.9451301991793610E-002  -5.2863679021067367E-003   5.2575626634950190E-002
   1.7836351398703543E-002  -4.7655096956932264E-003   5.2450971498332638E-002
   1.6221400805613545E-002  -4.2361674676705818E-003   5.2533492289335237E-002
   1.4606450212523520E-002  -3.6983412180390252E-003   5.2823189007957849E-002
   1.7879311244384348E-002  -4.8982210941160842E-003   5.6339790246643595E-002
   1.6473368647768417E-002  -4.4469132344144846E-003   5.6114575567907249E-002
   1.5067426051152497E-002  -3.9964667994922820E-003   5.6100200954499302E-002
   1.3661483454536593E-002  -3.5468817893493654E-003   5.6296666406419157E-002
   1.2255540857920653E-002  -3.0981582039859012E-003   5.6703971923667496E-002
   1.4793342922117611E-002  -3.9977001013211111E-003   5.9715729192191036E-002
   1.3600072459683770E-002  -3.6074585667222325E-003   5.9587785452567738E-002
   1.2406801997249917E-002  -3.2274239032912821E-003   5.9674345915980531E-002
   1.1213531534816086E-002  -2.8575961110282044E-003   5.9975410582429278E-002
   1.0020261072382226E-002  -2.4979751899331937E-003   6.0490979451914298E-002
   1.1808347618083498E-002  -3.0971791085261380E-003   6.3035274535829910E-002
   1.0831413427539682E-002  -2.7680038990298139E-003   6.2995256288931156E-002
   9.8544792369958389E-003  -2.4583810070900047E-003   6.3173406382776298E-002
   8.8775450464520025E-003  -2.1683104327066688E-003   6.3569724817365142E-002
   7.9006108559081800E-003  -1.8977921758801530E-003   6.4184211592698270E-002
   1.7072989136190736E-002  -4.2985242320917605E-003   4.8848630704785845E-002
   1.5132273127269003E-002  -3.7230685481119408E-003   4.8751168467027206E-002
   1.3191557118347311E-002  -3.2683887919713883E-003   4.8904360729931484E-002
   1.1250841109425598E-002  -2.9344849636695064E-003   4.9308207493498596E-002
   9.3101251005038299E-003  -2.7213570632069750E-003   4.9962708757728680E-002
   1.4606450212523520E-002  -3.6983412180390252E-003   5.2823189007957849E-002
   1.2916746959298717E-002  -3.2151012332574669E-003   5.2722498354723035E-002
   1.1227043706073928E-002  -2.8495177997871490E-003   5.2873178712219332E-002
   9.5373404528491246E-003  -2.6015909176271279E-003   5.3275230080446337E-002
   7.8476371996243355E-003  -2.4713205867783472E-003   5.3928652459404591E-002
   1.2255540857920653E-002  -3.0981582039859012E-003   5.6703971923667496E-002
   1.0817566870461051E-002  -2.7071339184031318E-003   5.6603172231484505E-002
   9.3795928830014592E-003  -2.4306468076029930E-003   5.6754460060100986E-002
   7.9416188955418621E-003  -2.2686968715849645E-003   5.7157835409516786E-002
   6.5036449080822650E-003  -2.2212841103496084E-003   5.7813298279731890E-002
   1.0020261072382226E-002  -2.4979751899331937E-003   6.0490979451914298E-002
   8.8347328607560512E-003  -2.1991666035488383E-003   6.0393190097311769E-002
   7.6492046491298893E-003  -2.0117758154187398E-003   6.0548204773576482E-002
   6.4636764375037223E-003  -1.9358028255427491E-003   6.0956023480708943E-002
   5.2781482258775526E-003  -1.9712476339212026E-003   6.1616646218708944E-002
   7.9006108559081800E-003  -1.8977921758801530E-003   6.4184211592698270E-002
   6.9682449301836924E-003  -1.6911992886942673E-003   6.4092551952204313E-002
   6.0358790044592048E-003  -1.5929048232345422E-003   6.4254412852646103E-002
   5.1035130787347310E-003  -1.6029087795004643E-003   6.4669794294023530E-002
   4.1711471530102573E-003  -1.7212111574923528E-003   6.5338696276336816E-002
   9.3101251005038299E-003  -2.7213570632069750E-003   4.9962708757728680E-002
   7.8844151390561890E-003  -2.8713668566343609E-003   5.0358672195432219E-002
   6.4587051776085758E-003  -3.6268761100038127E-003   5.1084112586033459E-002
   5.0329952161608932E-003  -4.9878848233149767E-003   5.2139029929532205E-002
   3.6072852547132661E-003  -6.9543929965677487E-003   5.3523424225928262E-002
   7.8476371996243355E-003  -2.4713205867783472E-003   5.3928652459404591E-002
   6.7248448302722336E-003  -2.6561456851474374E-003   5.3857535262110179E-002
   5.6020524609201594E-003  -3.3535050906427777E-003   5.4062776296109671E-002
   4.4792600915680506E-003  -4.5633988032638337E-003   5.4544375561402486E-002
   3.3564677222159556E-003  -6.2858268230111536E-003   5.5302333057988817E-002
   6.5036449080822650E-003  -2.2212841103496084E-003   5.7813298279731890E-002
   5.6306514092219900E-003  -2.4409245136604585E-003   5.7368065600254675E-002
   4.7576579103617359E-003  -3.0801340712816178E-003   5.7146072430467779E-002
   3.8846644115015060E-003  -4.1389127832127982E-003   5.7147318770370527E-002
   3.0116709126412344E-003  -5.6172606494542809E-003   5.7371804619963634E-002
   5.2781482258775526E-003  -1.9712476339212026E-003   6.1616646218708944E-002
   4.6018348759054202E-003  -2.2257033421736738E-003   6.0890263209865382E-002
   3.9255215259333311E-003  -2.8067630519205758E-003   6.0334000989107808E-002
   3.2492081759612273E-003  -3.7144267631618200E-003   5.9947859556436625E-002
   2.5728948259891096E-003  -4.9486944758975471E-003   5.9731838911851763E-002
   4.1711471530102573E-003  -1.7212111574923528E-003   6.5338696276336816E-002
   3.6383952303225831E-003  -2.0104821706865561E-003   6.4424128090942223E-002
   3.1056433076349088E-003  -2.5333920325593950E-003   6.3626561972030038E-002
   2.5728913849472207E-003  -3.2899407431108904E-003   6.2945997919600455E-002
   2.0401394622595603E-003  -4.2801283023408132E-003   6.2382435933653557E-002
   3.6072852547132661E-003  -6.9543929965677487E-003   5.3523424225928262E-002
   4.1583988502247038E-003  -9.5425839965352921E-003   5.1854683025278070E-002
   4.7095124457361415E-003  -1.2768641189992130E-002   5.0039419978500976E-002
   5.2606260412475792E-003  -1.6632564576937132E-002   4.8077635085596232E-002
   5.8117396367589613E-003  -2.1134354157370527E-002   4.5969328346564087E-002
   3.3564677222159556E-003  -6.2858268230111536E-003   5.5302333057988817E-002
   3.7788413305821916E-003  -8.5528231613862249E-003   5.2950160177434202E-002
   4.2012149389484277E-003  -1.1396421829892395E-002   5.0487029168716502E-002
   4.6235885473145805E-003  -1.4816622828528601E-002   4.7912940031835882E-002
   5.0459621556808720E-003  -1.8813426157295421E-002   4.5227892766792177E-002
   3.0116709126412344E-003  -5.6172606494542809E-003   5.7371804619963634E-002
   3.3408682518265495E-003  -7.5630623262368246E-003   5.4397463922862155E-002
   3.6700655910118368E-003  -1.0024202469792312E-002   5.1347728815561586E-002
   3.9992629301971241E-003  -1.3000681080120178E-002   4.8222599298062378E-002
   4.3284602693824392E-003  -1.6492498157220536E-002   4.5022075370364623E-002
   2.5728948259891096E-003  -4.9486944758975471E-003   5.9731838911851763E-002
   2.8444796139577479E-003  -6.5733014910874799E-003   5.6196594261561476E-002
   3.1160644019264140E-003  -8.6519831096922920E-003   5.2621518919036381E-002
   3.3876491898950801E-003  -1.1184739331711701E-002   4.9006612884277378E-002
   3.6592339778637184E-003  -1.4171570157145541E-002   4.5351876157283505E-002
   2.0401394622595603E-003  -4.2801283023408132E-003   6.2382435933653557E-002
   2.2896754169758615E-003  -5.5835406559381351E-003   5.8347551193532188E-002
   2.5392113716921627E-003  -7.2797637495923273E-003   5.4308399479140901E-002
   2.7887473264084570E-003  -9.3687975833032927E-003   5.0264980790479363E-002
   3.0382832811247651E-003  -1.1850642157070546E-002   4.6217295127547242E-002
   2.5682844891586981E-002  -7.4309716052690655E-003   6.1343241535611992E-002
   2.4651391918410454E-002  -7.1795920290199378E-003   6.0707413655442244E-002
   2.3619938945233995E-002  -6.9421359585543074E-003   6.0450522072698964E-002
   2.2588485972057502E-002  -6.7186033938721051E-003   6.0572566787382015E-002
   2.1557032998880996E-002  -6.5089943349732615E-003   6.1073547799491257E-002
   1.9108828372853756E-002  -5.5732285612374310E-003   6.2909322535072254E-002
   1.8426043450779750E-002  -5.3846939324783405E-003   6.2333246687559268E-002
   1.7743258528705792E-002  -5.2066019147409132E-003   6.2075570644824912E-002
   1.7060473606631803E-002  -5.0389525080252150E-003   6.2136294406869311E-002
   1.6377688684557822E-002  -4.8817457123311037E-003   6.2515417973692422E-002
   1.2637015191503453E-002  -3.7154855172057966E-003   6.4410818139661874E-002
   1.2242361827884379E-002  -3.5897958359366738E-003   6.3897975219567207E-002
   1.1847708464265302E-002  -3.4710678709274356E-003   6.3642995611603498E-002
   1.1453055100646233E-002  -3.3593016221782415E-003   6.3645879315770967E-002
   1.1058401737027154E-002  -3.2544970896888070E-003   6.3906626332069588E-002
   6.2674053475361129E-003  -1.8577424731741621E-003   6.5847728349380394E-002
   6.1003470497243226E-003  -1.7948977393950419E-003   6.5401599251465811E-002
   5.9332887519125471E-003  -1.7355338271141107E-003   6.5152796973034804E-002
   5.7662304541007629E-003  -1.6796507363313097E-003   6.5101321514087165E-002
   5.5991721562889821E-003  -1.6272484670465520E-003   6.5247172874622950E-002
  -1.1590483225965009E-009   5.7085747240392948E-010   6.7220053164228188E-002
  -8.8370041145813261E-010   3.5714656232421760E-010   6.6844118783255468E-002
  -6.0835250725865819E-010   2.1669940841739788E-010   6.6604974729118693E-002
  -3.3300459612028988E-010   1.4951564292209341E-010   6.6502621001817697E-002
  -5.7656684981921558E-011   1.5559564747746890E-010   6.6537057601352534E-002
   2.1557032998880996E-002  -6.5089943349732615E-003   6.1073547799491257E-002
   2.0942826639873208E-002  -6.2952011475299607E-003   6.1427192424258786E-002
   2.0328620280865427E-002  -6.0591161972144703E-003   6.1867330077927829E-002
   1.9714413921857642E-002  -5.8007394840264917E-003   6.2393960760498191E-002
   1.9100207562849858E-002  -5.5200710079663651E-003   6.3007084471970065E-002
   1.6377688684557822E-002  -4.8817457123311037E-003   6.2515417973692422E-002
   1.5866739994800531E-002  -4.7214008143526692E-003   6.2765389894832671E-002
   1.5355791305043224E-002  -4.5443371007841890E-003   6.3135384125572430E-002
   1.4844842615285925E-002  -4.3505545716254253E-003   6.3625400665911894E-002
   1.4333893925528626E-002  -4.1400532268766610E-003   6.4235439515850756E-002
   1.1058401737027154E-002  -3.2544970896888070E-003   6.3906626332069588E-002
   1.0684239997218428E-002  -3.1476004811753222E-003   6.4047352602300545E-002
   1.0310078257409707E-002  -3.0295580043539078E-003   6.4341630462829133E-002
   9.9359165176009824E-003  -2.9003696592243590E-003   6.4789459913655423E-002
   9.5617547777922599E-003  -2.7600354457869014E-003   6.5390840954779081E-002
   5.5991721562889821E-003  -1.6272484670465520E-003   6.5247172874622950E-002
   5.3953266471269247E-003  -1.5738001479979474E-003   6.5273080546662449E-002
   5.1914811379648543E-003  -1.5147789079236820E-003   6.5486069089697618E-002
   4.9876356288027909E-003  -1.4501847468233482E-003   6.5886138503728486E-002
   4.7837901196407327E-003  -1.3800176646971696E-003   6.6473288788754928E-002
  -5.7656684981921558E-011   1.5559564747746890E-010   6.6537057601352534E-002
  -5.5474003862743260E-011   1.8517928856986998E-010   6.6442573727918341E-002
  -5.3291319274118010E-011   1.8850664085245938E-010   6.6568700006177928E-002
  -5.1108637287577974E-011   1.6557765922242673E-010   6.6915436436131334E-002
  -4.8925953566314462E-011   1.1639250674377877E-010   6.7482783017778492E-002
   1.9100207562849858E-002  -5.5200710079663651E-003   6.3007084471970065E-002
   1.8102907521246547E-002  -5.2284409311602609E-003   6.2330161913097926E-002
   1.7105607479643278E-002  -4.9371794157344190E-003   6.1878824493623225E-002
   1.6108307438039988E-002  -4.6462864616891482E-003   6.1653072213546226E-002
   1.5111007396436699E-002  -4.3557620690243826E-003   6.1652905072866748E-002
   1.4333893925528626E-002  -4.1400532268766610E-003   6.4235439515850756E-002
   1.3568113992998426E-002  -3.9213306830003791E-003   6.3558303926881027E-002
   1.2802334060468233E-002  -3.7028845564597290E-003   6.3118623416659803E-002
   1.2036554127938037E-002  -3.4847148472546552E-003   6.2916397985187236E-002
   1.1270774195407840E-002  -3.2668215553851576E-003   6.2951627632463258E-002
   9.5617547777922599E-003  -2.7600354457869014E-003   6.5390840954779081E-002
   9.0393648936862026E-003  -2.6142204348406639E-003   6.4713584479756614E-002
   8.5169750095801453E-003  -2.4685896971850876E-003   6.4285653022833761E-002
   7.9945851254740862E-003  -2.3231432328202160E-003   6.4107046584010577E-002
   7.4721952413680306E-003  -2.1778810417459604E-003   6.4177765163286979E-002
   4.7837901196407327E-003  -1.3800176646971696E-003   6.6473288788754928E-002
   4.5166602233098537E-003  -1.3071101866810042E-003   6.5796003571724701E-002
   4.2495303269789887E-003  -1.2342948379105885E-003   6.5379913312145002E-002
   3.9824004306481184E-003  -1.1615716183856943E-003   6.5225018010016178E-002
   3.7152705343172446E-003  -1.0889405281067494E-003   6.5331317665337937E-002
  -4.8925953566314462E-011   1.1639250674377877E-010   6.7482783017778492E-002
  -1.8130583839814918E-011   6.1478905299949815E-011   6.6805561202785080E-002
   1.2664785886684626E-011   2.1364174318527773E-011   6.6401404284593651E-002
   4.3460155613184170E-011  -3.9512733363000763E-012   6.6270312263203943E-002
   7.4255525339683714E-011  -1.4467649300797802E-011   6.6412285138615856E-002
   1.5111007396436699E-002  -4.3557620690243826E-003   6.1652905072866748E-002
   1.4285342451848412E-002  -4.0593455500122499E-003   6.1651040615005370E-002
   1.3459677507260098E-002  -3.7507762169251974E-003   6.1880814039545401E-002
   1.2634012562671812E-002  -3.4300540697632630E-003   6.2342225346486910E-002
   1.1808347618083498E-002  -3.0971791085261380E-003   6.3035274535829910E-002
   1.1270774195407840E-002  -3.2668215553851576E-003   6.2951627632463258E-002
   1.0670441721031584E-002  -3.0445091669016322E-003   6.2995745721720564E-002
   1.0070109246655343E-002  -2.8130821678554602E-003   6.3258890869000828E-002
   9.4697767722791010E-003  -2.5725405582461523E-003   6.3741063074303536E-002
   8.8694442979028454E-003  -2.3228843380739828E-003   6.4442262337629230E-002
   7.4721952413680306E-003  -2.1778810417459604E-003   6.4177765163286979E-002
   7.0845844128251366E-003  -2.0296727837914308E-003   6.4264827596151083E-002
   6.6969735842822564E-003  -1.8753881187858965E-003   6.4558306262659154E-002
   6.3093627557393693E-003  -1.7150270467292655E-003   6.5058201162811316E-002
   5.9217519271964822E-003  -1.5485895676217165E-003   6.5764512296607514E-002
   3.7152705343172446E-003  -1.0889405281067494E-003   6.5331317665337937E-002
   3.5277705272290369E-003  -1.0148364006810767E-003   6.5458286238296706E-002
   3.3402705201408291E-003  -9.3769406971641253E-004   6.5779060220520991E-002
   3.1527705130526239E-003  -8.5751353521243325E-004   6.6293639612010610E-002
   2.9652705059644065E-003  -7.7429479716945027E-004   6.7002024412765607E-002
   7.4255525339683714E-011  -1.4467649300797802E-011   6.6412285138615856E-002
   6.4243305120115224E-011  -1.7570833676927577E-011   6.6576121648157627E-002
   5.4231084900546733E-011  -2.0646706566651574E-011   6.6921152742586032E-002
   4.4218866415701719E-011  -2.3695351236696638E-011   6.7447378421901016E-002
   3.4206644461409752E-011  -2.6717295042999467E-011   6.8154798686102747E-002
   1.1808347618083498E-002  -3.0971791085261380E-003   6.3035274535829910E-002
   1.0831413427539682E-002  -2.7680038990298139E-003   6.2995256288931156E-002
   9.8544792369958389E-003  -2.4583810070900047E-003   6.3173406382776298E-002
   8.8775450464520025E-003  -2.1683104327066688E-003   6.3569724817365142E-002
   7.9006108559081800E-003  -1.8977921758801530E-003   6.4184211592698270E-002
   8.8694442979028454E-003  -2.3228843380739828E-003   6.4442262337629230E-002
   8.1171947493017607E-003  -2.0760029313669492E-003   6.4382863063878248E-002
   7.3649452007006760E-003  -1.8437857621535908E-003   6.4554664733268791E-002
   6.6126956520995706E-003  -1.6262328304337235E-003   6.4957667345801010E-002
   5.8604461034985067E-003  -1.4233441362075938E-003   6.5591870901474669E-002
   5.9217519271964822E-003  -1.5485895676217165E-003   6.5764512296607514E-002
   5.4072196229356453E-003  -1.3840019637038903E-003   6.5690620076067532E-002
   4.8926873186748189E-003  -1.2291905172168438E-003   6.5860961401066509E-002
   4.3781550144139838E-003  -1.0841552281607783E-003   6.6275536271604540E-002
   3.8636227101531556E-003  -9.4889609653542317E-004   6.6934344687681419E-002
   2.9652705059644065E-003  -7.7429479716945027E-004   6.7002024412765607E-002
   2.7014880484413483E-003  -6.9200099604092846E-004   6.6918527325499091E-002
   2.4377055909182892E-003  -6.1459527228020783E-004   6.7092296386169287E-002
   2.1739231333952167E-003  -5.4207762588777755E-004   6.7523331594775846E-002
   1.9101406758721580E-003  -4.7444805686322478E-004   6.8211632951319073E-002
   3.4206644461409752E-011  -2.6717295042999467E-011   6.8154798686102747E-002
   2.5818853999215463E-011  -2.8377966643233776E-011   6.8066584812172759E-002
   1.7431063537021174E-011  -2.7343599606766134E-011   6.8248669688577013E-002
   9.0432765442738372E-012  -2.3614811495153987E-011   6.8701053315315064E-002
   6.5548261263259633E-013  -1.7190804335598386E-011   6.9423735692387356E-002
   7.9006108559081800E-003  -1.8977921758801530E-003   6.4184211592698270E-002
   6.9682449301836924E-003  -1.6911992886942673E-003   6.4092551952204313E-002
   6.0358790044592048E-003  -1.5929048232345422E-003   6.4254412852646103E-002
   5.1035130787347310E-003  -1.6029087795004643E-003   6.4669794294023530E-002
   4.1711471530102573E-003  -1.7212111574923528E-003   6.5338696276336816E-002
   5.8604461034985067E-003  -1.4233441362075938E-003   6.5591870901474669E-002
   5.1764934540017224E-003  -1.2683994692635481E-003   6.5443684235938993E-002
   4.4925408045049589E-003  -1.1946786193889336E-003   6.5538803581922794E-002
   3.8085881550081815E-003  -1.2021815865838337E-003   6.5877228939426311E-002
   3.1246355055114111E-003  -1.2909083708488867E-003   6.6458960308449666E-002
   3.8636227101531556E-003  -9.4889609653542317E-004   6.6934344687681419E-002
   3.4178688074678852E-003  -8.4559964983241254E-004   6.6756705601760391E-002
   2.9721149047826252E-003  -7.9645241554290869E-004   6.6812157997942739E-002
   2.5263610020973583E-003  -8.0145439366721000E-004   6.7100701876228630E-002
   2.0806070994120948E-003  -8.6060558420492095E-004   6.7622337236617508E-002
   1.9101406758721580E-003  -4.7444805686322478E-004   6.8211632951319073E-002
   1.6923709905821852E-003  -4.2279983040159619E-004   6.8031616049668592E-002
   1.4746013052922202E-003  -3.9822621169686989E-004   6.8074476100705383E-002
   1.2568316200022517E-003  -4.0072720075052734E-004   6.8340213104429171E-002
   1.0390619347122824E-003  -4.3030279756109402E-004   6.8828827060840536E-002
   6.5548261263259633E-013  -1.7190804335598386E-011   6.9423735692387356E-002
   3.3446093117284192E-012  -1.0970446773228559E-011   6.9268415579663567E-002
   6.0337394802711941E-012  -7.8512474299685664E-012   6.9325757890210782E-002
   8.7228679140904930E-012  -7.8338932563148944E-012   6.9595762624029223E-002
   1.1411996347909792E-011  -1.0917378112651477E-011   7.0078429781118334E-002
   4.1711471530102573E-003  -1.7212111574923528E-003   6.5338696276336816E-002
   3.6383952303225831E-003  -2.0104821706865561E-003   6.4424128090942223E-002
   3.1056433076349088E-003  -2.5333920325593950E-003   6.3626561972030038E-002
   2.5728913849472207E-003  -3.2899407431108904E-003   6.2945997919600455E-002
   2.0401394622595603E-003  -4.2801283023408132E-003   6.2382435933653557E-002
   3.1246355055114111E-003  -1.2909083708488867E-003   6.6458960308449666E-002
   2.7129321277954282E-003  -1.5078616317505400E-003   6.5346487850502011E-002
   2.3012287500794107E-003  -1.9000440288569342E-003   6.4359110416015275E-002
   1.8895253723634070E-003  -2.4674555621674657E-003   6.3496828004988987E-002
   1.4778219946474103E-003  -3.2100962316825576E-003   6.2759640617423562E-002
   2.0806070994120948E-003  -8.6060558420492095E-004   6.7622337236617508E-002
   1.7980452236459332E-003  -1.0052410928146349E-003   6.6370370218591129E-002
   1.5154833478797751E-003  -1.2666960251543763E-003   6.5251591181004001E-002
   1.2329214721136204E-003  -1.6449703812243775E-003   6.4266000123855693E-002
   9.5035959634746925E-004  -2.1400641610240800E-003   6.3413597047146053E-002
   1.0390619347122824E-003  -4.3030279756109402E-004   6.8828827060840536E-002
   8.9373451787415348E-004  -5.0262055387872984E-004   6.7495775195209856E-002
   7.4840710103601157E-004  -6.3334802145203345E-004   6.6304004266996203E-002
   6.0307968419787573E-004  -8.2248520028112108E-004   6.5253514276199895E-002
   4.5775226735974076E-004  -1.0700320903659355E-003   6.4344305222820433E-002
   1.1411996347909792E-011  -1.0917378112651477E-011   7.0078429781118334E-002
   1.0480047385463820E-011  -1.4942658221883676E-011   6.8722702780357747E-002
   9.5481088313587037E-012  -1.7749302028136071E-011   6.7516349673992337E-002
   8.6161598689127317E-012  -1.9338128320889325E-011   6.6459370462022105E-002
   7.6842213148076155E-012  -1.9707457887818691E-011   6.5551765144447383E-002
   2.0401394622595603E-003  -4.2801283023408132E-003   6.2382435933653557E-002
   2.2896754169758615E-003  -5.5835406559381351E-003   5.8347551193532188E-002
   2.5392113716921627E-003  -7.2797637495923273E-003   5.4308399479140901E-002
   2.7887473264084570E-003  -9.3687975833032927E-003   5.0264980790479363E-002
   3.0382832811247651E-003  -1.1850642157070546E-002   4.6217295127547242E-002
   1.4778219946474103E-003  -3.2100962316825576E-003   6.2759640617423562E-002
   1.7085617214787907E-003  -4.1876554969501045E-003   5.8401372295321163E-002
   1.9393014483101642E-003  -5.4598228175195551E-003   5.4009778491718619E-002
   2.1700411751415065E-003  -7.0265981933900767E-003   4.9584859206616871E-002
   2.4007809019729043E-003  -8.8879816245626131E-003   4.5126614440015311E-002
   9.5035959634746925E-004  -2.1400641610240800E-003   6.3413597047146053E-002
   1.1332445880644776E-003  -2.7917703379621850E-003   5.8830147827816981E-002
   1.3161295797814859E-003  -3.6398818854467552E-003   5.4184314619758756E-002
   1.4990145714984995E-003  -4.6843988034775200E-003   4.9476097422971224E-002
   1.6818995632155026E-003  -5.9253210920546806E-003   4.4705496237455233E-002
   4.5775226735974076E-004  -1.0700320903659355E-003   6.4344305222820433E-002
   5.6372401673294298E-004  -1.3958851789743210E-003   5.9633877791020307E-002
   6.6969576610613826E-004  -1.8199409533740801E-003   5.4832007863261638E-002
   7.7566751547933311E-004  -2.3421994135645226E-003   4.9938695439544198E-002
   8.8163926485252189E-004  -2.9626605595467481E-003   4.4953940519868701E-002
   7.6842213148076155E-012  -1.9707457887818691E-011   6.5551765144447383E-002
   7.4841799424518740E-012  -1.9986123866999606E-011   6.0812562184930807E-002
   7.2841385700961325E-012  -2.1301210795243719E-011   5.5952858222226454E-002
   7.0840919935699631E-012  -2.3651754166298389E-011   5.0972653256334183E-002
   6.8840488864907456E-012  -2.7038815630930912E-011   4.5871947287253967E-002
  -1.1590483225965009E-009   5.7085747240392948E-010   6.7220053164228188E-002
  -8.8370041145813261E-010   3.5714656232421760E-010   6.6844118783255468E-002
  -6.0835250725865819E-010   2.1669940841739788E-010   6.6604974729118693E-002
  -3.3300459612028988E-010   1.4951564292209341E-010   6.6502621001817697E-002
  -5.7656684981921558E-011   1.5559564747746890E-010   6.6537057601352534E-002
  -6.2674074927080436E-003   1.8577436888184140E-003   6.5847726954705338E-002
  -6.1003486838048203E-003   1.7948985569857800E-003   6.5401598296757041E-002
  -5.9332898749015761E-003   1.7355343675668489E-003   6.5152796379083791E-002
  -5.7662310659983467E-003   1.6796511205617870E-003   6.5101321201685158E-002
  -5.5991722570951086E-003   1.6272488159705945E-003   6.5247172764561268E-002
  -1.2637016817901298E-002   3.7154868067794666E-003   6.4410815392485249E-002
  -1.2242363062003861E-002   3.5897967568249284E-003   6.3897973326712015E-002
  -1.1847709306106430E-002   3.4710685184344142E-003   6.3642994414652376E-002
  -1.1453055550208990E-002   3.3593020916079623E-003   6.3645878656306359E-002
  -1.1058401794311543E-002   3.2544974763454859E-003   6.3906626051674090E-002
  -1.9108829134628101E-002   5.5732299247404915E-003   6.2909318477568477E-002
  -1.8426044018297585E-002   5.3846949566640698E-003   6.2333243873120253E-002
  -1.7743258901967044E-002   5.2066026693019449E-003   6.2075568835824477E-002
  -1.7060473785636524E-002   5.0389530626541220E-003   6.2136293365681321E-002
  -1.6377688669305994E-002   4.8817461367203774E-003   6.2515417462690584E-002
  -2.5682844442888451E-002   7.4309730427014609E-003   6.1343236209954743E-002
  -2.4651391552685940E-002   7.1795931565032389E-003   6.0707409935981671E-002
  -2.3619938662483460E-002   6.9421368201694755E-003   6.0450519642600176E-002
  -2.2588485772280967E-002   6.7186040337002262E-003   6.0572565329809924E-002
  -2.1557032882078459E-002   6.5089947970953244E-003   6.1073546997611194E-002
  -5.7656684981921558E-011   1.5559564747746890E-010   6.6537057601352534E-002
  -5.5474003862743260E-011   1.8517928856986998E-010   6.6442573727918341E-002
  -5.3291319274118010E-011   1.8850664085245938E-010   6.6568700006177928E-002
  -5.1108637287577974E-011   1.6557765922242673E-010   6.6915436436131334E-002
  -4.8925953566314462E-011   1.1639250674377877E-010   6.7482783017778492E-002
  -5.5991722570951086E-003   1.6272488159705945E-003   6.5247172764561268E-002
  -5.3953267448199321E-003   1.5738005063840876E-003   6.5273080422417418E-002
  -5.1914812325447677E-003   1.5147792443930691E-003   6.5486068948764867E-002
  -4.9876357202695938E-003   1.4501850299978823E-003   6.5886138343603379E-002
  -4.7837902079944268E-003   1.3800178631981908E-003   6.6473288606933162E-002
  -1.1058401794311543E-002   3.2544974763454859E-003   6.3906626051674090E-002
  -1.0684240055146486E-002   3.1476008275888451E-003   6.4047352314672429E-002
  -1.0310078315981425E-002   3.0295583002796708E-003   6.4341630162959407E-002
  -9.9359165768163615E-003   2.9003698944179961E-003   6.4789459596535079E-002
  -9.5617548376513099E-003   2.7600356100038470E-003   6.5390840615399140E-002
  -1.6377688669305994E-002   4.8817461367203774E-003   6.2515417462690584E-002
  -1.5866739986453653E-002   4.7214011487934845E-003   6.2765389404683194E-002
  -1.5355791303601297E-002   4.5443373561661858E-003   6.3135383648761687E-002
  -1.4844842620748942E-002   4.3505547588382201E-003   6.3625400194926185E-002
  -1.4333893937896585E-002   4.1400533568095726E-003   6.4235439043176787E-002
  -2.1557032882078459E-002   6.5089947970953244E-003   6.1073546997611194E-002
  -2.0942826538741414E-002   6.2952014699984571E-003   6.1427191692449756E-002
  -2.0328620195404372E-002   6.0591164120527147E-003   6.1867329406171651E-002
  -1.9714413852067333E-002   5.8007396232583643E-003   6.2393960138776974E-002
  -1.9100207508730288E-002   5.5200711036151873E-003   6.3007083890265714E-002
  -4.8925953566314462E-011   1.1639250674377877E-010   6.7482783017778492E-002
  -1.8130583839814918E-011   6.1478905299949815E-011   6.6805561202785080E-002
   1.2664785886684626E-011   2.1364174318527773E-011   6.6401404284593651E-002
   4.3460155613184170E-011  -3.9512733363000763E-012   6.6270312263203943E-002
   7.4255525339683714E-011  -1.4467649300797802E-011   6.6412285138615856E-002
  -4.7837902079944268E-003   1.3800178631981908E-003   6.6473288606933162E-002
  -4.5166602533464901E-003   1.3071102947521396E-003   6.5796003430357686E-002
  -4.2495302986985551E-003   1.2342948754180683E-003   6.5379913204685655E-002
  -3.9824003440506210E-003   1.1615716051954841E-003   6.5225017929916834E-002
  -3.7152703894026834E-003   1.0889404840851435E-003   6.5331317606051598E-002
  -9.5617548376513099E-003   2.7600356100038470E-003   6.5390840615399140E-002
  -9.0393649050492138E-003   2.6142205280256653E-003   6.4713584211554320E-002
  -8.5169749724471160E-003   2.4685897294719691E-003   6.4285652812714311E-002
  -7.9945850398450320E-003   2.3231432143426874E-003   6.4107046418879390E-002
  -7.4721951072429359E-003   2.1778809826378809E-003   6.4177765030049322E-002
  -1.4333893937896585E-002   4.1400533568095726E-003   6.4235439043176787E-002
  -1.3568113973238743E-002   3.9213307612991841E-003   6.3558303546375039E-002
  -1.2802334008580900E-002   3.7028845835257833E-003   6.3118623108679883E-002
  -1.2036554043923058E-002   3.4847148234896678E-003   6.2916397730091111E-002
  -1.1270774079265203E-002   3.2668214811905905E-003   6.2951627410609126E-002
  -1.9100207508730288E-002   5.5200711036151873E-003   6.3007083890265714E-002
  -1.8102907457915089E-002   5.2284409945724253E-003   6.2330161434819897E-002
  -1.7105607407099904E-002   4.9371794375797501E-003   6.1878824092582135E-002
  -1.6108307356284712E-002   4.6462864326366725E-003   6.1653071863552497E-002
  -1.5111007305469520E-002   4.3557619797433555E-003   6.1652904747731052E-002
   7.4255525339683714E-011  -1.4467649300797802E-011   6.6412285138615856E-002
   6.4243305120115224E-011  -1.7570833676927577E-011   6.6576121648157627E-002
   5.4231084900546733E-011  -2.0646706566651574E-011   6.6921152742586032E-002
   4.4218866415701719E-011  -2.3695351236696638E-011   6.7447378421901016E-002
   3.4206644461409752E-011  -2.6717295042999467E-011   6.8154798686102747E-002
  -3.7152703894026834E-003   1.0889404840851435E-003   6.5331317606051598E-002
  -3.5277704002819269E-003   1.0148363391190296E-003   6.5458286177259795E-002
  -3.3402704111611635E-003   9.3769399732998582E-004   6.5779060161847230E-002
  -3.1527704220403983E-003   8.5751345871814405E-004   6.6293639559813988E-002
  -2.9652704329196367E-003   7.7429472328327531E-004   6.7002024371160207E-002
  -7.4721951072429359E-003   2.1778809826378809E-003   6.4177765030049322E-002
  -7.0845842904965085E-003   2.0296726958087818E-003   6.4264827466073843E-002
  -6.6969734737500810E-003   1.8753880153067892E-003   6.4558306143970415E-002
  -6.3093626570036466E-003   1.7150269411317504E-003   6.5058201063739010E-002
  -5.9217518402572260E-003   1.5485894732838457E-003   6.5764512225379573E-002
  -1.1270774079265203E-002   3.2668214811905905E-003   6.2951627410609126E-002
  -1.0670441606400440E-002   3.0445090524985896E-003   6.2995745514599966E-002
  -1.0070109133535676E-002   2.8130820332835371E-003   6.3258890688955502E-002
  -9.4697766606709113E-003   2.5725404235455232E-003   6.3741062933675624E-002
  -8.8694441878061532E-003   2.3228842232844160E-003   6.4442262248760568E-002
  -1.5111007305469520E-002   4.3557619797433555E-003   6.1652904747731052E-002
  -1.4285342347993731E-002   4.0593454091883419E-003   6.1651040322838024E-002
  -1.3459677390517941E-002   3.7507760512602711E-003   6.1880813796802520E-002
  -1.2634012433042151E-002   3.4300539059590705E-003   6.2342225169624441E-002
  -1.1808347475566361E-002   3.0971789732848753E-003   6.3035274441303524E-002
   3.4206644461409752E-011  -2.6717295042999467E-011   6.8154798686102747E-002
   2.5818853999215463E-011  -2.8377966643233776E-011   6.8066584812172759E-002
   1.7431063537021174E-011  -2.7343599606766134E-011   6.8248669688577013E-002
   9.0432765442738372E-012  -2.3614811495153987E-011   6.8701053315315064E-002
   6.5548261263259633E-013  -1.7190804335598386E-011   6.9423735692387356E-002
  -2.9652704329196367E-003   7.7429472328327531E-004   6.7002024371160207E-002
  -2.7014879925005911E-003   6.9200092881510633E-004   6.6918527296217334E-002
  -2.4377055520815403E-003   6.1459521310325282E-004   6.7092296368554127E-002
  -2.1739231116624878E-003   5.4207757614749275E-004   6.7523331588170449E-002
  -1.9101406712434439E-003   4.7444801794827018E-004   6.8211632955066492E-002
  -5.9217518402572260E-003   1.5485894732838457E-003   6.5764512225379573E-002
  -5.4072195540857204E-003   1.3840018860082903E-003   6.5690620025485064E-002
  -4.8926872679142218E-003   1.2291904535502302E-003   6.5860961369815854E-002
  -4.3781549817427266E-003   1.0841551759099115E-003   6.6275536258371986E-002
  -3.8636226955712175E-003   9.4889605308728919E-004   6.6934344691153225E-002
  -8.8694441878061532E-003   2.3228842232844160E-003   6.4442262248760568E-002
  -8.1171946589365714E-003   2.0760028432014743E-003   6.4382862999976032E-002
  -7.3649451300670044E-003   1.8437856939972005E-003   6.4554664692362360E-002
  -6.6126956011974304E-003   1.6262327756724395E-003   6.4957667325919496E-002
  -5.8604460723278556E-003   1.4233440882264470E-003   6.5591870900647470E-002
  -1.1808347475566361E-002   3.0971789732848753E-003   6.3035274441303524E-002
  -1.0831413307053110E-002   2.7680038003944918E-003   6.2995256219690265E-002
  -9.8544791385398525E-003   2.4583809344440599E-003   6.3173406336193394E-002
  -8.8775449700265949E-003   2.1683103754345789E-003   6.3569724790812937E-002
  -7.9006108015133442E-003   1.8977921233654937E-003   6.4184211583549255E-002
   6.5548261263259633E-013  -1.7190804335598386E-011   6.9423735692387356E-002
   3.3446093117284192E-012  -1.0970446773228559E-011   6.9268415579663567E-002
   6.0337394802711941E-012  -7.8512474299685664E-012   6.9325757890210782E-002
   8.7228679140904930E-012  -7.8338932563148944E-012   6.9595762624029223E-002
   1.1411996347909792E-011  -1.0917378112651477E-011   7.0078429781118334E-002
  -1.9101406712434439E-003   4.7444801794827018E-004   6.8211632955066492E-002
  -1.6923709812658901E-003   4.2279980085774271E-004   6.8031616054111343E-002
  -1.4746012912883310E-003   3.9822618722804015E-004   6.8074476104461878E-002
  -1.2568316013107719E-003   4.0072717705962740E-004   6.8340213106118486E-002
  -1.0390619113332181E-003   4.3030277035283060E-004   6.8828827059080722E-002
  -3.8636226955712175E-003   9.4889605308728919E-004   6.6934344691153225E-002
  -3.4178687902703658E-003   8.4559961268532158E-004   6.6756705608529143E-002
  -2.9721148849695001E-003   7.9645238230742488E-004   6.6812158005245800E-002
  -2.5263609796686453E-003   8.0145436195292255E-004   6.7100701881303265E-002
  -2.0806070743677827E-003   8.6060555162276176E-004   6.7622337236701469E-002
  -5.8604460723278556E-003   1.4233440882264470E-003   6.5591870900647470E-002
  -5.1764934236688195E-003   1.2683994245133168E-003   6.5443684242917077E-002
  -4.4925407750097679E-003   1.1946785773865390E-003   6.5538803592562353E-002
  -3.8085881263507349E-003   1.2021815468465525E-003   6.5877228949583269E-002
  -3.1246354776916807E-003   1.2909083328927207E-003   6.6458960313979576E-002
  -7.9006108015133442E-003   1.8977921233654937E-003   6.4184211583549255E-002
  -6.9682448814612497E-003   1.6911992363410344E-003   6.4092551957275146E-002
  -6.0358789614091517E-003   1.5929047724661805E-003   6.4254412866411703E-002
  -5.1035130413570537E-003   1.6029087317397592E-003   6.4669794310958734E-002
  -4.1711471213049592E-003   1.7212111141629016E-003   6.5338696290916043E-002
   1.1411996347909792E-011  -1.0917378112651477E-011   7.0078429781118334E-002
   1.0480047385463820E-011  -1.4942658221883676E-011   6.8722702780357747E-002
   9.5481088313587037E-012  -1.7749302028136071E-011   6.7516349673992337E-002
   8.6161598689127317E-012  -1.9338128320889325E-011   6.6459370462022105E-002
   7.6842213148076155E-012  -1.9707457887818691E-011   6.5551765144447383E-002
  -1.0390619113332181E-003   4.3030277035283060E-004   6.8828827059080722E-002
  -8.9373449653204137E-004   5.0262052172816984E-004   6.7495775196329766E-002
  -7.4840708173086988E-004   6.3334798580727547E-004   6.6304004270649780E-002
  -6.0307966692969752E-004   8.2248516259039728E-004   6.5253514282040362E-002
  -4.5775225212852169E-004   1.0700320520775630E-003   6.4344305230502608E-002
  -2.0806070743677827E-003   8.6060555162276176E-004   6.7622337236701469E-002
  -1.7980452011578212E-003   1.0052410583988591E-003   6.6370370223445163E-002
  -1.5154833279478726E-003   1.2666959893641583E-003   6.5251591189935926E-002
  -1.2329214547379111E-003   1.6449703445188049E-003   6.4266000136172910E-002
  -9.5035958152796252E-004   2.1400641238628615E-003   6.3413597062156962E-002
  -3.1246354776916807E-003   1.2909083328927207E-003   6.6458960313979576E-002
  -2.7129321033972737E-003   1.5078615950696178E-003   6.5346487861704050E-002
  -2.3012287291028733E-003   1.9000439929212215E-003   6.4359110431850830E-002
  -1.8895253548084736E-003   2.4674555264472715E-003   6.3496828024419930E-002
  -1.4778219805140665E-003   3.2100961956482432E-003   6.2759640639411363E-002
  -4.1711471213049592E-003   1.7212111141629016E-003   6.5338696290916043E-002
  -3.6383952032504330E-003   2.0104821317404320E-003   6.4424128111106538E-002
  -3.1056432851958998E-003   2.5333919964778961E-003   6.3626561996394604E-002
  -2.5728913671413736E-003   3.2899407083756965E-003   6.2945997946780796E-002
  -2.0401394490868405E-003   4.2801282674334029E-003   6.2382435962264893E-002
   7.6842213148076155E-012  -1.9707457887818691E-011   6.5551765144447383E-002
   7.4841799424518740E-012  -1.9986123866999606E-011   6.0812562184930807E-002
   7.2841385700961325E-012  -2.1301210795243719E-011   5.5952858222226454E-002
   7.0840919935699631E-012  -2.3651754166298389E-011   5.0972653256334183E-002
   6.8840488864907456E-012  -2.7038815630930912E-011   4.5871947287253967E-002
  -4.5775225212852169E-004   1.0700320520775630E-003   6.4344305230502608E-002
  -5.6372400186940202E-004   1.3958851398697680E-003   5.9633877796481272E-002
  -6.6969575161029450E-004   1.8199409115673137E-003   5.4832007866566390E-002
  -7.7566750135116876E-004   2.3421993671716643E-003   4.9938695440758074E-002
  -8.8163925109205343E-004   2.9626605066819245E-003   4.4953940519055546E-002
  -9.5035958152796252E-004   2.1400641238628615E-003   6.3413597062156962E-002
  -1.1332445735154125E-003   2.7917702997256044E-003   5.8830147838573599E-002
  -1.3161295655028573E-003   3.6398818444365183E-003   5.4184314626390409E-002
  -1.4990145574903329E-003   4.6843987579951972E-003   4.9476097425608385E-002
  -1.6818995494777660E-003   5.9253210404024426E-003   4.4705496236226439E-002
  -1.4778219805140665E-003   3.2100961956482432E-003   6.2759640639411363E-002
  -1.7085617074538372E-003   4.1876554595814686E-003   5.8401372311207379E-002
  -1.9393014343936222E-003   5.4598227773049388E-003   5.4009778501698316E-002
  -2.1700411613334177E-003   7.0265981488191170E-003   4.9584859210884416E-002
  -2.4007808882731780E-003   8.8879815741229606E-003   4.5126614438764423E-002
  -2.0401394490868405E-003   4.2801282674334029E-003   6.2382435962264893E-002
  -2.2896754036846809E-003   5.5835406194374437E-003   5.8347551214382842E-002
  -2.5392113582825178E-003   7.2797637101744139E-003   5.4308399492489889E-002
  -2.7887473128803564E-003   9.3687975396422457E-003   5.0264980796585756E-002
  -3.0382832674781951E-003   1.1850642107843701E-002   4.6217295126671054E-002
  -2.5682844442888451E-002   7.4309730427014609E-003   6.1343236209954743E-002
  -2.4651391552685940E-002   7.1795931565032389E-003   6.0707409935981671E-002
  -2.3619938662483460E-002   6.9421368201694755E-003   6.0450519642600176E-002
  -2.2588485772280967E-002   6.7186040337002262E-003   6.0572565329809924E-002
  -2.1557032882078459E-002   6.5089947970953244E-003   6.1073546997611194E-002
  -3.2220924860130590E-002   9.2740452207438207E-003   5.8888438067985327E-002
  -3.0858850954548340E-002   9.0150190341317937E-003   5.8380716791748416E-002
  -2.9496777048966097E-002   8.7467636764110013E-003   5.8155301565679635E-002
  -2.8134703143383850E-002   8.4692791475815404E-003   5.8212192389778927E-002
  -2.6772629237801601E-002   8.1825654476432863E-003   5.8551389264046322E-002
  -3.8584932503802738E-002   1.1117117398786125E-002   5.6437569986088371E-002
  -3.6988867513264086E-002   1.0850444911760265E-002   5.6034800986614591E-002
  -3.5392802522725433E-002   1.0551390532652499E-002   5.5817708106885466E-002
  -3.3796737532186781E-002   1.0219954261462855E-002   5.5786291346901162E-002
  -3.2200672541648157E-002   9.8561360981912483E-003   5.5940550706661513E-002
  -4.4774867373904889E-002   1.2960189576828485E-002   5.3990631964264568E-002
  -4.3041441228833223E-002   1.2685870789388751E-002   5.3669662520580544E-002
  -4.1308015083761487E-002   1.2356017388893928E-002   5.3437739266217893E-002
  -3.9574588938689766E-002   1.1970629375344113E-002   5.3294862201176581E-002
  -3.7841162793618037E-002   1.1529706748739238E-002   5.3241031325456795E-002
  -5.0790729470437140E-002   1.4803261754870789E-002   5.1547624002513337E-002
  -4.9016572101255651E-002   1.4521296667017236E-002   5.1285301393645844E-002
  -4.7242414732074245E-002   1.4160644245135440E-002   5.1015395043676581E-002
  -4.5468257362892811E-002   1.3721304489225448E-002   5.0737904952605245E-002
  -4.3694099993711336E-002   1.3203277399287117E-002   5.0452831120432140E-002
  -2.1557032882078459E-002   6.5089947970953244E-003   6.1073546997611194E-002
  -2.0942826538741414E-002   6.2952014699984571E-003   6.1427191692449756E-002
  -2.0328620195404372E-002   6.0591164120527147E-003   6.1867329406171651E-002
  -1.9714413852067333E-002   5.8007396232583643E-003   6.2393960138776974E-002
  -1.9100207508730288E-002   5.5200711036151873E-003   6.3007083890265714E-002
  -2.6772629237801601E-002   8.1825654476432863E-003   5.8551389264046322E-002
  -2.6046115333532269E-002   7.8862773855964824E-003   5.8702295910831856E-002
  -2.5319601429262928E-002   7.5800697704412195E-003   5.8991324660598449E-002
  -2.4593087524993562E-002   7.2639426021773000E-003   5.9418475513346350E-002
  -2.3866573620724231E-002   6.9378958808048452E-003   5.9983748469075393E-002
  -3.2200672541648157E-002   9.8561360981912483E-003   5.5940550706661513E-002
  -3.1310221992348702E-002   9.4773533011946187E-003   5.5901091483134088E-002
  -3.0419771443049234E-002   9.1010231288296620E-003   5.6051383446685747E-002
  -2.9529320893749773E-002   8.7271455810962895E-003   5.6391426597316427E-002
  -2.8638870344450312E-002   8.3557206579947252E-003   5.6921220935026093E-002
  -3.7841162793618037E-002   1.1529706748739238E-002   5.3241031325456795E-002
  -3.6735146515190636E-002   1.1068429216792755E-002   5.3023578409356717E-002
  -3.5629130236763271E-002   1.0621976487218136E-002   5.3047505764433456E-002
  -3.4523113958335877E-002   1.0190348560015362E-002   5.3312813390687067E-002
  -3.3417097679908504E-002   9.7735454351844109E-003   5.3819501288117355E-002
  -4.3694099993711336E-002   1.3203277399287117E-002   5.0452831120432140E-002
  -4.2320888902058193E-002   1.2659505132390753E-002   5.0069756689499534E-002
  -4.0947677810405057E-002   1.2142929845606623E-002   4.9979691613841609E-002
  -3.9574466718751922E-002   1.1653551538934274E-002   5.0182635893458422E-002
  -3.8201255627098779E-002   1.1191370212374263E-002   5.0678589528349804E-002
  -1.9100207508730288E-002   5.5200711036151873E-003   6.3007083890265714E-002
  -1.8102907457915089E-002   5.2284409945724253E-003   6.2330161434819897E-002
  -1.7105607407099904E-002   4.9371794375797501E-003   6.1878824092582135E-002
  -1.6108307356284712E-002   4.6462864326366725E-003   6.1653071863552497E-002
  -1.5111007305469520E-002   4.3557619797433555E-003   6.1652904747731052E-002
  -2.3866573620724231E-002   6.9378958808048452E-003   5.9983748469075393E-002
  -2.2643780402292389E-002   6.6017810397767385E-003   5.9295879389229200E-002
  -2.1420987183860554E-002   6.2554495125451554E-003   5.8833411531408114E-002
  -2.0198193965428716E-002   5.8989012991102936E-003   5.8596344895612218E-002
  -1.8975400746996857E-002   5.5321363994721984E-003   5.8584679481841484E-002
  -2.8638870344450312E-002   8.3557206579947252E-003   5.6921220935026093E-002
  -2.7190767849584789E-002   7.9751210849807741E-003   5.6211819992526391E-002
  -2.5742665354719248E-002   7.5737195875105121E-003   5.5727636380868979E-002
  -2.4294562859853694E-002   7.1515161655840830E-003   5.5468670100053727E-002
  -2.2846460364988184E-002   6.7085108192010690E-003   5.5434921150080627E-002
  -3.3417097679908504E-002   9.7735454351844109E-003   5.3819501288117355E-002
  -3.1743869799792261E-002   9.3484611301849485E-003   5.3077983244711427E-002
  -3.0070641919676021E-002   8.8919896624758375E-003   5.2561498640964446E-002
  -2.8397414039559785E-002   8.4041310320577892E-003   5.2270047476876941E-002
  -2.6724186159443566E-002   7.8848852389300367E-003   5.2203629752448577E-002
  -3.8201255627098779E-002   1.1191370212374263E-002   5.0678589528349804E-002
  -3.6303086252914785E-002   1.0721801175388901E-002   4.9894369145784212E-002
  -3.4404916878730846E-002   1.0210259737441302E-002   4.9334998311694883E-002
  -3.2506747504546886E-002   9.6567458985314450E-003   4.9000477026081818E-002
  -3.0608578130362912E-002   9.0612596586587824E-003   4.8890805288945072E-002
  -1.5111007305469520E-002   4.3557619797433555E-003   6.1652904747731052E-002
  -1.4285342347993731E-002   4.0593454091883419E-003   6.1651040322838024E-002
  -1.3459677390517941E-002   3.7507760512602711E-003   6.1880813796802520E-002
  -1.2634012433042151E-002   3.4300539059590705E-003   6.2342225169624441E-002
  -1.1808347475566361E-002   3.0971789732848753E-003   6.3035274441303524E-002
  -1.8975400746996857E-002   5.5321363994721984E-003   5.8584679481841484E-002
  -1.7929886250614313E-002   5.1573291935857468E-003   5.8555350163700670E-002
  -1.6884371754231704E-002   4.7766540614058023E-003   5.8734082024516077E-002
  -1.5838857257849108E-002   4.3901110029322642E-003   5.9120875064287773E-002
  -1.4793342761466551E-002   3.9977000181652400E-003   5.9715729283015606E-002
  -2.2846460364988184E-002   6.7085108192010690E-003   5.5434921150080627E-002
  -2.1604673049599999E-002   6.2553129779830685E-003   5.5384411799771507E-002
  -2.0362885734211803E-002   5.8025320715512294E-003   5.5518386908517493E-002
  -1.9121098418823607E-002   5.3501680999055150E-003   5.5836846476318508E-002
  -1.7879311103435422E-002   4.8982210630457712E-003   5.6339790503174614E-002
  -2.6724186159443566E-002   7.8848852389300367E-003   5.2203629752448577E-002
  -2.5309702744950889E-002   7.3532967623804874E-003   5.2138225231050675E-002
  -2.3895219330458208E-002   6.8284100816966530E-003   5.2233728448806804E-002
  -2.2480735915965541E-002   6.3102251968786263E-003   5.2490139405716965E-002
  -2.1066252501472878E-002   5.7987421079262746E-003   5.2907458101780658E-002
  -3.0608578130362912E-002   9.0612596586587824E-003   4.8890805288945072E-002
  -2.9044975336666931E-002   8.4512805467776841E-003   4.8816790457538228E-002
  -2.7481372542970978E-002   7.8542880918422431E-003   4.8880106645384003E-002
  -2.5917769749275010E-002   7.2702822938518624E-003   4.9080753852482589E-002
  -2.4354166955579043E-002   6.6992631528066671E-003   4.9418732078833849E-002
  -1.1808347475566361E-002   3.0971789732848753E-003   6.3035274441303524E-002
  -1.0831413307053110E-002   2.7680038003944918E-003   6.2995256219690265E-002
  -9.8544791385398525E-003   2.4583809344440599E-003   6.3173406336193394E-002
  -8.8775449700265949E-003   2.1683103754345789E-003   6.3569724790812937E-002
  -7.9006108015133442E-003   1.8977921233654937E-003   6.4184211583549255E-002
  -1.4793342761466551E-002   3.9977000181652400E-003   5.9715729283015606E-002
  -1.3600072320615660E-002   3.6074585026055206E-003   5.9587785525378967E-002
  -1.2406801879764787E-002   3.2274238517540632E-003   5.9674345974301241E-002
  -1.1213531438913923E-002   2.8575960656106042E-003   5.9975410629782192E-002
  -1.0020260998063024E-002   2.4979751441751574E-003   6.0490979491821861E-002
  -1.7879311103435422E-002   4.8982210630457712E-003   5.6339790503174614E-002
  -1.6473368521804664E-002   4.4469132048170212E-003   5.6114575767282460E-002
  -1.5067425940173861E-002   3.9964667690638445E-003   5.6100201106391356E-002
  -1.3661483358543084E-002   3.5468817557865184E-003   5.6296666520501137E-002
  -1.2255540776912297E-002   3.0981581649848766E-003   5.6703972009612275E-002
  -2.1066252501472878E-002   5.7987421079262746E-003   5.2907458101780658E-002
  -1.9451301910619934E-002   5.2863679070282860E-003   5.2575626945400480E-002
  -1.7836351319767001E-002   4.7655096863737922E-003   5.2450971732463700E-002
  -1.6221400728914089E-002   4.2361674459624327E-003   5.2533492462970378E-002
  -1.4606450138061127E-002   3.6983411857945125E-003   5.2823189136919878E-002
  -2.4354166955579043E-002   6.6992631528066671E-003   4.9418732078833849E-002
  -2.2533872487061651E-002   6.1258226092396062E-003   4.8970939059733376E-002
  -2.0713578018544274E-002   5.5345526036836290E-003   4.8726657852518396E-002
  -1.8893283550026896E-002   4.9254531361385134E-003   4.8685888457189047E-002
  -1.7072989081509504E-002   4.2985242066042595E-003   4.8848630873745247E-002
  -7.9006108015133442E-003   1.8977921233654937E-003   6.4184211583549255E-002
  -6.9682448814612497E-003   1.6911992363410344E-003   6.4092551957275146E-002
  -6.0358789614091517E-003   1.5929047724661805E-003   6.4254412866411703E-002
  -5.1035130413570537E-003   1.6029087317397592E-003   6.4669794310958734E-002
  -4.1711471213049592E-003   1.7212111141629016E-003   6.5338696290916043E-002
  -1.0020260998063024E-002   2.4979751441751574E-003   6.0490979491821861E-002
  -8.8347327965491544E-003   2.1991665554184636E-003   6.0393190141198927E-002
  -7.6492045950352638E-003   2.0117757673114300E-003   6.0548204818089063E-002
  -6.4636763935213750E-003   1.9358027798536265E-003   6.0956023522492422E-002
  -5.2781481920074792E-003   1.9712475930455664E-003   6.1616646254408380E-002
  -1.2255540776912297E-002   3.0981581649848766E-003   5.6703972009612275E-002
  -1.0817566801834004E-002   2.7071338744960316E-003   5.6603172312140682E-002
  -9.3795928267556943E-003   2.4306467621569156E-003   5.6754460134284715E-002
  -7.9416188516773789E-003   2.2686968279674972E-003   5.7157835476044298E-002
  -6.5036448765990913E-003   2.2212840719280091E-003   5.7813298337419883E-002
  -1.4606450138061127E-002   3.6983411857945125E-003   5.2823189136919878E-002
  -1.2916746897315794E-002   3.2151011935735857E-003   5.2722498470099952E-002
  -1.1227043656570505E-002   2.8495177570022831E-003   5.2873178814998326E-002
  -9.5373404158251938E-003   2.6015908760816994E-003   5.3275230171615263E-002
  -7.8476371750798822E-003   2.4713205508107849E-003   5.3928652539950148E-002
  -1.7072989081509504E-002   4.2985242066042595E-003   4.8848630873745247E-002
  -1.5132273082994585E-002   3.7230685126509178E-003   4.8751168615077445E-002
  -1.3191557084479638E-002   3.2683887518476507E-003   4.8904360860230478E-002
  -1.1250841085964691E-002   2.9344849241951243E-003   4.9308207609204485E-002
  -9.3101250874497721E-003   2.7213570296932277E-003   4.9962708861999494E-002
  -4.1711471213049592E-003   1.7212111141629016E-003   6.5338696290916043E-002
  -3.6383952032504330E-003   2.0104821317404320E-003   6.4424128111106538E-002
  -3.1056432851958998E-003   2.5333919964778961E-003   6.3626561996394604E-002
  -2.5728913671413736E-003   3.2899407083756965E-003   6.2945997946780796E-002
  -2.0401394490868405E-003   4.2801282674334029E-003   6.2382435962264893E-002
  -5.2781481920074792E-003   1.9712475930455664E-003   6.1616646254408380E-002
  -4.6018348474871594E-003   2.2257033063738940E-003   6.0890263245469312E-002
  -3.9255215029668829E-003   2.8067630193261417E-003   6.0334001024364009E-002
  -3.2492081584466091E-003   3.7144267319020041E-003   5.9947859591092098E-002
  -2.5728948139262901E-003   4.9486944441018421E-003   5.9731838945653593E-002
  -6.5036448765990913E-003   2.2212840719280091E-003   5.7813298337419883E-002
  -5.6306513828774316E-003   2.4409244810072173E-003   5.7368065651815403E-002
  -4.7576578891557718E-003   3.0801340421739154E-003   5.7146072476779691E-002
  -3.8846643954341138E-003   4.1389127554285268E-003   5.7147318812313525E-002
  -3.0116709017124262E-003   5.6172606207703923E-003   5.7371804658416237E-002
  -7.8476371750798822E-003   2.4713205508107849E-003   5.3928652539950148E-002
  -6.7248448094212165E-003   2.6561456556404989E-003   5.3857535330143591E-002
  -5.6020524437625629E-003   3.3535050650219250E-003   5.4062776353642032E-002
  -4.4792600781039110E-003   4.5633987789547199E-003   5.4544375610445006E-002
  -3.3564677124452449E-003   6.2858267974391091E-003   5.5302333100553006E-002
  -9.3101250874497721E-003   2.7213570296932277E-003   4.9962708861999494E-002
  -7.8844151271185159E-003   2.8713668302740025E-003   5.0358672280454764E-002
  -6.4587051667872597E-003   3.6268760878701012E-003   5.1084112654950720E-002
  -5.0329952064560035E-003   4.9878848024812322E-003   5.2139029985487029E-002
  -3.6072852461247473E-003   6.9543929741072708E-003   5.3523424272063358E-002
  -2.0401394490868405E-003   4.2801282674334029E-003   6.2382435962264893E-002
  -2.2896754036846809E-003   5.5835406194374437E-003   5.8347551214382842E-002
  -2.5392113582825178E-003   7.2797637101744139E-003   5.4308399492489889E-002
  -2.7887473128803564E-003   9.3687975396422457E-003   5.0264980796585756E-002
  -3.0382832674781951E-003   1.1850642107843701E-002   4.6217295126671054E-002
  -2.5728948139262901E-003   4.9486944441018421E-003   5.9731838945653593E-002
  -2.8444796015868051E-003   6.5733014574278492E-003   5.6196594286453572E-002
  -3.1160643892473288E-003   8.6519830733823855E-003   5.2621518935139000E-002
  -3.3876491769078048E-003   1.1184739291964604E-002   4.9006612891709961E-002
  -3.6592339645683675E-003   1.4171570113175713E-002   4.5351876156166870E-002
  -3.0116709017124262E-003   5.6172606207703923E-003   5.7371804658416237E-002
  -3.3408682405391219E-003   7.5630622954184212E-003   5.4397463951794095E-002
  -3.6700655793657768E-003   1.0024202436590718E-002   5.1347728834953754E-002
  -3.9992629181924907E-003   1.3000681044287137E-002   4.8222599307895894E-002
  -4.3284602570191240E-003   1.6492498118507948E-002   4.5022075370619419E-002
  -3.3564677124452449E-003   6.2858267974391091E-003   5.5302333100553006E-002
  -3.7788413205415657E-003   8.5528231334087990E-003   5.2950160210404315E-002
  -4.2012149286378732E-003   1.1396421799799092E-002   5.0487029191934853E-002
  -4.6235885367341854E-003   1.4816622796609360E-002   4.7912940045143654E-002
  -5.0459621448305288E-003   1.8813426123839960E-002   4.5227892770030836E-002
  -3.6072852461247473E-003   6.9543929741072708E-003   5.3523424272063358E-002
  -4.1583988415942047E-003   9.5425839713993987E-003   5.1854683062284912E-002
  -4.7095124370636343E-003   1.2768641163007216E-002   5.0039420006081359E-002
  -5.2606260325330917E-003   1.6632564548931743E-002   4.8077635103453004E-002
  -5.8117396280025213E-003   2.1134354129172195E-002   4.5969328354400041E-002
  -5.0790729470437140E-002   1.4803261754870789E-002   5.1547624002513337E-002
  -4.9016572101255651E-002   1.4521296667017236E-002   5.1285301393645844E-002
  -4.7242414732074245E-002   1.4160644245135440E-002   5.1015395043676581E-002
  -4.5468257362892811E-002   1.3721304489225448E-002   5.0737904952605245E-002
  -4.3694099993711336E-002   1.3203277399287117E-002   5.0452831120432140E-002
  -5.6757568557293997E-002   1.6786380922563682E-002   4.5364993823063249E-002
  -5.4943862248632597E-002   1.6364107561076258E-002   4.5013061677732225E-002
  -5.3130155939971224E-002   1.5899090607964239E-002   4.4747811152462846E-002
  -5.1316449631309831E-002   1.5391330063227793E-002   4.4569242247255364E-002
  -4.9502743322648403E-002   1.4840825926866807E-002   4.4477354962109666E-002
  -6.2800434398370061E-002   1.8769500090256658E-002   3.9024083498777479E-002
  -6.0852913789064988E-002   1.8206918455135224E-002   3.8618485559386309E-002
  -5.8905393179759964E-002   1.7637536970793025E-002   3.8393834601220853E-002
  -5.6957872570454871E-002   1.7061355637230085E-002   3.8350130624280811E-002
  -5.5010351961149839E-002   1.6478374454446471E-002   3.8487373628566371E-002
  -6.8919326993665347E-002   2.0752619257949606E-002   3.2524893029655749E-002
  -6.6743726722552882E-002   2.0049729349194134E-002   3.2101573038608534E-002
  -6.4568126451440430E-002   1.9375983333621817E-002   3.1953465389950475E-002
  -6.2392526180327965E-002   1.8731381211232405E-002   3.2080570083681793E-002
  -6.0216925909215499E-002   1.8115922982026036E-002   3.2482887119802212E-002
  -7.5114246343179814E-002   2.2735738425642527E-002   2.5867422415698171E-002
  -7.2616301049096221E-002   2.1892540243253156E-002   2.5462324115398505E-002
  -7.0118355755012657E-002   2.1114429696450637E-002   2.5426703518651783E-002
  -6.7620410460929037E-002   2.0401406785234742E-002   2.5760560625458145E-002
  -6.5122465166845445E-002   1.9753471509605769E-002   2.6463895435817508E-002
  -4.3694099993711336E-002   1.3203277399287117E-002   5.0452831120432140E-002
  -4.2320888902058193E-002   1.2659505132390753E-002   5.0069756689499534E-002
  -4.0947677810405057E-002   1.2142929845606623E-002   4.9979691613841609E-002
  -3.9574466718751922E-002   1.1653551538934274E-002   5.0182635893458422E-002
  -3.8201255627098779E-002   1.1191370212374263E-002   5.0678589528349804E-002
  -4.9502743322648403E-002   1.4840825926866807E-002   4.4477354962109666E-002
  -4.7873655950689945E-002   1.4271240483417783E-002   4.4374071125423700E-002
  -4.6244568578731465E-002   1.3706236017416953E-002   4.4489530494073740E-002
  -4.4615481206772979E-002   1.3145812528864365E-002   4.4823733068059944E-002
  -4.2986393834814528E-002   1.2589970017760133E-002   4.5376678847382113E-002
  -5.5010351961149839E-002   1.6478374454446471E-002   3.8487373628566371E-002
  -5.3199654458824602E-002   1.5882975834444688E-002   3.8641264383463145E-002
  -5.1388956956499351E-002   1.5269542189227388E-002   3.8939632193757352E-002
  -4.9578259454174073E-002   1.4638073518794344E-002   3.9382477059449000E-002
  -4.7767561951848857E-002   1.3988569823145836E-002   3.9969798980538068E-002
  -6.0216925909215499E-002   1.8115922982026036E-002   3.2482887119802212E-002
  -5.8298884426462111E-002   1.7494711185471627E-002   3.2871336463617992E-002
  -5.6380842943708744E-002   1.6832848361037826E-002   3.3329996712892614E-002
  -5.4462801460955335E-002   1.6130334508724378E-002   3.3858867867625909E-002
  -5.2544759978201995E-002   1.5387169628531622E-002   3.4457949927818171E-002
  -6.5122465166845445E-002   1.9753471509605769E-002   2.6463895435817508E-002
  -6.3171345853602498E-002   1.9106446536498595E-002   2.7064287365888229E-002
  -6.1220226540359579E-002   1.8396154532848083E-002   2.7660624051479316E-002
  -5.9269107227116660E-002   1.7622595498654425E-002   2.8252905492590435E-002
  -5.7317987913873714E-002   1.6785769433917408E-002   2.8841131689222033E-002
  -3.8201255627098779E-002   1.1191370212374263E-002   5.0678589528349804E-002
  -3.6303086252914785E-002   1.0721801175388901E-002   4.9894369145784212E-002
  -3.4404916878730846E-002   1.0210259737441302E-002   4.9334998311694883E-002
  -3.2506747504546886E-002   9.6567458985314450E-003   4.9000477026081818E-002
  -3.0608578130362912E-002   9.0612596586587824E-003   4.8890805288945072E-002
  -4.2986393834814528E-002   1.2589970017760133E-002   4.5376678847382113E-002
  -4.0864342645559694E-002   1.2029183077332944E-002   4.4567239703564326E-002
  -3.8742291456304909E-002   1.1453926300812406E-002   4.3980714641412122E-002
  -3.6620240267050103E-002   1.0864199688198177E-002   4.3617103660925194E-002
  -3.4498189077795283E-002   1.0260003239490334E-002   4.3476406762103625E-002
  -4.7767561951848857E-002   1.3988569823145836E-002   3.9969798980538068E-002
  -4.5423564414334081E-002   1.3336564979277044E-002   3.9162643640337072E-002
  -4.3079566876819325E-002   1.2697592864183441E-002   3.8576466914990629E-002
  -4.0735569339304591E-002   1.2071653477864961E-002   3.8211268804498676E-002
  -3.8391571801789842E-002   1.1458746820321553E-002   3.8067049308861400E-002
  -5.2544759978201995E-002   1.5387169628531622E-002   3.4457949927818171E-002
  -4.9980751559238062E-002   1.4643946881221004E-002   3.3680580956102525E-002
  -4.7416743140274206E-002   1.3941259427554399E-002   3.3122255132430584E-002
  -4.4852734721310294E-002   1.3279107267531775E-002   3.2782972456802437E-002
  -4.2288726302346376E-002   1.2657490401152938E-002   3.2662732929217828E-002
  -5.7317987913873714E-002   1.6785769433917408E-002   2.8841131689222033E-002
  -5.4535904080271536E-002   1.5951328783165131E-002   2.8121051650860596E-002
  -5.1753820246669385E-002   1.5184925990925635E-002   2.7618079293731834E-002
  -4.8971736413067249E-002   1.4486561057198657E-002   2.7332214617836081E-002
  -4.6189652579465057E-002   1.3856233981984212E-002   2.7263457623173171E-002
  -3.0608578130362912E-002   9.0612596586587824E-003   4.8890805288945072E-002
  -2.9044975336666931E-002   8.4512805467776841E-003   4.8816790457538228E-002
  -2.7481372542970978E-002   7.8542880918422431E-003   4.8880106645384003E-002
  -2.5917769749275010E-002   7.2702822938518624E-003   4.9080753852482589E-002
  -2.4354166955579043E-002   6.6992631528066671E-003   4.9418732078833849E-002
  -3.4498189077795283E-002   1.0260003239490334E-002   4.3476406762103625E-002
  -3.2796642967899366E-002   9.6462749835618533E-003   4.3403428890381041E-002
  -3.1095096858003393E-002   9.0279529492863081E-003   4.3469006631805612E-002
  -2.9393550748107393E-002   8.4050371366636671E-003   4.3673139986377507E-002
  -2.7692004638211448E-002   7.7775275456936077E-003   4.4015828954096670E-002
  -3.8391571801789842E-002   1.1458746820321553E-002   3.8067049308861400E-002
  -3.6550857781799270E-002   1.0841269420345856E-002   3.7977527961530352E-002
  -3.4710143761808747E-002   1.0201617806730484E-002   3.8027786821241250E-002
  -3.2869429741818168E-002   9.5397919794753608E-003   3.8217825887994050E-002
  -3.1028715721827652E-002   8.8557919385804373E-003   3.8547645161788463E-002
  -4.2288726302346376E-002   1.2657490401152938E-002   3.2662732929217828E-002
  -4.0307619778366770E-002   1.2036263857129942E-002   3.2539087670986025E-002
  -3.8326513254387101E-002   1.1375282664174660E-002   3.2556447213690713E-002
  -3.6345406730407405E-002   1.0674546822286999E-002   3.2714811557331663E-002
  -3.4364300206427771E-002   9.9340563314674890E-003   3.3014180701909160E-002
  -4.6189652579465057E-002   1.3856233981984212E-002   2.7263457623173171E-002
  -4.4066928957601725E-002   1.3231258293914028E-002   2.7088108018748058E-002
  -4.1944205335738394E-002   1.2548947521618753E-002   2.7054987809153996E-002
  -3.9821481713875048E-002   1.1809301665098894E-002   2.7164096994390846E-002
  -3.7698758092011703E-002   1.1012320724354208E-002   2.7415435574458580E-002
  -2.4354166955579043E-002   6.6992631528066671E-003   4.9418732078833849E-002
  -2.2533872487061651E-002   6.1258226092396062E-003   4.8970939059733376E-002
  -2.0713578018544274E-002   5.5345526036836290E-003   4.8726657852518396E-002
  -1.8893283550026896E-002   4.9254531361385134E-003   4.8685888457189047E-002
  -1.7072989081509504E-002   4.2985242066042595E-003   4.8848630873745247E-002
  -2.7692004638211448E-002   7.7775275456936077E-003   4.4015828954096670E-002
  -2.5681846576490586E-002   7.1459590437832343E-003   4.3544837562569161E-002
  -2.3671688514769765E-002   6.5108664983401510E-003   4.3250061545562990E-002
  -2.1661530453048937E-002   5.8722499093638442E-003   4.3131500903078032E-002
  -1.9651372391328081E-002   5.2301092768545221E-003   4.3189155635114440E-002
  -3.1028715721827652E-002   8.8557919385804373E-003   3.8547645161788463E-002
  -2.8855990504267674E-002   8.1660954783270567E-003   3.8067760816289931E-002
  -2.6683265286707614E-002   7.4871803929968950E-003   3.7736795407948429E-002
  -2.4510540069147581E-002   6.8190466825895080E-003   3.7554748936764151E-002
  -2.2337814851587576E-002   6.1616943471051178E-003   3.7521621402736599E-002
  -3.4364300206427771E-002   9.9340563314674890E-003   3.3014180701909160E-002
  -3.2056304270392813E-002   9.1862319128707820E-003   3.2539708820895387E-002
  -2.9748308334357803E-002   8.4634942876534169E-003   3.2186859439674795E-002
  -2.7440312398322841E-002   7.7658434558150052E-003   3.1955632558246835E-002
  -2.5132316462287887E-002   7.0932794173555469E-003   3.1846028176611724E-002
  -3.7698758092011703E-002   1.1012320724354208E-002   2.7415435574458580E-002
  -3.5282787874866051E-002   1.0206368347414507E-002   2.6960681576386092E-002
  -3.2866817657720385E-002   9.4398081823101054E-003   2.6600253640742033E-002
  -3.0450847440574712E-002   8.7126402290405996E-003   2.6334151767526626E-002
  -2.8034877223429067E-002   8.0248644876059760E-003   2.6162375956739758E-002
  -1.7072989081509504E-002   4.2985242066042595E-003   4.8848630873745247E-002
  -1.5132273082994585E-002   3.7230685126509178E-003   4.8751168615077445E-002
  -1.3191557084479638E-002   3.2683887518476507E-003   4.8904360860230478E-002
  -1.1250841085964691E-002   2.9344849241951243E-003   4.9308207609204485E-002
  -9.3101250874497721E-003   2.7213570296932277E-003   4.9962708861999494E-002
  -1.9651372391328081E-002   5.2301092768545221E-003   4.3189155635114440E-002
  -1.7497861281071239E-002   4.6232629238120992E-003   4.3043219101735419E-002
  -1.5344350170814300E-002   4.0905291732363791E-003   4.3072218288019243E-002
  -1.3190839060557430E-002   3.6319080251267788E-003   4.3276153193966049E-002
  -1.1037327950300518E-002   3.2473994794844918E-003   4.3655023819576089E-002
  -2.2337814851587576E-002   6.1616943471051178E-003   3.7521621402736599E-002
  -2.0047227413746673E-002   5.5234573349735583E-003   3.7280547263962405E-002
  -1.7756639975905750E-002   4.9126695946247745E-003   3.7138690060693341E-002
  -1.5466052538064854E-002   4.3293311260589884E-003   3.7096049792929200E-002
  -1.3175465100223924E-002   3.7734419292759225E-003   3.7152626460670024E-002
  -2.5132316462287887E-002   7.0932794173555469E-003   3.1846028176611724E-002
  -2.2780371481020918E-002   6.4236517461350451E-003   3.1463153101758679E-002
  -2.0428426499753891E-002   5.7348100160133364E-003   3.1103776178252565E-002
  -1.8076481518486925E-002   5.0267542269908649E-003   3.0767897406093633E-002
  -1.5724536537219957E-002   4.2994843790673809E-003   3.0455516785281619E-002
  -2.8034877223429067E-002   8.0248644876059760E-003   2.6162375956739758E-002
  -2.5697293482893957E-002   7.3238461572963098E-003   2.5591036615123741E-002
  -2.3359709742358847E-002   6.5569504374018983E-003   2.4967476640697095E-002
  -2.1022126001823710E-002   5.7241773279225194E-003   2.4291696033459487E-002
  -1.8684542261288628E-002   4.8255268288585063E-003   2.3563694793411027E-002
  -9.3101250874497721E-003   2.7213570296932277E-003   4.9962708861999494E-002
  -7.8844151271185159E-003   2.8713668302740025E-003   5.0358672280454764E-002
  -6.4587051667872597E-003   3.6268760878701012E-003   5.1084112654950720E-002
  -5.0329952064560035E-003   4.9878848024812322E-003   5.2139029985487029E-002
  -3.6072852461247473E-003   6.9543929741072708E-003   5.3523424272063358E-002
  -1.1037327950300518E-002   3.2473994794844918E-003   4.3655023819576089E-002
  -9.2645212247183112E-003   3.1748728672250093E-003   4.4235348120826024E-002
  -7.4917144991361040E-003   3.6521975192632117E-003   4.5180388996537868E-002
  -5.7189077735539107E-003   4.6793734356004452E-003   4.6490146446711234E-002
  -3.9461010479716896E-003   6.2564006162362240E-003   4.8164620471346065E-002
  -1.3175465100223924E-002   3.7734419292759225E-003   3.7152626460670024E-002
  -1.1020321990969660E-002   3.4783789041754609E-003   3.7861663451998429E-002
  -8.8651788817153410E-003   3.6775189506566830E-003   3.8970656636209550E-002
  -6.7100357724610774E-003   4.3708620687198871E-003   4.0479606013303054E-002
  -4.5548926632067582E-003   5.5584082583647887E-003   4.2388511583279470E-002
  -1.5724536537219957E-002   4.2994843790673809E-003   3.0455516785281619E-002
  -1.3151817425872519E-002   3.7818849411259681E-003   3.1237618273971521E-002
  -1.0579098314524998E-002   3.7028403820495298E-003   3.2454915573965334E-002
  -8.0063792031774914E-003   4.0623507018388814E-003   3.4107408685262672E-002
  -5.4336600918300400E-003   4.8604159004933256E-003   3.6195097607863776E-002
  -1.8684542261288628E-002   4.8255268288585063E-003   2.3563694793411027E-002
  -1.5659007529426866E-002   4.0853909780768638E-003   2.4363212586745897E-002
  -1.2633472797565021E-002   3.7281618134433203E-003   2.5633165809805569E-002
  -9.6079380657032309E-003   3.7538393349586113E-003   2.7373554462590072E-002
  -6.5824033338414134E-003   4.1624235426221956E-003   2.9584378545099432E-002
  -3.6072852461247473E-003   6.9543929741072708E-003   5.3523424272063358E-002
  -4.1583988415942047E-003   9.5425839713993987E-003   5.1854683062284912E-002
  -4.7095124370636343E-003   1.2768641163007216E-002   5.0039420006081359E-002
  -5.2606260325330917E-003   1.6632564548931743E-002   4.8077635103453004E-002
  -5.8117396280025213E-003   2.1134354129172195E-002   4.5969328354400041E-002
  -3.9461010479716896E-003   6.2564006162362240E-003   4.8164620471346065E-002
  -4.5397206182478250E-003   8.6935852535519609E-003   4.7234084241486562E-002
  -5.1333401885239049E-003   1.2301233539930095E-002   4.6365057908438645E-002
  -5.7269597587999502E-003   1.7079345475370246E-002   4.5557541472202451E-002
  -6.3205793290761758E-003   2.3027921059872947E-002   4.4811534932777342E-002
  -4.5548926632067582E-003   5.5584082583647887E-003   4.2388511583279470E-002
  -4.9829864650531887E-003   7.8445865357048561E-003   4.2728777788085065E-002
  -5.4110802668995636E-003   1.1833825916852767E-002   4.3338585632938451E-002
  -5.8391740687459316E-003   1.7526126401809030E-002   4.4217935117839911E-002
  -6.2672678705923135E-003   2.4921487990573477E-002   4.5366826242789093E-002
  -5.4336600918300400E-003   4.8604159004933256E-003   3.6195097607863776E-002
  -5.4881963820103139E-003   6.9955878178578068E-003   3.8338763702080648E-002
  -5.5427326721905878E-003   1.1366418293775653E-002   4.0960003179581886E-002
  -5.5972689623708599E-003   1.7972907328248119E-002   4.4058816040367044E-002
  -5.6518052525511356E-003   2.6815054921274117E-002   4.7635202284437073E-002
  -6.5824033338414134E-003   4.1624235426221956E-003   2.9584378545099432E-002
  -6.0553503691192501E-003   6.1465891000106465E-003   3.4064041983473348E-002
  -5.5282974043970035E-003   1.0899010670698345E-002   3.9229310548367813E-002
  -5.0012444396748817E-003   1.8419688254686324E-002   4.5080184239782689E-002
  -4.4741914749526490E-003   2.8708621851974758E-002   5.1616663057718615E-002
  -7.5114246343179814E-002   2.2735738425642527E-002   2.5867422415698171E-002
  -7.2616301049096221E-002   2.1892540243253156E-002   2.5462324115398505E-002
  -7.0118355755012657E-002   2.1114429696450637E-002   2.5426703518651783E-002
  -6.7620410460929037E-002   2.0401406785234742E-002   2.5760560625458145E-002
  -6.5122465166845445E-002   1.9753471509605769E-002   2.6463895435817508E-002
  -8.1261569182543153E-002   2.4451080574326434E-002   2.0353352702750738E-002
  -7.8463735538719409E-002   2.3638830891669349E-002   2.0094324944980230E-002
  -7.5665901894895693E-002   2.2850373817066394E-002   2.0065596183137024E-002
  -7.2868068251072005E-002   2.2085709350517457E-002   2.0267166417220983E-002
  -7.0070234607248219E-002   2.1344837492022706E-002   2.0699035647232217E-002
  -8.7237672247384906E-002   2.6166422723010452E-002   1.4890879003302215E-002
  -8.4279128961446848E-002   2.5385121540085598E-002   1.4736626760528046E-002
  -8.1320585675508678E-002   2.4586317937682109E-002   1.4673494806055357E-002
  -7.8362042389570619E-002   2.3770011915800259E-002   1.4701483139884376E-002
  -7.5403499103632532E-002   2.2936203474439559E-002   1.4820591762014737E-002
  -9.3042555537705102E-002   2.7881764871694331E-002   9.4800013173521602E-003
  -9.0062481317278342E-002   2.7131412188501819E-002   9.3892295620416691E-003
  -8.7082407096851722E-002   2.6322262058297984E-002   9.2503993874070260E-003
  -8.4102332876424990E-002   2.5454314481082853E-002   9.0635107934483265E-003
  -8.1122258655998300E-002   2.4527569456856455E-002   8.8285637801651627E-003
  -9.8676219053503766E-002   2.9597107020378322E-002   4.1207196449005723E-003
  -9.5813792606214254E-002   2.8877702836918040E-002   4.0521333495214251E-003
  -9.2951366158924631E-002   2.8058206178913719E-002   3.7963099271920153E-003
  -9.0088939711635063E-002   2.7138617046365686E-002   3.3532493779127800E-003
  -8.7226513264345495E-002   2.6118935439273461E-002   2.7229517016834626E-003
  -6.5122465166845445E-002   1.9753471509605769E-002   2.6463895435817508E-002
  -6.3171345853602498E-002   1.9106446536498595E-002   2.7064287365888229E-002
  -6.1220226540359579E-002   1.8396154532848083E-002   2.7660624051479316E-002
  -5.9269107227116660E-002   1.7622595498654425E-002   2.8252905492590435E-002
  -5.7317987913873714E-002   1.6785769433917408E-002   2.8841131689222033E-002
  -7.0070234607248219E-002   2.1344837492022706E-002   2.0699035647232217E-002
  -6.8072253963608484E-002   2.0602426866745557E-002   2.0919780510117045E-002
  -6.6074273319968735E-002   1.9833146099849236E-002   2.1238303278275097E-002
  -6.4076292676328986E-002   1.9036995191333984E-002   2.1654603951706666E-002
  -6.2078312032689181E-002   1.8213974141199685E-002   2.2168682530411654E-002
  -7.5403499103632532E-002   2.2936203474439559E-002   1.4820591762014737E-002
  -7.3256823979842817E-002   2.2098407196992340E-002   1.4698086446637698E-002
  -7.1110148856053046E-002   2.1270137666850340E-002   1.4775192186287214E-002
  -6.8963473732263317E-002   2.0451394884013659E-002   1.5051908980963483E-002
  -6.6816798608473546E-002   1.9642178848481906E-002   1.5528236830666176E-002
  -8.1122258655998300E-002   2.4527569456856455E-002   8.8285637801651627E-003
  -7.8725055902305371E-002   2.3594387527239406E-002   8.3992051754504284E-003
  -7.6327853148612429E-002   2.2707129233851552E-002   8.2712907755156610E-003
  -7.3930650394919514E-002   2.1865794576693107E-002   8.4448205803606055E-003
  -7.1533447641226558E-002   2.1070383555764044E-002   8.9197945899853678E-003
  -8.7226513264345495E-002   2.6118935439273461E-002   2.7229517016834626E-003
  -8.4476949730996287E-002   2.5090367857486084E-002   2.0231366965556274E-003
  -8.1727386197646967E-002   2.4144120800852625E-002   1.7265990459606473E-003
  -7.8977822664297648E-002   2.3280194269372730E-002   1.8333387498986123E-003
  -7.6228259130948439E-002   2.2498588263046404E-002   2.3433558083694184E-003
  -5.7317987913873714E-002   1.6785769433917408E-002   2.8841131689222033E-002
  -5.4535904080271536E-002   1.5951328783165131E-002   2.8121051650860596E-002
  -5.1753820246669385E-002   1.5184925990925635E-002   2.7618079293731834E-002
  -4.8971736413067249E-002   1.4486561057198657E-002   2.7332214617836081E-002
  -4.6189652579465057E-002   1.3856233981984212E-002   2.7263457623173171E-002
  -6.2078312032689181E-002   1.8213974141199685E-002   2.2168682530411654E-002
  -5.9081256831632387E-002   1.7393311705110964E-002   2.1518116335414589E-002
  -5.6084201630575550E-002   1.6604236638732325E-002   2.1080385194094192E-002
  -5.3087146429518735E-002   1.5846748942064001E-002   2.0855489106450076E-002
  -5.0090091228461905E-002   1.5120848615105598E-002   2.0843428072482628E-002
  -6.6816798608473546E-002   1.9642178848481906E-002   1.5528236830666176E-002
  -6.3609044667518336E-002   1.8835294627056770E-002   1.4910733990230976E-002
  -6.0401290726563119E-002   1.8023547286539127E-002   1.4501793575916140E-002
  -5.7193536785607915E-002   1.7206936826929399E-002   1.4301415587721286E-002
  -5.3985782844652747E-002   1.6385463248226817E-002   1.4309600025646768E-002
  -7.1533447641226558E-002   2.1070383555764044E-002   8.9197945899853678E-003
  -6.8119267587929341E-002   2.0277277549002867E-002   8.2989046153097851E-003
  -6.4705087534632139E-002   1.9442857934345928E-002   7.8823044391980283E-003
  -6.1290907481334936E-002   1.8567124711794381E-002   7.6699940616497195E-003
  -5.7876727428037719E-002   1.7650077881347953E-002   7.6619734826658126E-003
  -7.6228259130948439E-002   2.2498588263046404E-002   2.3433558083694184E-003
  -7.2611925592865556E-002   2.1719260470948298E-002   1.6826282106501833E-003
  -6.8995592054782617E-002   2.0862168582152535E-002   1.2219177839394857E-003
  -6.5379258516699679E-002   1.9927312596660175E-002   9.6122452823539650E-004
  -6.1762924978616796E-002   1.8914692514469311E-002   9.0054844353915087E-004
  -4.6189652579465057E-002   1.3856233981984212E-002   2.7263457623173171E-002
  -4.4066928957601725E-002   1.3231258293914028E-002   2.7088108018748058E-002
  -4.1944205335738394E-002   1.2548947521618753E-002   2.7054987809153996E-002
  -3.9821481713875048E-002   1.1809301665098894E-002   2.7164096994390846E-002
  -3.7698758092011703E-002   1.1012320724354208E-002   2.7415435574458580E-002
  -5.0090091228461905E-002   1.5120848615105598E-002   2.0843428072482628E-002
  -4.7826680500959465E-002   1.4398689670861387E-002   2.0630563367418475E-002
  -4.5563269773457087E-002   1.3652426122336303E-002   2.0556843478801434E-002
  -4.3299859045954681E-002   1.2882057969529209E-002   2.0622268406631630E-002
  -4.1036448318452268E-002   1.2087585212441632E-002   2.0826838150908689E-002
  -5.3985782844652747E-002   1.6385463248226817E-002   1.4309600025646768E-002
  -5.1584769589895121E-002   1.5566121047809078E-002   1.4092450699886822E-002
  -4.9183756335137552E-002   1.4755904723053673E-002   1.4011361612190368E-002
  -4.6782743080379927E-002   1.3954814273960076E-002   1.4066332762556991E-002
  -4.4381729825622405E-002   1.3162849700528723E-002   1.4257364150986884E-002
  -5.7876727428037719E-002   1.7650077881347953E-002   7.6619734826658126E-003
  -5.5341196224408765E-002   1.6733552424756826E-002   7.4737700161533853E-003
  -5.2805665020779824E-002   1.5859383323771355E-002   7.4185422093206339E-003
  -5.0270133817150883E-002   1.5027570578390834E-002   7.4962900621673764E-003
  -4.7734602613521936E-002   1.4238114188615925E-002   7.7070135746937982E-003
  -6.1762924978616796E-002   1.8914692514469311E-002   9.0054844353915087E-004
  -5.9095960404500381E-002   1.7900983801704351E-002   7.7452131621807974E-004
  -5.6428995830383855E-002   1.6962861924488676E-002   7.7838527019258308E-004
  -5.3762031256267329E-002   1.6100326882821279E-002   9.1214030546310498E-004
  -5.1095066682150914E-002   1.5313378676703238E-002   1.1757864220287573E-003
  -3.7698758092011703E-002   1.1012320724354208E-002   2.7415435574458580E-002
  -3.5282787874866051E-002   1.0206368347414507E-002   2.6960681576386092E-002
  -3.2866817657720385E-002   9.4398081823101054E-003   2.6600253640742033E-002
  -3.0450847440574712E-002   8.7126402290405996E-003   2.6334151767526626E-002
  -2.8034877223429067E-002   8.0248644876059760E-003   2.6162375956739758E-002
  -4.1036448318452268E-002   1.2087585212441632E-002   2.0826838150908689E-002
  -3.8523324502713813E-002   1.1290205979491985E-002   2.0396162340467427E-002
  -3.6010200686975261E-002   1.0511118399100308E-002   2.0065467664783398E-002
  -3.3497076871236764E-002   9.7503224712667431E-003   1.9834754123856504E-002
  -3.0983953055498253E-002   9.0078181959916126E-003   1.9704021717686704E-002
  -4.4381729825622405E-002   1.3162849700528723E-002   1.4257364150986884E-002
  -4.1765797338962421E-002   1.2374043611569019E-002   1.3829665968900354E-002
  -3.9149864852302443E-002   1.1582428615890622E-002   1.3507603993899539E-002
  -3.6533932365642473E-002   1.0788004713493331E-002   1.3291178225984093E-002
  -3.3917999878982530E-002   9.9907719043772492E-003   1.3180388665154974E-002
  -4.7734602613521936E-002   1.4238114188615925E-002   7.7070135746937982E-003
  -4.5010206383611889E-002   1.3457881243646275E-002   7.2611924616846381E-003
  -4.2285810153701878E-002   1.2653738832680214E-002   6.9266626280898164E-003
  -3.9561413923791866E-002   1.1825686955719474E-002   6.7034240739099020E-003
  -3.6837017693881827E-002   1.0973725612762941E-002   6.5914767991439444E-003
  -5.1095066682150914E-002   1.5313378676703238E-002   1.1757864220287573E-003
  -4.8256551636662315E-002   1.4541718875723753E-002   6.9074181882033958E-004
  -4.5418036591173605E-002   1.3725049049470917E-002   3.2264356735545174E-004
  -4.2579521545684923E-002   1.2863369197946339E-002   7.1491667632622713E-005
  -3.9741006500196296E-002   1.1956679321148522E-002  -6.2713880346287887E-005
  -2.8034877223429067E-002   8.0248644876059760E-003   2.6162375956739758E-002
  -2.5697293482893957E-002   7.3238461572963098E-003   2.5591036615123741E-002
  -2.3359709742358847E-002   6.5569504374018983E-003   2.4967476640697095E-002
  -2.1022126001823710E-002   5.7241773279225194E-003   2.4291696033459487E-002
  -1.8684542261288628E-002   4.8255268288585063E-003   2.3563694793411027E-002
  -3.0983953055498253E-002   9.0078181959916126E-003   1.9704021717686704E-002
  -2.8682879610470238E-002   8.2708252647305525E-003   1.9126848544902431E-002
  -2.6381806165442209E-002   7.5265633689403089E-003   1.8528875413914681E-002
  -2.4080732720414236E-002   6.7750325086204655E-003   1.7910102324723579E-002
  -2.1779659275386110E-002   6.0162326837719382E-003   1.7270529277329139E-002
  -3.3917999878982530E-002   9.9907719043772492E-003   1.3180388665154974E-002
  -3.1622016054854180E-002   9.2178043721649616E-003   1.2655990086257396E-002
  -2.9326032230725822E-002   8.4961763004787194E-003   1.2142212223764090E-002
  -2.7030048406597437E-002   7.8258876893189666E-003   1.1639055077675133E-002
  -2.4734064582469059E-002   7.2069385386847595E-003   1.1146518647989767E-002
  -3.6837017693881827E-002   1.0973725612762941E-002   6.5914767991439444E-003
  -3.4514702816045684E-002   1.0164783479598954E-002   6.1784612391892826E-003
  -3.2192387938209527E-002   9.4657892320171855E-003   5.8074870702456149E-003
  -2.9870073060373360E-002   8.8767428700167461E-003   5.4785542923136039E-003
  -2.7547758182537227E-002   8.3976443935976641E-003   5.1916629053934057E-003
  -3.9741006500196296E-002   1.1956679321148522E-002  -6.2713880346287887E-005
  -3.7360939894044876E-002   1.1111762587033835E-002  -3.0573799630362331E-004
  -3.4980873287893455E-002   1.0435402163554985E-002  -4.7530004664131376E-004
  -3.2600806681742034E-002   9.9275980507149419E-003  -5.7140003136035844E-004
  -3.0220740075590613E-002   9.5883502485107908E-003  -5.9403795046031327E-004
  -1.8684542261288628E-002   4.8255268288585063E-003   2.3563694793411027E-002
  -1.5659007529426866E-002   4.0853909780768638E-003   2.4363212586745897E-002
  -1.2633472797565021E-002   3.7281618134433203E-003   2.5633165809805569E-002
  -9.6079380657032309E-003   3.7538393349586113E-003   2.7373554462590072E-002
  -6.5824033338414134E-003   4.1624235426221956E-003   2.9584378545099432E-002
  -2.1779659275386110E-002   6.0162326837719382E-003   1.7270529277329139E-002
  -1.8552135312013801E-002   5.3461129625557158E-003   1.8226080508436215E-002
  -1.5324611348641479E-002   4.8606224131342302E-003   1.9115174772839388E-002
  -1.2097087385269191E-002   4.5597610355078699E-003   1.9937812070538977E-002
  -8.8695634218968478E-003   4.4435288296759134E-003   2.0693992401534800E-002
  -2.4734064582469059E-002   7.2069385386847595E-003   1.1146518647989767E-002
  -2.1841443784014813E-002   6.6068349470344845E-003   1.2059825802515300E-002
  -1.8948822985560415E-002   5.9930830128252233E-003   1.2369783593908390E-002
  -1.6056202187106093E-002   5.3656827360568995E-003   1.2076392022169188E-002
  -1.3163581388651771E-002   4.7246341167301309E-003   1.1179651087297710E-002
  -2.7547758182537227E-002   8.3976443935976641E-003   5.1916629053934057E-003
  -2.5526932945429529E-002   7.8675569315131838E-003   5.8644484689835269E-003
  -2.3506107708321830E-002   7.1255436125162303E-003   5.3969922730129141E-003
  -2.1485282471214159E-002   6.1716044366064877E-003   3.7892943174811511E-003
  -1.9464457234106437E-002   5.0057394037843206E-003   1.0413546023884182E-003
  -3.0220740075590613E-002   9.5883502485107908E-003  -5.9403795046031327E-004
  -2.9608602796258210E-002   9.1282789159923272E-003  -3.6005149215906362E-004
  -2.8996465516925696E-002   8.2580042122072927E-003  -1.8031991898477540E-003
  -2.8384328237593209E-002   6.9775261371560066E-003  -4.9234810435255863E-003
  -2.7772190958260778E-002   5.2868446908380662E-003  -9.7208970531933447E-003
  -6.5824033338414134E-003   4.1624235426221956E-003   2.9584378545099432E-002
  -6.0553503691192501E-003   6.1465891000106465E-003   3.4064041983473348E-002
  -5.5282974043970035E-003   1.0899010670698345E-002   3.9229310548367813E-002
  -5.0012444396748817E-003   1.8419688254686324E-002   4.5080184239782689E-002
  -4.4741914749526490E-003   2.8708621851974758E-002   5.1616663057718615E-002
  -8.8695634218968478E-003   4.4435288296759134E-003   2.0693992401534800E-002
  -7.5847786678214929E-003   5.6611378684175429E-003   2.5864579289366640E-002
  -6.2999939137463185E-003   9.3618002245097476E-003   3.1865024629383953E-002
  -5.0152091596710816E-003   1.5545515897953395E-002   3.8695328421586406E-002
  -3.7304244055956781E-003   2.4212284888747160E-002   4.6355490665974664E-002
  -1.3163581388651771E-002   4.7246341167301309E-003   1.1179651087297710E-002
  -1.0976811519558732E-002   5.1756866368246057E-003   1.6755958728638637E-002
  -8.7900416504656867E-003   7.8245897783211366E-003   2.3306378147829834E-002
  -6.6032717813726445E-003   1.2671343541219796E-002   3.0830909344871101E-002
  -4.4165019122797133E-003   1.9715947925519339E-002   3.9329552319762540E-002
  -1.9464457234106437E-002   5.0057394037843206E-003   1.0413546023884182E-003
  -1.6231448924330920E-002   4.6902354052319184E-003   6.7381803012891636E-003
  -1.2998440614555429E-002   6.2873793321323104E-003   1.3553371103705376E-002
  -9.7654323047799245E-003   9.7971711844854221E-003   2.1486927009635809E-002
  -6.5324239950044216E-003   1.5219610962291630E-002   3.0538848019081632E-002
  -2.7772190958260778E-002   5.2868446908380662E-003  -9.7208970531933447E-003
  -2.3348690882138090E-002   4.2047841736390090E-003  -4.1887559926813700E-003
  -1.8925190806015346E-002   4.7501688859437063E-003   2.6060034970099843E-003
  -1.4501690729892602E-002   6.9229988277527688E-003   1.0663381415881655E-002
  -1.0078190653769914E-002   1.0723273999063920E-002   1.9983377763931998E-002
 </DataArray>
 </PointData>
 </Piece>
 </UnstructuredGrid>
 </VTKFile>
