 <VTKFile type="UnstructuredGrid"  version="0.1"   >
 <UnstructuredGrid>
 <Piece  NumberOfPoints="          1600 "  NumberOfCells="         1024 ">
 <Points>
 <DataArray  type="Float64" NumberOfComponents="3"  format="ascii" >
   0.0000000000000000        0.0000000000000000        0.0000000000000000     
   3.1250000000000000E-002   0.0000000000000000        0.0000000000000000     
   6.2500000000000000E-002   0.0000000000000000        0.0000000000000000     
   9.3750000000000000E-002   0.0000000000000000        0.0000000000000000     
  0.12500000000000000        0.0000000000000000        0.0000000000000000     
   0.0000000000000000        3.1250000000000000E-002   0.0000000000000000     
   3.1250000000000000E-002   3.1250000000000000E-002   0.0000000000000000     
   6.2500000000000000E-002   3.1250000000000000E-002   0.0000000000000000     
   9.3750000000000000E-002   3.1250000000000000E-002   0.0000000000000000     
  0.12500000000000000        3.1250000000000000E-002   0.0000000000000000     
   0.0000000000000000        6.2500000000000000E-002   0.0000000000000000     
   3.1250000000000000E-002   6.2500000000000000E-002   0.0000000000000000     
   6.2500000000000000E-002   6.2500000000000000E-002   0.0000000000000000     
   9.3750000000000000E-002   6.2500000000000000E-002   0.0000000000000000     
  0.12500000000000000        6.2500000000000000E-002   0.0000000000000000     
   0.0000000000000000        9.3750000000000000E-002   0.0000000000000000     
   3.1250000000000000E-002   9.3750000000000000E-002   0.0000000000000000     
   6.2500000000000000E-002   9.3750000000000000E-002   0.0000000000000000     
   9.3750000000000000E-002   9.3750000000000000E-002   0.0000000000000000     
  0.12500000000000000        9.3750000000000000E-002   0.0000000000000000     
   0.0000000000000000       0.12500000000000000        0.0000000000000000     
   3.1250000000000000E-002  0.12500000000000000        0.0000000000000000     
   6.2500000000000000E-002  0.12500000000000000        0.0000000000000000     
   9.3750000000000000E-002  0.12500000000000000        0.0000000000000000     
  0.12500000000000000       0.12500000000000000        0.0000000000000000     
  0.12500000000000000        0.0000000000000000        0.0000000000000000     
  0.15625000000000000        0.0000000000000000        0.0000000000000000     
  0.18750000000000000        0.0000000000000000        0.0000000000000000     
  0.21875000000000000        0.0000000000000000        0.0000000000000000     
  0.25000000000000000        0.0000000000000000        0.0000000000000000     
  0.12500000000000000        3.1250000000000000E-002   0.0000000000000000     
  0.15625000000000000        3.1250000000000000E-002   0.0000000000000000     
  0.18750000000000000        3.1250000000000000E-002   0.0000000000000000     
  0.21875000000000000        3.1250000000000000E-002   0.0000000000000000     
  0.25000000000000000        3.1250000000000000E-002   0.0000000000000000     
  0.12500000000000000        6.2500000000000000E-002   0.0000000000000000     
  0.15625000000000000        6.2500000000000000E-002   0.0000000000000000     
  0.18750000000000000        6.2500000000000000E-002   0.0000000000000000     
  0.21875000000000000        6.2500000000000000E-002   0.0000000000000000     
  0.25000000000000000        6.2500000000000000E-002   0.0000000000000000     
  0.12500000000000000        9.3750000000000000E-002   0.0000000000000000     
  0.15625000000000000        9.3750000000000000E-002   0.0000000000000000     
  0.18750000000000000        9.3750000000000000E-002   0.0000000000000000     
  0.21875000000000000        9.3750000000000000E-002   0.0000000000000000     
  0.25000000000000000        9.3750000000000000E-002   0.0000000000000000     
  0.12500000000000000       0.12500000000000000        0.0000000000000000     
  0.15625000000000000       0.12500000000000000        0.0000000000000000     
  0.18750000000000000       0.12500000000000000        0.0000000000000000     
  0.21875000000000000       0.12500000000000000        0.0000000000000000     
  0.25000000000000000       0.12500000000000000        0.0000000000000000     
  0.25000000000000000        0.0000000000000000        0.0000000000000000     
  0.28125000000000000        0.0000000000000000        0.0000000000000000     
  0.31250000000000000        0.0000000000000000        0.0000000000000000     
  0.34375000000000000        0.0000000000000000        0.0000000000000000     
  0.37500000000000000        0.0000000000000000        0.0000000000000000     
  0.25000000000000000        3.1250000000000000E-002   0.0000000000000000     
  0.28125000000000000        3.1250000000000000E-002   0.0000000000000000     
  0.31250000000000000        3.1250000000000000E-002   0.0000000000000000     
  0.34375000000000000        3.1250000000000000E-002   0.0000000000000000     
  0.37500000000000000        3.1250000000000000E-002   0.0000000000000000     
  0.25000000000000000        6.2500000000000000E-002   0.0000000000000000     
  0.28125000000000000        6.2500000000000000E-002   0.0000000000000000     
  0.31250000000000000        6.2500000000000000E-002   0.0000000000000000     
  0.34375000000000000        6.2500000000000000E-002   0.0000000000000000     
  0.37500000000000000        6.2500000000000000E-002   0.0000000000000000     
  0.25000000000000000        9.3750000000000000E-002   0.0000000000000000     
  0.28125000000000000        9.3750000000000000E-002   0.0000000000000000     
  0.31250000000000000        9.3750000000000000E-002   0.0000000000000000     
  0.34375000000000000        9.3750000000000000E-002   0.0000000000000000     
  0.37500000000000000        9.3750000000000000E-002   0.0000000000000000     
  0.25000000000000000       0.12500000000000000        0.0000000000000000     
  0.28125000000000000       0.12500000000000000        0.0000000000000000     
  0.31250000000000000       0.12500000000000000        0.0000000000000000     
  0.34375000000000000       0.12500000000000000        0.0000000000000000     
  0.37500000000000000       0.12500000000000000        0.0000000000000000     
  0.37500000000000000        0.0000000000000000        0.0000000000000000     
  0.40625000000000000        0.0000000000000000        0.0000000000000000     
  0.43750000000000000        0.0000000000000000        0.0000000000000000     
  0.46875000000000000        0.0000000000000000        0.0000000000000000     
  0.50000000000000000        0.0000000000000000        0.0000000000000000     
  0.37500000000000000        3.1250000000000000E-002   0.0000000000000000     
  0.40625000000000000        3.1250000000000000E-002   0.0000000000000000     
  0.43750000000000000        3.1250000000000000E-002   0.0000000000000000     
  0.46875000000000000        3.1250000000000000E-002   0.0000000000000000     
  0.50000000000000000        3.1250000000000000E-002   0.0000000000000000     
  0.37500000000000000        6.2500000000000000E-002   0.0000000000000000     
  0.40625000000000000        6.2500000000000000E-002   0.0000000000000000     
  0.43750000000000000        6.2500000000000000E-002   0.0000000000000000     
  0.46875000000000000        6.2500000000000000E-002   0.0000000000000000     
  0.50000000000000000        6.2500000000000000E-002   0.0000000000000000     
  0.37500000000000000        9.3750000000000000E-002   0.0000000000000000     
  0.40625000000000000        9.3750000000000000E-002   0.0000000000000000     
  0.43750000000000000        9.3750000000000000E-002   0.0000000000000000     
  0.46875000000000000        9.3750000000000000E-002   0.0000000000000000     
  0.50000000000000000        9.3750000000000000E-002   0.0000000000000000     
  0.37500000000000000       0.12500000000000000        0.0000000000000000     
  0.40625000000000000       0.12500000000000000        0.0000000000000000     
  0.43750000000000000       0.12500000000000000        0.0000000000000000     
  0.46875000000000000       0.12500000000000000        0.0000000000000000     
  0.50000000000000000       0.12500000000000000        0.0000000000000000     
  0.50000000000000000        0.0000000000000000        0.0000000000000000     
  0.53125000000000000        0.0000000000000000        0.0000000000000000     
  0.56250000000000000        0.0000000000000000        0.0000000000000000     
  0.59375000000000000        0.0000000000000000        0.0000000000000000     
  0.62500000000000000        0.0000000000000000        0.0000000000000000     
  0.50000000000000000        3.1250000000000000E-002   0.0000000000000000     
  0.53125000000000000        3.1250000000000000E-002   0.0000000000000000     
  0.56250000000000000        3.1250000000000000E-002   0.0000000000000000     
  0.59375000000000000        3.1250000000000000E-002   0.0000000000000000     
  0.62500000000000000        3.1250000000000000E-002   0.0000000000000000     
  0.50000000000000000        6.2500000000000000E-002   0.0000000000000000     
  0.53125000000000000        6.2500000000000000E-002   0.0000000000000000     
  0.56250000000000000        6.2500000000000000E-002   0.0000000000000000     
  0.59375000000000000        6.2500000000000000E-002   0.0000000000000000     
  0.62500000000000000        6.2500000000000000E-002   0.0000000000000000     
  0.50000000000000000        9.3750000000000000E-002   0.0000000000000000     
  0.53125000000000000        9.3750000000000000E-002   0.0000000000000000     
  0.56250000000000000        9.3750000000000000E-002   0.0000000000000000     
  0.59375000000000000        9.3750000000000000E-002   0.0000000000000000     
  0.62500000000000000        9.3750000000000000E-002   0.0000000000000000     
  0.50000000000000000       0.12500000000000000        0.0000000000000000     
  0.53125000000000000       0.12500000000000000        0.0000000000000000     
  0.56250000000000000       0.12500000000000000        0.0000000000000000     
  0.59375000000000000       0.12500000000000000        0.0000000000000000     
  0.62500000000000000       0.12500000000000000        0.0000000000000000     
  0.62500000000000000        0.0000000000000000        0.0000000000000000     
  0.65625000000000000        0.0000000000000000        0.0000000000000000     
  0.68750000000000000        0.0000000000000000        0.0000000000000000     
  0.71875000000000000        0.0000000000000000        0.0000000000000000     
  0.75000000000000000        0.0000000000000000        0.0000000000000000     
  0.62500000000000000        3.1250000000000000E-002   0.0000000000000000     
  0.65625000000000000        3.1250000000000000E-002   0.0000000000000000     
  0.68750000000000000        3.1250000000000000E-002   0.0000000000000000     
  0.71875000000000000        3.1250000000000000E-002   0.0000000000000000     
  0.75000000000000000        3.1250000000000000E-002   0.0000000000000000     
  0.62500000000000000        6.2500000000000000E-002   0.0000000000000000     
  0.65625000000000000        6.2500000000000000E-002   0.0000000000000000     
  0.68750000000000000        6.2500000000000000E-002   0.0000000000000000     
  0.71875000000000000        6.2500000000000000E-002   0.0000000000000000     
  0.75000000000000000        6.2500000000000000E-002   0.0000000000000000     
  0.62500000000000000        9.3750000000000000E-002   0.0000000000000000     
  0.65625000000000000        9.3750000000000000E-002   0.0000000000000000     
  0.68750000000000000        9.3750000000000000E-002   0.0000000000000000     
  0.71875000000000000        9.3750000000000000E-002   0.0000000000000000     
  0.75000000000000000        9.3750000000000000E-002   0.0000000000000000     
  0.62500000000000000       0.12500000000000000        0.0000000000000000     
  0.65625000000000000       0.12500000000000000        0.0000000000000000     
  0.68750000000000000       0.12500000000000000        0.0000000000000000     
  0.71875000000000000       0.12500000000000000        0.0000000000000000     
  0.75000000000000000       0.12500000000000000        0.0000000000000000     
  0.75000000000000000        0.0000000000000000        0.0000000000000000     
  0.78125000000000000        0.0000000000000000        0.0000000000000000     
  0.81250000000000000        0.0000000000000000        0.0000000000000000     
  0.84375000000000000        0.0000000000000000        0.0000000000000000     
  0.87500000000000000        0.0000000000000000        0.0000000000000000     
  0.75000000000000000        3.1250000000000000E-002   0.0000000000000000     
  0.78125000000000000        3.1250000000000000E-002   0.0000000000000000     
  0.81250000000000000        3.1250000000000000E-002   0.0000000000000000     
  0.84375000000000000        3.1250000000000000E-002   0.0000000000000000     
  0.87500000000000000        3.1250000000000000E-002   0.0000000000000000     
  0.75000000000000000        6.2500000000000000E-002   0.0000000000000000     
  0.78125000000000000        6.2500000000000000E-002   0.0000000000000000     
  0.81250000000000000        6.2500000000000000E-002   0.0000000000000000     
  0.84375000000000000        6.2500000000000000E-002   0.0000000000000000     
  0.87500000000000000        6.2500000000000000E-002   0.0000000000000000     
  0.75000000000000000        9.3750000000000000E-002   0.0000000000000000     
  0.78125000000000000        9.3750000000000000E-002   0.0000000000000000     
  0.81250000000000000        9.3750000000000000E-002   0.0000000000000000     
  0.84375000000000000        9.3750000000000000E-002   0.0000000000000000     
  0.87500000000000000        9.3750000000000000E-002   0.0000000000000000     
  0.75000000000000000       0.12500000000000000        0.0000000000000000     
  0.78125000000000000       0.12500000000000000        0.0000000000000000     
  0.81250000000000000       0.12500000000000000        0.0000000000000000     
  0.84375000000000000       0.12500000000000000        0.0000000000000000     
  0.87500000000000000       0.12500000000000000        0.0000000000000000     
  0.87500000000000000        0.0000000000000000        0.0000000000000000     
  0.90625000000000000        0.0000000000000000        0.0000000000000000     
  0.93750000000000000        0.0000000000000000        0.0000000000000000     
  0.96875000000000000        0.0000000000000000        0.0000000000000000     
   1.0000000000000000        0.0000000000000000        0.0000000000000000     
  0.87500000000000000        3.1250000000000000E-002   0.0000000000000000     
  0.90625000000000000        3.1250000000000000E-002   0.0000000000000000     
  0.93750000000000000        3.1250000000000000E-002   0.0000000000000000     
  0.96875000000000000        3.1250000000000000E-002   0.0000000000000000     
   1.0000000000000000        3.1250000000000000E-002   0.0000000000000000     
  0.87500000000000000        6.2500000000000000E-002   0.0000000000000000     
  0.90625000000000000        6.2500000000000000E-002   0.0000000000000000     
  0.93750000000000000        6.2500000000000000E-002   0.0000000000000000     
  0.96875000000000000        6.2500000000000000E-002   0.0000000000000000     
   1.0000000000000000        6.2500000000000000E-002   0.0000000000000000     
  0.87500000000000000        9.3750000000000000E-002   0.0000000000000000     
  0.90625000000000000        9.3750000000000000E-002   0.0000000000000000     
  0.93750000000000000        9.3750000000000000E-002   0.0000000000000000     
  0.96875000000000000        9.3750000000000000E-002   0.0000000000000000     
   1.0000000000000000        9.3750000000000000E-002   0.0000000000000000     
  0.87500000000000000       0.12500000000000000        0.0000000000000000     
  0.90625000000000000       0.12500000000000000        0.0000000000000000     
  0.93750000000000000       0.12500000000000000        0.0000000000000000     
  0.96875000000000000       0.12500000000000000        0.0000000000000000     
   1.0000000000000000       0.12500000000000000        0.0000000000000000     
   0.0000000000000000       0.12500000000000000        0.0000000000000000     
   3.1250000000000000E-002  0.12500000000000000        0.0000000000000000     
   6.2500000000000000E-002  0.12500000000000000        0.0000000000000000     
   9.3750000000000000E-002  0.12500000000000000        0.0000000000000000     
  0.12500000000000000       0.12500000000000000        0.0000000000000000     
   0.0000000000000000       0.15625000000000000        0.0000000000000000     
   3.1250000000000000E-002  0.15625000000000000        0.0000000000000000     
   6.2500000000000000E-002  0.15625000000000000        0.0000000000000000     
   9.3750000000000000E-002  0.15625000000000000        0.0000000000000000     
  0.12500000000000000       0.15625000000000000        0.0000000000000000     
   0.0000000000000000       0.18750000000000000        0.0000000000000000     
   3.1250000000000000E-002  0.18750000000000000        0.0000000000000000     
   6.2500000000000000E-002  0.18750000000000000        0.0000000000000000     
   9.3750000000000000E-002  0.18750000000000000        0.0000000000000000     
  0.12500000000000000       0.18750000000000000        0.0000000000000000     
   0.0000000000000000       0.21875000000000000        0.0000000000000000     
   3.1250000000000000E-002  0.21875000000000000        0.0000000000000000     
   6.2500000000000000E-002  0.21875000000000000        0.0000000000000000     
   9.3750000000000000E-002  0.21875000000000000        0.0000000000000000     
  0.12500000000000000       0.21875000000000000        0.0000000000000000     
   0.0000000000000000       0.25000000000000000        0.0000000000000000     
   3.1250000000000000E-002  0.25000000000000000        0.0000000000000000     
   6.2500000000000000E-002  0.25000000000000000        0.0000000000000000     
   9.3750000000000000E-002  0.25000000000000000        0.0000000000000000     
  0.12500000000000000       0.25000000000000000        0.0000000000000000     
  0.12500000000000000       0.12500000000000000        0.0000000000000000     
  0.15625000000000000       0.12500000000000000        0.0000000000000000     
  0.18750000000000000       0.12500000000000000        0.0000000000000000     
  0.21875000000000000       0.12500000000000000        0.0000000000000000     
  0.25000000000000000       0.12500000000000000        0.0000000000000000     
  0.12500000000000000       0.15625000000000000        0.0000000000000000     
  0.15625000000000000       0.15625000000000000        0.0000000000000000     
  0.18750000000000000       0.15625000000000000        0.0000000000000000     
  0.21875000000000000       0.15625000000000000        0.0000000000000000     
  0.25000000000000000       0.15625000000000000        0.0000000000000000     
  0.12500000000000000       0.18750000000000000        0.0000000000000000     
  0.15625000000000000       0.18750000000000000        0.0000000000000000     
  0.18750000000000000       0.18750000000000000        0.0000000000000000     
  0.21875000000000000       0.18750000000000000        0.0000000000000000     
  0.25000000000000000       0.18750000000000000        0.0000000000000000     
  0.12500000000000000       0.21875000000000000        0.0000000000000000     
  0.15625000000000000       0.21875000000000000        0.0000000000000000     
  0.18750000000000000       0.21875000000000000        0.0000000000000000     
  0.21875000000000000       0.21875000000000000        0.0000000000000000     
  0.25000000000000000       0.21875000000000000        0.0000000000000000     
  0.12500000000000000       0.25000000000000000        0.0000000000000000     
  0.15625000000000000       0.25000000000000000        0.0000000000000000     
  0.18750000000000000       0.25000000000000000        0.0000000000000000     
  0.21875000000000000       0.25000000000000000        0.0000000000000000     
  0.25000000000000000       0.25000000000000000        0.0000000000000000     
  0.25000000000000000       0.12500000000000000        0.0000000000000000     
  0.28125000000000000       0.12500000000000000        0.0000000000000000     
  0.31250000000000000       0.12500000000000000        0.0000000000000000     
  0.34375000000000000       0.12500000000000000        0.0000000000000000     
  0.37500000000000000       0.12500000000000000        0.0000000000000000     
  0.25000000000000000       0.15625000000000000        0.0000000000000000     
  0.28125000000000000       0.15625000000000000        0.0000000000000000     
  0.31250000000000000       0.15625000000000000        0.0000000000000000     
  0.34375000000000000       0.15625000000000000        0.0000000000000000     
  0.37500000000000000       0.15625000000000000        0.0000000000000000     
  0.25000000000000000       0.18750000000000000        0.0000000000000000     
  0.28125000000000000       0.18750000000000000        0.0000000000000000     
  0.31250000000000000       0.18750000000000000        0.0000000000000000     
  0.34375000000000000       0.18750000000000000        0.0000000000000000     
  0.37500000000000000       0.18750000000000000        0.0000000000000000     
  0.25000000000000000       0.21875000000000000        0.0000000000000000     
  0.28125000000000000       0.21875000000000000        0.0000000000000000     
  0.31250000000000000       0.21875000000000000        0.0000000000000000     
  0.34375000000000000       0.21875000000000000        0.0000000000000000     
  0.37500000000000000       0.21875000000000000        0.0000000000000000     
  0.25000000000000000       0.25000000000000000        0.0000000000000000     
  0.28125000000000000       0.25000000000000000        0.0000000000000000     
  0.31250000000000000       0.25000000000000000        0.0000000000000000     
  0.34375000000000000       0.25000000000000000        0.0000000000000000     
  0.37500000000000000       0.25000000000000000        0.0000000000000000     
  0.37500000000000000       0.12500000000000000        0.0000000000000000     
  0.40625000000000000       0.12500000000000000        0.0000000000000000     
  0.43750000000000000       0.12500000000000000        0.0000000000000000     
  0.46875000000000000       0.12500000000000000        0.0000000000000000     
  0.50000000000000000       0.12500000000000000        0.0000000000000000     
  0.37500000000000000       0.15625000000000000        0.0000000000000000     
  0.40625000000000000       0.15625000000000000        0.0000000000000000     
  0.43750000000000000       0.15625000000000000        0.0000000000000000     
  0.46875000000000000       0.15625000000000000        0.0000000000000000     
  0.50000000000000000       0.15625000000000000        0.0000000000000000     
  0.37500000000000000       0.18750000000000000        0.0000000000000000     
  0.40625000000000000       0.18750000000000000        0.0000000000000000     
  0.43750000000000000       0.18750000000000000        0.0000000000000000     
  0.46875000000000000       0.18750000000000000        0.0000000000000000     
  0.50000000000000000       0.18750000000000000        0.0000000000000000     
  0.37500000000000000       0.21875000000000000        0.0000000000000000     
  0.40625000000000000       0.21875000000000000        0.0000000000000000     
  0.43750000000000000       0.21875000000000000        0.0000000000000000     
  0.46875000000000000       0.21875000000000000        0.0000000000000000     
  0.50000000000000000       0.21875000000000000        0.0000000000000000     
  0.37500000000000000       0.25000000000000000        0.0000000000000000     
  0.40625000000000000       0.25000000000000000        0.0000000000000000     
  0.43750000000000000       0.25000000000000000        0.0000000000000000     
  0.46875000000000000       0.25000000000000000        0.0000000000000000     
  0.50000000000000000       0.25000000000000000        0.0000000000000000     
  0.50000000000000000       0.12500000000000000        0.0000000000000000     
  0.53125000000000000       0.12500000000000000        0.0000000000000000     
  0.56250000000000000       0.12500000000000000        0.0000000000000000     
  0.59375000000000000       0.12500000000000000        0.0000000000000000     
  0.62500000000000000       0.12500000000000000        0.0000000000000000     
  0.50000000000000000       0.15625000000000000        0.0000000000000000     
  0.53125000000000000       0.15625000000000000        0.0000000000000000     
  0.56250000000000000       0.15625000000000000        0.0000000000000000     
  0.59375000000000000       0.15625000000000000        0.0000000000000000     
  0.62500000000000000       0.15625000000000000        0.0000000000000000     
  0.50000000000000000       0.18750000000000000        0.0000000000000000     
  0.53125000000000000       0.18750000000000000        0.0000000000000000     
  0.56250000000000000       0.18750000000000000        0.0000000000000000     
  0.59375000000000000       0.18750000000000000        0.0000000000000000     
  0.62500000000000000       0.18750000000000000        0.0000000000000000     
  0.50000000000000000       0.21875000000000000        0.0000000000000000     
  0.53125000000000000       0.21875000000000000        0.0000000000000000     
  0.56250000000000000       0.21875000000000000        0.0000000000000000     
  0.59375000000000000       0.21875000000000000        0.0000000000000000     
  0.62500000000000000       0.21875000000000000        0.0000000000000000     
  0.50000000000000000       0.25000000000000000        0.0000000000000000     
  0.53125000000000000       0.25000000000000000        0.0000000000000000     
  0.56250000000000000       0.25000000000000000        0.0000000000000000     
  0.59375000000000000       0.25000000000000000        0.0000000000000000     
  0.62500000000000000       0.25000000000000000        0.0000000000000000     
  0.62500000000000000       0.12500000000000000        0.0000000000000000     
  0.65625000000000000       0.12500000000000000        0.0000000000000000     
  0.68750000000000000       0.12500000000000000        0.0000000000000000     
  0.71875000000000000       0.12500000000000000        0.0000000000000000     
  0.75000000000000000       0.12500000000000000        0.0000000000000000     
  0.62500000000000000       0.15625000000000000        0.0000000000000000     
  0.65625000000000000       0.15625000000000000        0.0000000000000000     
  0.68750000000000000       0.15625000000000000        0.0000000000000000     
  0.71875000000000000       0.15625000000000000        0.0000000000000000     
  0.75000000000000000       0.15625000000000000        0.0000000000000000     
  0.62500000000000000       0.18750000000000000        0.0000000000000000     
  0.65625000000000000       0.18750000000000000        0.0000000000000000     
  0.68750000000000000       0.18750000000000000        0.0000000000000000     
  0.71875000000000000       0.18750000000000000        0.0000000000000000     
  0.75000000000000000       0.18750000000000000        0.0000000000000000     
  0.62500000000000000       0.21875000000000000        0.0000000000000000     
  0.65625000000000000       0.21875000000000000        0.0000000000000000     
  0.68750000000000000       0.21875000000000000        0.0000000000000000     
  0.71875000000000000       0.21875000000000000        0.0000000000000000     
  0.75000000000000000       0.21875000000000000        0.0000000000000000     
  0.62500000000000000       0.25000000000000000        0.0000000000000000     
  0.65625000000000000       0.25000000000000000        0.0000000000000000     
  0.68750000000000000       0.25000000000000000        0.0000000000000000     
  0.71875000000000000       0.25000000000000000        0.0000000000000000     
  0.75000000000000000       0.25000000000000000        0.0000000000000000     
  0.75000000000000000       0.12500000000000000        0.0000000000000000     
  0.78125000000000000       0.12500000000000000        0.0000000000000000     
  0.81250000000000000       0.12500000000000000        0.0000000000000000     
  0.84375000000000000       0.12500000000000000        0.0000000000000000     
  0.87500000000000000       0.12500000000000000        0.0000000000000000     
  0.75000000000000000       0.15625000000000000        0.0000000000000000     
  0.78125000000000000       0.15625000000000000        0.0000000000000000     
  0.81250000000000000       0.15625000000000000        0.0000000000000000     
  0.84375000000000000       0.15625000000000000        0.0000000000000000     
  0.87500000000000000       0.15625000000000000        0.0000000000000000     
  0.75000000000000000       0.18750000000000000        0.0000000000000000     
  0.78125000000000000       0.18750000000000000        0.0000000000000000     
  0.81250000000000000       0.18750000000000000        0.0000000000000000     
  0.84375000000000000       0.18750000000000000        0.0000000000000000     
  0.87500000000000000       0.18750000000000000        0.0000000000000000     
  0.75000000000000000       0.21875000000000000        0.0000000000000000     
  0.78125000000000000       0.21875000000000000        0.0000000000000000     
  0.81250000000000000       0.21875000000000000        0.0000000000000000     
  0.84375000000000000       0.21875000000000000        0.0000000000000000     
  0.87500000000000000       0.21875000000000000        0.0000000000000000     
  0.75000000000000000       0.25000000000000000        0.0000000000000000     
  0.78125000000000000       0.25000000000000000        0.0000000000000000     
  0.81250000000000000       0.25000000000000000        0.0000000000000000     
  0.84375000000000000       0.25000000000000000        0.0000000000000000     
  0.87500000000000000       0.25000000000000000        0.0000000000000000     
  0.87500000000000000       0.12500000000000000        0.0000000000000000     
  0.90625000000000000       0.12500000000000000        0.0000000000000000     
  0.93750000000000000       0.12500000000000000        0.0000000000000000     
  0.96875000000000000       0.12500000000000000        0.0000000000000000     
   1.0000000000000000       0.12500000000000000        0.0000000000000000     
  0.87500000000000000       0.15625000000000000        0.0000000000000000     
  0.90625000000000000       0.15625000000000000        0.0000000000000000     
  0.93750000000000000       0.15625000000000000        0.0000000000000000     
  0.96875000000000000       0.15625000000000000        0.0000000000000000     
   1.0000000000000000       0.15625000000000000        0.0000000000000000     
  0.87500000000000000       0.18750000000000000        0.0000000000000000     
  0.90625000000000000       0.18750000000000000        0.0000000000000000     
  0.93750000000000000       0.18750000000000000        0.0000000000000000     
  0.96875000000000000       0.18750000000000000        0.0000000000000000     
   1.0000000000000000       0.18750000000000000        0.0000000000000000     
  0.87500000000000000       0.21875000000000000        0.0000000000000000     
  0.90625000000000000       0.21875000000000000        0.0000000000000000     
  0.93750000000000000       0.21875000000000000        0.0000000000000000     
  0.96875000000000000       0.21875000000000000        0.0000000000000000     
   1.0000000000000000       0.21875000000000000        0.0000000000000000     
  0.87500000000000000       0.25000000000000000        0.0000000000000000     
  0.90625000000000000       0.25000000000000000        0.0000000000000000     
  0.93750000000000000       0.25000000000000000        0.0000000000000000     
  0.96875000000000000       0.25000000000000000        0.0000000000000000     
   1.0000000000000000       0.25000000000000000        0.0000000000000000     
   0.0000000000000000       0.25000000000000000        0.0000000000000000     
   3.1250000000000000E-002  0.25000000000000000        0.0000000000000000     
   6.2500000000000000E-002  0.25000000000000000        0.0000000000000000     
   9.3750000000000000E-002  0.25000000000000000        0.0000000000000000     
  0.12500000000000000       0.25000000000000000        0.0000000000000000     
   0.0000000000000000       0.28125000000000000        0.0000000000000000     
   3.1250000000000000E-002  0.28125000000000000        0.0000000000000000     
   6.2500000000000000E-002  0.28125000000000000        0.0000000000000000     
   9.3750000000000000E-002  0.28125000000000000        0.0000000000000000     
  0.12500000000000000       0.28125000000000000        0.0000000000000000     
   0.0000000000000000       0.31250000000000000        0.0000000000000000     
   3.1250000000000000E-002  0.31250000000000000        0.0000000000000000     
   6.2500000000000000E-002  0.31250000000000000        0.0000000000000000     
   9.3750000000000000E-002  0.31250000000000000        0.0000000000000000     
  0.12500000000000000       0.31250000000000000        0.0000000000000000     
   0.0000000000000000       0.34375000000000000        0.0000000000000000     
   3.1250000000000000E-002  0.34375000000000000        0.0000000000000000     
   6.2500000000000000E-002  0.34375000000000000        0.0000000000000000     
   9.3750000000000000E-002  0.34375000000000000        0.0000000000000000     
  0.12500000000000000       0.34375000000000000        0.0000000000000000     
   0.0000000000000000       0.37500000000000000        0.0000000000000000     
   3.1250000000000000E-002  0.37500000000000000        0.0000000000000000     
   6.2500000000000000E-002  0.37500000000000000        0.0000000000000000     
   9.3750000000000000E-002  0.37500000000000000        0.0000000000000000     
  0.12500000000000000       0.37500000000000000        0.0000000000000000     
  0.12500000000000000       0.25000000000000000        0.0000000000000000     
  0.15625000000000000       0.25000000000000000        0.0000000000000000     
  0.18750000000000000       0.25000000000000000        0.0000000000000000     
  0.21875000000000000       0.25000000000000000        0.0000000000000000     
  0.25000000000000000       0.25000000000000000        0.0000000000000000     
  0.12500000000000000       0.28125000000000000        0.0000000000000000     
  0.15625000000000000       0.28125000000000000        0.0000000000000000     
  0.18750000000000000       0.28125000000000000        0.0000000000000000     
  0.21875000000000000       0.28125000000000000        0.0000000000000000     
  0.25000000000000000       0.28125000000000000        0.0000000000000000     
  0.12500000000000000       0.31250000000000000        0.0000000000000000     
  0.15625000000000000       0.31250000000000000        0.0000000000000000     
  0.18750000000000000       0.31250000000000000        0.0000000000000000     
  0.21875000000000000       0.31250000000000000        0.0000000000000000     
  0.25000000000000000       0.31250000000000000        0.0000000000000000     
  0.12500000000000000       0.34375000000000000        0.0000000000000000     
  0.15625000000000000       0.34375000000000000        0.0000000000000000     
  0.18750000000000000       0.34375000000000000        0.0000000000000000     
  0.21875000000000000       0.34375000000000000        0.0000000000000000     
  0.25000000000000000       0.34375000000000000        0.0000000000000000     
  0.12500000000000000       0.37500000000000000        0.0000000000000000     
  0.15625000000000000       0.37500000000000000        0.0000000000000000     
  0.18750000000000000       0.37500000000000000        0.0000000000000000     
  0.21875000000000000       0.37500000000000000        0.0000000000000000     
  0.25000000000000000       0.37500000000000000        0.0000000000000000     
  0.25000000000000000       0.25000000000000000        0.0000000000000000     
  0.28125000000000000       0.25000000000000000        0.0000000000000000     
  0.31250000000000000       0.25000000000000000        0.0000000000000000     
  0.34375000000000000       0.25000000000000000        0.0000000000000000     
  0.37500000000000000       0.25000000000000000        0.0000000000000000     
  0.25000000000000000       0.28125000000000000        0.0000000000000000     
  0.28125000000000000       0.28125000000000000        0.0000000000000000     
  0.31250000000000000       0.28125000000000000        0.0000000000000000     
  0.34375000000000000       0.28125000000000000        0.0000000000000000     
  0.37500000000000000       0.28125000000000000        0.0000000000000000     
  0.25000000000000000       0.31250000000000000        0.0000000000000000     
  0.28125000000000000       0.31250000000000000        0.0000000000000000     
  0.31250000000000000       0.31250000000000000        0.0000000000000000     
  0.34375000000000000       0.31250000000000000        0.0000000000000000     
  0.37500000000000000       0.31250000000000000        0.0000000000000000     
  0.25000000000000000       0.34375000000000000        0.0000000000000000     
  0.28125000000000000       0.34375000000000000        0.0000000000000000     
  0.31250000000000000       0.34375000000000000        0.0000000000000000     
  0.34375000000000000       0.34375000000000000        0.0000000000000000     
  0.37500000000000000       0.34375000000000000        0.0000000000000000     
  0.25000000000000000       0.37500000000000000        0.0000000000000000     
  0.28125000000000000       0.37500000000000000        0.0000000000000000     
  0.31250000000000000       0.37500000000000000        0.0000000000000000     
  0.34375000000000000       0.37500000000000000        0.0000000000000000     
  0.37500000000000000       0.37500000000000000        0.0000000000000000     
  0.37500000000000000       0.25000000000000000        0.0000000000000000     
  0.40625000000000000       0.25000000000000000        0.0000000000000000     
  0.43750000000000000       0.25000000000000000        0.0000000000000000     
  0.46875000000000000       0.25000000000000000        0.0000000000000000     
  0.50000000000000000       0.25000000000000000        0.0000000000000000     
  0.37500000000000000       0.28125000000000000        0.0000000000000000     
  0.40625000000000000       0.28125000000000000        0.0000000000000000     
  0.43750000000000000       0.28125000000000000        0.0000000000000000     
  0.46875000000000000       0.28125000000000000        0.0000000000000000     
  0.50000000000000000       0.28125000000000000        0.0000000000000000     
  0.37500000000000000       0.31250000000000000        0.0000000000000000     
  0.40625000000000000       0.31250000000000000        0.0000000000000000     
  0.43750000000000000       0.31250000000000000        0.0000000000000000     
  0.46875000000000000       0.31250000000000000        0.0000000000000000     
  0.50000000000000000       0.31250000000000000        0.0000000000000000     
  0.37500000000000000       0.34375000000000000        0.0000000000000000     
  0.40625000000000000       0.34375000000000000        0.0000000000000000     
  0.43750000000000000       0.34375000000000000        0.0000000000000000     
  0.46875000000000000       0.34375000000000000        0.0000000000000000     
  0.50000000000000000       0.34375000000000000        0.0000000000000000     
  0.37500000000000000       0.37500000000000000        0.0000000000000000     
  0.40625000000000000       0.37500000000000000        0.0000000000000000     
  0.43750000000000000       0.37500000000000000        0.0000000000000000     
  0.46875000000000000       0.37500000000000000        0.0000000000000000     
  0.50000000000000000       0.37500000000000000        0.0000000000000000     
  0.50000000000000000       0.25000000000000000        0.0000000000000000     
  0.53125000000000000       0.25000000000000000        0.0000000000000000     
  0.56250000000000000       0.25000000000000000        0.0000000000000000     
  0.59375000000000000       0.25000000000000000        0.0000000000000000     
  0.62500000000000000       0.25000000000000000        0.0000000000000000     
  0.50000000000000000       0.28125000000000000        0.0000000000000000     
  0.53125000000000000       0.28125000000000000        0.0000000000000000     
  0.56250000000000000       0.28125000000000000        0.0000000000000000     
  0.59375000000000000       0.28125000000000000        0.0000000000000000     
  0.62500000000000000       0.28125000000000000        0.0000000000000000     
  0.50000000000000000       0.31250000000000000        0.0000000000000000     
  0.53125000000000000       0.31250000000000000        0.0000000000000000     
  0.56250000000000000       0.31250000000000000        0.0000000000000000     
  0.59375000000000000       0.31250000000000000        0.0000000000000000     
  0.62500000000000000       0.31250000000000000        0.0000000000000000     
  0.50000000000000000       0.34375000000000000        0.0000000000000000     
  0.53125000000000000       0.34375000000000000        0.0000000000000000     
  0.56250000000000000       0.34375000000000000        0.0000000000000000     
  0.59375000000000000       0.34375000000000000        0.0000000000000000     
  0.62500000000000000       0.34375000000000000        0.0000000000000000     
  0.50000000000000000       0.37500000000000000        0.0000000000000000     
  0.53125000000000000       0.37500000000000000        0.0000000000000000     
  0.56250000000000000       0.37500000000000000        0.0000000000000000     
  0.59375000000000000       0.37500000000000000        0.0000000000000000     
  0.62500000000000000       0.37500000000000000        0.0000000000000000     
  0.62500000000000000       0.25000000000000000        0.0000000000000000     
  0.65625000000000000       0.25000000000000000        0.0000000000000000     
  0.68750000000000000       0.25000000000000000        0.0000000000000000     
  0.71875000000000000       0.25000000000000000        0.0000000000000000     
  0.75000000000000000       0.25000000000000000        0.0000000000000000     
  0.62500000000000000       0.28125000000000000        0.0000000000000000     
  0.65625000000000000       0.28125000000000000        0.0000000000000000     
  0.68750000000000000       0.28125000000000000        0.0000000000000000     
  0.71875000000000000       0.28125000000000000        0.0000000000000000     
  0.75000000000000000       0.28125000000000000        0.0000000000000000     
  0.62500000000000000       0.31250000000000000        0.0000000000000000     
  0.65625000000000000       0.31250000000000000        0.0000000000000000     
  0.68750000000000000       0.31250000000000000        0.0000000000000000     
  0.71875000000000000       0.31250000000000000        0.0000000000000000     
  0.75000000000000000       0.31250000000000000        0.0000000000000000     
  0.62500000000000000       0.34375000000000000        0.0000000000000000     
  0.65625000000000000       0.34375000000000000        0.0000000000000000     
  0.68750000000000000       0.34375000000000000        0.0000000000000000     
  0.71875000000000000       0.34375000000000000        0.0000000000000000     
  0.75000000000000000       0.34375000000000000        0.0000000000000000     
  0.62500000000000000       0.37500000000000000        0.0000000000000000     
  0.65625000000000000       0.37500000000000000        0.0000000000000000     
  0.68750000000000000       0.37500000000000000        0.0000000000000000     
  0.71875000000000000       0.37500000000000000        0.0000000000000000     
  0.75000000000000000       0.37500000000000000        0.0000000000000000     
  0.75000000000000000       0.25000000000000000        0.0000000000000000     
  0.78125000000000000       0.25000000000000000        0.0000000000000000     
  0.81250000000000000       0.25000000000000000        0.0000000000000000     
  0.84375000000000000       0.25000000000000000        0.0000000000000000     
  0.87500000000000000       0.25000000000000000        0.0000000000000000     
  0.75000000000000000       0.28125000000000000        0.0000000000000000     
  0.78125000000000000       0.28125000000000000        0.0000000000000000     
  0.81250000000000000       0.28125000000000000        0.0000000000000000     
  0.84375000000000000       0.28125000000000000        0.0000000000000000     
  0.87500000000000000       0.28125000000000000        0.0000000000000000     
  0.75000000000000000       0.31250000000000000        0.0000000000000000     
  0.78125000000000000       0.31250000000000000        0.0000000000000000     
  0.81250000000000000       0.31250000000000000        0.0000000000000000     
  0.84375000000000000       0.31250000000000000        0.0000000000000000     
  0.87500000000000000       0.31250000000000000        0.0000000000000000     
  0.75000000000000000       0.34375000000000000        0.0000000000000000     
  0.78125000000000000       0.34375000000000000        0.0000000000000000     
  0.81250000000000000       0.34375000000000000        0.0000000000000000     
  0.84375000000000000       0.34375000000000000        0.0000000000000000     
  0.87500000000000000       0.34375000000000000        0.0000000000000000     
  0.75000000000000000       0.37500000000000000        0.0000000000000000     
  0.78125000000000000       0.37500000000000000        0.0000000000000000     
  0.81250000000000000       0.37500000000000000        0.0000000000000000     
  0.84375000000000000       0.37500000000000000        0.0000000000000000     
  0.87500000000000000       0.37500000000000000        0.0000000000000000     
  0.87500000000000000       0.25000000000000000        0.0000000000000000     
  0.90625000000000000       0.25000000000000000        0.0000000000000000     
  0.93750000000000000       0.25000000000000000        0.0000000000000000     
  0.96875000000000000       0.25000000000000000        0.0000000000000000     
   1.0000000000000000       0.25000000000000000        0.0000000000000000     
  0.87500000000000000       0.28125000000000000        0.0000000000000000     
  0.90625000000000000       0.28125000000000000        0.0000000000000000     
  0.93750000000000000       0.28125000000000000        0.0000000000000000     
  0.96875000000000000       0.28125000000000000        0.0000000000000000     
   1.0000000000000000       0.28125000000000000        0.0000000000000000     
  0.87500000000000000       0.31250000000000000        0.0000000000000000     
  0.90625000000000000       0.31250000000000000        0.0000000000000000     
  0.93750000000000000       0.31250000000000000        0.0000000000000000     
  0.96875000000000000       0.31250000000000000        0.0000000000000000     
   1.0000000000000000       0.31250000000000000        0.0000000000000000     
  0.87500000000000000       0.34375000000000000        0.0000000000000000     
  0.90625000000000000       0.34375000000000000        0.0000000000000000     
  0.93750000000000000       0.34375000000000000        0.0000000000000000     
  0.96875000000000000       0.34375000000000000        0.0000000000000000     
   1.0000000000000000       0.34375000000000000        0.0000000000000000     
  0.87500000000000000       0.37500000000000000        0.0000000000000000     
  0.90625000000000000       0.37500000000000000        0.0000000000000000     
  0.93750000000000000       0.37500000000000000        0.0000000000000000     
  0.96875000000000000       0.37500000000000000        0.0000000000000000     
   1.0000000000000000       0.37500000000000000        0.0000000000000000     
   0.0000000000000000       0.37500000000000000        0.0000000000000000     
   3.1250000000000000E-002  0.37500000000000000        0.0000000000000000     
   6.2500000000000000E-002  0.37500000000000000        0.0000000000000000     
   9.3750000000000000E-002  0.37500000000000000        0.0000000000000000     
  0.12500000000000000       0.37500000000000000        0.0000000000000000     
   0.0000000000000000       0.40625000000000000        0.0000000000000000     
   3.1250000000000000E-002  0.40625000000000000        0.0000000000000000     
   6.2500000000000000E-002  0.40625000000000000        0.0000000000000000     
   9.3750000000000000E-002  0.40625000000000000        0.0000000000000000     
  0.12500000000000000       0.40625000000000000        0.0000000000000000     
   0.0000000000000000       0.43750000000000000        0.0000000000000000     
   3.1250000000000000E-002  0.43750000000000000        0.0000000000000000     
   6.2500000000000000E-002  0.43750000000000000        0.0000000000000000     
   9.3750000000000000E-002  0.43750000000000000        0.0000000000000000     
  0.12500000000000000       0.43750000000000000        0.0000000000000000     
   0.0000000000000000       0.46875000000000000        0.0000000000000000     
   3.1250000000000000E-002  0.46875000000000000        0.0000000000000000     
   6.2500000000000000E-002  0.46875000000000000        0.0000000000000000     
   9.3750000000000000E-002  0.46875000000000000        0.0000000000000000     
  0.12500000000000000       0.46875000000000000        0.0000000000000000     
   0.0000000000000000       0.50000000000000000        0.0000000000000000     
   3.1250000000000000E-002  0.50000000000000000        0.0000000000000000     
   6.2500000000000000E-002  0.50000000000000000        0.0000000000000000     
   9.3750000000000000E-002  0.50000000000000000        0.0000000000000000     
  0.12500000000000000       0.50000000000000000        0.0000000000000000     
  0.12500000000000000       0.37500000000000000        0.0000000000000000     
  0.15625000000000000       0.37500000000000000        0.0000000000000000     
  0.18750000000000000       0.37500000000000000        0.0000000000000000     
  0.21875000000000000       0.37500000000000000        0.0000000000000000     
  0.25000000000000000       0.37500000000000000        0.0000000000000000     
  0.12500000000000000       0.40625000000000000        0.0000000000000000     
  0.15625000000000000       0.40625000000000000        0.0000000000000000     
  0.18750000000000000       0.40625000000000000        0.0000000000000000     
  0.21875000000000000       0.40625000000000000        0.0000000000000000     
  0.25000000000000000       0.40625000000000000        0.0000000000000000     
  0.12500000000000000       0.43750000000000000        0.0000000000000000     
  0.15625000000000000       0.43750000000000000        0.0000000000000000     
  0.18750000000000000       0.43750000000000000        0.0000000000000000     
  0.21875000000000000       0.43750000000000000        0.0000000000000000     
  0.25000000000000000       0.43750000000000000        0.0000000000000000     
  0.12500000000000000       0.46875000000000000        0.0000000000000000     
  0.15625000000000000       0.46875000000000000        0.0000000000000000     
  0.18750000000000000       0.46875000000000000        0.0000000000000000     
  0.21875000000000000       0.46875000000000000        0.0000000000000000     
  0.25000000000000000       0.46875000000000000        0.0000000000000000     
  0.12500000000000000       0.50000000000000000        0.0000000000000000     
  0.15625000000000000       0.50000000000000000        0.0000000000000000     
  0.18750000000000000       0.50000000000000000        0.0000000000000000     
  0.21875000000000000       0.50000000000000000        0.0000000000000000     
  0.25000000000000000       0.50000000000000000        0.0000000000000000     
  0.25000000000000000       0.37500000000000000        0.0000000000000000     
  0.28125000000000000       0.37500000000000000        0.0000000000000000     
  0.31250000000000000       0.37500000000000000        0.0000000000000000     
  0.34375000000000000       0.37500000000000000        0.0000000000000000     
  0.37500000000000000       0.37500000000000000        0.0000000000000000     
  0.25000000000000000       0.40625000000000000        0.0000000000000000     
  0.28125000000000000       0.40625000000000000        0.0000000000000000     
  0.31250000000000000       0.40625000000000000        0.0000000000000000     
  0.34375000000000000       0.40625000000000000        0.0000000000000000     
  0.37500000000000000       0.40625000000000000        0.0000000000000000     
  0.25000000000000000       0.43750000000000000        0.0000000000000000     
  0.28125000000000000       0.43750000000000000        0.0000000000000000     
  0.31250000000000000       0.43750000000000000        0.0000000000000000     
  0.34375000000000000       0.43750000000000000        0.0000000000000000     
  0.37500000000000000       0.43750000000000000        0.0000000000000000     
  0.25000000000000000       0.46875000000000000        0.0000000000000000     
  0.28125000000000000       0.46875000000000000        0.0000000000000000     
  0.31250000000000000       0.46875000000000000        0.0000000000000000     
  0.34375000000000000       0.46875000000000000        0.0000000000000000     
  0.37500000000000000       0.46875000000000000        0.0000000000000000     
  0.25000000000000000       0.50000000000000000        0.0000000000000000     
  0.28125000000000000       0.50000000000000000        0.0000000000000000     
  0.31250000000000000       0.50000000000000000        0.0000000000000000     
  0.34375000000000000       0.50000000000000000        0.0000000000000000     
  0.37500000000000000       0.50000000000000000        0.0000000000000000     
  0.37500000000000000       0.37500000000000000        0.0000000000000000     
  0.40625000000000000       0.37500000000000000        0.0000000000000000     
  0.43750000000000000       0.37500000000000000        0.0000000000000000     
  0.46875000000000000       0.37500000000000000        0.0000000000000000     
  0.50000000000000000       0.37500000000000000        0.0000000000000000     
  0.37500000000000000       0.40625000000000000        0.0000000000000000     
  0.40625000000000000       0.40625000000000000        0.0000000000000000     
  0.43750000000000000       0.40625000000000000        0.0000000000000000     
  0.46875000000000000       0.40625000000000000        0.0000000000000000     
  0.50000000000000000       0.40625000000000000        0.0000000000000000     
  0.37500000000000000       0.43750000000000000        0.0000000000000000     
  0.40625000000000000       0.43750000000000000        0.0000000000000000     
  0.43750000000000000       0.43750000000000000        0.0000000000000000     
  0.46875000000000000       0.43750000000000000        0.0000000000000000     
  0.50000000000000000       0.43750000000000000        0.0000000000000000     
  0.37500000000000000       0.46875000000000000        0.0000000000000000     
  0.40625000000000000       0.46875000000000000        0.0000000000000000     
  0.43750000000000000       0.46875000000000000        0.0000000000000000     
  0.46875000000000000       0.46875000000000000        0.0000000000000000     
  0.50000000000000000       0.46875000000000000        0.0000000000000000     
  0.37500000000000000       0.50000000000000000        0.0000000000000000     
  0.40625000000000000       0.50000000000000000        0.0000000000000000     
  0.43750000000000000       0.50000000000000000        0.0000000000000000     
  0.46875000000000000       0.50000000000000000        0.0000000000000000     
  0.50000000000000000       0.50000000000000000        0.0000000000000000     
  0.50000000000000000       0.37500000000000000        0.0000000000000000     
  0.53125000000000000       0.37500000000000000        0.0000000000000000     
  0.56250000000000000       0.37500000000000000        0.0000000000000000     
  0.59375000000000000       0.37500000000000000        0.0000000000000000     
  0.62500000000000000       0.37500000000000000        0.0000000000000000     
  0.50000000000000000       0.40625000000000000        0.0000000000000000     
  0.53125000000000000       0.40625000000000000        0.0000000000000000     
  0.56250000000000000       0.40625000000000000        0.0000000000000000     
  0.59375000000000000       0.40625000000000000        0.0000000000000000     
  0.62500000000000000       0.40625000000000000        0.0000000000000000     
  0.50000000000000000       0.43750000000000000        0.0000000000000000     
  0.53125000000000000       0.43750000000000000        0.0000000000000000     
  0.56250000000000000       0.43750000000000000        0.0000000000000000     
  0.59375000000000000       0.43750000000000000        0.0000000000000000     
  0.62500000000000000       0.43750000000000000        0.0000000000000000     
  0.50000000000000000       0.46875000000000000        0.0000000000000000     
  0.53125000000000000       0.46875000000000000        0.0000000000000000     
  0.56250000000000000       0.46875000000000000        0.0000000000000000     
  0.59375000000000000       0.46875000000000000        0.0000000000000000     
  0.62500000000000000       0.46875000000000000        0.0000000000000000     
  0.50000000000000000       0.50000000000000000        0.0000000000000000     
  0.53125000000000000       0.50000000000000000        0.0000000000000000     
  0.56250000000000000       0.50000000000000000        0.0000000000000000     
  0.59375000000000000       0.50000000000000000        0.0000000000000000     
  0.62500000000000000       0.50000000000000000        0.0000000000000000     
  0.62500000000000000       0.37500000000000000        0.0000000000000000     
  0.65625000000000000       0.37500000000000000        0.0000000000000000     
  0.68750000000000000       0.37500000000000000        0.0000000000000000     
  0.71875000000000000       0.37500000000000000        0.0000000000000000     
  0.75000000000000000       0.37500000000000000        0.0000000000000000     
  0.62500000000000000       0.40625000000000000        0.0000000000000000     
  0.65625000000000000       0.40625000000000000        0.0000000000000000     
  0.68750000000000000       0.40625000000000000        0.0000000000000000     
  0.71875000000000000       0.40625000000000000        0.0000000000000000     
  0.75000000000000000       0.40625000000000000        0.0000000000000000     
  0.62500000000000000       0.43750000000000000        0.0000000000000000     
  0.65625000000000000       0.43750000000000000        0.0000000000000000     
  0.68750000000000000       0.43750000000000000        0.0000000000000000     
  0.71875000000000000       0.43750000000000000        0.0000000000000000     
  0.75000000000000000       0.43750000000000000        0.0000000000000000     
  0.62500000000000000       0.46875000000000000        0.0000000000000000     
  0.65625000000000000       0.46875000000000000        0.0000000000000000     
  0.68750000000000000       0.46875000000000000        0.0000000000000000     
  0.71875000000000000       0.46875000000000000        0.0000000000000000     
  0.75000000000000000       0.46875000000000000        0.0000000000000000     
  0.62500000000000000       0.50000000000000000        0.0000000000000000     
  0.65625000000000000       0.50000000000000000        0.0000000000000000     
  0.68750000000000000       0.50000000000000000        0.0000000000000000     
  0.71875000000000000       0.50000000000000000        0.0000000000000000     
  0.75000000000000000       0.50000000000000000        0.0000000000000000     
  0.75000000000000000       0.37500000000000000        0.0000000000000000     
  0.78125000000000000       0.37500000000000000        0.0000000000000000     
  0.81250000000000000       0.37500000000000000        0.0000000000000000     
  0.84375000000000000       0.37500000000000000        0.0000000000000000     
  0.87500000000000000       0.37500000000000000        0.0000000000000000     
  0.75000000000000000       0.40625000000000000        0.0000000000000000     
  0.78125000000000000       0.40625000000000000        0.0000000000000000     
  0.81250000000000000       0.40625000000000000        0.0000000000000000     
  0.84375000000000000       0.40625000000000000        0.0000000000000000     
  0.87500000000000000       0.40625000000000000        0.0000000000000000     
  0.75000000000000000       0.43750000000000000        0.0000000000000000     
  0.78125000000000000       0.43750000000000000        0.0000000000000000     
  0.81250000000000000       0.43750000000000000        0.0000000000000000     
  0.84375000000000000       0.43750000000000000        0.0000000000000000     
  0.87500000000000000       0.43750000000000000        0.0000000000000000     
  0.75000000000000000       0.46875000000000000        0.0000000000000000     
  0.78125000000000000       0.46875000000000000        0.0000000000000000     
  0.81250000000000000       0.46875000000000000        0.0000000000000000     
  0.84375000000000000       0.46875000000000000        0.0000000000000000     
  0.87500000000000000       0.46875000000000000        0.0000000000000000     
  0.75000000000000000       0.50000000000000000        0.0000000000000000     
  0.78125000000000000       0.50000000000000000        0.0000000000000000     
  0.81250000000000000       0.50000000000000000        0.0000000000000000     
  0.84375000000000000       0.50000000000000000        0.0000000000000000     
  0.87500000000000000       0.50000000000000000        0.0000000000000000     
  0.87500000000000000       0.37500000000000000        0.0000000000000000     
  0.90625000000000000       0.37500000000000000        0.0000000000000000     
  0.93750000000000000       0.37500000000000000        0.0000000000000000     
  0.96875000000000000       0.37500000000000000        0.0000000000000000     
   1.0000000000000000       0.37500000000000000        0.0000000000000000     
  0.87500000000000000       0.40625000000000000        0.0000000000000000     
  0.90625000000000000       0.40625000000000000        0.0000000000000000     
  0.93750000000000000       0.40625000000000000        0.0000000000000000     
  0.96875000000000000       0.40625000000000000        0.0000000000000000     
   1.0000000000000000       0.40625000000000000        0.0000000000000000     
  0.87500000000000000       0.43750000000000000        0.0000000000000000     
  0.90625000000000000       0.43750000000000000        0.0000000000000000     
  0.93750000000000000       0.43750000000000000        0.0000000000000000     
  0.96875000000000000       0.43750000000000000        0.0000000000000000     
   1.0000000000000000       0.43750000000000000        0.0000000000000000     
  0.87500000000000000       0.46875000000000000        0.0000000000000000     
  0.90625000000000000       0.46875000000000000        0.0000000000000000     
  0.93750000000000000       0.46875000000000000        0.0000000000000000     
  0.96875000000000000       0.46875000000000000        0.0000000000000000     
   1.0000000000000000       0.46875000000000000        0.0000000000000000     
  0.87500000000000000       0.50000000000000000        0.0000000000000000     
  0.90625000000000000       0.50000000000000000        0.0000000000000000     
  0.93750000000000000       0.50000000000000000        0.0000000000000000     
  0.96875000000000000       0.50000000000000000        0.0000000000000000     
   1.0000000000000000       0.50000000000000000        0.0000000000000000     
   0.0000000000000000       0.50000000000000000        0.0000000000000000     
   3.1250000000000000E-002  0.50000000000000000        0.0000000000000000     
   6.2500000000000000E-002  0.50000000000000000        0.0000000000000000     
   9.3750000000000000E-002  0.50000000000000000        0.0000000000000000     
  0.12500000000000000       0.50000000000000000        0.0000000000000000     
   0.0000000000000000       0.53125000000000000        0.0000000000000000     
   3.1250000000000000E-002  0.53125000000000000        0.0000000000000000     
   6.2500000000000000E-002  0.53125000000000000        0.0000000000000000     
   9.3750000000000000E-002  0.53125000000000000        0.0000000000000000     
  0.12500000000000000       0.53125000000000000        0.0000000000000000     
   0.0000000000000000       0.56250000000000000        0.0000000000000000     
   3.1250000000000000E-002  0.56250000000000000        0.0000000000000000     
   6.2500000000000000E-002  0.56250000000000000        0.0000000000000000     
   9.3750000000000000E-002  0.56250000000000000        0.0000000000000000     
  0.12500000000000000       0.56250000000000000        0.0000000000000000     
   0.0000000000000000       0.59375000000000000        0.0000000000000000     
   3.1250000000000000E-002  0.59375000000000000        0.0000000000000000     
   6.2500000000000000E-002  0.59375000000000000        0.0000000000000000     
   9.3750000000000000E-002  0.59375000000000000        0.0000000000000000     
  0.12500000000000000       0.59375000000000000        0.0000000000000000     
   0.0000000000000000       0.62500000000000000        0.0000000000000000     
   3.1250000000000000E-002  0.62500000000000000        0.0000000000000000     
   6.2500000000000000E-002  0.62500000000000000        0.0000000000000000     
   9.3750000000000000E-002  0.62500000000000000        0.0000000000000000     
  0.12500000000000000       0.62500000000000000        0.0000000000000000     
  0.12500000000000000       0.50000000000000000        0.0000000000000000     
  0.15625000000000000       0.50000000000000000        0.0000000000000000     
  0.18750000000000000       0.50000000000000000        0.0000000000000000     
  0.21875000000000000       0.50000000000000000        0.0000000000000000     
  0.25000000000000000       0.50000000000000000        0.0000000000000000     
  0.12500000000000000       0.53125000000000000        0.0000000000000000     
  0.15625000000000000       0.53125000000000000        0.0000000000000000     
  0.18750000000000000       0.53125000000000000        0.0000000000000000     
  0.21875000000000000       0.53125000000000000        0.0000000000000000     
  0.25000000000000000       0.53125000000000000        0.0000000000000000     
  0.12500000000000000       0.56250000000000000        0.0000000000000000     
  0.15625000000000000       0.56250000000000000        0.0000000000000000     
  0.18750000000000000       0.56250000000000000        0.0000000000000000     
  0.21875000000000000       0.56250000000000000        0.0000000000000000     
  0.25000000000000000       0.56250000000000000        0.0000000000000000     
  0.12500000000000000       0.59375000000000000        0.0000000000000000     
  0.15625000000000000       0.59375000000000000        0.0000000000000000     
  0.18750000000000000       0.59375000000000000        0.0000000000000000     
  0.21875000000000000       0.59375000000000000        0.0000000000000000     
  0.25000000000000000       0.59375000000000000        0.0000000000000000     
  0.12500000000000000       0.62500000000000000        0.0000000000000000     
  0.15625000000000000       0.62500000000000000        0.0000000000000000     
  0.18750000000000000       0.62500000000000000        0.0000000000000000     
  0.21875000000000000       0.62500000000000000        0.0000000000000000     
  0.25000000000000000       0.62500000000000000        0.0000000000000000     
  0.25000000000000000       0.50000000000000000        0.0000000000000000     
  0.28125000000000000       0.50000000000000000        0.0000000000000000     
  0.31250000000000000       0.50000000000000000        0.0000000000000000     
  0.34375000000000000       0.50000000000000000        0.0000000000000000     
  0.37500000000000000       0.50000000000000000        0.0000000000000000     
  0.25000000000000000       0.53125000000000000        0.0000000000000000     
  0.28125000000000000       0.53125000000000000        0.0000000000000000     
  0.31250000000000000       0.53125000000000000        0.0000000000000000     
  0.34375000000000000       0.53125000000000000        0.0000000000000000     
  0.37500000000000000       0.53125000000000000        0.0000000000000000     
  0.25000000000000000       0.56250000000000000        0.0000000000000000     
  0.28125000000000000       0.56250000000000000        0.0000000000000000     
  0.31250000000000000       0.56250000000000000        0.0000000000000000     
  0.34375000000000000       0.56250000000000000        0.0000000000000000     
  0.37500000000000000       0.56250000000000000        0.0000000000000000     
  0.25000000000000000       0.59375000000000000        0.0000000000000000     
  0.28125000000000000       0.59375000000000000        0.0000000000000000     
  0.31250000000000000       0.59375000000000000        0.0000000000000000     
  0.34375000000000000       0.59375000000000000        0.0000000000000000     
  0.37500000000000000       0.59375000000000000        0.0000000000000000     
  0.25000000000000000       0.62500000000000000        0.0000000000000000     
  0.28125000000000000       0.62500000000000000        0.0000000000000000     
  0.31250000000000000       0.62500000000000000        0.0000000000000000     
  0.34375000000000000       0.62500000000000000        0.0000000000000000     
  0.37500000000000000       0.62500000000000000        0.0000000000000000     
  0.37500000000000000       0.50000000000000000        0.0000000000000000     
  0.40625000000000000       0.50000000000000000        0.0000000000000000     
  0.43750000000000000       0.50000000000000000        0.0000000000000000     
  0.46875000000000000       0.50000000000000000        0.0000000000000000     
  0.50000000000000000       0.50000000000000000        0.0000000000000000     
  0.37500000000000000       0.53125000000000000        0.0000000000000000     
  0.40625000000000000       0.53125000000000000        0.0000000000000000     
  0.43750000000000000       0.53125000000000000        0.0000000000000000     
  0.46875000000000000       0.53125000000000000        0.0000000000000000     
  0.50000000000000000       0.53125000000000000        0.0000000000000000     
  0.37500000000000000       0.56250000000000000        0.0000000000000000     
  0.40625000000000000       0.56250000000000000        0.0000000000000000     
  0.43750000000000000       0.56250000000000000        0.0000000000000000     
  0.46875000000000000       0.56250000000000000        0.0000000000000000     
  0.50000000000000000       0.56250000000000000        0.0000000000000000     
  0.37500000000000000       0.59375000000000000        0.0000000000000000     
  0.40625000000000000       0.59375000000000000        0.0000000000000000     
  0.43750000000000000       0.59375000000000000        0.0000000000000000     
  0.46875000000000000       0.59375000000000000        0.0000000000000000     
  0.50000000000000000       0.59375000000000000        0.0000000000000000     
  0.37500000000000000       0.62500000000000000        0.0000000000000000     
  0.40625000000000000       0.62500000000000000        0.0000000000000000     
  0.43750000000000000       0.62500000000000000        0.0000000000000000     
  0.46875000000000000       0.62500000000000000        0.0000000000000000     
  0.50000000000000000       0.62500000000000000        0.0000000000000000     
  0.50000000000000000       0.50000000000000000        0.0000000000000000     
  0.53125000000000000       0.50000000000000000        0.0000000000000000     
  0.56250000000000000       0.50000000000000000        0.0000000000000000     
  0.59375000000000000       0.50000000000000000        0.0000000000000000     
  0.62500000000000000       0.50000000000000000        0.0000000000000000     
  0.50000000000000000       0.53125000000000000        0.0000000000000000     
  0.53125000000000000       0.53125000000000000        0.0000000000000000     
  0.56250000000000000       0.53125000000000000        0.0000000000000000     
  0.59375000000000000       0.53125000000000000        0.0000000000000000     
  0.62500000000000000       0.53125000000000000        0.0000000000000000     
  0.50000000000000000       0.56250000000000000        0.0000000000000000     
  0.53125000000000000       0.56250000000000000        0.0000000000000000     
  0.56250000000000000       0.56250000000000000        0.0000000000000000     
  0.59375000000000000       0.56250000000000000        0.0000000000000000     
  0.62500000000000000       0.56250000000000000        0.0000000000000000     
  0.50000000000000000       0.59375000000000000        0.0000000000000000     
  0.53125000000000000       0.59375000000000000        0.0000000000000000     
  0.56250000000000000       0.59375000000000000        0.0000000000000000     
  0.59375000000000000       0.59375000000000000        0.0000000000000000     
  0.62500000000000000       0.59375000000000000        0.0000000000000000     
  0.50000000000000000       0.62500000000000000        0.0000000000000000     
  0.53125000000000000       0.62500000000000000        0.0000000000000000     
  0.56250000000000000       0.62500000000000000        0.0000000000000000     
  0.59375000000000000       0.62500000000000000        0.0000000000000000     
  0.62500000000000000       0.62500000000000000        0.0000000000000000     
  0.62500000000000000       0.50000000000000000        0.0000000000000000     
  0.65625000000000000       0.50000000000000000        0.0000000000000000     
  0.68750000000000000       0.50000000000000000        0.0000000000000000     
  0.71875000000000000       0.50000000000000000        0.0000000000000000     
  0.75000000000000000       0.50000000000000000        0.0000000000000000     
  0.62500000000000000       0.53125000000000000        0.0000000000000000     
  0.65625000000000000       0.53125000000000000        0.0000000000000000     
  0.68750000000000000       0.53125000000000000        0.0000000000000000     
  0.71875000000000000       0.53125000000000000        0.0000000000000000     
  0.75000000000000000       0.53125000000000000        0.0000000000000000     
  0.62500000000000000       0.56250000000000000        0.0000000000000000     
  0.65625000000000000       0.56250000000000000        0.0000000000000000     
  0.68750000000000000       0.56250000000000000        0.0000000000000000     
  0.71875000000000000       0.56250000000000000        0.0000000000000000     
  0.75000000000000000       0.56250000000000000        0.0000000000000000     
  0.62500000000000000       0.59375000000000000        0.0000000000000000     
  0.65625000000000000       0.59375000000000000        0.0000000000000000     
  0.68750000000000000       0.59375000000000000        0.0000000000000000     
  0.71875000000000000       0.59375000000000000        0.0000000000000000     
  0.75000000000000000       0.59375000000000000        0.0000000000000000     
  0.62500000000000000       0.62500000000000000        0.0000000000000000     
  0.65625000000000000       0.62500000000000000        0.0000000000000000     
  0.68750000000000000       0.62500000000000000        0.0000000000000000     
  0.71875000000000000       0.62500000000000000        0.0000000000000000     
  0.75000000000000000       0.62500000000000000        0.0000000000000000     
  0.75000000000000000       0.50000000000000000        0.0000000000000000     
  0.78125000000000000       0.50000000000000000        0.0000000000000000     
  0.81250000000000000       0.50000000000000000        0.0000000000000000     
  0.84375000000000000       0.50000000000000000        0.0000000000000000     
  0.87500000000000000       0.50000000000000000        0.0000000000000000     
  0.75000000000000000       0.53125000000000000        0.0000000000000000     
  0.78125000000000000       0.53125000000000000        0.0000000000000000     
  0.81250000000000000       0.53125000000000000        0.0000000000000000     
  0.84375000000000000       0.53125000000000000        0.0000000000000000     
  0.87500000000000000       0.53125000000000000        0.0000000000000000     
  0.75000000000000000       0.56250000000000000        0.0000000000000000     
  0.78125000000000000       0.56250000000000000        0.0000000000000000     
  0.81250000000000000       0.56250000000000000        0.0000000000000000     
  0.84375000000000000       0.56250000000000000        0.0000000000000000     
  0.87500000000000000       0.56250000000000000        0.0000000000000000     
  0.75000000000000000       0.59375000000000000        0.0000000000000000     
  0.78125000000000000       0.59375000000000000        0.0000000000000000     
  0.81250000000000000       0.59375000000000000        0.0000000000000000     
  0.84375000000000000       0.59375000000000000        0.0000000000000000     
  0.87500000000000000       0.59375000000000000        0.0000000000000000     
  0.75000000000000000       0.62500000000000000        0.0000000000000000     
  0.78125000000000000       0.62500000000000000        0.0000000000000000     
  0.81250000000000000       0.62500000000000000        0.0000000000000000     
  0.84375000000000000       0.62500000000000000        0.0000000000000000     
  0.87500000000000000       0.62500000000000000        0.0000000000000000     
  0.87500000000000000       0.50000000000000000        0.0000000000000000     
  0.90625000000000000       0.50000000000000000        0.0000000000000000     
  0.93750000000000000       0.50000000000000000        0.0000000000000000     
  0.96875000000000000       0.50000000000000000        0.0000000000000000     
   1.0000000000000000       0.50000000000000000        0.0000000000000000     
  0.87500000000000000       0.53125000000000000        0.0000000000000000     
  0.90625000000000000       0.53125000000000000        0.0000000000000000     
  0.93750000000000000       0.53125000000000000        0.0000000000000000     
  0.96875000000000000       0.53125000000000000        0.0000000000000000     
   1.0000000000000000       0.53125000000000000        0.0000000000000000     
  0.87500000000000000       0.56250000000000000        0.0000000000000000     
  0.90625000000000000       0.56250000000000000        0.0000000000000000     
  0.93750000000000000       0.56250000000000000        0.0000000000000000     
  0.96875000000000000       0.56250000000000000        0.0000000000000000     
   1.0000000000000000       0.56250000000000000        0.0000000000000000     
  0.87500000000000000       0.59375000000000000        0.0000000000000000     
  0.90625000000000000       0.59375000000000000        0.0000000000000000     
  0.93750000000000000       0.59375000000000000        0.0000000000000000     
  0.96875000000000000       0.59375000000000000        0.0000000000000000     
   1.0000000000000000       0.59375000000000000        0.0000000000000000     
  0.87500000000000000       0.62500000000000000        0.0000000000000000     
  0.90625000000000000       0.62500000000000000        0.0000000000000000     
  0.93750000000000000       0.62500000000000000        0.0000000000000000     
  0.96875000000000000       0.62500000000000000        0.0000000000000000     
   1.0000000000000000       0.62500000000000000        0.0000000000000000     
   0.0000000000000000       0.62500000000000000        0.0000000000000000     
   3.1250000000000000E-002  0.62500000000000000        0.0000000000000000     
   6.2500000000000000E-002  0.62500000000000000        0.0000000000000000     
   9.3750000000000000E-002  0.62500000000000000        0.0000000000000000     
  0.12500000000000000       0.62500000000000000        0.0000000000000000     
   0.0000000000000000       0.65625000000000000        0.0000000000000000     
   3.1250000000000000E-002  0.65625000000000000        0.0000000000000000     
   6.2500000000000000E-002  0.65625000000000000        0.0000000000000000     
   9.3750000000000000E-002  0.65625000000000000        0.0000000000000000     
  0.12500000000000000       0.65625000000000000        0.0000000000000000     
   0.0000000000000000       0.68750000000000000        0.0000000000000000     
   3.1250000000000000E-002  0.68750000000000000        0.0000000000000000     
   6.2500000000000000E-002  0.68750000000000000        0.0000000000000000     
   9.3750000000000000E-002  0.68750000000000000        0.0000000000000000     
  0.12500000000000000       0.68750000000000000        0.0000000000000000     
   0.0000000000000000       0.71875000000000000        0.0000000000000000     
   3.1250000000000000E-002  0.71875000000000000        0.0000000000000000     
   6.2500000000000000E-002  0.71875000000000000        0.0000000000000000     
   9.3750000000000000E-002  0.71875000000000000        0.0000000000000000     
  0.12500000000000000       0.71875000000000000        0.0000000000000000     
   0.0000000000000000       0.75000000000000000        0.0000000000000000     
   3.1250000000000000E-002  0.75000000000000000        0.0000000000000000     
   6.2500000000000000E-002  0.75000000000000000        0.0000000000000000     
   9.3750000000000000E-002  0.75000000000000000        0.0000000000000000     
  0.12500000000000000       0.75000000000000000        0.0000000000000000     
  0.12500000000000000       0.62500000000000000        0.0000000000000000     
  0.15625000000000000       0.62500000000000000        0.0000000000000000     
  0.18750000000000000       0.62500000000000000        0.0000000000000000     
  0.21875000000000000       0.62500000000000000        0.0000000000000000     
  0.25000000000000000       0.62500000000000000        0.0000000000000000     
  0.12500000000000000       0.65625000000000000        0.0000000000000000     
  0.15625000000000000       0.65625000000000000        0.0000000000000000     
  0.18750000000000000       0.65625000000000000        0.0000000000000000     
  0.21875000000000000       0.65625000000000000        0.0000000000000000     
  0.25000000000000000       0.65625000000000000        0.0000000000000000     
  0.12500000000000000       0.68750000000000000        0.0000000000000000     
  0.15625000000000000       0.68750000000000000        0.0000000000000000     
  0.18750000000000000       0.68750000000000000        0.0000000000000000     
  0.21875000000000000       0.68750000000000000        0.0000000000000000     
  0.25000000000000000       0.68750000000000000        0.0000000000000000     
  0.12500000000000000       0.71875000000000000        0.0000000000000000     
  0.15625000000000000       0.71875000000000000        0.0000000000000000     
  0.18750000000000000       0.71875000000000000        0.0000000000000000     
  0.21875000000000000       0.71875000000000000        0.0000000000000000     
  0.25000000000000000       0.71875000000000000        0.0000000000000000     
  0.12500000000000000       0.75000000000000000        0.0000000000000000     
  0.15625000000000000       0.75000000000000000        0.0000000000000000     
  0.18750000000000000       0.75000000000000000        0.0000000000000000     
  0.21875000000000000       0.75000000000000000        0.0000000000000000     
  0.25000000000000000       0.75000000000000000        0.0000000000000000     
  0.25000000000000000       0.62500000000000000        0.0000000000000000     
  0.28125000000000000       0.62500000000000000        0.0000000000000000     
  0.31250000000000000       0.62500000000000000        0.0000000000000000     
  0.34375000000000000       0.62500000000000000        0.0000000000000000     
  0.37500000000000000       0.62500000000000000        0.0000000000000000     
  0.25000000000000000       0.65625000000000000        0.0000000000000000     
  0.28125000000000000       0.65625000000000000        0.0000000000000000     
  0.31250000000000000       0.65625000000000000        0.0000000000000000     
  0.34375000000000000       0.65625000000000000        0.0000000000000000     
  0.37500000000000000       0.65625000000000000        0.0000000000000000     
  0.25000000000000000       0.68750000000000000        0.0000000000000000     
  0.28125000000000000       0.68750000000000000        0.0000000000000000     
  0.31250000000000000       0.68750000000000000        0.0000000000000000     
  0.34375000000000000       0.68750000000000000        0.0000000000000000     
  0.37500000000000000       0.68750000000000000        0.0000000000000000     
  0.25000000000000000       0.71875000000000000        0.0000000000000000     
  0.28125000000000000       0.71875000000000000        0.0000000000000000     
  0.31250000000000000       0.71875000000000000        0.0000000000000000     
  0.34375000000000000       0.71875000000000000        0.0000000000000000     
  0.37500000000000000       0.71875000000000000        0.0000000000000000     
  0.25000000000000000       0.75000000000000000        0.0000000000000000     
  0.28125000000000000       0.75000000000000000        0.0000000000000000     
  0.31250000000000000       0.75000000000000000        0.0000000000000000     
  0.34375000000000000       0.75000000000000000        0.0000000000000000     
  0.37500000000000000       0.75000000000000000        0.0000000000000000     
  0.37500000000000000       0.62500000000000000        0.0000000000000000     
  0.40625000000000000       0.62500000000000000        0.0000000000000000     
  0.43750000000000000       0.62500000000000000        0.0000000000000000     
  0.46875000000000000       0.62500000000000000        0.0000000000000000     
  0.50000000000000000       0.62500000000000000        0.0000000000000000     
  0.37500000000000000       0.65625000000000000        0.0000000000000000     
  0.40625000000000000       0.65625000000000000        0.0000000000000000     
  0.43750000000000000       0.65625000000000000        0.0000000000000000     
  0.46875000000000000       0.65625000000000000        0.0000000000000000     
  0.50000000000000000       0.65625000000000000        0.0000000000000000     
  0.37500000000000000       0.68750000000000000        0.0000000000000000     
  0.40625000000000000       0.68750000000000000        0.0000000000000000     
  0.43750000000000000       0.68750000000000000        0.0000000000000000     
  0.46875000000000000       0.68750000000000000        0.0000000000000000     
  0.50000000000000000       0.68750000000000000        0.0000000000000000     
  0.37500000000000000       0.71875000000000000        0.0000000000000000     
  0.40625000000000000       0.71875000000000000        0.0000000000000000     
  0.43750000000000000       0.71875000000000000        0.0000000000000000     
  0.46875000000000000       0.71875000000000000        0.0000000000000000     
  0.50000000000000000       0.71875000000000000        0.0000000000000000     
  0.37500000000000000       0.75000000000000000        0.0000000000000000     
  0.40625000000000000       0.75000000000000000        0.0000000000000000     
  0.43750000000000000       0.75000000000000000        0.0000000000000000     
  0.46875000000000000       0.75000000000000000        0.0000000000000000     
  0.50000000000000000       0.75000000000000000        0.0000000000000000     
  0.50000000000000000       0.62500000000000000        0.0000000000000000     
  0.53125000000000000       0.62500000000000000        0.0000000000000000     
  0.56250000000000000       0.62500000000000000        0.0000000000000000     
  0.59375000000000000       0.62500000000000000        0.0000000000000000     
  0.62500000000000000       0.62500000000000000        0.0000000000000000     
  0.50000000000000000       0.65625000000000000        0.0000000000000000     
  0.53125000000000000       0.65625000000000000        0.0000000000000000     
  0.56250000000000000       0.65625000000000000        0.0000000000000000     
  0.59375000000000000       0.65625000000000000        0.0000000000000000     
  0.62500000000000000       0.65625000000000000        0.0000000000000000     
  0.50000000000000000       0.68750000000000000        0.0000000000000000     
  0.53125000000000000       0.68750000000000000        0.0000000000000000     
  0.56250000000000000       0.68750000000000000        0.0000000000000000     
  0.59375000000000000       0.68750000000000000        0.0000000000000000     
  0.62500000000000000       0.68750000000000000        0.0000000000000000     
  0.50000000000000000       0.71875000000000000        0.0000000000000000     
  0.53125000000000000       0.71875000000000000        0.0000000000000000     
  0.56250000000000000       0.71875000000000000        0.0000000000000000     
  0.59375000000000000       0.71875000000000000        0.0000000000000000     
  0.62500000000000000       0.71875000000000000        0.0000000000000000     
  0.50000000000000000       0.75000000000000000        0.0000000000000000     
  0.53125000000000000       0.75000000000000000        0.0000000000000000     
  0.56250000000000000       0.75000000000000000        0.0000000000000000     
  0.59375000000000000       0.75000000000000000        0.0000000000000000     
  0.62500000000000000       0.75000000000000000        0.0000000000000000     
  0.62500000000000000       0.62500000000000000        0.0000000000000000     
  0.65625000000000000       0.62500000000000000        0.0000000000000000     
  0.68750000000000000       0.62500000000000000        0.0000000000000000     
  0.71875000000000000       0.62500000000000000        0.0000000000000000     
  0.75000000000000000       0.62500000000000000        0.0000000000000000     
  0.62500000000000000       0.65625000000000000        0.0000000000000000     
  0.65625000000000000       0.65625000000000000        0.0000000000000000     
  0.68750000000000000       0.65625000000000000        0.0000000000000000     
  0.71875000000000000       0.65625000000000000        0.0000000000000000     
  0.75000000000000000       0.65625000000000000        0.0000000000000000     
  0.62500000000000000       0.68750000000000000        0.0000000000000000     
  0.65625000000000000       0.68750000000000000        0.0000000000000000     
  0.68750000000000000       0.68750000000000000        0.0000000000000000     
  0.71875000000000000       0.68750000000000000        0.0000000000000000     
  0.75000000000000000       0.68750000000000000        0.0000000000000000     
  0.62500000000000000       0.71875000000000000        0.0000000000000000     
  0.65625000000000000       0.71875000000000000        0.0000000000000000     
  0.68750000000000000       0.71875000000000000        0.0000000000000000     
  0.71875000000000000       0.71875000000000000        0.0000000000000000     
  0.75000000000000000       0.71875000000000000        0.0000000000000000     
  0.62500000000000000       0.75000000000000000        0.0000000000000000     
  0.65625000000000000       0.75000000000000000        0.0000000000000000     
  0.68750000000000000       0.75000000000000000        0.0000000000000000     
  0.71875000000000000       0.75000000000000000        0.0000000000000000     
  0.75000000000000000       0.75000000000000000        0.0000000000000000     
  0.75000000000000000       0.62500000000000000        0.0000000000000000     
  0.78125000000000000       0.62500000000000000        0.0000000000000000     
  0.81250000000000000       0.62500000000000000        0.0000000000000000     
  0.84375000000000000       0.62500000000000000        0.0000000000000000     
  0.87500000000000000       0.62500000000000000        0.0000000000000000     
  0.75000000000000000       0.65625000000000000        0.0000000000000000     
  0.78125000000000000       0.65625000000000000        0.0000000000000000     
  0.81250000000000000       0.65625000000000000        0.0000000000000000     
  0.84375000000000000       0.65625000000000000        0.0000000000000000     
  0.87500000000000000       0.65625000000000000        0.0000000000000000     
  0.75000000000000000       0.68750000000000000        0.0000000000000000     
  0.78125000000000000       0.68750000000000000        0.0000000000000000     
  0.81250000000000000       0.68750000000000000        0.0000000000000000     
  0.84375000000000000       0.68750000000000000        0.0000000000000000     
  0.87500000000000000       0.68750000000000000        0.0000000000000000     
  0.75000000000000000       0.71875000000000000        0.0000000000000000     
  0.78125000000000000       0.71875000000000000        0.0000000000000000     
  0.81250000000000000       0.71875000000000000        0.0000000000000000     
  0.84375000000000000       0.71875000000000000        0.0000000000000000     
  0.87500000000000000       0.71875000000000000        0.0000000000000000     
  0.75000000000000000       0.75000000000000000        0.0000000000000000     
  0.78125000000000000       0.75000000000000000        0.0000000000000000     
  0.81250000000000000       0.75000000000000000        0.0000000000000000     
  0.84375000000000000       0.75000000000000000        0.0000000000000000     
  0.87500000000000000       0.75000000000000000        0.0000000000000000     
  0.87500000000000000       0.62500000000000000        0.0000000000000000     
  0.90625000000000000       0.62500000000000000        0.0000000000000000     
  0.93750000000000000       0.62500000000000000        0.0000000000000000     
  0.96875000000000000       0.62500000000000000        0.0000000000000000     
   1.0000000000000000       0.62500000000000000        0.0000000000000000     
  0.87500000000000000       0.65625000000000000        0.0000000000000000     
  0.90625000000000000       0.65625000000000000        0.0000000000000000     
  0.93750000000000000       0.65625000000000000        0.0000000000000000     
  0.96875000000000000       0.65625000000000000        0.0000000000000000     
   1.0000000000000000       0.65625000000000000        0.0000000000000000     
  0.87500000000000000       0.68750000000000000        0.0000000000000000     
  0.90625000000000000       0.68750000000000000        0.0000000000000000     
  0.93750000000000000       0.68750000000000000        0.0000000000000000     
  0.96875000000000000       0.68750000000000000        0.0000000000000000     
   1.0000000000000000       0.68750000000000000        0.0000000000000000     
  0.87500000000000000       0.71875000000000000        0.0000000000000000     
  0.90625000000000000       0.71875000000000000        0.0000000000000000     
  0.93750000000000000       0.71875000000000000        0.0000000000000000     
  0.96875000000000000       0.71875000000000000        0.0000000000000000     
   1.0000000000000000       0.71875000000000000        0.0000000000000000     
  0.87500000000000000       0.75000000000000000        0.0000000000000000     
  0.90625000000000000       0.75000000000000000        0.0000000000000000     
  0.93750000000000000       0.75000000000000000        0.0000000000000000     
  0.96875000000000000       0.75000000000000000        0.0000000000000000     
   1.0000000000000000       0.75000000000000000        0.0000000000000000     
   0.0000000000000000       0.75000000000000000        0.0000000000000000     
   3.1250000000000000E-002  0.75000000000000000        0.0000000000000000     
   6.2500000000000000E-002  0.75000000000000000        0.0000000000000000     
   9.3750000000000000E-002  0.75000000000000000        0.0000000000000000     
  0.12500000000000000       0.75000000000000000        0.0000000000000000     
   0.0000000000000000       0.78125000000000000        0.0000000000000000     
   3.1250000000000000E-002  0.78125000000000000        0.0000000000000000     
   6.2500000000000000E-002  0.78125000000000000        0.0000000000000000     
   9.3750000000000000E-002  0.78125000000000000        0.0000000000000000     
  0.12500000000000000       0.78125000000000000        0.0000000000000000     
   0.0000000000000000       0.81250000000000000        0.0000000000000000     
   3.1250000000000000E-002  0.81250000000000000        0.0000000000000000     
   6.2500000000000000E-002  0.81250000000000000        0.0000000000000000     
   9.3750000000000000E-002  0.81250000000000000        0.0000000000000000     
  0.12500000000000000       0.81250000000000000        0.0000000000000000     
   0.0000000000000000       0.84375000000000000        0.0000000000000000     
   3.1250000000000000E-002  0.84375000000000000        0.0000000000000000     
   6.2500000000000000E-002  0.84375000000000000        0.0000000000000000     
   9.3750000000000000E-002  0.84375000000000000        0.0000000000000000     
  0.12500000000000000       0.84375000000000000        0.0000000000000000     
   0.0000000000000000       0.87500000000000000        0.0000000000000000     
   3.1250000000000000E-002  0.87500000000000000        0.0000000000000000     
   6.2500000000000000E-002  0.87500000000000000        0.0000000000000000     
   9.3750000000000000E-002  0.87500000000000000        0.0000000000000000     
  0.12500000000000000       0.87500000000000000        0.0000000000000000     
  0.12500000000000000       0.75000000000000000        0.0000000000000000     
  0.15625000000000000       0.75000000000000000        0.0000000000000000     
  0.18750000000000000       0.75000000000000000        0.0000000000000000     
  0.21875000000000000       0.75000000000000000        0.0000000000000000     
  0.25000000000000000       0.75000000000000000        0.0000000000000000     
  0.12500000000000000       0.78125000000000000        0.0000000000000000     
  0.15625000000000000       0.78125000000000000        0.0000000000000000     
  0.18750000000000000       0.78125000000000000        0.0000000000000000     
  0.21875000000000000       0.78125000000000000        0.0000000000000000     
  0.25000000000000000       0.78125000000000000        0.0000000000000000     
  0.12500000000000000       0.81250000000000000        0.0000000000000000     
  0.15625000000000000       0.81250000000000000        0.0000000000000000     
  0.18750000000000000       0.81250000000000000        0.0000000000000000     
  0.21875000000000000       0.81250000000000000        0.0000000000000000     
  0.25000000000000000       0.81250000000000000        0.0000000000000000     
  0.12500000000000000       0.84375000000000000        0.0000000000000000     
  0.15625000000000000       0.84375000000000000        0.0000000000000000     
  0.18750000000000000       0.84375000000000000        0.0000000000000000     
  0.21875000000000000       0.84375000000000000        0.0000000000000000     
  0.25000000000000000       0.84375000000000000        0.0000000000000000     
  0.12500000000000000       0.87500000000000000        0.0000000000000000     
  0.15625000000000000       0.87500000000000000        0.0000000000000000     
  0.18750000000000000       0.87500000000000000        0.0000000000000000     
  0.21875000000000000       0.87500000000000000        0.0000000000000000     
  0.25000000000000000       0.87500000000000000        0.0000000000000000     
  0.25000000000000000       0.75000000000000000        0.0000000000000000     
  0.28125000000000000       0.75000000000000000        0.0000000000000000     
  0.31250000000000000       0.75000000000000000        0.0000000000000000     
  0.34375000000000000       0.75000000000000000        0.0000000000000000     
  0.37500000000000000       0.75000000000000000        0.0000000000000000     
  0.25000000000000000       0.78125000000000000        0.0000000000000000     
  0.28125000000000000       0.78125000000000000        0.0000000000000000     
  0.31250000000000000       0.78125000000000000        0.0000000000000000     
  0.34375000000000000       0.78125000000000000        0.0000000000000000     
  0.37500000000000000       0.78125000000000000        0.0000000000000000     
  0.25000000000000000       0.81250000000000000        0.0000000000000000     
  0.28125000000000000       0.81250000000000000        0.0000000000000000     
  0.31250000000000000       0.81250000000000000        0.0000000000000000     
  0.34375000000000000       0.81250000000000000        0.0000000000000000     
  0.37500000000000000       0.81250000000000000        0.0000000000000000     
  0.25000000000000000       0.84375000000000000        0.0000000000000000     
  0.28125000000000000       0.84375000000000000        0.0000000000000000     
  0.31250000000000000       0.84375000000000000        0.0000000000000000     
  0.34375000000000000       0.84375000000000000        0.0000000000000000     
  0.37500000000000000       0.84375000000000000        0.0000000000000000     
  0.25000000000000000       0.87500000000000000        0.0000000000000000     
  0.28125000000000000       0.87500000000000000        0.0000000000000000     
  0.31250000000000000       0.87500000000000000        0.0000000000000000     
  0.34375000000000000       0.87500000000000000        0.0000000000000000     
  0.37500000000000000       0.87500000000000000        0.0000000000000000     
  0.37500000000000000       0.75000000000000000        0.0000000000000000     
  0.40625000000000000       0.75000000000000000        0.0000000000000000     
  0.43750000000000000       0.75000000000000000        0.0000000000000000     
  0.46875000000000000       0.75000000000000000        0.0000000000000000     
  0.50000000000000000       0.75000000000000000        0.0000000000000000     
  0.37500000000000000       0.78125000000000000        0.0000000000000000     
  0.40625000000000000       0.78125000000000000        0.0000000000000000     
  0.43750000000000000       0.78125000000000000        0.0000000000000000     
  0.46875000000000000       0.78125000000000000        0.0000000000000000     
  0.50000000000000000       0.78125000000000000        0.0000000000000000     
  0.37500000000000000       0.81250000000000000        0.0000000000000000     
  0.40625000000000000       0.81250000000000000        0.0000000000000000     
  0.43750000000000000       0.81250000000000000        0.0000000000000000     
  0.46875000000000000       0.81250000000000000        0.0000000000000000     
  0.50000000000000000       0.81250000000000000        0.0000000000000000     
  0.37500000000000000       0.84375000000000000        0.0000000000000000     
  0.40625000000000000       0.84375000000000000        0.0000000000000000     
  0.43750000000000000       0.84375000000000000        0.0000000000000000     
  0.46875000000000000       0.84375000000000000        0.0000000000000000     
  0.50000000000000000       0.84375000000000000        0.0000000000000000     
  0.37500000000000000       0.87500000000000000        0.0000000000000000     
  0.40625000000000000       0.87500000000000000        0.0000000000000000     
  0.43750000000000000       0.87500000000000000        0.0000000000000000     
  0.46875000000000000       0.87500000000000000        0.0000000000000000     
  0.50000000000000000       0.87500000000000000        0.0000000000000000     
  0.50000000000000000       0.75000000000000000        0.0000000000000000     
  0.53125000000000000       0.75000000000000000        0.0000000000000000     
  0.56250000000000000       0.75000000000000000        0.0000000000000000     
  0.59375000000000000       0.75000000000000000        0.0000000000000000     
  0.62500000000000000       0.75000000000000000        0.0000000000000000     
  0.50000000000000000       0.78125000000000000        0.0000000000000000     
  0.53125000000000000       0.78125000000000000        0.0000000000000000     
  0.56250000000000000       0.78125000000000000        0.0000000000000000     
  0.59375000000000000       0.78125000000000000        0.0000000000000000     
  0.62500000000000000       0.78125000000000000        0.0000000000000000     
  0.50000000000000000       0.81250000000000000        0.0000000000000000     
  0.53125000000000000       0.81250000000000000        0.0000000000000000     
  0.56250000000000000       0.81250000000000000        0.0000000000000000     
  0.59375000000000000       0.81250000000000000        0.0000000000000000     
  0.62500000000000000       0.81250000000000000        0.0000000000000000     
  0.50000000000000000       0.84375000000000000        0.0000000000000000     
  0.53125000000000000       0.84375000000000000        0.0000000000000000     
  0.56250000000000000       0.84375000000000000        0.0000000000000000     
  0.59375000000000000       0.84375000000000000        0.0000000000000000     
  0.62500000000000000       0.84375000000000000        0.0000000000000000     
  0.50000000000000000       0.87500000000000000        0.0000000000000000     
  0.53125000000000000       0.87500000000000000        0.0000000000000000     
  0.56250000000000000       0.87500000000000000        0.0000000000000000     
  0.59375000000000000       0.87500000000000000        0.0000000000000000     
  0.62500000000000000       0.87500000000000000        0.0000000000000000     
  0.62500000000000000       0.75000000000000000        0.0000000000000000     
  0.65625000000000000       0.75000000000000000        0.0000000000000000     
  0.68750000000000000       0.75000000000000000        0.0000000000000000     
  0.71875000000000000       0.75000000000000000        0.0000000000000000     
  0.75000000000000000       0.75000000000000000        0.0000000000000000     
  0.62500000000000000       0.78125000000000000        0.0000000000000000     
  0.65625000000000000       0.78125000000000000        0.0000000000000000     
  0.68750000000000000       0.78125000000000000        0.0000000000000000     
  0.71875000000000000       0.78125000000000000        0.0000000000000000     
  0.75000000000000000       0.78125000000000000        0.0000000000000000     
  0.62500000000000000       0.81250000000000000        0.0000000000000000     
  0.65625000000000000       0.81250000000000000        0.0000000000000000     
  0.68750000000000000       0.81250000000000000        0.0000000000000000     
  0.71875000000000000       0.81250000000000000        0.0000000000000000     
  0.75000000000000000       0.81250000000000000        0.0000000000000000     
  0.62500000000000000       0.84375000000000000        0.0000000000000000     
  0.65625000000000000       0.84375000000000000        0.0000000000000000     
  0.68750000000000000       0.84375000000000000        0.0000000000000000     
  0.71875000000000000       0.84375000000000000        0.0000000000000000     
  0.75000000000000000       0.84375000000000000        0.0000000000000000     
  0.62500000000000000       0.87500000000000000        0.0000000000000000     
  0.65625000000000000       0.87500000000000000        0.0000000000000000     
  0.68750000000000000       0.87500000000000000        0.0000000000000000     
  0.71875000000000000       0.87500000000000000        0.0000000000000000     
  0.75000000000000000       0.87500000000000000        0.0000000000000000     
  0.75000000000000000       0.75000000000000000        0.0000000000000000     
  0.78125000000000000       0.75000000000000000        0.0000000000000000     
  0.81250000000000000       0.75000000000000000        0.0000000000000000     
  0.84375000000000000       0.75000000000000000        0.0000000000000000     
  0.87500000000000000       0.75000000000000000        0.0000000000000000     
  0.75000000000000000       0.78125000000000000        0.0000000000000000     
  0.78125000000000000       0.78125000000000000        0.0000000000000000     
  0.81250000000000000       0.78125000000000000        0.0000000000000000     
  0.84375000000000000       0.78125000000000000        0.0000000000000000     
  0.87500000000000000       0.78125000000000000        0.0000000000000000     
  0.75000000000000000       0.81250000000000000        0.0000000000000000     
  0.78125000000000000       0.81250000000000000        0.0000000000000000     
  0.81250000000000000       0.81250000000000000        0.0000000000000000     
  0.84375000000000000       0.81250000000000000        0.0000000000000000     
  0.87500000000000000       0.81250000000000000        0.0000000000000000     
  0.75000000000000000       0.84375000000000000        0.0000000000000000     
  0.78125000000000000       0.84375000000000000        0.0000000000000000     
  0.81250000000000000       0.84375000000000000        0.0000000000000000     
  0.84375000000000000       0.84375000000000000        0.0000000000000000     
  0.87500000000000000       0.84375000000000000        0.0000000000000000     
  0.75000000000000000       0.87500000000000000        0.0000000000000000     
  0.78125000000000000       0.87500000000000000        0.0000000000000000     
  0.81250000000000000       0.87500000000000000        0.0000000000000000     
  0.84375000000000000       0.87500000000000000        0.0000000000000000     
  0.87500000000000000       0.87500000000000000        0.0000000000000000     
  0.87500000000000000       0.75000000000000000        0.0000000000000000     
  0.90625000000000000       0.75000000000000000        0.0000000000000000     
  0.93750000000000000       0.75000000000000000        0.0000000000000000     
  0.96875000000000000       0.75000000000000000        0.0000000000000000     
   1.0000000000000000       0.75000000000000000        0.0000000000000000     
  0.87500000000000000       0.78125000000000000        0.0000000000000000     
  0.90625000000000000       0.78125000000000000        0.0000000000000000     
  0.93750000000000000       0.78125000000000000        0.0000000000000000     
  0.96875000000000000       0.78125000000000000        0.0000000000000000     
   1.0000000000000000       0.78125000000000000        0.0000000000000000     
  0.87500000000000000       0.81250000000000000        0.0000000000000000     
  0.90625000000000000       0.81250000000000000        0.0000000000000000     
  0.93750000000000000       0.81250000000000000        0.0000000000000000     
  0.96875000000000000       0.81250000000000000        0.0000000000000000     
   1.0000000000000000       0.81250000000000000        0.0000000000000000     
  0.87500000000000000       0.84375000000000000        0.0000000000000000     
  0.90625000000000000       0.84375000000000000        0.0000000000000000     
  0.93750000000000000       0.84375000000000000        0.0000000000000000     
  0.96875000000000000       0.84375000000000000        0.0000000000000000     
   1.0000000000000000       0.84375000000000000        0.0000000000000000     
  0.87500000000000000       0.87500000000000000        0.0000000000000000     
  0.90625000000000000       0.87500000000000000        0.0000000000000000     
  0.93750000000000000       0.87500000000000000        0.0000000000000000     
  0.96875000000000000       0.87500000000000000        0.0000000000000000     
   1.0000000000000000       0.87500000000000000        0.0000000000000000     
   0.0000000000000000       0.87500000000000000        0.0000000000000000     
   3.1250000000000000E-002  0.87500000000000000        0.0000000000000000     
   6.2500000000000000E-002  0.87500000000000000        0.0000000000000000     
   9.3750000000000000E-002  0.87500000000000000        0.0000000000000000     
  0.12500000000000000       0.87500000000000000        0.0000000000000000     
   0.0000000000000000       0.90625000000000000        0.0000000000000000     
   3.1250000000000000E-002  0.90625000000000000        0.0000000000000000     
   6.2500000000000000E-002  0.90625000000000000        0.0000000000000000     
   9.3750000000000000E-002  0.90625000000000000        0.0000000000000000     
  0.12500000000000000       0.90625000000000000        0.0000000000000000     
   0.0000000000000000       0.93750000000000000        0.0000000000000000     
   3.1250000000000000E-002  0.93750000000000000        0.0000000000000000     
   6.2500000000000000E-002  0.93750000000000000        0.0000000000000000     
   9.3750000000000000E-002  0.93750000000000000        0.0000000000000000     
  0.12500000000000000       0.93750000000000000        0.0000000000000000     
   0.0000000000000000       0.96875000000000000        0.0000000000000000     
   3.1250000000000000E-002  0.96875000000000000        0.0000000000000000     
   6.2500000000000000E-002  0.96875000000000000        0.0000000000000000     
   9.3750000000000000E-002  0.96875000000000000        0.0000000000000000     
  0.12500000000000000       0.96875000000000000        0.0000000000000000     
   0.0000000000000000        1.0000000000000000        0.0000000000000000     
   3.1250000000000000E-002   1.0000000000000000        0.0000000000000000     
   6.2500000000000000E-002   1.0000000000000000        0.0000000000000000     
   9.3750000000000000E-002   1.0000000000000000        0.0000000000000000     
  0.12500000000000000        1.0000000000000000        0.0000000000000000     
  0.12500000000000000       0.87500000000000000        0.0000000000000000     
  0.15625000000000000       0.87500000000000000        0.0000000000000000     
  0.18750000000000000       0.87500000000000000        0.0000000000000000     
  0.21875000000000000       0.87500000000000000        0.0000000000000000     
  0.25000000000000000       0.87500000000000000        0.0000000000000000     
  0.12500000000000000       0.90625000000000000        0.0000000000000000     
  0.15625000000000000       0.90625000000000000        0.0000000000000000     
  0.18750000000000000       0.90625000000000000        0.0000000000000000     
  0.21875000000000000       0.90625000000000000        0.0000000000000000     
  0.25000000000000000       0.90625000000000000        0.0000000000000000     
  0.12500000000000000       0.93750000000000000        0.0000000000000000     
  0.15625000000000000       0.93750000000000000        0.0000000000000000     
  0.18750000000000000       0.93750000000000000        0.0000000000000000     
  0.21875000000000000       0.93750000000000000        0.0000000000000000     
  0.25000000000000000       0.93750000000000000        0.0000000000000000     
  0.12500000000000000       0.96875000000000000        0.0000000000000000     
  0.15625000000000000       0.96875000000000000        0.0000000000000000     
  0.18750000000000000       0.96875000000000000        0.0000000000000000     
  0.21875000000000000       0.96875000000000000        0.0000000000000000     
  0.25000000000000000       0.96875000000000000        0.0000000000000000     
  0.12500000000000000        1.0000000000000000        0.0000000000000000     
  0.15625000000000000        1.0000000000000000        0.0000000000000000     
  0.18750000000000000        1.0000000000000000        0.0000000000000000     
  0.21875000000000000        1.0000000000000000        0.0000000000000000     
  0.25000000000000000        1.0000000000000000        0.0000000000000000     
  0.25000000000000000       0.87500000000000000        0.0000000000000000     
  0.28125000000000000       0.87500000000000000        0.0000000000000000     
  0.31250000000000000       0.87500000000000000        0.0000000000000000     
  0.34375000000000000       0.87500000000000000        0.0000000000000000     
  0.37500000000000000       0.87500000000000000        0.0000000000000000     
  0.25000000000000000       0.90625000000000000        0.0000000000000000     
  0.28125000000000000       0.90625000000000000        0.0000000000000000     
  0.31250000000000000       0.90625000000000000        0.0000000000000000     
  0.34375000000000000       0.90625000000000000        0.0000000000000000     
  0.37500000000000000       0.90625000000000000        0.0000000000000000     
  0.25000000000000000       0.93750000000000000        0.0000000000000000     
  0.28125000000000000       0.93750000000000000        0.0000000000000000     
  0.31250000000000000       0.93750000000000000        0.0000000000000000     
  0.34375000000000000       0.93750000000000000        0.0000000000000000     
  0.37500000000000000       0.93750000000000000        0.0000000000000000     
  0.25000000000000000       0.96875000000000000        0.0000000000000000     
  0.28125000000000000       0.96875000000000000        0.0000000000000000     
  0.31250000000000000       0.96875000000000000        0.0000000000000000     
  0.34375000000000000       0.96875000000000000        0.0000000000000000     
  0.37500000000000000       0.96875000000000000        0.0000000000000000     
  0.25000000000000000        1.0000000000000000        0.0000000000000000     
  0.28125000000000000        1.0000000000000000        0.0000000000000000     
  0.31250000000000000        1.0000000000000000        0.0000000000000000     
  0.34375000000000000        1.0000000000000000        0.0000000000000000     
  0.37500000000000000        1.0000000000000000        0.0000000000000000     
  0.37500000000000000       0.87500000000000000        0.0000000000000000     
  0.40625000000000000       0.87500000000000000        0.0000000000000000     
  0.43750000000000000       0.87500000000000000        0.0000000000000000     
  0.46875000000000000       0.87500000000000000        0.0000000000000000     
  0.50000000000000000       0.87500000000000000        0.0000000000000000     
  0.37500000000000000       0.90625000000000000        0.0000000000000000     
  0.40625000000000000       0.90625000000000000        0.0000000000000000     
  0.43750000000000000       0.90625000000000000        0.0000000000000000     
  0.46875000000000000       0.90625000000000000        0.0000000000000000     
  0.50000000000000000       0.90625000000000000        0.0000000000000000     
  0.37500000000000000       0.93750000000000000        0.0000000000000000     
  0.40625000000000000       0.93750000000000000        0.0000000000000000     
  0.43750000000000000       0.93750000000000000        0.0000000000000000     
  0.46875000000000000       0.93750000000000000        0.0000000000000000     
  0.50000000000000000       0.93750000000000000        0.0000000000000000     
  0.37500000000000000       0.96875000000000000        0.0000000000000000     
  0.40625000000000000       0.96875000000000000        0.0000000000000000     
  0.43750000000000000       0.96875000000000000        0.0000000000000000     
  0.46875000000000000       0.96875000000000000        0.0000000000000000     
  0.50000000000000000       0.96875000000000000        0.0000000000000000     
  0.37500000000000000        1.0000000000000000        0.0000000000000000     
  0.40625000000000000        1.0000000000000000        0.0000000000000000     
  0.43750000000000000        1.0000000000000000        0.0000000000000000     
  0.46875000000000000        1.0000000000000000        0.0000000000000000     
  0.50000000000000000        1.0000000000000000        0.0000000000000000     
  0.50000000000000000       0.87500000000000000        0.0000000000000000     
  0.53125000000000000       0.87500000000000000        0.0000000000000000     
  0.56250000000000000       0.87500000000000000        0.0000000000000000     
  0.59375000000000000       0.87500000000000000        0.0000000000000000     
  0.62500000000000000       0.87500000000000000        0.0000000000000000     
  0.50000000000000000       0.90625000000000000        0.0000000000000000     
  0.53125000000000000       0.90625000000000000        0.0000000000000000     
  0.56250000000000000       0.90625000000000000        0.0000000000000000     
  0.59375000000000000       0.90625000000000000        0.0000000000000000     
  0.62500000000000000       0.90625000000000000        0.0000000000000000     
  0.50000000000000000       0.93750000000000000        0.0000000000000000     
  0.53125000000000000       0.93750000000000000        0.0000000000000000     
  0.56250000000000000       0.93750000000000000        0.0000000000000000     
  0.59375000000000000       0.93750000000000000        0.0000000000000000     
  0.62500000000000000       0.93750000000000000        0.0000000000000000     
  0.50000000000000000       0.96875000000000000        0.0000000000000000     
  0.53125000000000000       0.96875000000000000        0.0000000000000000     
  0.56250000000000000       0.96875000000000000        0.0000000000000000     
  0.59375000000000000       0.96875000000000000        0.0000000000000000     
  0.62500000000000000       0.96875000000000000        0.0000000000000000     
  0.50000000000000000        1.0000000000000000        0.0000000000000000     
  0.53125000000000000        1.0000000000000000        0.0000000000000000     
  0.56250000000000000        1.0000000000000000        0.0000000000000000     
  0.59375000000000000        1.0000000000000000        0.0000000000000000     
  0.62500000000000000        1.0000000000000000        0.0000000000000000     
  0.62500000000000000       0.87500000000000000        0.0000000000000000     
  0.65625000000000000       0.87500000000000000        0.0000000000000000     
  0.68750000000000000       0.87500000000000000        0.0000000000000000     
  0.71875000000000000       0.87500000000000000        0.0000000000000000     
  0.75000000000000000       0.87500000000000000        0.0000000000000000     
  0.62500000000000000       0.90625000000000000        0.0000000000000000     
  0.65625000000000000       0.90625000000000000        0.0000000000000000     
  0.68750000000000000       0.90625000000000000        0.0000000000000000     
  0.71875000000000000       0.90625000000000000        0.0000000000000000     
  0.75000000000000000       0.90625000000000000        0.0000000000000000     
  0.62500000000000000       0.93750000000000000        0.0000000000000000     
  0.65625000000000000       0.93750000000000000        0.0000000000000000     
  0.68750000000000000       0.93750000000000000        0.0000000000000000     
  0.71875000000000000       0.93750000000000000        0.0000000000000000     
  0.75000000000000000       0.93750000000000000        0.0000000000000000     
  0.62500000000000000       0.96875000000000000        0.0000000000000000     
  0.65625000000000000       0.96875000000000000        0.0000000000000000     
  0.68750000000000000       0.96875000000000000        0.0000000000000000     
  0.71875000000000000       0.96875000000000000        0.0000000000000000     
  0.75000000000000000       0.96875000000000000        0.0000000000000000     
  0.62500000000000000        1.0000000000000000        0.0000000000000000     
  0.65625000000000000        1.0000000000000000        0.0000000000000000     
  0.68750000000000000        1.0000000000000000        0.0000000000000000     
  0.71875000000000000        1.0000000000000000        0.0000000000000000     
  0.75000000000000000        1.0000000000000000        0.0000000000000000     
  0.75000000000000000       0.87500000000000000        0.0000000000000000     
  0.78125000000000000       0.87500000000000000        0.0000000000000000     
  0.81250000000000000       0.87500000000000000        0.0000000000000000     
  0.84375000000000000       0.87500000000000000        0.0000000000000000     
  0.87500000000000000       0.87500000000000000        0.0000000000000000     
  0.75000000000000000       0.90625000000000000        0.0000000000000000     
  0.78125000000000000       0.90625000000000000        0.0000000000000000     
  0.81250000000000000       0.90625000000000000        0.0000000000000000     
  0.84375000000000000       0.90625000000000000        0.0000000000000000     
  0.87500000000000000       0.90625000000000000        0.0000000000000000     
  0.75000000000000000       0.93750000000000000        0.0000000000000000     
  0.78125000000000000       0.93750000000000000        0.0000000000000000     
  0.81250000000000000       0.93750000000000000        0.0000000000000000     
  0.84375000000000000       0.93750000000000000        0.0000000000000000     
  0.87500000000000000       0.93750000000000000        0.0000000000000000     
  0.75000000000000000       0.96875000000000000        0.0000000000000000     
  0.78125000000000000       0.96875000000000000        0.0000000000000000     
  0.81250000000000000       0.96875000000000000        0.0000000000000000     
  0.84375000000000000       0.96875000000000000        0.0000000000000000     
  0.87500000000000000       0.96875000000000000        0.0000000000000000     
  0.75000000000000000        1.0000000000000000        0.0000000000000000     
  0.78125000000000000        1.0000000000000000        0.0000000000000000     
  0.81250000000000000        1.0000000000000000        0.0000000000000000     
  0.84375000000000000        1.0000000000000000        0.0000000000000000     
  0.87500000000000000        1.0000000000000000        0.0000000000000000     
  0.87500000000000000       0.87500000000000000        0.0000000000000000     
  0.90625000000000000       0.87500000000000000        0.0000000000000000     
  0.93750000000000000       0.87500000000000000        0.0000000000000000     
  0.96875000000000000       0.87500000000000000        0.0000000000000000     
   1.0000000000000000       0.87500000000000000        0.0000000000000000     
  0.87500000000000000       0.90625000000000000        0.0000000000000000     
  0.90625000000000000       0.90625000000000000        0.0000000000000000     
  0.93750000000000000       0.90625000000000000        0.0000000000000000     
  0.96875000000000000       0.90625000000000000        0.0000000000000000     
   1.0000000000000000       0.90625000000000000        0.0000000000000000     
  0.87500000000000000       0.93750000000000000        0.0000000000000000     
  0.90625000000000000       0.93750000000000000        0.0000000000000000     
  0.93750000000000000       0.93750000000000000        0.0000000000000000     
  0.96875000000000000       0.93750000000000000        0.0000000000000000     
   1.0000000000000000       0.93750000000000000        0.0000000000000000     
  0.87500000000000000       0.96875000000000000        0.0000000000000000     
  0.90625000000000000       0.96875000000000000        0.0000000000000000     
  0.93750000000000000       0.96875000000000000        0.0000000000000000     
  0.96875000000000000       0.96875000000000000        0.0000000000000000     
   1.0000000000000000       0.96875000000000000        0.0000000000000000     
  0.87500000000000000        1.0000000000000000        0.0000000000000000     
  0.90625000000000000        1.0000000000000000        0.0000000000000000     
  0.93750000000000000        1.0000000000000000        0.0000000000000000     
  0.96875000000000000        1.0000000000000000        0.0000000000000000     
   1.0000000000000000        1.0000000000000000        0.0000000000000000     
 </DataArray>
 </Points>
 <Cells>
 <DataArray  type="Int32"  Name="connectivity"  format="ascii">
           0           1           6           5
           1           2           7           6
           2           3           8           7
           3           4           9           8
           5           6          11          10
           6           7          12          11
           7           8          13          12
           8           9          14          13
          10          11          16          15
          11          12          17          16
          12          13          18          17
          13          14          19          18
          15          16          21          20
          16          17          22          21
          17          18          23          22
          18          19          24          23
          25          26          31          30
          26          27          32          31
          27          28          33          32
          28          29          34          33
          30          31          36          35
          31          32          37          36
          32          33          38          37
          33          34          39          38
          35          36          41          40
          36          37          42          41
          37          38          43          42
          38          39          44          43
          40          41          46          45
          41          42          47          46
          42          43          48          47
          43          44          49          48
          50          51          56          55
          51          52          57          56
          52          53          58          57
          53          54          59          58
          55          56          61          60
          56          57          62          61
          57          58          63          62
          58          59          64          63
          60          61          66          65
          61          62          67          66
          62          63          68          67
          63          64          69          68
          65          66          71          70
          66          67          72          71
          67          68          73          72
          68          69          74          73
          75          76          81          80
          76          77          82          81
          77          78          83          82
          78          79          84          83
          80          81          86          85
          81          82          87          86
          82          83          88          87
          83          84          89          88
          85          86          91          90
          86          87          92          91
          87          88          93          92
          88          89          94          93
          90          91          96          95
          91          92          97          96
          92          93          98          97
          93          94          99          98
         100         101         106         105
         101         102         107         106
         102         103         108         107
         103         104         109         108
         105         106         111         110
         106         107         112         111
         107         108         113         112
         108         109         114         113
         110         111         116         115
         111         112         117         116
         112         113         118         117
         113         114         119         118
         115         116         121         120
         116         117         122         121
         117         118         123         122
         118         119         124         123
         125         126         131         130
         126         127         132         131
         127         128         133         132
         128         129         134         133
         130         131         136         135
         131         132         137         136
         132         133         138         137
         133         134         139         138
         135         136         141         140
         136         137         142         141
         137         138         143         142
         138         139         144         143
         140         141         146         145
         141         142         147         146
         142         143         148         147
         143         144         149         148
         150         151         156         155
         151         152         157         156
         152         153         158         157
         153         154         159         158
         155         156         161         160
         156         157         162         161
         157         158         163         162
         158         159         164         163
         160         161         166         165
         161         162         167         166
         162         163         168         167
         163         164         169         168
         165         166         171         170
         166         167         172         171
         167         168         173         172
         168         169         174         173
         175         176         181         180
         176         177         182         181
         177         178         183         182
         178         179         184         183
         180         181         186         185
         181         182         187         186
         182         183         188         187
         183         184         189         188
         185         186         191         190
         186         187         192         191
         187         188         193         192
         188         189         194         193
         190         191         196         195
         191         192         197         196
         192         193         198         197
         193         194         199         198
         200         201         206         205
         201         202         207         206
         202         203         208         207
         203         204         209         208
         205         206         211         210
         206         207         212         211
         207         208         213         212
         208         209         214         213
         210         211         216         215
         211         212         217         216
         212         213         218         217
         213         214         219         218
         215         216         221         220
         216         217         222         221
         217         218         223         222
         218         219         224         223
         225         226         231         230
         226         227         232         231
         227         228         233         232
         228         229         234         233
         230         231         236         235
         231         232         237         236
         232         233         238         237
         233         234         239         238
         235         236         241         240
         236         237         242         241
         237         238         243         242
         238         239         244         243
         240         241         246         245
         241         242         247         246
         242         243         248         247
         243         244         249         248
         250         251         256         255
         251         252         257         256
         252         253         258         257
         253         254         259         258
         255         256         261         260
         256         257         262         261
         257         258         263         262
         258         259         264         263
         260         261         266         265
         261         262         267         266
         262         263         268         267
         263         264         269         268
         265         266         271         270
         266         267         272         271
         267         268         273         272
         268         269         274         273
         275         276         281         280
         276         277         282         281
         277         278         283         282
         278         279         284         283
         280         281         286         285
         281         282         287         286
         282         283         288         287
         283         284         289         288
         285         286         291         290
         286         287         292         291
         287         288         293         292
         288         289         294         293
         290         291         296         295
         291         292         297         296
         292         293         298         297
         293         294         299         298
         300         301         306         305
         301         302         307         306
         302         303         308         307
         303         304         309         308
         305         306         311         310
         306         307         312         311
         307         308         313         312
         308         309         314         313
         310         311         316         315
         311         312         317         316
         312         313         318         317
         313         314         319         318
         315         316         321         320
         316         317         322         321
         317         318         323         322
         318         319         324         323
         325         326         331         330
         326         327         332         331
         327         328         333         332
         328         329         334         333
         330         331         336         335
         331         332         337         336
         332         333         338         337
         333         334         339         338
         335         336         341         340
         336         337         342         341
         337         338         343         342
         338         339         344         343
         340         341         346         345
         341         342         347         346
         342         343         348         347
         343         344         349         348
         350         351         356         355
         351         352         357         356
         352         353         358         357
         353         354         359         358
         355         356         361         360
         356         357         362         361
         357         358         363         362
         358         359         364         363
         360         361         366         365
         361         362         367         366
         362         363         368         367
         363         364         369         368
         365         366         371         370
         366         367         372         371
         367         368         373         372
         368         369         374         373
         375         376         381         380
         376         377         382         381
         377         378         383         382
         378         379         384         383
         380         381         386         385
         381         382         387         386
         382         383         388         387
         383         384         389         388
         385         386         391         390
         386         387         392         391
         387         388         393         392
         388         389         394         393
         390         391         396         395
         391         392         397         396
         392         393         398         397
         393         394         399         398
         400         401         406         405
         401         402         407         406
         402         403         408         407
         403         404         409         408
         405         406         411         410
         406         407         412         411
         407         408         413         412
         408         409         414         413
         410         411         416         415
         411         412         417         416
         412         413         418         417
         413         414         419         418
         415         416         421         420
         416         417         422         421
         417         418         423         422
         418         419         424         423
         425         426         431         430
         426         427         432         431
         427         428         433         432
         428         429         434         433
         430         431         436         435
         431         432         437         436
         432         433         438         437
         433         434         439         438
         435         436         441         440
         436         437         442         441
         437         438         443         442
         438         439         444         443
         440         441         446         445
         441         442         447         446
         442         443         448         447
         443         444         449         448
         450         451         456         455
         451         452         457         456
         452         453         458         457
         453         454         459         458
         455         456         461         460
         456         457         462         461
         457         458         463         462
         458         459         464         463
         460         461         466         465
         461         462         467         466
         462         463         468         467
         463         464         469         468
         465         466         471         470
         466         467         472         471
         467         468         473         472
         468         469         474         473
         475         476         481         480
         476         477         482         481
         477         478         483         482
         478         479         484         483
         480         481         486         485
         481         482         487         486
         482         483         488         487
         483         484         489         488
         485         486         491         490
         486         487         492         491
         487         488         493         492
         488         489         494         493
         490         491         496         495
         491         492         497         496
         492         493         498         497
         493         494         499         498
         500         501         506         505
         501         502         507         506
         502         503         508         507
         503         504         509         508
         505         506         511         510
         506         507         512         511
         507         508         513         512
         508         509         514         513
         510         511         516         515
         511         512         517         516
         512         513         518         517
         513         514         519         518
         515         516         521         520
         516         517         522         521
         517         518         523         522
         518         519         524         523
         525         526         531         530
         526         527         532         531
         527         528         533         532
         528         529         534         533
         530         531         536         535
         531         532         537         536
         532         533         538         537
         533         534         539         538
         535         536         541         540
         536         537         542         541
         537         538         543         542
         538         539         544         543
         540         541         546         545
         541         542         547         546
         542         543         548         547
         543         544         549         548
         550         551         556         555
         551         552         557         556
         552         553         558         557
         553         554         559         558
         555         556         561         560
         556         557         562         561
         557         558         563         562
         558         559         564         563
         560         561         566         565
         561         562         567         566
         562         563         568         567
         563         564         569         568
         565         566         571         570
         566         567         572         571
         567         568         573         572
         568         569         574         573
         575         576         581         580
         576         577         582         581
         577         578         583         582
         578         579         584         583
         580         581         586         585
         581         582         587         586
         582         583         588         587
         583         584         589         588
         585         586         591         590
         586         587         592         591
         587         588         593         592
         588         589         594         593
         590         591         596         595
         591         592         597         596
         592         593         598         597
         593         594         599         598
         600         601         606         605
         601         602         607         606
         602         603         608         607
         603         604         609         608
         605         606         611         610
         606         607         612         611
         607         608         613         612
         608         609         614         613
         610         611         616         615
         611         612         617         616
         612         613         618         617
         613         614         619         618
         615         616         621         620
         616         617         622         621
         617         618         623         622
         618         619         624         623
         625         626         631         630
         626         627         632         631
         627         628         633         632
         628         629         634         633
         630         631         636         635
         631         632         637         636
         632         633         638         637
         633         634         639         638
         635         636         641         640
         636         637         642         641
         637         638         643         642
         638         639         644         643
         640         641         646         645
         641         642         647         646
         642         643         648         647
         643         644         649         648
         650         651         656         655
         651         652         657         656
         652         653         658         657
         653         654         659         658
         655         656         661         660
         656         657         662         661
         657         658         663         662
         658         659         664         663
         660         661         666         665
         661         662         667         666
         662         663         668         667
         663         664         669         668
         665         666         671         670
         666         667         672         671
         667         668         673         672
         668         669         674         673
         675         676         681         680
         676         677         682         681
         677         678         683         682
         678         679         684         683
         680         681         686         685
         681         682         687         686
         682         683         688         687
         683         684         689         688
         685         686         691         690
         686         687         692         691
         687         688         693         692
         688         689         694         693
         690         691         696         695
         691         692         697         696
         692         693         698         697
         693         694         699         698
         700         701         706         705
         701         702         707         706
         702         703         708         707
         703         704         709         708
         705         706         711         710
         706         707         712         711
         707         708         713         712
         708         709         714         713
         710         711         716         715
         711         712         717         716
         712         713         718         717
         713         714         719         718
         715         716         721         720
         716         717         722         721
         717         718         723         722
         718         719         724         723
         725         726         731         730
         726         727         732         731
         727         728         733         732
         728         729         734         733
         730         731         736         735
         731         732         737         736
         732         733         738         737
         733         734         739         738
         735         736         741         740
         736         737         742         741
         737         738         743         742
         738         739         744         743
         740         741         746         745
         741         742         747         746
         742         743         748         747
         743         744         749         748
         750         751         756         755
         751         752         757         756
         752         753         758         757
         753         754         759         758
         755         756         761         760
         756         757         762         761
         757         758         763         762
         758         759         764         763
         760         761         766         765
         761         762         767         766
         762         763         768         767
         763         764         769         768
         765         766         771         770
         766         767         772         771
         767         768         773         772
         768         769         774         773
         775         776         781         780
         776         777         782         781
         777         778         783         782
         778         779         784         783
         780         781         786         785
         781         782         787         786
         782         783         788         787
         783         784         789         788
         785         786         791         790
         786         787         792         791
         787         788         793         792
         788         789         794         793
         790         791         796         795
         791         792         797         796
         792         793         798         797
         793         794         799         798
         800         801         806         805
         801         802         807         806
         802         803         808         807
         803         804         809         808
         805         806         811         810
         806         807         812         811
         807         808         813         812
         808         809         814         813
         810         811         816         815
         811         812         817         816
         812         813         818         817
         813         814         819         818
         815         816         821         820
         816         817         822         821
         817         818         823         822
         818         819         824         823
         825         826         831         830
         826         827         832         831
         827         828         833         832
         828         829         834         833
         830         831         836         835
         831         832         837         836
         832         833         838         837
         833         834         839         838
         835         836         841         840
         836         837         842         841
         837         838         843         842
         838         839         844         843
         840         841         846         845
         841         842         847         846
         842         843         848         847
         843         844         849         848
         850         851         856         855
         851         852         857         856
         852         853         858         857
         853         854         859         858
         855         856         861         860
         856         857         862         861
         857         858         863         862
         858         859         864         863
         860         861         866         865
         861         862         867         866
         862         863         868         867
         863         864         869         868
         865         866         871         870
         866         867         872         871
         867         868         873         872
         868         869         874         873
         875         876         881         880
         876         877         882         881
         877         878         883         882
         878         879         884         883
         880         881         886         885
         881         882         887         886
         882         883         888         887
         883         884         889         888
         885         886         891         890
         886         887         892         891
         887         888         893         892
         888         889         894         893
         890         891         896         895
         891         892         897         896
         892         893         898         897
         893         894         899         898
         900         901         906         905
         901         902         907         906
         902         903         908         907
         903         904         909         908
         905         906         911         910
         906         907         912         911
         907         908         913         912
         908         909         914         913
         910         911         916         915
         911         912         917         916
         912         913         918         917
         913         914         919         918
         915         916         921         920
         916         917         922         921
         917         918         923         922
         918         919         924         923
         925         926         931         930
         926         927         932         931
         927         928         933         932
         928         929         934         933
         930         931         936         935
         931         932         937         936
         932         933         938         937
         933         934         939         938
         935         936         941         940
         936         937         942         941
         937         938         943         942
         938         939         944         943
         940         941         946         945
         941         942         947         946
         942         943         948         947
         943         944         949         948
         950         951         956         955
         951         952         957         956
         952         953         958         957
         953         954         959         958
         955         956         961         960
         956         957         962         961
         957         958         963         962
         958         959         964         963
         960         961         966         965
         961         962         967         966
         962         963         968         967
         963         964         969         968
         965         966         971         970
         966         967         972         971
         967         968         973         972
         968         969         974         973
         975         976         981         980
         976         977         982         981
         977         978         983         982
         978         979         984         983
         980         981         986         985
         981         982         987         986
         982         983         988         987
         983         984         989         988
         985         986         991         990
         986         987         992         991
         987         988         993         992
         988         989         994         993
         990         991         996         995
         991         992         997         996
         992         993         998         997
         993         994         999         998
        1000        1001        1006        1005
        1001        1002        1007        1006
        1002        1003        1008        1007
        1003        1004        1009        1008
        1005        1006        1011        1010
        1006        1007        1012        1011
        1007        1008        1013        1012
        1008        1009        1014        1013
        1010        1011        1016        1015
        1011        1012        1017        1016
        1012        1013        1018        1017
        1013        1014        1019        1018
        1015        1016        1021        1020
        1016        1017        1022        1021
        1017        1018        1023        1022
        1018        1019        1024        1023
        1025        1026        1031        1030
        1026        1027        1032        1031
        1027        1028        1033        1032
        1028        1029        1034        1033
        1030        1031        1036        1035
        1031        1032        1037        1036
        1032        1033        1038        1037
        1033        1034        1039        1038
        1035        1036        1041        1040
        1036        1037        1042        1041
        1037        1038        1043        1042
        1038        1039        1044        1043
        1040        1041        1046        1045
        1041        1042        1047        1046
        1042        1043        1048        1047
        1043        1044        1049        1048
        1050        1051        1056        1055
        1051        1052        1057        1056
        1052        1053        1058        1057
        1053        1054        1059        1058
        1055        1056        1061        1060
        1056        1057        1062        1061
        1057        1058        1063        1062
        1058        1059        1064        1063
        1060        1061        1066        1065
        1061        1062        1067        1066
        1062        1063        1068        1067
        1063        1064        1069        1068
        1065        1066        1071        1070
        1066        1067        1072        1071
        1067        1068        1073        1072
        1068        1069        1074        1073
        1075        1076        1081        1080
        1076        1077        1082        1081
        1077        1078        1083        1082
        1078        1079        1084        1083
        1080        1081        1086        1085
        1081        1082        1087        1086
        1082        1083        1088        1087
        1083        1084        1089        1088
        1085        1086        1091        1090
        1086        1087        1092        1091
        1087        1088        1093        1092
        1088        1089        1094        1093
        1090        1091        1096        1095
        1091        1092        1097        1096
        1092        1093        1098        1097
        1093        1094        1099        1098
        1100        1101        1106        1105
        1101        1102        1107        1106
        1102        1103        1108        1107
        1103        1104        1109        1108
        1105        1106        1111        1110
        1106        1107        1112        1111
        1107        1108        1113        1112
        1108        1109        1114        1113
        1110        1111        1116        1115
        1111        1112        1117        1116
        1112        1113        1118        1117
        1113        1114        1119        1118
        1115        1116        1121        1120
        1116        1117        1122        1121
        1117        1118        1123        1122
        1118        1119        1124        1123
        1125        1126        1131        1130
        1126        1127        1132        1131
        1127        1128        1133        1132
        1128        1129        1134        1133
        1130        1131        1136        1135
        1131        1132        1137        1136
        1132        1133        1138        1137
        1133        1134        1139        1138
        1135        1136        1141        1140
        1136        1137        1142        1141
        1137        1138        1143        1142
        1138        1139        1144        1143
        1140        1141        1146        1145
        1141        1142        1147        1146
        1142        1143        1148        1147
        1143        1144        1149        1148
        1150        1151        1156        1155
        1151        1152        1157        1156
        1152        1153        1158        1157
        1153        1154        1159        1158
        1155        1156        1161        1160
        1156        1157        1162        1161
        1157        1158        1163        1162
        1158        1159        1164        1163
        1160        1161        1166        1165
        1161        1162        1167        1166
        1162        1163        1168        1167
        1163        1164        1169        1168
        1165        1166        1171        1170
        1166        1167        1172        1171
        1167        1168        1173        1172
        1168        1169        1174        1173
        1175        1176        1181        1180
        1176        1177        1182        1181
        1177        1178        1183        1182
        1178        1179        1184        1183
        1180        1181        1186        1185
        1181        1182        1187        1186
        1182        1183        1188        1187
        1183        1184        1189        1188
        1185        1186        1191        1190
        1186        1187        1192        1191
        1187        1188        1193        1192
        1188        1189        1194        1193
        1190        1191        1196        1195
        1191        1192        1197        1196
        1192        1193        1198        1197
        1193        1194        1199        1198
        1200        1201        1206        1205
        1201        1202        1207        1206
        1202        1203        1208        1207
        1203        1204        1209        1208
        1205        1206        1211        1210
        1206        1207        1212        1211
        1207        1208        1213        1212
        1208        1209        1214        1213
        1210        1211        1216        1215
        1211        1212        1217        1216
        1212        1213        1218        1217
        1213        1214        1219        1218
        1215        1216        1221        1220
        1216        1217        1222        1221
        1217        1218        1223        1222
        1218        1219        1224        1223
        1225        1226        1231        1230
        1226        1227        1232        1231
        1227        1228        1233        1232
        1228        1229        1234        1233
        1230        1231        1236        1235
        1231        1232        1237        1236
        1232        1233        1238        1237
        1233        1234        1239        1238
        1235        1236        1241        1240
        1236        1237        1242        1241
        1237        1238        1243        1242
        1238        1239        1244        1243
        1240        1241        1246        1245
        1241        1242        1247        1246
        1242        1243        1248        1247
        1243        1244        1249        1248
        1250        1251        1256        1255
        1251        1252        1257        1256
        1252        1253        1258        1257
        1253        1254        1259        1258
        1255        1256        1261        1260
        1256        1257        1262        1261
        1257        1258        1263        1262
        1258        1259        1264        1263
        1260        1261        1266        1265
        1261        1262        1267        1266
        1262        1263        1268        1267
        1263        1264        1269        1268
        1265        1266        1271        1270
        1266        1267        1272        1271
        1267        1268        1273        1272
        1268        1269        1274        1273
        1275        1276        1281        1280
        1276        1277        1282        1281
        1277        1278        1283        1282
        1278        1279        1284        1283
        1280        1281        1286        1285
        1281        1282        1287        1286
        1282        1283        1288        1287
        1283        1284        1289        1288
        1285        1286        1291        1290
        1286        1287        1292        1291
        1287        1288        1293        1292
        1288        1289        1294        1293
        1290        1291        1296        1295
        1291        1292        1297        1296
        1292        1293        1298        1297
        1293        1294        1299        1298
        1300        1301        1306        1305
        1301        1302        1307        1306
        1302        1303        1308        1307
        1303        1304        1309        1308
        1305        1306        1311        1310
        1306        1307        1312        1311
        1307        1308        1313        1312
        1308        1309        1314        1313
        1310        1311        1316        1315
        1311        1312        1317        1316
        1312        1313        1318        1317
        1313        1314        1319        1318
        1315        1316        1321        1320
        1316        1317        1322        1321
        1317        1318        1323        1322
        1318        1319        1324        1323
        1325        1326        1331        1330
        1326        1327        1332        1331
        1327        1328        1333        1332
        1328        1329        1334        1333
        1330        1331        1336        1335
        1331        1332        1337        1336
        1332        1333        1338        1337
        1333        1334        1339        1338
        1335        1336        1341        1340
        1336        1337        1342        1341
        1337        1338        1343        1342
        1338        1339        1344        1343
        1340        1341        1346        1345
        1341        1342        1347        1346
        1342        1343        1348        1347
        1343        1344        1349        1348
        1350        1351        1356        1355
        1351        1352        1357        1356
        1352        1353        1358        1357
        1353        1354        1359        1358
        1355        1356        1361        1360
        1356        1357        1362        1361
        1357        1358        1363        1362
        1358        1359        1364        1363
        1360        1361        1366        1365
        1361        1362        1367        1366
        1362        1363        1368        1367
        1363        1364        1369        1368
        1365        1366        1371        1370
        1366        1367        1372        1371
        1367        1368        1373        1372
        1368        1369        1374        1373
        1375        1376        1381        1380
        1376        1377        1382        1381
        1377        1378        1383        1382
        1378        1379        1384        1383
        1380        1381        1386        1385
        1381        1382        1387        1386
        1382        1383        1388        1387
        1383        1384        1389        1388
        1385        1386        1391        1390
        1386        1387        1392        1391
        1387        1388        1393        1392
        1388        1389        1394        1393
        1390        1391        1396        1395
        1391        1392        1397        1396
        1392        1393        1398        1397
        1393        1394        1399        1398
        1400        1401        1406        1405
        1401        1402        1407        1406
        1402        1403        1408        1407
        1403        1404        1409        1408
        1405        1406        1411        1410
        1406        1407        1412        1411
        1407        1408        1413        1412
        1408        1409        1414        1413
        1410        1411        1416        1415
        1411        1412        1417        1416
        1412        1413        1418        1417
        1413        1414        1419        1418
        1415        1416        1421        1420
        1416        1417        1422        1421
        1417        1418        1423        1422
        1418        1419        1424        1423
        1425        1426        1431        1430
        1426        1427        1432        1431
        1427        1428        1433        1432
        1428        1429        1434        1433
        1430        1431        1436        1435
        1431        1432        1437        1436
        1432        1433        1438        1437
        1433        1434        1439        1438
        1435        1436        1441        1440
        1436        1437        1442        1441
        1437        1438        1443        1442
        1438        1439        1444        1443
        1440        1441        1446        1445
        1441        1442        1447        1446
        1442        1443        1448        1447
        1443        1444        1449        1448
        1450        1451        1456        1455
        1451        1452        1457        1456
        1452        1453        1458        1457
        1453        1454        1459        1458
        1455        1456        1461        1460
        1456        1457        1462        1461
        1457        1458        1463        1462
        1458        1459        1464        1463
        1460        1461        1466        1465
        1461        1462        1467        1466
        1462        1463        1468        1467
        1463        1464        1469        1468
        1465        1466        1471        1470
        1466        1467        1472        1471
        1467        1468        1473        1472
        1468        1469        1474        1473
        1475        1476        1481        1480
        1476        1477        1482        1481
        1477        1478        1483        1482
        1478        1479        1484        1483
        1480        1481        1486        1485
        1481        1482        1487        1486
        1482        1483        1488        1487
        1483        1484        1489        1488
        1485        1486        1491        1490
        1486        1487        1492        1491
        1487        1488        1493        1492
        1488        1489        1494        1493
        1490        1491        1496        1495
        1491        1492        1497        1496
        1492        1493        1498        1497
        1493        1494        1499        1498
        1500        1501        1506        1505
        1501        1502        1507        1506
        1502        1503        1508        1507
        1503        1504        1509        1508
        1505        1506        1511        1510
        1506        1507        1512        1511
        1507        1508        1513        1512
        1508        1509        1514        1513
        1510        1511        1516        1515
        1511        1512        1517        1516
        1512        1513        1518        1517
        1513        1514        1519        1518
        1515        1516        1521        1520
        1516        1517        1522        1521
        1517        1518        1523        1522
        1518        1519        1524        1523
        1525        1526        1531        1530
        1526        1527        1532        1531
        1527        1528        1533        1532
        1528        1529        1534        1533
        1530        1531        1536        1535
        1531        1532        1537        1536
        1532        1533        1538        1537
        1533        1534        1539        1538
        1535        1536        1541        1540
        1536        1537        1542        1541
        1537        1538        1543        1542
        1538        1539        1544        1543
        1540        1541        1546        1545
        1541        1542        1547        1546
        1542        1543        1548        1547
        1543        1544        1549        1548
        1550        1551        1556        1555
        1551        1552        1557        1556
        1552        1553        1558        1557
        1553        1554        1559        1558
        1555        1556        1561        1560
        1556        1557        1562        1561
        1557        1558        1563        1562
        1558        1559        1564        1563
        1560        1561        1566        1565
        1561        1562        1567        1566
        1562        1563        1568        1567
        1563        1564        1569        1568
        1565        1566        1571        1570
        1566        1567        1572        1571
        1567        1568        1573        1572
        1568        1569        1574        1573
        1575        1576        1581        1580
        1576        1577        1582        1581
        1577        1578        1583        1582
        1578        1579        1584        1583
        1580        1581        1586        1585
        1581        1582        1587        1586
        1582        1583        1588        1587
        1583        1584        1589        1588
        1585        1586        1591        1590
        1586        1587        1592        1591
        1587        1588        1593        1592
        1588        1589        1594        1593
        1590        1591        1596        1595
        1591        1592        1597        1596
        1592        1593        1598        1597
        1593        1594        1599        1598
 </DataArray>
 <DataArray  type="Int32"  Name="offsets"  format="ascii"> 
           4
           8
          12
          16
          20
          24
          28
          32
          36
          40
          44
          48
          52
          56
          60
          64
          68
          72
          76
          80
          84
          88
          92
          96
         100
         104
         108
         112
         116
         120
         124
         128
         132
         136
         140
         144
         148
         152
         156
         160
         164
         168
         172
         176
         180
         184
         188
         192
         196
         200
         204
         208
         212
         216
         220
         224
         228
         232
         236
         240
         244
         248
         252
         256
         260
         264
         268
         272
         276
         280
         284
         288
         292
         296
         300
         304
         308
         312
         316
         320
         324
         328
         332
         336
         340
         344
         348
         352
         356
         360
         364
         368
         372
         376
         380
         384
         388
         392
         396
         400
         404
         408
         412
         416
         420
         424
         428
         432
         436
         440
         444
         448
         452
         456
         460
         464
         468
         472
         476
         480
         484
         488
         492
         496
         500
         504
         508
         512
         516
         520
         524
         528
         532
         536
         540
         544
         548
         552
         556
         560
         564
         568
         572
         576
         580
         584
         588
         592
         596
         600
         604
         608
         612
         616
         620
         624
         628
         632
         636
         640
         644
         648
         652
         656
         660
         664
         668
         672
         676
         680
         684
         688
         692
         696
         700
         704
         708
         712
         716
         720
         724
         728
         732
         736
         740
         744
         748
         752
         756
         760
         764
         768
         772
         776
         780
         784
         788
         792
         796
         800
         804
         808
         812
         816
         820
         824
         828
         832
         836
         840
         844
         848
         852
         856
         860
         864
         868
         872
         876
         880
         884
         888
         892
         896
         900
         904
         908
         912
         916
         920
         924
         928
         932
         936
         940
         944
         948
         952
         956
         960
         964
         968
         972
         976
         980
         984
         988
         992
         996
        1000
        1004
        1008
        1012
        1016
        1020
        1024
        1028
        1032
        1036
        1040
        1044
        1048
        1052
        1056
        1060
        1064
        1068
        1072
        1076
        1080
        1084
        1088
        1092
        1096
        1100
        1104
        1108
        1112
        1116
        1120
        1124
        1128
        1132
        1136
        1140
        1144
        1148
        1152
        1156
        1160
        1164
        1168
        1172
        1176
        1180
        1184
        1188
        1192
        1196
        1200
        1204
        1208
        1212
        1216
        1220
        1224
        1228
        1232
        1236
        1240
        1244
        1248
        1252
        1256
        1260
        1264
        1268
        1272
        1276
        1280
        1284
        1288
        1292
        1296
        1300
        1304
        1308
        1312
        1316
        1320
        1324
        1328
        1332
        1336
        1340
        1344
        1348
        1352
        1356
        1360
        1364
        1368
        1372
        1376
        1380
        1384
        1388
        1392
        1396
        1400
        1404
        1408
        1412
        1416
        1420
        1424
        1428
        1432
        1436
        1440
        1444
        1448
        1452
        1456
        1460
        1464
        1468
        1472
        1476
        1480
        1484
        1488
        1492
        1496
        1500
        1504
        1508
        1512
        1516
        1520
        1524
        1528
        1532
        1536
        1540
        1544
        1548
        1552
        1556
        1560
        1564
        1568
        1572
        1576
        1580
        1584
        1588
        1592
        1596
        1600
        1604
        1608
        1612
        1616
        1620
        1624
        1628
        1632
        1636
        1640
        1644
        1648
        1652
        1656
        1660
        1664
        1668
        1672
        1676
        1680
        1684
        1688
        1692
        1696
        1700
        1704
        1708
        1712
        1716
        1720
        1724
        1728
        1732
        1736
        1740
        1744
        1748
        1752
        1756
        1760
        1764
        1768
        1772
        1776
        1780
        1784
        1788
        1792
        1796
        1800
        1804
        1808
        1812
        1816
        1820
        1824
        1828
        1832
        1836
        1840
        1844
        1848
        1852
        1856
        1860
        1864
        1868
        1872
        1876
        1880
        1884
        1888
        1892
        1896
        1900
        1904
        1908
        1912
        1916
        1920
        1924
        1928
        1932
        1936
        1940
        1944
        1948
        1952
        1956
        1960
        1964
        1968
        1972
        1976
        1980
        1984
        1988
        1992
        1996
        2000
        2004
        2008
        2012
        2016
        2020
        2024
        2028
        2032
        2036
        2040
        2044
        2048
        2052
        2056
        2060
        2064
        2068
        2072
        2076
        2080
        2084
        2088
        2092
        2096
        2100
        2104
        2108
        2112
        2116
        2120
        2124
        2128
        2132
        2136
        2140
        2144
        2148
        2152
        2156
        2160
        2164
        2168
        2172
        2176
        2180
        2184
        2188
        2192
        2196
        2200
        2204
        2208
        2212
        2216
        2220
        2224
        2228
        2232
        2236
        2240
        2244
        2248
        2252
        2256
        2260
        2264
        2268
        2272
        2276
        2280
        2284
        2288
        2292
        2296
        2300
        2304
        2308
        2312
        2316
        2320
        2324
        2328
        2332
        2336
        2340
        2344
        2348
        2352
        2356
        2360
        2364
        2368
        2372
        2376
        2380
        2384
        2388
        2392
        2396
        2400
        2404
        2408
        2412
        2416
        2420
        2424
        2428
        2432
        2436
        2440
        2444
        2448
        2452
        2456
        2460
        2464
        2468
        2472
        2476
        2480
        2484
        2488
        2492
        2496
        2500
        2504
        2508
        2512
        2516
        2520
        2524
        2528
        2532
        2536
        2540
        2544
        2548
        2552
        2556
        2560
        2564
        2568
        2572
        2576
        2580
        2584
        2588
        2592
        2596
        2600
        2604
        2608
        2612
        2616
        2620
        2624
        2628
        2632
        2636
        2640
        2644
        2648
        2652
        2656
        2660
        2664
        2668
        2672
        2676
        2680
        2684
        2688
        2692
        2696
        2700
        2704
        2708
        2712
        2716
        2720
        2724
        2728
        2732
        2736
        2740
        2744
        2748
        2752
        2756
        2760
        2764
        2768
        2772
        2776
        2780
        2784
        2788
        2792
        2796
        2800
        2804
        2808
        2812
        2816
        2820
        2824
        2828
        2832
        2836
        2840
        2844
        2848
        2852
        2856
        2860
        2864
        2868
        2872
        2876
        2880
        2884
        2888
        2892
        2896
        2900
        2904
        2908
        2912
        2916
        2920
        2924
        2928
        2932
        2936
        2940
        2944
        2948
        2952
        2956
        2960
        2964
        2968
        2972
        2976
        2980
        2984
        2988
        2992
        2996
        3000
        3004
        3008
        3012
        3016
        3020
        3024
        3028
        3032
        3036
        3040
        3044
        3048
        3052
        3056
        3060
        3064
        3068
        3072
        3076
        3080
        3084
        3088
        3092
        3096
        3100
        3104
        3108
        3112
        3116
        3120
        3124
        3128
        3132
        3136
        3140
        3144
        3148
        3152
        3156
        3160
        3164
        3168
        3172
        3176
        3180
        3184
        3188
        3192
        3196
        3200
        3204
        3208
        3212
        3216
        3220
        3224
        3228
        3232
        3236
        3240
        3244
        3248
        3252
        3256
        3260
        3264
        3268
        3272
        3276
        3280
        3284
        3288
        3292
        3296
        3300
        3304
        3308
        3312
        3316
        3320
        3324
        3328
        3332
        3336
        3340
        3344
        3348
        3352
        3356
        3360
        3364
        3368
        3372
        3376
        3380
        3384
        3388
        3392
        3396
        3400
        3404
        3408
        3412
        3416
        3420
        3424
        3428
        3432
        3436
        3440
        3444
        3448
        3452
        3456
        3460
        3464
        3468
        3472
        3476
        3480
        3484
        3488
        3492
        3496
        3500
        3504
        3508
        3512
        3516
        3520
        3524
        3528
        3532
        3536
        3540
        3544
        3548
        3552
        3556
        3560
        3564
        3568
        3572
        3576
        3580
        3584
        3588
        3592
        3596
        3600
        3604
        3608
        3612
        3616
        3620
        3624
        3628
        3632
        3636
        3640
        3644
        3648
        3652
        3656
        3660
        3664
        3668
        3672
        3676
        3680
        3684
        3688
        3692
        3696
        3700
        3704
        3708
        3712
        3716
        3720
        3724
        3728
        3732
        3736
        3740
        3744
        3748
        3752
        3756
        3760
        3764
        3768
        3772
        3776
        3780
        3784
        3788
        3792
        3796
        3800
        3804
        3808
        3812
        3816
        3820
        3824
        3828
        3832
        3836
        3840
        3844
        3848
        3852
        3856
        3860
        3864
        3868
        3872
        3876
        3880
        3884
        3888
        3892
        3896
        3900
        3904
        3908
        3912
        3916
        3920
        3924
        3928
        3932
        3936
        3940
        3944
        3948
        3952
        3956
        3960
        3964
        3968
        3972
        3976
        3980
        3984
        3988
        3992
        3996
        4000
        4004
        4008
        4012
        4016
        4020
        4024
        4028
        4032
        4036
        4040
        4044
        4048
        4052
        4056
        4060
        4064
        4068
        4072
        4076
        4080
        4084
        4088
        4092
        4096
 </DataArray>
 <DataArray  type="UInt8"  Name="types"  format="ascii">
 9
 9
 9
 9
 9
 9
 9
 9
 9
 9
 9
 9
 9
 9
 9
 9
 9
 9
 9
 9
 9
 9
 9
 9
 9
 9
 9
 9
 9
 9
 9
 9
 9
 9
 9
 9
 9
 9
 9
 9
 9
 9
 9
 9
 9
 9
 9
 9
 9
 9
 9
 9
 9
 9
 9
 9
 9
 9
 9
 9
 9
 9
 9
 9
 9
 9
 9
 9
 9
 9
 9
 9
 9
 9
 9
 9
 9
 9
 9
 9
 9
 9
 9
 9
 9
 9
 9
 9
 9
 9
 9
 9
 9
 9
 9
 9
 9
 9
 9
 9
 9
 9
 9
 9
 9
 9
 9
 9
 9
 9
 9
 9
 9
 9
 9
 9
 9
 9
 9
 9
 9
 9
 9
 9
 9
 9
 9
 9
 9
 9
 9
 9
 9
 9
 9
 9
 9
 9
 9
 9
 9
 9
 9
 9
 9
 9
 9
 9
 9
 9
 9
 9
 9
 9
 9
 9
 9
 9
 9
 9
 9
 9
 9
 9
 9
 9
 9
 9
 9
 9
 9
 9
 9
 9
 9
 9
 9
 9
 9
 9
 9
 9
 9
 9
 9
 9
 9
 9
 9
 9
 9
 9
 9
 9
 9
 9
 9
 9
 9
 9
 9
 9
 9
 9
 9
 9
 9
 9
 9
 9
 9
 9
 9
 9
 9
 9
 9
 9
 9
 9
 9
 9
 9
 9
 9
 9
 9
 9
 9
 9
 9
 9
 9
 9
 9
 9
 9
 9
 9
 9
 9
 9
 9
 9
 9
 9
 9
 9
 9
 9
 9
 9
 9
 9
 9
 9
 9
 9
 9
 9
 9
 9
 9
 9
 9
 9
 9
 9
 9
 9
 9
 9
 9
 9
 9
 9
 9
 9
 9
 9
 9
 9
 9
 9
 9
 9
 9
 9
 9
 9
 9
 9
 9
 9
 9
 9
 9
 9
 9
 9
 9
 9
 9
 9
 9
 9
 9
 9
 9
 9
 9
 9
 9
 9
 9
 9
 9
 9
 9
 9
 9
 9
 9
 9
 9
 9
 9
 9
 9
 9
 9
 9
 9
 9
 9
 9
 9
 9
 9
 9
 9
 9
 9
 9
 9
 9
 9
 9
 9
 9
 9
 9
 9
 9
 9
 9
 9
 9
 9
 9
 9
 9
 9
 9
 9
 9
 9
 9
 9
 9
 9
 9
 9
 9
 9
 9
 9
 9
 9
 9
 9
 9
 9
 9
 9
 9
 9
 9
 9
 9
 9
 9
 9
 9
 9
 9
 9
 9
 9
 9
 9
 9
 9
 9
 9
 9
 9
 9
 9
 9
 9
 9
 9
 9
 9
 9
 9
 9
 9
 9
 9
 9
 9
 9
 9
 9
 9
 9
 9
 9
 9
 9
 9
 9
 9
 9
 9
 9
 9
 9
 9
 9
 9
 9
 9
 9
 9
 9
 9
 9
 9
 9
 9
 9
 9
 9
 9
 9
 9
 9
 9
 9
 9
 9
 9
 9
 9
 9
 9
 9
 9
 9
 9
 9
 9
 9
 9
 9
 9
 9
 9
 9
 9
 9
 9
 9
 9
 9
 9
 9
 9
 9
 9
 9
 9
 9
 9
 9
 9
 9
 9
 9
 9
 9
 9
 9
 9
 9
 9
 9
 9
 9
 9
 9
 9
 9
 9
 9
 9
 9
 9
 9
 9
 9
 9
 9
 9
 9
 9
 9
 9
 9
 9
 9
 9
 9
 9
 9
 9
 9
 9
 9
 9
 9
 9
 9
 9
 9
 9
 9
 9
 9
 9
 9
 9
 9
 9
 9
 9
 9
 9
 9
 9
 9
 9
 9
 9
 9
 9
 9
 9
 9
 9
 9
 9
 9
 9
 9
 9
 9
 9
 9
 9
 9
 9
 9
 9
 9
 9
 9
 9
 9
 9
 9
 9
 9
 9
 9
 9
 9
 9
 9
 9
 9
 9
 9
 9
 9
 9
 9
 9
 9
 9
 9
 9
 9
 9
 9
 9
 9
 9
 9
 9
 9
 9
 9
 9
 9
 9
 9
 9
 9
 9
 9
 9
 9
 9
 9
 9
 9
 9
 9
 9
 9
 9
 9
 9
 9
 9
 9
 9
 9
 9
 9
 9
 9
 9
 9
 9
 9
 9
 9
 9
 9
 9
 9
 9
 9
 9
 9
 9
 9
 9
 9
 9
 9
 9
 9
 9
 9
 9
 9
 9
 9
 9
 9
 9
 9
 9
 9
 9
 9
 9
 9
 9
 9
 9
 9
 9
 9
 9
 9
 9
 9
 9
 9
 9
 9
 9
 9
 9
 9
 9
 9
 9
 9
 9
 9
 9
 9
 9
 9
 9
 9
 9
 9
 9
 9
 9
 9
 9
 9
 9
 9
 9
 9
 9
 9
 9
 9
 9
 9
 9
 9
 9
 9
 9
 9
 9
 9
 9
 9
 9
 9
 9
 9
 9
 9
 9
 9
 9
 9
 9
 9
 9
 9
 9
 9
 9
 9
 9
 9
 9
 9
 9
 9
 9
 9
 9
 9
 9
 9
 9
 9
 9
 9
 9
 9
 9
 9
 9
 9
 9
 9
 9
 9
 9
 9
 9
 9
 9
 9
 9
 9
 9
 9
 9
 9
 9
 9
 9
 9
 9
 9
 9
 9
 9
 9
 9
 9
 9
 9
 9
 9
 9
 9
 9
 9
 9
 9
 9
 9
 9
 9
 9
 9
 9
 9
 9
 9
 9
 9
 9
 9
 9
 9
 9
 9
 9
 9
 9
 9
 9
 9
 9
 9
 9
 9
 9
 9
 9
 9
 9
 9
 9
 9
 9
 9
 9
 9
 9
 9
 9
 9
 9
 9
 9
 9
 9
 9
 9
 9
 9
 9
 9
 9
 9
 9
 9
 9
 9
 9
 9
 9
 9
 9
 9
 9
 9
 9
 9
 9
 9
 9
 9
 9
 9
 9
 9
 9
 9
 9
 9
 9
 9
 9
 9
 9
 9
 9
 9
 9
 9
 9
 9
 9
 9
 9
 9
 9
 9
 9
 9
 9
 9
 9
 9
 9
 9
 9
 9
 9
 9
 9
 9
 9
 9
 9
 9
 9
 9
 9
 9
 9
 9
 9
 9
 9
 9
 9
 9
 9
 9
 9
 9
 9
 9
 9
 9
 9
 9
 9
 9
 9
 9
 9
 9
 9
 9
 9
 9
 9
 9
 9
 9
 9
 9
 9
 9
 9
 9
 9
 9
 9
 9
 9
 9
 9
 9
 9
 9
 9
 9
 9
 9
 9
 9
 9
 9
 9
 9
 9
 9
 9
 9
 9
 9
 9
 9
 9
 9
 9
 9
 9
 </DataArray>
 </Cells> 
 <PointData>
 <DataArray  type="Float64" Name="disp" NumberOfComponents="3" format="ascii">
   0.0000000000000000        0.0000000000000000        0.0000000000000000     
   6.0954393862835271E-003   3.7923062923744437E-003   0.0000000000000000     
   1.1665641100927424E-002   7.3259164308952050E-003   0.0000000000000000     
   1.6710605143931696E-002   1.0600830415562285E-002   0.0000000000000000     
   2.1230331515296332E-002   1.3617048246375680E-002   0.0000000000000000     
   0.0000000000000000        0.0000000000000000        0.0000000000000000     
   4.8911157247594188E-003   3.0229613711994364E-003   0.0000000000000000     
   9.5738550362775270E-003   6.0614013507772789E-003   0.0000000000000000     
   1.4048217934554323E-002   9.1153199387335286E-003   0.0000000000000000     
   1.8314204419589808E-002   1.2184717135068183E-002   0.0000000000000000     
   0.0000000000000000        0.0000000000000000        0.0000000000000000     
   3.9537986464610875E-003   2.4251767103665857E-003   0.0000000000000000     
   7.9111395908784965E-003   5.0629226371148497E-003   0.0000000000000000     
   1.1872022833252227E-002   7.9132377802447907E-003   0.0000000000000000     
   1.5836448373582279E-002   1.0976122139756411E-002   0.0000000000000000     
   0.0000000000000000        0.0000000000000000        0.0000000000000000     
   3.2834881513885300E-003   1.9989523098758910E-003   0.0000000000000000     
   6.6774947647303337E-003   4.3304802899079156E-003   0.0000000000000000     
   1.0182019840025411E-002   6.9945839400960726E-003   0.0000000000000000     
   1.3797063377273759E-002   9.9912632604403622E-003   0.0000000000000000     
   0.0000000000000000        0.0000000000000000        0.0000000000000000     
   2.8801842395417476E-003   1.7442881697273529E-003   0.0000000000000000     
   5.8729205578330369E-003   3.8640743091564777E-003   0.0000000000000000     
   8.9782089548738672E-003   6.3593584182873751E-003   0.0000000000000000     
   1.2196049430664239E-002   9.2301404971200443E-003   0.0000000000000000     
   2.1230331515296332E-002   1.3617048246375680E-002   0.0000000000000000     
   2.5436607059554497E-002   1.6607791917726367E-002   0.0000000000000000     
   2.9541218621239332E-002   1.9806283424005318E-002   0.0000000000000000     
   3.3544166200350847E-002   2.3212522765212545E-002   0.0000000000000000     
   3.7445449796889040E-002   2.6826509941348033E-002   0.0000000000000000     
   1.8314204419589808E-002   1.2184717135068183E-002   0.0000000000000000     
   2.2409280705150157E-002   1.5339295232371399E-002   0.0000000000000000     
   2.6370913005001554E-002   1.8648756523233327E-002   0.0000000000000000     
   3.0199101319143998E-002   2.2113101007653981E-002   0.0000000000000000     
   3.3893845647577497E-002   2.5732328685633347E-002   0.0000000000000000     
   1.5836448373582279E-002   1.0976122139756411E-002   0.0000000000000000     
   1.9732120155884554E-002   1.4210766449584902E-002   0.0000000000000000     
   2.3486742124174943E-002   1.7576361443665450E-002   0.0000000000000000     
   2.7100314278453452E-002   2.1072907121998063E-002   0.0000000000000000     
   3.0572836618720064E-002   2.4700403484582734E-002   0.0000000000000000     
   1.3797063377273759E-002   9.9912632604403622E-003   0.0000000000000000     
   1.7405125411757684E-002   1.3222205569366874E-002   0.0000000000000000     
   2.0888705978759498E-002   1.6589098185301680E-002   0.0000000000000000     
   2.4247805078279189E-002   2.0091941108244787E-002   0.0000000000000000     
   2.7482422710316767E-002   2.3730734338196193E-002   0.0000000000000000     
   1.2196049430664239E-002   9.2301404971200443E-003   0.0000000000000000     
   1.5428296472769555E-002   1.2373612591717315E-002   0.0000000000000000     
   1.8576804568755222E-002   1.5686966748142017E-002   0.0000000000000000     
   2.1641573718621226E-002   1.9170202966394153E-002   0.0000000000000000     
   2.4622603922367585E-002   2.2823321246473720E-002   0.0000000000000000     
   3.7445449796889040E-002   2.6826509941348033E-002   0.0000000000000000     
   4.1251925871985715E-002   3.0638659438715098E-002   0.0000000000000000     
   4.4970450886772706E-002   3.4639385743617045E-002   0.0000000000000000     
   4.8601024841249993E-002   3.8828688856053888E-002   0.0000000000000000     
   5.2143647735417589E-002   4.3206568776025620E-002   0.0000000000000000     
   3.3893845647577497E-002   2.5732328685633347E-002   0.0000000000000000     
   3.7481293678733610E-002   2.9532757842706450E-002   0.0000000000000000     
   4.0987593101043933E-002   3.3540706764408325E-002   0.0000000000000000     
   4.4412743914508460E-002   3.7756175450738970E-002   0.0000000000000000     
   4.7756746119127190E-002   4.2179163901698374E-002   0.0000000000000000     
   3.0572836618720064E-002   2.4700403484582734E-002   0.0000000000000000     
   3.3936926969082230E-002   2.8502836250593629E-002   0.0000000000000000     
   3.7225203153647343E-002   3.2524191139204919E-002   0.0000000000000000     
   4.0437665172415427E-002   3.6764468150416584E-002   0.0000000000000000     
   4.3574313025386474E-002   4.1223667284228646E-002   0.0000000000000000     
   2.7482422710316767E-002   2.3730734338196193E-002   0.0000000000000000     
   3.0618825743031573E-002   2.7548894662376623E-002   0.0000000000000000     
   3.3683281044582951E-002   3.1589838868006807E-002   0.0000000000000000     
   3.6675788614970901E-002   3.5853566955086756E-002   0.0000000000000000     
   3.9596348454195414E-002   4.0340078923616449E-002   0.0000000000000000     
   2.4622603922367585E-002   2.2823321246473720E-002   0.0000000000000000     
   2.7526990000581640E-002   2.6670933078055438E-002   0.0000000000000000     
   3.0361826773850732E-002   3.0737649950814017E-002   0.0000000000000000     
   3.3127114242174870E-002   3.5023471864749467E-002   0.0000000000000000     
   3.5822852405554030E-002   3.9528398819861768E-002   0.0000000000000000     
   5.2143647735417589E-002   4.3206568776025620E-002   0.0000000000000000     
   5.5581662683497811E-002   4.7783017642810205E-002   0.0000000000000000     
   5.8898412799712981E-002   5.2568027595685629E-002   0.0000000000000000     
   6.2093898084063098E-002   5.7561598634651871E-002   0.0000000000000000     
   6.5168118536548150E-002   6.2763730759708952E-002   0.0000000000000000     
   4.7756746119127190E-002   4.2179163901698374E-002   0.0000000000000000     
   5.1001765130137433E-002   4.6804496253908673E-002   0.0000000000000000     
   5.4129966362776484E-002   5.1626996643991993E-002   0.0000000000000000     
   5.7141349817044329E-002   5.6646665071948342E-002   0.0000000000000000     
   6.0035915492940989E-002   6.1863501537777713E-002   0.0000000000000000     
   4.3574313025386474E-002   4.1223667284228646E-002   0.0000000000000000     
   4.6617690486540644E-002   4.5887172495432435E-002   0.0000000000000000     
   4.9550341329858125E-002   5.0740367738819285E-002   0.0000000000000000     
   5.2372265555338908E-002   5.5783253014389196E-002   0.0000000000000000     
   5.5083463162982980E-002   6.1015828322142182E-002   0.0000000000000000     
   3.9596348454195414E-002   4.0340078923616449E-002   0.0000000000000000     
   4.2429438752707445E-002   4.5031046367381498E-002   0.0000000000000000     
   4.5159537700957909E-002   4.9908140880167498E-002   0.0000000000000000     
   4.7786645298946814E-002   5.4971362461974455E-002   0.0000000000000000     
   5.0310761546674153E-002   6.0220711112802347E-002   0.0000000000000000     
   3.5822852405554030E-002   3.9528398819861768E-002   0.0000000000000000     
   3.8437009928637828E-002   4.4236117869755856E-002   0.0000000000000000     
   4.0957555476075838E-002   4.9130316068036639E-002   0.0000000000000000     
   4.3384489047868062E-002   5.4210993414704096E-002   0.0000000000000000     
   4.5717810644014492E-002   5.9478149909758249E-002   0.0000000000000000     
   6.5168118536548150E-002   6.2763730759708952E-002   0.0000000000000000     
   6.8163392755410307E-002   6.8164038766174412E-002   0.0000000000000000     
   7.1122039338891635E-002   7.3752137449365790E-002   0.0000000000000000     
   7.4044058286992218E-002   7.9528026809283059E-002   0.0000000000000000     
   7.6929449599711985E-002   8.5491706845926274E-002   0.0000000000000000     
   6.0035915492940989E-002   6.1863501537777713E-002   0.0000000000000000     
   6.2855858262563680E-002   6.7277022641719517E-002   0.0000000000000000     
   6.5643372998009611E-002   7.2886744984013166E-002   0.0000000000000000     
   6.8398459699278796E-002   7.8692668564658702E-002   0.0000000000000000     
   7.1121118366371236E-002   8.4694793383656056E-002   0.0000000000000000     
   5.5083463162982980E-002   6.1015828322142182E-002   0.0000000000000000     
   5.7724605593483247E-002   6.6444598252598977E-002   0.0000000000000000     
   6.0336364287532585E-002   7.2076067396280349E-002   0.0000000000000000     
   6.2918739245130986E-002   7.7910235753186299E-002   0.0000000000000000     
   6.5471730466278452E-002   8.3947103323316827E-002   0.0000000000000000     
   5.0310761546674153E-002   6.0220711112802347E-002   0.0000000000000000     
   5.2769634748169043E-002   6.5666765598812779E-002   0.0000000000000000     
   5.5201013207460584E-002   7.1320104686167299E-002   0.0000000000000000     
   5.7604896924548767E-002   7.7180728374865906E-002   0.0000000000000000     
   5.9981285899433613E-002   8.3248636664908629E-002   0.0000000000000000     
   4.5717810644014492E-002   5.9478149909758249E-002   0.0000000000000000     
   4.7990945726621034E-002   6.4943524680360951E-002   0.0000000000000000     
   5.0237319757793594E-002   7.0618856853674028E-002   0.0000000000000000     
   5.2456932737532165E-002   7.6504146429697523E-002   0.0000000000000000     
   5.4649784665836740E-002   8.2599393408431407E-002   0.0000000000000000     
   7.6929449599711985E-002   8.5491706845926274E-002   0.0000000000000000     
   7.9727419843315106E-002   9.1628632950187583E-002   0.0000000000000000     
   8.2387175584065692E-002   9.7924260512959202E-002   0.0000000000000000     
   8.4908716821963728E-002  0.10437858953424112        0.0000000000000000     
   8.7292043557009230E-002  0.11099162001403334        0.0000000000000000     
   7.1121118366371236E-002   8.4694793383656056E-002   0.0000000000000000     
   7.3765750704572808E-002   9.0871784826674087E-002   0.0000000000000000     
   7.6286758419169376E-002   9.7202308279381588E-002   0.0000000000000000     
   7.8684141510160927E-002  0.10368636374177860        0.0000000000000000     
   8.0957899977547487E-002  0.11032395121386508        0.0000000000000000     
   6.5471730466278452E-002   8.3947103323316827E-002   0.0000000000000000     
   6.7954213560449978E-002   9.0160380367320506E-002   0.0000000000000000     
   7.0325064137120585E-002   9.6523777145845854E-002   0.0000000000000000     
   7.2584282196290303E-002  0.10303729365889290        0.0000000000000000     
   7.4731867737959076E-002  0.10970092990646164        0.0000000000000000     
   5.9981285899433613E-002   8.3248636664908629E-002   0.0000000000000000     
   6.2292808410946643E-002   8.9494419572126824E-002   0.0000000000000000     
   6.4502092737919389E-002   9.5888667112351986E-002   0.0000000000000000     
   6.6609138880351845E-002  0.10243137928558402        0.0000000000000000     
   6.8613946838244011E-002  0.10912255609182302        0.0000000000000000     
   5.4649784665836740E-002   8.2599393408431407E-002   0.0000000000000000     
   5.6781535256062776E-002   8.8873902441093069E-002   0.0000000000000000     
   5.8817844221565718E-002   9.5296978178899955E-002   0.0000000000000000     
   6.0758711562345545E-002  0.10186862062185198        0.0000000000000000     
   6.2604137278402278E-002  0.10858882976994921        0.0000000000000000     
   8.7292043557009230E-002  0.11099162001403334        0.0000000000000000     
   8.9511909745478610E-002  0.11772443152300209        0.0000000000000000     
   9.1543069343648351E-002  0.12453810363181353        0.0000000000000000     
   9.3385522351518382E-002  0.13143263634046773        0.0000000000000000     
   9.5039268769088733E-002  0.13840802964896456        0.0000000000000000     
   8.0957899977547487E-002  0.11032395121386508        0.0000000000000000     
   8.3071165478028286E-002  0.11707941842480364        0.0000000000000000     
   8.4987069668302606E-002  0.12391711310375686        0.0000000000000000     
   8.6705612548370406E-002  0.13083703525072476        0.0000000000000000     
   8.8226794118231699E-002  0.13783918486570729        0.0000000000000000     
   7.4731867737959076E-002  0.10970092990646164        0.0000000000000000     
   7.6725018420395474E-002  0.11647926918641345        0.0000000000000000     
   7.8520931901868013E-002  0.12333689479660974        0.0000000000000000     
   8.0119608182376678E-002  0.13027380673705047        0.0000000000000000     
   8.1521047261921498E-002  0.13729000500773569        0.0000000000000000     
   6.8613946838244011E-002  0.10912255609182302        0.0000000000000000     
   7.0473468572580175E-002  0.11592398380783153        0.0000000000000000     
   7.2144656044344571E-002  0.12279744871037217        0.0000000000000000     
   7.3627509253537213E-002  0.12974295079944489        0.0000000000000000     
   7.4922028200158114E-002  0.13676049007504981        0.0000000000000000     
   6.2604137278402278E-002  0.10858882976994921        0.0000000000000000     
   6.4316515934582361E-002  0.11541356228905784        0.0000000000000000     
   6.5858242095732281E-002  0.12229877484504412        0.0000000000000000     
   6.7229315761852024E-002  0.12924446743790802        0.0000000000000000     
   6.8429736932941576E-002  0.13625064006764959        0.0000000000000000     
   9.5039268769088733E-002  0.13840802964896456        0.0000000000000000     
   9.6689755344154221E-002  0.14557363011341812        0.0000000000000000     
   9.8522428824509692E-002  0.15303878428994233        0.0000000000000000     
  0.10053728921015512       0.16080349217853723        0.0000000000000000     
  0.10273433650109050       0.16886775377920279        0.0000000000000000     
   8.8226794118231699E-002  0.13783918486570729        0.0000000000000000     
   8.9791953037745301E-002  0.14503202128003553        0.0000000000000000     
   9.1642427966769996E-002  0.15252400382504058        0.0000000000000000     
   9.3778218905305771E-002  0.16031513250072243        0.0000000000000000     
   9.6199325853352669E-002  0.16840540730708098        0.0000000000000000     
   8.1521047261921498E-002  0.13729000500773569        0.0000000000000000     
   8.2993326736837986E-002  0.14450148180534017        0.0000000000000000     
   8.4804524203461712E-002  0.15202422932653867        0.0000000000000000     
   8.6954639661792649E-002  0.15985824757133116        0.0000000000000000     
   8.9443673111830810E-002  0.16800353653971772        0.0000000000000000     
   7.4922028200158114E-002  0.13676049007504981        0.0000000000000000     
   7.6293876441432304E-002  0.14398201168933197        0.0000000000000000     
   7.8008717534584868E-002  0.15153946079443653        0.0000000000000000     
   8.0066551479615722E-002  0.15943283739036354        0.0000000000000000     
   8.2467378276524936E-002  0.16766214147711295        0.0000000000000000     
   6.8429736932941576E-002  0.13625064006764959        0.0000000000000000     
   6.9693602151528283E-002  0.14347361093201094        0.0000000000000000     
   7.1255007960139422E-002  0.15106969822873423        0.0000000000000000     
   7.3113954358775018E-002  0.15903890195781950        0.0000000000000000     
   7.5270441347435046E-002  0.16738122211926673        0.0000000000000000     
   0.0000000000000000        0.0000000000000000        0.0000000000000000     
   2.8801842395417476E-003   1.7442881697273529E-003   0.0000000000000000     
   5.8729205578330369E-003   3.8640743091564777E-003   0.0000000000000000     
   8.9782089548738672E-003   6.3593584182873751E-003   0.0000000000000000     
   1.2196049430664239E-002   9.2301404971200443E-003   0.0000000000000000     
   0.0000000000000000        0.0000000000000000        0.0000000000000000     
   2.6101980691384378E-003   1.5883720956975072E-003   0.0000000000000000     
   5.2896445623098398E-003   3.5561957953502915E-003   0.0000000000000000     
   8.0383394795142046E-003   5.9034710989583541E-003   0.0000000000000000     
   1.0856282820751535E-002   8.6301980065216933E-003   0.0000000000000000     
   0.0000000000000000        0.0000000000000000        0.0000000000000000     
   2.3398407983962958E-003   1.4583918935628896E-003   0.0000000000000000     
   4.7198943702839707E-003   3.2993358489791114E-003   0.0000000000000000     
   7.1401607156630249E-003   5.5228318662486680E-003   0.0000000000000000     
   9.6006398345334573E-003   8.1288799453715574E-003   0.0000000000000000     
   0.0000000000000000        0.0000000000000000        0.0000000000000000     
   2.0691124273153230E-003   1.3543475633234999E-003   0.0000000000000000     
   4.1636699817554322E-003   3.0934944700429391E-003   0.0000000000000000     
   6.2836726633203254E-003   5.2174407201583161E-003   0.0000000000000000     
   8.4291204720100057E-003   7.7261863136696331E-003   0.0000000000000000     
   0.0000000000000000        0.0000000000000000        0.0000000000000000     
   1.7980129558955182E-003   1.2762391049793392E-003   0.0000000000000000     
   3.6209713967242218E-003   2.9386716585417727E-003   0.0000000000000000     
   5.4688753224861096E-003   4.9872976606873008E-003   0.0000000000000000     
   7.3417247331811833E-003   7.4221171114159231E-003   0.0000000000000000     
   1.2196049430664239E-002   9.2301404971200443E-003   0.0000000000000000     
   1.5428296472769555E-002   1.2373612591717315E-002   0.0000000000000000     
   1.8576804568755222E-002   1.5686966748142017E-002   0.0000000000000000     
   2.1641573718621226E-002   1.9170202966394153E-002   0.0000000000000000     
   2.4622603922367585E-002   2.2823321246473720E-002   0.0000000000000000     
   1.0856282820751535E-002   8.6301980065216933E-003   0.0000000000000000     
   1.3689680248071656E-002   1.1653140903694540E-002   0.0000000000000000     
   1.6484737423524392E-002   1.4889064176131122E-002   0.0000000000000000     
   1.9241454347109752E-002   1.8337967823831437E-002   0.0000000000000000     
   2.1959831018827727E-002   2.1999851846795492E-002   0.0000000000000000     
   9.6006398345334573E-003   8.1288799453715574E-003   0.0000000000000000     
   1.2077323646815481E-002   1.1048943892356857E-002   0.0000000000000000     
   1.4546204072429306E-002   1.4214487513213640E-002   0.0000000000000000     
   1.7007281111374929E-002   1.7625510807941912E-002   0.0000000000000000     
   1.9460554763652362E-002   2.1282013776541670E-002   0.0000000000000000     
   8.4291204720100057E-003   7.7261863136696331E-003   0.0000000000000000     
   1.0591226669001029E-002   1.0561021557704260E-002   0.0000000000000000     
   1.2761204515469953E-002   1.3663236759389576E-002   0.0000000000000000     
   1.4939054011416774E-002   1.7032831918725577E-002   0.0000000000000000     
   1.7124775156841496E-002   2.0669807035712265E-002   0.0000000000000000     
   7.3417247331811833E-003   7.4221171114159231E-003   0.0000000000000000     
   9.2313893146283039E-003   1.0189373899736761E-002   0.0000000000000000     
   1.1129738752646336E-002   1.3235311914658930E-002   0.0000000000000000     
   1.3036773047235278E-002   1.6559931156182435E-002   0.0000000000000000     
   1.4952492198395131E-002   2.0163231624307269E-002   0.0000000000000000     
   2.4622603922367585E-002   2.2823321246473720E-002   0.0000000000000000     
   2.7526990000581640E-002   2.6670933078055438E-002   0.0000000000000000     
   3.0361826773850732E-002   3.0737649950814017E-002   0.0000000000000000     
   3.3127114242174870E-002   3.5023471864749467E-002   0.0000000000000000     
   3.5822852405554030E-002   3.9528398819861768E-002   0.0000000000000000     
   2.1959831018827727E-002   2.1999851846795492E-002   0.0000000000000000     
   2.4625858798558355E-002   2.5875307704074074E-002   0.0000000000000000     
   2.7225529046181699E-002   2.9964926854717980E-002   0.0000000000000000     
   2.9758841761697748E-002   3.4268709298727204E-002   0.0000000000000000     
   3.2225796945106508E-002   3.8786655036101764E-002   0.0000000000000000     
   1.9460554763652362E-002   2.1282013776541670E-002   0.0000000000000000     
   2.1879871193787648E-002   2.5168374746876544E-002   0.0000000000000000     
   2.4239076566306861E-002   2.9268972046810147E-002   0.0000000000000000     
   2.6538170881209983E-002   3.3583805676342490E-002   0.0000000000000000     
   2.8777154138497039E-002   3.8112875635473567E-002   0.0000000000000000     
   1.7124775156841496E-002   2.0669807035712265E-002   0.0000000000000000     
   1.9289027186269504E-002   2.4550134206462845E-002   0.0000000000000000     
   2.1402469334226196E-002   2.8649785527090525E-002   0.0000000000000000     
   2.3465101600711569E-002   3.2968760997595305E-002   0.0000000000000000     
   2.5476923985725621E-002   3.7507060617977178E-002   0.0000000000000000     
   1.4952492198395131E-002   2.0163231624307269E-002   0.0000000000000000     
   1.6853326776003937E-002   2.4020586082832980E-002   0.0000000000000000     
   1.8715707349939725E-002   2.8107367295559110E-002   0.0000000000000000     
   2.0539633920202503E-002   3.2423575262485654E-002   0.0000000000000000     
   2.2325106486792264E-002   3.6969209983612597E-002   0.0000000000000000     
   3.5822852405554030E-002   3.9528398819861768E-002   0.0000000000000000     
   3.8437009928637828E-002   4.4236117869755856E-002   0.0000000000000000     
   4.0957555476075838E-002   4.9130316068036639E-002   0.0000000000000000     
   4.3384489047868062E-002   5.4210993414704096E-002   0.0000000000000000     
   4.5717810644014492E-002   5.9478149909758249E-002   0.0000000000000000     
   3.2225796945106508E-002   3.8786655036101764E-002   0.0000000000000000     
   3.4617653425687990E-002   4.3505802607172815E-002   0.0000000000000000     
   3.6925670032722215E-002   4.8413190552271564E-002   0.0000000000000000     
   3.9149846766209188E-002   5.3508818871397974E-002   0.0000000000000000     
   4.1290183626148891E-002   5.8792687564552089E-002   0.0000000000000000     
   2.8777154138497039E-002   3.8112875635473567E-002   0.0000000000000000     
   3.0948618655214120E-002   4.2843516184249683E-002   0.0000000000000000     
   3.3045156748407356E-002   4.7763061582717155E-002   0.0000000000000000     
   3.5066768418076724E-002   5.2871511830875961E-002   0.0000000000000000     
   3.7013453664222241E-002   5.8168866928726103E-002   0.0000000000000000     
   2.5476923985725621E-002   3.7507060617977178E-002   0.0000000000000000     
   2.7429905617216227E-002   4.2249258600986439E-002   0.0000000000000000     
   2.9316015623131249E-002   4.7179929159373385E-002   0.0000000000000000     
   3.1135254003470697E-002   5.2299072293138009E-002   0.0000000000000000     
   3.2887620758234558E-002   5.7606688002280311E-002   0.0000000000000000     
   2.2325106486792264E-002   3.6969209983612597E-002   0.0000000000000000     
   2.4061514311694301E-002   4.1723029857383104E-002   0.0000000000000000     
   2.5738246656893910E-002   4.6663793282240275E-002   0.0000000000000000     
   2.7355303522391086E-002   5.1791500258184145E-002   0.0000000000000000     
   2.8912684908185819E-002   5.7106150785214686E-002   0.0000000000000000     
   4.5717810644014492E-002   5.9478149909758249E-002   0.0000000000000000     
   4.7990945726621034E-002   6.4943524680360951E-002   0.0000000000000000     
   5.0237319757793594E-002   7.0618856853674028E-002   0.0000000000000000     
   5.2456932737532165E-002   7.6504146429697523E-002   0.0000000000000000     
   5.4649784665836740E-002   8.2599393408431407E-002   0.0000000000000000     
   4.1290183626148891E-002   5.8792687564552089E-002   0.0000000000000000     
   4.3375505163802328E-002   6.4276693546442137E-002   0.0000000000000000     
   4.5434635930430484E-002   6.9972733731776357E-002   0.0000000000000000     
   4.7467575926033345E-002   7.5880808120554741E-002   0.0000000000000000     
   4.9474325150610919E-002   8.2000916712777316E-002   0.0000000000000000     
   3.7013453664222241E-002   5.8168866928726103E-002   0.0000000000000000     
   3.8910279694675989E-002   6.3668090246255013E-002   0.0000000000000000     
   4.0782313717270077E-002   6.9382145153450037E-002   0.0000000000000000     
   4.2629555732004484E-002   7.5311031650311222E-002   0.0000000000000000     
   4.4452005738879197E-002   8.1454749736838528E-002   0.0000000000000000     
   3.2887620758234558E-002   5.7606688002280311E-002   0.0000000000000000     
   3.4595269319242047E-002   6.3117714779799591E-002   0.0000000000000000     
   3.6280353118312382E-002   6.8847091118695122E-002   0.0000000000000000     
   3.7942872155445576E-002   7.4794817018966925E-002   0.0000000000000000     
   3.9582826430641607E-002   8.0960892480614985E-002   0.0000000000000000     
   2.8912684908185819E-002   5.7106150785214686E-002   0.0000000000000000     
   3.0430474037500481E-002   6.2625567147075858E-002   0.0000000000000000     
   3.1928754133557419E-002   6.8367571627511586E-002   0.0000000000000000     
   3.3407525196356633E-002   7.4332164226521891E-002   0.0000000000000000     
   3.4866787225898130E-002   8.0519344944106730E-002   0.0000000000000000     
   5.4649784665836740E-002   8.2599393408431407E-002   0.0000000000000000     
   5.6781535256062776E-002   8.8873902441093069E-002   0.0000000000000000     
   5.8817844221565718E-002   9.5296978178899955E-002   0.0000000000000000     
   6.0758711562345545E-002  0.10186862062185198        0.0000000000000000     
   6.2604137278402278E-002  0.10858882976994921        0.0000000000000000     
   4.9474325150610919E-002   8.2000916712777316E-002   0.0000000000000000     
   5.1423219888536376E-002   8.8301698617904004E-002   0.0000000000000000     
   5.3282596424182913E-002   9.4751792945394681E-002   0.0000000000000000     
   5.5052454757550502E-002  0.10135119969524936        0.0000000000000000     
   5.6732794888639172E-002  0.10809991886746805        0.0000000000000000     
   4.4452005738879197E-002   8.1454749736838528E-002   0.0000000000000000     
   4.6220688101105412E-002   8.7780677746244345E-002   0.0000000000000000     
   4.7906627181894278E-002   9.4256194011741096E-002   0.0000000000000000     
   4.9509822981245802E-002  0.10088129853332876        0.0000000000000000     
   5.1030275499159970E-002  0.10765599131100731        0.0000000000000000     
   3.9582826430641607E-002   8.0960892480614985E-002   0.0000000000000000     
   4.1173939893769891E-002   8.7310839826114151E-002   0.0000000000000000     
   4.2689936494699827E-002   9.3810181377939214E-002   0.0000000000000000     
   4.4130816233431430E-002  0.10045891713609016        0.0000000000000000     
   4.5496579109964679E-002  0.10725704710056702        0.0000000000000000     
   3.4866787225898130E-002   8.0519344944106730E-002   0.0000000000000000     
   3.6282975266529807E-002   8.6892184857513377E-002   0.0000000000000000     
   3.7632524362599562E-002   9.3413755043988994E-002   0.0000000000000000     
   3.8915434514107394E-002  0.10008405550353361        0.0000000000000000     
   4.0131705721053304E-002  0.10690308623614719        0.0000000000000000     
   6.2604137278402278E-002  0.10858882976994921        0.0000000000000000     
   6.4316515934582361E-002  0.11541356228905784        0.0000000000000000     
   6.5858242095732281E-002  0.12229877484504412        0.0000000000000000     
   6.7229315761852024E-002  0.12924446743790802        0.0000000000000000     
   6.8429736932941576E-002  0.13625064006764959        0.0000000000000000     
   5.6732794888639172E-002  0.10809991886746805        0.0000000000000000     
   5.8293302611085604E-002  0.11494697493240837        0.0000000000000000     
   5.9703663718526541E-002  0.12184139236042804        0.0000000000000000     
   6.0963878210961948E-002  0.12878317115152701        0.0000000000000000     
   6.2073946088391854E-002  0.13577231130570536        0.0000000000000000     
   5.1030275499159970E-002  0.10765599131100731        0.0000000000000000     
   5.2442970706773402E-002  0.11452319204019906        0.0000000000000000     
   5.3722894575222689E-002  0.12142582041632632        0.0000000000000000     
   5.4870047104507866E-002  0.12836387643938912        0.0000000000000000     
   5.5884428294628904E-002  0.13533736010938738        0.0000000000000000     
   4.5496579109964679E-002  0.10725704710056702        0.0000000000000000     
   4.6765520221645734E-002  0.11414221361242992        0.0000000000000000     
   4.7915934665820781E-002  0.12105205901273902        0.0000000000000000     
   4.8947822442489783E-002  0.12798658330149423        0.0000000000000000     
   4.9861183551652755E-002  0.13494578647869571        0.0000000000000000     
   4.0131705721053304E-002  0.10690308623614719        0.0000000000000000     
   4.1260951155702642E-002  0.11380403964910095        0.0000000000000000     
   4.2282783990320767E-002  0.12072010814966605        0.0000000000000000     
   4.3197204224907686E-002  0.12765129173784248        0.0000000000000000     
   4.4004211859463377E-002  0.13459759041363026        0.0000000000000000     
   6.8429736932941576E-002  0.13625064006764959        0.0000000000000000     
   6.9693602151528283E-002  0.14347361093201094        0.0000000000000000     
   7.1255007960139422E-002  0.15106969822873423        0.0000000000000000     
   7.3113954358775018E-002  0.15903890195781950        0.0000000000000000     
   7.5270441347435046E-002  0.16738122211926673        0.0000000000000000     
   6.2073946088391854E-002  0.13577231130570536        0.0000000000000000     
   6.3226792640370844E-002  0.14299273007613833        0.0000000000000000     
   6.4615343156453522E-002  0.15062834471600131        0.0000000000000000     
   6.6239597636639877E-002  0.15867915522529430        0.0000000000000000     
   6.8099556080929935E-002  0.16714516160401732        0.0000000000000000     
   5.5884428294628904E-002  0.13533736010938738        0.0000000000000000     
   5.6927736681204974E-002  0.14255581966447536        0.0000000000000000     
   5.8161670799855250E-002  0.15022880334280733        0.0000000000000000     
   5.9586230650579705E-002  0.15835631114438323        0.0000000000000000     
   6.1201416233378367E-002  0.16693834306920302        0.0000000000000000     
   4.9861183551652755E-002  0.13494578647869571        0.0000000000000000     
   5.0796434274030695E-002  0.14216287969702207        0.0000000000000000     
   5.1893990890344605E-002  0.14987107410915226        0.0000000000000000     
   5.3153853400594496E-002  0.15807036971508615        0.0000000000000000     
   5.4576021804780370E-002  0.16676076651482385        0.0000000000000000     
   4.4004211859463377E-002  0.13459759041363026        0.0000000000000000     
   4.4832885418847980E-002  0.14181391017377842        0.0000000000000000     
   4.5812303427921600E-002  0.14955515701503608        0.0000000000000000     
   4.6942465886684250E-002  0.15782133093740322        0.0000000000000000     
   4.8223372795135923E-002  0.16661243194087982        0.0000000000000000     
   0.0000000000000000        0.0000000000000000        0.0000000000000000     
   1.7980129558955182E-003   1.2762391049793392E-003   0.0000000000000000     
   3.6209713967242218E-003   2.9386716585417727E-003   0.0000000000000000     
   5.4688753224861096E-003   4.9872976606873008E-003   0.0000000000000000     
   7.3417247331811833E-003   7.4221171114159231E-003   0.0000000000000000     
   0.0000000000000000        0.0000000000000000        0.0000000000000000     
   1.5347689668277422E-003   1.2169516321099616E-003   0.0000000000000000     
   3.0990811050083484E-003   2.8203676532948703E-003   0.0000000000000000     
   4.6929364145418193E-003   4.8102480635547262E-003   0.0000000000000000     
   6.3163348954281533E-003   7.1865928628895293E-003   0.0000000000000000     
   0.0000000000000000        0.0000000000000000        0.0000000000000000     
   1.2876070428028553E-003   1.1693702582949222E-003   0.0000000000000000     
   2.6052815964258211E-003   2.7240826931214891E-003   0.0000000000000000     
   3.9530236608688978E-003   4.6641373044796989E-003   0.0000000000000000     
   5.3308332361320853E-003   6.9895340923695534E-003   0.0000000000000000     
   0.0000000000000000        0.0000000000000000        0.0000000000000000     
   1.0565271838208572E-003   1.1334949835342218E-003   0.0000000000000000     
   2.1395728709766391E-003   2.6498167780216290E-003   0.0000000000000000     
   3.2491370614673464E-003   4.5489653834622206E-003   0.0000000000000000     
   4.3852197552929776E-003   6.8309407998559972E-003   0.0000000000000000     
   0.0000000000000000        0.0000000000000000        0.0000000000000000     
   8.4152938988174813E-004   1.1093258078278597E-003   0.0000000000000000     
   1.7019549286608027E-003   2.5975699079952893E-003   0.0000000000000000     
   2.5812766163371640E-003   4.4647323005022888E-003   0.0000000000000000     
   3.4794944529108322E-003   6.7108129853488581E-003   0.0000000000000000     
   7.3417247331811833E-003   7.4221171114159231E-003   0.0000000000000000     
   9.2313893146283039E-003   1.0189373899736761E-002   0.0000000000000000     
   1.1129738752646336E-002   1.3235311914658930E-002   0.0000000000000000     
   1.3036773047235278E-002   1.6559931156182435E-002   0.0000000000000000     
   1.4952492198395131E-002   2.0163231624307269E-002   0.0000000000000000     
   6.3163348954281533E-003   7.1865928628895293E-003   0.0000000000000000     
   7.9561524954734602E-003   9.8984667715921546E-003   0.0000000000000000     
   9.5992651624838450E-003   1.2894934509955483E-002   0.0000000000000000     
   1.1245672896459310E-002   1.6175996077979510E-002   0.0000000000000000     
   1.2895375697399855E-002   1.9741651475664236E-002   0.0000000000000000     
   5.3308332361320853E-003   6.9895340923695534E-003   0.0000000000000000     
   6.7238571233126532E-003   9.6527660264082576E-003   0.0000000000000000     
   8.1172421235078691E-003   1.2606326076213018E-002   0.0000000000000000     
   9.5109882367177354E-003   1.5850214241783841E-002   0.0000000000000000     
   1.0905095462942249E-002   1.9384430523120715E-002   0.0000000000000000     
   4.3852197552929776E-003   6.8309407998559972E-003   0.0000000000000000     
   5.5345031981458830E-003   9.4522716641850645E-003   0.0000000000000000     
   6.6836696357184073E-003   1.2369486613431539E-002   0.0000000000000000     
   7.8327190680105505E-003   1.5582585647595416E-002   0.0000000000000000     
   8.9816514950223150E-003   1.9091568766676698E-002   0.0000000000000000     
   3.4794944529108322E-003   6.7108129853488581E-003   0.0000000000000000     
   4.3880907199731495E-003   9.2969836849225804E-003   0.0000000000000000     
   5.2985476991154580E-003   1.2184416121611044E-002   0.0000000000000000     
   6.2108653903377581E-003   1.5373110295414247E-002   0.0000000000000000     
   7.1250437936400506E-003   1.8863066206332192E-002   0.0000000000000000     
   1.4952492198395131E-002   2.0163231624307269E-002   0.0000000000000000     
   1.6853326776003937E-002   2.4020586082832980E-002   0.0000000000000000     
   1.8715707349939725E-002   2.8107367295559110E-002   0.0000000000000000     
   2.0539633920202503E-002   3.2423575262485654E-002   0.0000000000000000     
   2.2325106486792264E-002   3.6969209983612597E-002   0.0000000000000000     
   1.2895375697399855E-002   1.9741651475664236E-002   0.0000000000000000     
   1.4533615284557759E-002   2.3569968039117133E-002   0.0000000000000000     
   1.6145633377185307E-002   2.7639013104445675E-002   0.0000000000000000     
   1.7731429975282497E-002   3.1948786671649854E-002   0.0000000000000000     
   1.9291005078849323E-002   3.6499288740729677E-002   0.0000000000000000     
   1.0905095462942249E-002   1.9384430523120715E-002   0.0000000000000000     
   1.2290738033497811E-002   2.3188517738445488E-002   0.0000000000000000     
   1.3659090179700817E-002   2.7242018705980000E-002   0.0000000000000000     
   1.5010151901551270E-002   3.1544933425724252E-002   0.0000000000000000     
   1.6343923199049169E-002   3.6097261897678250E-002   0.0000000000000000     
   8.9816514950223150E-003   1.9091568766676698E-002   0.0000000000000000     
   1.0124695022824088E-002   2.2876235180818032E-002   0.0000000000000000     
   1.1256077757486257E-002   2.6916384100162088E-002   0.0000000000000000     
   1.2375799699008832E-002   3.1212015524708845E-002   0.0000000000000000     
   1.3483860847391801E-002   3.5763129454458323E-002   0.0000000000000000     
   7.1250437936400506E-003   1.8863066206332192E-002   0.0000000000000000     
   8.0354862525365903E-003   2.2633120366234782E-002   0.0000000000000000     
   8.9365961105416294E-003   2.6662109286991927E-002   0.0000000000000000     
   9.8283733676551716E-003   3.0950032968603634E-002   0.0000000000000000     
   1.0710818023877217E-002   3.5496891411069889E-002   0.0000000000000000     
   2.2325106486792264E-002   3.6969209983612597E-002   0.0000000000000000     
   2.4061514311694301E-002   4.1723029857383104E-002   0.0000000000000000     
   2.5738246656893910E-002   4.6663793282240275E-002   0.0000000000000000     
   2.7355303522391086E-002   5.1791500258184145E-002   0.0000000000000000     
   2.8912684908185819E-002   5.7106150785214686E-002   0.0000000000000000     
   1.9291005078849323E-002   3.6499288740729677E-002   0.0000000000000000     
   2.0811140691693344E-002   4.1262851776692831E-002   0.0000000000000000     
   2.2278618817622112E-002   4.6211808244546994E-002   0.0000000000000000     
   2.3693439456635622E-002   5.1346158144292185E-002   0.0000000000000000     
   2.5055602608733879E-002   5.6665901475928392E-002   0.0000000000000000     
   1.6343923199049169E-002   3.6097261897678250E-002   0.0000000000000000     
   1.7646480710258348E-002   4.0866746182168789E-002   0.0000000000000000     
   1.8903901073242635E-002   4.5821128339522683E-002   0.0000000000000000     
   2.0116184288002041E-002   5.0960408369739932E-002   0.0000000000000000     
   2.1283330354536556E-002   5.6284586272820528E-002   0.0000000000000000     
   1.3483860847391801E-002   3.5763129454458323E-002   0.0000000000000000     
   1.4567534367389305E-002   4.0534713073810999E-002   0.0000000000000000     
   1.5614093423755483E-002   4.5491753567167344E-002   0.0000000000000000     
   1.6623538016490334E-002   5.0634250934527392E-002   0.0000000000000000     
   1.7595868145593861E-002   5.5962205175891115E-002   0.0000000000000000     
   1.0710818023877217E-002   3.5496891411069889E-002   0.0000000000000000     
   1.1574301663086223E-002   4.0266752451619432E-002   0.0000000000000000     
   1.2409195869160653E-002   4.5223683927480988E-002   0.0000000000000000     
   1.3215500642100508E-002   5.0367685838654558E-002   0.0000000000000000     
   1.3993215981905784E-002   5.5698758185140154E-002   0.0000000000000000     
   2.8912684908185819E-002   5.7106150785214686E-002   0.0000000000000000     
   3.0430474037500481E-002   6.2625567147075858E-002   0.0000000000000000     
   3.1928754133557419E-002   6.8367571627511586E-002   0.0000000000000000     
   3.3407525196356633E-002   7.4332164226521891E-002   0.0000000000000000     
   3.4866787225898130E-002   8.0519344944106730E-002   0.0000000000000000     
   2.5055602608733879E-002   5.6665901475928392E-002   0.0000000000000000     
   2.6383308534376940E-002   6.2191740240462826E-002   0.0000000000000000     
   2.7694757494024870E-002   6.7944376438902734E-002   0.0000000000000000     
   2.8989949487677670E-002   7.3923810071248111E-002   0.0000000000000000     
   3.0268884515335340E-002   8.0130041137498970E-002   0.0000000000000000     
   2.1283330354536556E-002   5.6284586272820528E-002   0.0000000000000000     
   2.2421187494797063E-002   6.1816326952339504E-002   0.0000000000000000     
   2.3545603930734436E-002   6.7578295311871900E-002   0.0000000000000000     
   2.4656579662348677E-002   7.3570491351417688E-002   0.0000000000000000     
   2.5754114689639788E-002   7.9792915070976897E-002   0.0000000000000000     
   1.7595868145593861E-002   5.5962205175891115E-002   0.0000000000000000     
   1.8544110918760855E-002   6.1499327282705872E-002   0.0000000000000000     
   1.9481293443686126E-002   6.7269328246419041E-002   0.0000000000000000     
   2.0407415720369665E-002   7.3272208067030581E-002   0.0000000000000000     
   2.1322477748811478E-002   7.9507966744540526E-002   0.0000000000000000     
   1.3993215981905784E-002   5.5698758185140154E-002   0.0000000000000000     
   1.4752078806268316E-002   6.1240741231561951E-002   0.0000000000000000     
   1.5501826032879929E-002   6.7017475242544172E-002   0.0000000000000000     
   1.6242457661740629E-002   7.3028960218086802E-002   0.0000000000000000     
   1.6973973692850416E-002   7.9275196158189842E-002   0.0000000000000000     
   3.4866787225898130E-002   8.0519344944106730E-002   0.0000000000000000     
   3.6282975266529807E-002   8.6892184857513377E-002   0.0000000000000000     
   3.7632524362599562E-002   9.3413755043988994E-002   0.0000000000000000     
   3.8915434514107394E-002  0.10008405550353361        0.0000000000000000     
   4.0131705721053304E-002  0.10690308623614719        0.0000000000000000     
   3.0268884515335340E-002   8.0130041137498970E-002   0.0000000000000000     
   3.1510750063979347E-002   8.6523662230249279E-002   0.0000000000000000     
   3.2694733620591158E-002   9.3065265942093078E-002   0.0000000000000000     
   3.3820835185170775E-002   9.9754852273030312E-002   0.0000000000000000     
   3.4889054757718196E-002  0.10659242122306103        0.0000000000000000     
   2.5754114689639788E-002   7.9792915070976897E-002   0.0000000000000000     
   2.6820220130712686E-002   8.6204221334129139E-002   0.0000000000000000     
   2.7836907103672308E-002   9.2763065004454026E-002   0.0000000000000000     
   2.8804175608518657E-002   9.9469446081951574E-002   0.0000000000000000     
   2.9722025645251723E-002  0.10632336456662177        0.0000000000000000     
   2.1322477748811478E-002   7.9507966744540526E-002   0.0000000000000000     
   2.2211385466729839E-002   8.5933862169152928E-002   0.0000000000000000     
   2.3059044811843028E-002   9.2507152231071865E-002   0.0000000000000000     
   2.3865455784151040E-002   9.9227836930297353E-002   0.0000000000000000     
   2.4630618383653876E-002  0.10609591626682939        0.0000000000000000     
   1.6973973692850416E-002   7.9275196158189842E-002   0.0000000000000000     
   1.7684246072030799E-002   8.5712584735320646E-002   0.0000000000000000     
   1.8361146745103300E-002   9.2297527621946610E-002   0.0000000000000000     
   1.9004675712067924E-002   9.9030024818067691E-002   0.0000000000000000     
   1.9614832972924663E-002  0.10591007632368392        0.0000000000000000     
   4.0131705721053304E-002  0.10690308623614719        0.0000000000000000     
   4.1260951155702642E-002  0.11380403964910095        0.0000000000000000     
   4.2282783990320767E-002  0.12072010814966605        0.0000000000000000     
   4.3197204224907686E-002  0.12765129173784248        0.0000000000000000     
   4.4004211859463377E-002  0.13459759041363026        0.0000000000000000     
   3.4889054757718196E-002  0.10659242122306103        0.0000000000000000     
   3.5879804182466217E-002  0.11350727241532445        0.0000000000000000     
   3.6773495303647638E-002  0.12042870547295975        0.0000000000000000     
   3.7570128121262474E-002  0.12735672039596699        0.0000000000000000     
   3.8269702635310682E-002  0.13429131718434614        0.0000000000000000     
   2.9722025645251723E-002  0.10632336456662177        0.0000000000000000     
   3.0572619975458598E-002  0.11325051417621269        0.0000000000000000     
   3.1338121360726355E-002  0.12017658862847243        0.0000000000000000     
   3.2018529801055018E-002  0.12710158792340098        0.0000000000000000     
   3.2613845296444573E-002  0.13402551206099833        0.0000000000000000     
   2.4630618383653876E-002  0.10609591626682939        0.0000000000000000     
   2.5339398534679761E-002  0.11303376493176572        0.0000000000000000     
   2.5976662161556915E-002  0.11996375761620408        0.0000000000000000     
   2.6542409264285336E-002  0.12688589432014447        0.0000000000000000     
   2.7036639842865026E-002  0.13380017504358693        0.0000000000000000     
   1.9614832972924663E-002  0.10591007632368392        0.0000000000000000     
   2.0180139860129724E-002  0.11285702468198351        0.0000000000000000     
   2.0689117706139310E-002  0.11979021243615469        0.0000000000000000     
   2.1141766510953425E-002  0.12670963958619746        0.0000000000000000     
   2.1538086274572064E-002  0.13361530613211181        0.0000000000000000     
   4.4004211859463377E-002  0.13459759041363026        0.0000000000000000     
   4.4832885418847980E-002  0.14181391017377842        0.0000000000000000     
   4.5812303427921600E-002  0.14955515701503608        0.0000000000000000     
   4.6942465886684250E-002  0.15782133093740322        0.0000000000000000     
   4.8223372795135923E-002  0.16661243194087982        0.0000000000000000     
   3.8269702635310682E-002  0.13429131718434614        0.0000000000000000     
   3.8992818931905385E-002  0.14150707381546271        0.0000000000000000     
   3.9860077097159656E-002  0.14927856826668220        0.0000000000000000     
   4.0871477131073482E-002  0.15760580053800471        0.0000000000000000     
   4.2027019033646869E-002  0.16648877062943010        0.0000000000000000     
   3.2613845296444573E-002  0.13402551206099833        0.0000000000000000     
   3.3231963629451473E-002  0.14124053334279316        0.0000000000000000     
   3.3980780582632188E-002  0.14903882407031402        0.0000000000000000     
   3.4860296155986709E-002  0.15742038424356095        0.0000000000000000     
   3.5870510349515043E-002  0.16638521386253388        0.0000000000000000     
   2.7036639842865026E-002  0.13380017504358693        0.0000000000000000     
   2.7550319511486236E-002  0.14101428875576977        0.0000000000000000     
   2.8174413884339205E-002  0.14883592442593149        0.0000000000000000     
   2.8908922961423937E-002  0.15726508205407191        0.0000000000000000     
   2.9753846742740439E-002  0.16630176164019120        0.0000000000000000     
   2.1538086274572064E-002  0.13361530613211181        0.0000000000000000     
   2.1947886578009675E-002  0.14082834005439254        0.0000000000000000     
   2.2440977002280711E-002  0.14866986933353449        0.0000000000000000     
   2.3017357547385178E-002  0.15713989396953765        0.0000000000000000     
   2.3677028213323060E-002  0.16623841396240202        0.0000000000000000     
   0.0000000000000000        0.0000000000000000        0.0000000000000000     
   8.4152938988174813E-004   1.1093258078278597E-003   0.0000000000000000     
   1.7019549286608027E-003   2.5975699079952893E-003   0.0000000000000000     
   2.5812766163371640E-003   4.4647323005022888E-003   0.0000000000000000     
   3.4794944529108322E-003   6.7108129853488581E-003   0.0000000000000000     
   0.0000000000000000        0.0000000000000000        0.0000000000000000     
   6.3371623193235775E-004   1.0932991974324335E-003   0.0000000000000000     
   1.2779033325176483E-003   2.5614872289626668E-003   0.0000000000000000     
   1.9325613017558713E-003   4.4045640945907013E-003   0.0000000000000000     
   2.5976901396470267E-003   6.6225297943165356E-003   0.0000000000000000     
   0.0000000000000000        0.0000000000000000        0.0000000000000000     
   4.2419028091951580E-004   1.0818516186045404E-003   0.0000000000000000     
   8.5289364558651173E-004   2.5357138868439578E-003   0.0000000000000000     
   1.2861100940009876E-003   4.3615868047182545E-003   0.0000000000000000     
   1.7238396261629438E-003   6.5594703722274281E-003   0.0000000000000000     
   0.0000000000000000        0.0000000000000000        0.0000000000000000     
   2.1295153684322240E-004   1.0749830713441802E-003   0.0000000000000000     
   4.2692586786739360E-004   2.5202498816391623E-003   0.0000000000000000     
   6.4192299307251339E-004   4.3358004308849474E-003   0.0000000000000000     
   8.5794291245858188E-004   6.5216347190815349E-003   0.0000000000000000     
   0.0000000000000000        0.0000000000000000        0.0000000000000000     
  -2.9652251791120743E-013   1.0726935556513531E-003   0.0000000000000000     
  -6.3970649524097700E-013   2.5150952133482802E-003   0.0000000000000000     
  -1.0295518777792001E-012   4.3272049730907819E-003   0.0000000000000000     
  -1.4660585300006052E-012   6.5090228348788576E-003   0.0000000000000000     
   3.4794944529108322E-003   6.7108129853488581E-003   0.0000000000000000     
   4.3880907199731495E-003   9.2969836849225804E-003   0.0000000000000000     
   5.2985476991154580E-003   1.2184416121611044E-002   0.0000000000000000     
   6.2108653903377581E-003   1.5373110295414247E-002   0.0000000000000000     
   7.1250437936400506E-003   1.8863066206332192E-002   0.0000000000000000     
   2.5976901396470267E-003   6.6225297943165356E-003   0.0000000000000000     
   3.2701287338459018E-003   9.1808844956506666E-003   0.0000000000000000     
   3.9467159720072810E-003   1.2045128366103592E-002   0.0000000000000000     
   4.6274518541311645E-003   1.5215261405675310E-002   0.0000000000000000     
   5.3123363802175536E-003   1.8691283614365825E-002   0.0000000000000000     
   1.7238396261629438E-003   6.5594703722274281E-003   0.0000000000000000     
   2.1661262848155891E-003   9.0979565033991877E-003   0.0000000000000000     
   2.6130141127021335E-003   1.1945637112261239E-002   0.0000000000000000     
   3.0645031098225769E-003   1.5102512198813586E-002   0.0000000000000000     
   3.5205932761769188E-003   1.8568581763056227E-002   0.0000000000000000     
   8.5794291245858188E-004   6.5216347190815349E-003   0.0000000000000000     
   1.0760833728822119E-003   9.0481997081681420E-003   0.0000000000000000     
   1.2974421212000164E-003   1.1885942360083990E-002   0.0000000000000000     
   1.5220191574119944E-003   1.5034862674829071E-002   0.0000000000000000     
   1.7498144815181471E-003   1.8494960652403393E-002   0.0000000000000000     
  -1.4660585300006052E-012   6.5090228348788576E-003   0.0000000000000000     
  -1.9542306954525163E-012   9.0316141099575330E-003   0.0000000000000000     
  -2.4990717570967831E-012   1.1866044109571840E-002   0.0000000000000000     
  -3.1005825772129460E-012   1.5012312833721772E-002   0.0000000000000000     
  -3.7587622901333329E-012   1.8470420282407335E-002   0.0000000000000000     
   7.1250437936400506E-003   1.8863066206332192E-002   0.0000000000000000     
   8.0354862525365903E-003   2.2633120366234782E-002   0.0000000000000000     
   8.9365961105416294E-003   2.6662109286991927E-002   0.0000000000000000     
   9.8283733676551716E-003   3.0950032968603634E-002   0.0000000000000000     
   1.0710818023877217E-002   3.5496891411069889E-002   0.0000000000000000     
   5.3123363802175536E-003   1.8691283614365825E-002   0.0000000000000000     
   5.9951746239037722E-003   2.2450655791105219E-002   0.0000000000000000     
   6.6697716588271470E-003   2.6470838734823594E-002   0.0000000000000000     
   7.3361274849876781E-003   3.0751832445520950E-002   0.0000000000000000     
   7.9942421023853662E-003   3.5293636923197272E-002   0.0000000000000000     
   3.5205932761769188E-003   1.8568581763056227E-002   0.0000000000000000     
   3.9758230381940910E-003   2.2320323951838850E-002   0.0000000000000000     
   4.4247308223030277E-003   2.6334216912011155E-002   0.0000000000000000     
   4.8673166285037265E-003   3.0610260643573129E-002   0.0000000000000000     
   5.3035804567961890E-003   3.5148455146524794E-002   0.0000000000000000     
   1.7498144815181471E-003   1.8494960652403393E-002   0.0000000000000000     
   1.9774314954075483E-003   2.2242124848435667E-002   0.0000000000000000     
   2.2014736009692720E-003   2.6252243818554601E-002   0.0000000000000000     
   2.4219407982033186E-003   3.0525317562760192E-002   0.0000000000000000     
   2.6388330871096881E-003   3.5061346081052443E-002   0.0000000000000000     
  -3.7587622901333329E-012   1.8470420282407335E-002   0.0000000000000000     
  -4.4558591300210282E-012   2.2216058480895674E-002   0.0000000000000000     
  -5.1741200028914552E-012   2.6224919454453939E-002   0.0000000000000000     
  -5.9135455795947083E-012   3.0497003203082126E-002   0.0000000000000000     
  -6.6741354196736546E-012   3.5032309726780245E-002   0.0000000000000000     
   1.0710818023877217E-002   3.5496891411069889E-002   0.0000000000000000     
   1.1574301663086223E-002   4.0266752451619432E-002   0.0000000000000000     
   1.2409195869160653E-002   4.5223683927480988E-002   0.0000000000000000     
   1.3215500642100508E-002   5.0367685838654558E-002   0.0000000000000000     
   1.3993215981905784E-002   5.5698758185140154E-002   0.0000000000000000     
   7.9942421023853662E-003   3.5293636923197272E-002   0.0000000000000000     
   8.6381258948751618E-003   4.0060318620102391E-002   0.0000000000000000     
   9.2617892463120258E-003   4.5015943988486115E-002   0.0000000000000000     
   9.8652321566959564E-003   5.0160513028348445E-002   0.0000000000000000     
   1.0448454626026955E-002   5.5494025739689382E-002   0.0000000000000000     
   5.3035804567961890E-003   3.5148455146524794E-002   0.0000000000000000     
   5.7303503602821838E-003   3.9912865883768148E-002   0.0000000000000000     
   6.1444543920634821E-003   4.4867558318205228E-002   0.0000000000000000     
   6.5458925521400847E-003   5.0012532449836042E-002   0.0000000000000000     
   6.9346648405119917E-003   5.5347788278660569E-002   0.0000000000000000     
   2.6388330871096881E-003   3.5061346081052443E-002   0.0000000000000000     
   2.8509750593072865E-003   3.9824394242616711E-002   0.0000000000000000     
   3.0571913064150213E-003   4.4778526916638348E-002   0.0000000000000000     
   3.2574818284328904E-003   4.9923744103117340E-002   0.0000000000000000     
   3.4518466253608956E-003   5.5260045802053688E-002   0.0000000000000000     
  -6.6741354196736546E-012   3.5032309726780245E-002   0.0000000000000000     
  -8.0495272990546707E-012   3.9794903696648086E-002   0.0000000000000000     
  -1.0633357801041743E-011   4.4748849783785460E-002   0.0000000000000000     
  -1.4425626790109600E-011   4.9894147988192347E-002   0.0000000000000000     
  -1.9426335106514925E-011   5.5230798309868781E-002   0.0000000000000000     
   1.3993215981905784E-002   5.5698758185140154E-002   0.0000000000000000     
   1.4752078806268316E-002   6.1240741231561951E-002   0.0000000000000000     
   1.5501826032879929E-002   6.7017475242544172E-002   0.0000000000000000     
   1.6242457661740629E-002   7.3028960218086802E-002   0.0000000000000000     
   1.6973973692850416E-002   7.9275196158189842E-002   0.0000000000000000     
   1.0448454626026955E-002   5.5494025739689382E-002   0.0000000000000000     
   1.1017941468836362E-002   6.1040034394615882E-002   0.0000000000000000     
   1.1580177499655517E-002   6.6822091265234904E-002   0.0000000000000000     
   1.2135162718484421E-002   7.2840196351546441E-002   0.0000000000000000     
   1.2682897125323077E-002   7.9094349653550486E-002   0.0000000000000000     
   6.9346648405119917E-003   5.5347788278660569E-002   0.0000000000000000     
   7.3145492179819077E-003   6.0896672367575837E-002   0.0000000000000000     
   7.6893236453525393E-003   6.6682531279478846E-002   0.0000000000000000     
   8.0589881226238828E-003   7.2705365014369611E-002   0.0000000000000000     
   8.4235426497959419E-003   7.8965173572248137E-002   0.0000000000000000     
   3.4518466253608956E-003   5.5260045802053688E-002   0.0000000000000000     
   3.6419020537049574E-003   6.0810655150441782E-002   0.0000000000000000     
   3.8292644699709976E-003   6.6598795285275986E-002   0.0000000000000000     
   4.0139338741590177E-003   7.2624466206556312E-002   0.0000000000000000     
   4.1959102662690161E-003   7.8887667914282741E-002   0.0000000000000000     
  -1.9426335106514925E-011   5.5230798309868781E-002   0.0000000000000000     
  -2.3994491181282551E-011   6.0781982743213767E-002   0.0000000000000000     
  -2.6489104692269810E-011   6.6570883282626364E-002   0.0000000000000000     
  -2.6910175463293849E-011   7.2597499928106560E-002   0.0000000000000000     
  -2.5257702830280837E-011   7.8861832679654367E-002   0.0000000000000000     
   1.6973973692850416E-002   7.9275196158189842E-002   0.0000000000000000     
   1.7684246072030799E-002   8.5712584735320646E-002   0.0000000000000000     
   1.8361146745103300E-002   9.2297527621946610E-002   0.0000000000000000     
   1.9004675712067924E-002   9.9030024818067691E-002   0.0000000000000000     
   1.9614832972924663E-002  0.10591007632368392        0.0000000000000000     
   1.2682897125323077E-002   7.9094349653550486E-002   0.0000000000000000     
   1.3214261870988056E-002   8.5540440234236528E-002   0.0000000000000000     
   1.3720138106295937E-002   9.2134357156594029E-002   0.0000000000000000     
   1.4200525831246723E-002   9.8876100420622962E-002   0.0000000000000000     
   1.4655425045840411E-002  0.10576567002632334        0.0000000000000000     
   8.4235426497959419E-003   7.8965173572248137E-002   0.0000000000000000     
   8.7768927879740988E-003   8.5417479867504767E-002   0.0000000000000000     
   9.1129440982637352E-003   9.2017806814529909E-002   0.0000000000000000     
   9.4316965806648511E-003   9.8766154413323551E-002   0.0000000000000000     
   9.7331502351774481E-003  0.10566252266388566        0.0000000000000000     
   4.1959102662690161E-003   7.8887667914282741E-002   0.0000000000000000     
   4.3721388229889298E-003   8.5343703635125390E-002   0.0000000000000000     
   4.5395647210066947E-003   9.1947876595754291E-002   0.0000000000000000     
   4.6981879603223099E-003   9.8700186796169445E-002   0.0000000000000000     
   4.8480085409357771E-003  0.10560063423637088        0.0000000000000000     
  -2.5257702830280837E-011   7.8861832679654367E-002   0.0000000000000000     
  -2.3967451721201849E-011   8.5319111537098355E-002   0.0000000000000000     
  -2.5475184516152855E-011   9.1924566500267146E-002   0.0000000000000000     
  -2.9780902041838010E-011   9.8678197569160672E-002   0.0000000000000000     
  -3.6884602143405498E-011  0.10558000474377902        0.0000000000000000     
   1.9614832972924663E-002  0.10591007632368392        0.0000000000000000     
   2.0180139860129724E-002  0.11285702468198351        0.0000000000000000     
   2.0689117706139310E-002  0.11979021243615469        0.0000000000000000     
   2.1141766510953425E-002  0.12670963958619746        0.0000000000000000     
   2.1538086274572064E-002  0.13361530613211181        0.0000000000000000     
   1.4655425045840411E-002  0.10576567002632334        0.0000000000000000     
   1.5077173147568146E-002  0.11271988089644799        0.0000000000000000     
   1.5458107533921076E-002  0.11965554795374972        0.0000000000000000     
   1.5798228204899196E-002  0.12657267119822849        0.0000000000000000     
   1.6097535160502510E-002  0.13347125062988432        0.0000000000000000     
   9.7331502351774481E-003  0.10566252266388566        0.0000000000000000     
   1.0012827592754689E-002  0.11262192104474109        0.0000000000000000     
   1.0266251184349727E-002  0.11955935903441453        0.0000000000000000     
   1.0493421009962573E-002  0.12647483663290610        0.0000000000000000     
   1.0694337069593222E-002  0.13336835384021570        0.0000000000000000     
   4.8480085409357771E-003  0.10560063423637088        0.0000000000000000     
   4.9871031956893489E-003  0.11256314512686275        0.0000000000000000     
   5.1135486574252747E-003  0.11950164567814923        0.0000000000000000     
   5.2273449261435534E-003  0.12641613589023029        0.0000000000000000     
   5.3284920018441869E-003  0.13330661576310601        0.0000000000000000     
  -3.6884602143405498E-011  0.10558000474377902        0.0000000000000000     
  -4.3627870196724650E-011  0.11254355314281306        0.0000000000000000     
  -4.6852290818723275E-011  0.11948240788495375        0.0000000000000000     
  -4.6557863385985124E-011  0.12639656897020113        0.0000000000000000     
  -4.2744586516152427E-011  0.13328603639855516        0.0000000000000000     
   2.1538086274572064E-002  0.13361530613211181        0.0000000000000000     
   2.1947886578009675E-002  0.14082834005439254        0.0000000000000000     
   2.2440977002280711E-002  0.14866986933353449        0.0000000000000000     
   2.3017357547385178E-002  0.15713989396953765        0.0000000000000000     
   2.3677028213323060E-002  0.16623841396240202        0.0000000000000000     
   1.6097535160502510E-002  0.13347125062988432        0.0000000000000000     
   1.6404023158771881E-002  0.14068326438929765        0.0000000000000000     
   1.6765686957748160E-002  0.14854069061704878        0.0000000000000000     
   1.7182526557431351E-002  0.15704352931313781        0.0000000000000000     
   1.7654541957821457E-002  0.16619178047756467        0.0000000000000000     
   1.0694337069593222E-002  0.13336835384021570        0.0000000000000000     
   1.0898087583522943E-002  0.14057963891112107        0.0000000000000000     
   1.1133760772033006E-002  0.14844842010039982        0.0000000000000000     
   1.1401356635123422E-002  0.15697469740805201        0.0000000000000000     
   1.1700875172794178E-002  0.16615847083407756        0.0000000000000000     
   5.3284920018441869E-003  0.13330661576310601        0.0000000000000000     
   5.4300798522628610E-003  0.14051746361986289        0.0000000000000000     
   5.5451984451352588E-003  0.14839305778358761        0.0000000000000000     
   5.6738477804613788E-003  0.15693339825428021        0.0000000000000000     
   5.8160278582412217E-003  0.16613848503194059        0.0000000000000000     
  -4.2744586516152427E-011  0.13328603639855516        0.0000000000000000     
  -3.5008362311503283E-011  0.14049673851552308        0.0000000000000000     
  -2.2945092115374266E-011  0.14837460366661218        0.0000000000000000     
  -6.5547731359447831E-012  0.15691963185182242        0.0000000000000000     
   1.4162592106015115E-011  0.16613182307115387        0.0000000000000000     
   0.0000000000000000        0.0000000000000000        0.0000000000000000     
  -2.9652251791120743E-013   1.0726935556513531E-003   0.0000000000000000     
  -6.3970649524097700E-013   2.5150952133482802E-003   0.0000000000000000     
  -1.0295518777792001E-012   4.3272049730907819E-003   0.0000000000000000     
  -1.4660585300006052E-012   6.5090228348788576E-003   0.0000000000000000     
   0.0000000000000000        0.0000000000000000        0.0000000000000000     
  -2.1295153742801432E-004   1.0749830715149266E-003   0.0000000000000000     
  -4.2692586912700039E-004   2.5202498819537392E-003   0.0000000000000000     
  -6.4192299509695781E-004   4.3358004313164365E-003   0.0000000000000000     
  -8.5794291533788708E-004   6.5216347196030196E-003   0.0000000000000000     
   0.0000000000000000        0.0000000000000000        0.0000000000000000     
  -4.2419028147954829E-004   1.0818516189237688E-003   0.0000000000000000     
  -8.5289364678669990E-004   2.5357138874379662E-003   0.0000000000000000     
  -1.2861100959214546E-003   4.3615868055425933E-003   0.0000000000000000     
  -1.7238396288838124E-003   6.5594703732376495E-003   0.0000000000000000     
   0.0000000000000000        0.0000000000000000        0.0000000000000000     
  -6.3371623245112453E-004   1.0932991978778788E-003   0.0000000000000000     
  -1.2779033336188055E-003   2.5614872298009629E-003   0.0000000000000000     
  -1.9325613035030425E-003   4.4045640957692516E-003   0.0000000000000000     
  -2.5976901421038362E-003   6.6225297957827473E-003   0.0000000000000000     
   0.0000000000000000        0.0000000000000000        0.0000000000000000     
  -8.4152939034274298E-004   1.1093258083772570E-003   0.0000000000000000     
  -1.7019549296233168E-003   2.5975699090427275E-003   0.0000000000000000     
  -2.5812766178417209E-003   4.4647323019964122E-003   0.0000000000000000     
  -3.4794944549979561E-003   6.7108129872383094E-003   0.0000000000000000     
  -1.4660585300006052E-012   6.5090228348788576E-003   0.0000000000000000     
  -1.9542306954525163E-012   9.0316141099575330E-003   0.0000000000000000     
  -2.4990717570967831E-012   1.1866044109571840E-002   0.0000000000000000     
  -3.1005825772129460E-012   1.5012312833721772E-002   0.0000000000000000     
  -3.7587622901333329E-012   1.8470420282407335E-002   0.0000000000000000     
  -8.5794291533788708E-004   6.5216347196030196E-003   0.0000000000000000     
  -1.0760833767187428E-003   9.0481997087522373E-003   0.0000000000000000     
  -1.2974421261084809E-003   1.1885942360702839E-002   0.0000000000000000     
  -1.5220191635071008E-003   1.5034862675454822E-002   0.0000000000000000     
  -1.7498144889146027E-003   1.8494960653008190E-002   0.0000000000000000     
  -1.7238396288838124E-003   6.5594703732376495E-003   0.0000000000000000     
  -2.1661262884363299E-003   9.0979565045371334E-003   0.0000000000000000     
  -2.6130141173415613E-003   1.1945637113455036E-002   0.0000000000000000     
  -3.0645031155995071E-003   1.5102512199991364E-002   0.0000000000000000     
  -3.5205932832101678E-003   1.8568581764146112E-002   0.0000000000000000     
  -2.5976901421038362E-003   6.6225297957827473E-003   0.0000000000000000     
  -3.2701287371069911E-003   9.1808844973122142E-003   0.0000000000000000     
  -3.9467159761983131E-003   1.2045128367828433E-002   0.0000000000000000     
  -4.6274518593778001E-003   1.5215261407331392E-002   0.0000000000000000     
  -5.3123363866454561E-003   1.8691283615821102E-002   0.0000000000000000     
  -3.4794944549979561E-003   6.7108129872383094E-003   0.0000000000000000     
  -4.3880907227307258E-003   9.2969836870774921E-003   0.0000000000000000     
  -5.2985477026787353E-003   1.2184416123823025E-002   0.0000000000000000     
  -6.2108653948419823E-003   1.5373110297474912E-002   0.0000000000000000     
  -7.1250437992204712E-003   1.8863066208033154E-002   0.0000000000000000     
  -3.7587622901333329E-012   1.8470420282407335E-002   0.0000000000000000     
  -4.4558591300210282E-012   2.2216058480895674E-002   0.0000000000000000     
  -5.1741200028914552E-012   2.6224919454453939E-002   0.0000000000000000     
  -5.9135455795947083E-012   3.0497003203082126E-002   0.0000000000000000     
  -6.6741354196736546E-012   3.5032309726780245E-002   0.0000000000000000     
  -1.7498144889146027E-003   1.8494960653008190E-002   0.0000000000000000     
  -1.9774315041628434E-003   2.2242124849108324E-002   0.0000000000000000     
  -2.2014736110836795E-003   2.6252243819500611E-002   0.0000000000000000     
  -2.4219408096771105E-003   3.0525317564185046E-002   0.0000000000000000     
  -2.6388330999431377E-003   3.5061346083161644E-002   0.0000000000000000     
  -3.5205932832101678E-003   1.8568581764146112E-002   0.0000000000000000     
  -3.9758230464801200E-003   2.2320323952963083E-002   0.0000000000000000     
  -4.4247308317159357E-003   2.6334216913486082E-002   0.0000000000000000     
  -4.8673166389176219E-003   3.0610260645715096E-002   0.0000000000000000     
  -5.3035804680851718E-003   3.5148455149650135E-002   0.0000000000000000     
  -5.3123363866454561E-003   1.8691283615821102E-002   0.0000000000000000     
  -5.9951746314076864E-003   2.2450655792459948E-002   0.0000000000000000     
  -6.6697716670708921E-003   2.6470838736410332E-002   0.0000000000000000     
  -7.3361274936350760E-003   3.0751832447672253E-002   0.0000000000000000     
  -7.9942421111002387E-003   3.5293636926245715E-002   0.0000000000000000     
  -7.1250437992204712E-003   1.8863066208033154E-002   0.0000000000000000     
  -8.0354862589455435E-003   2.2633120367598916E-002   0.0000000000000000     
  -8.9365961171485441E-003   2.6662109288273381E-002   0.0000000000000000     
  -9.8283733738294774E-003   3.0950032970056534E-002   0.0000000000000000     
  -1.0710818028988336E-002   3.5496891412948386E-002   0.0000000000000000     
  -6.6741354196736546E-012   3.5032309726780245E-002   0.0000000000000000     
  -8.0495272990546707E-012   3.9794903696648086E-002   0.0000000000000000     
  -1.0633357801041743E-011   4.4748849783785460E-002   0.0000000000000000     
  -1.4425626790109600E-011   4.9894147988192347E-002   0.0000000000000000     
  -1.9426335106514925E-011   5.5230798309868781E-002   0.0000000000000000     
  -2.6388330999431377E-003   3.5061346083161644E-002   0.0000000000000000     
  -2.8509750746484679E-003   3.9824394245183650E-002   0.0000000000000000     
  -3.0571913265598103E-003   4.4778526919004302E-002   0.0000000000000000     
  -3.2574818556771632E-003   4.9923744104623621E-002   0.0000000000000000     
  -3.4518466620005283E-003   5.5260045802041594E-002   0.0000000000000000     
  -5.3035804680851718E-003   3.5148455149650135E-002   0.0000000000000000     
  -5.7303503733497439E-003   3.9912865887544793E-002   0.0000000000000000     
  -6.1444544088424891E-003   4.4867558321652644E-002   0.0000000000000000     
  -6.5458925745634127E-003   5.0012532451973679E-002   0.0000000000000000     
  -6.9346648705125094E-003   5.5347788278507934E-002   0.0000000000000000     
  -7.9942421111002387E-003   3.5293636926245715E-002   0.0000000000000000     
  -8.6381259041533529E-003   4.0060318623731529E-002   0.0000000000000000     
  -9.2617892574814020E-003   4.5015943991730471E-002   0.0000000000000000     
  -9.8652321710843739E-003   5.0160513030242569E-002   0.0000000000000000     
  -1.0448454644962277E-002   5.5494025739267802E-002   0.0000000000000000     
  -1.0710818028988336E-002   3.5496891412948386E-002   0.0000000000000000     
  -1.1574301667059299E-002   4.0266752453743844E-002   0.0000000000000000     
  -1.2409195872476539E-002   4.5223683929237792E-002   0.0000000000000000     
  -1.3215500645240050E-002   5.0367685839430236E-002   0.0000000000000000     
  -1.3993215985349838E-002   5.5698758184321198E-002   0.0000000000000000     
  -1.9426335106514925E-011   5.5230798309868781E-002   0.0000000000000000     
  -2.3994491181282551E-011   6.0781982743213767E-002   0.0000000000000000     
  -2.6489104692269810E-011   6.6570883282626364E-002   0.0000000000000000     
  -2.6910175463293849E-011   7.2597499928106560E-002   0.0000000000000000     
  -2.5257702830280837E-011   7.8861832679654367E-002   0.0000000000000000     
  -3.4518466620005283E-003   5.5260045802041594E-002   0.0000000000000000     
  -3.6419020989937366E-003   6.0810655146467447E-002   0.0000000000000000     
  -3.8292645201206217E-003   6.6598795273110412E-002   0.0000000000000000     
  -4.0139339253811831E-003   7.2624466181970465E-002   0.0000000000000000     
  -4.1959103147754216E-003   7.8887667873047643E-002   0.0000000000000000     
  -6.9346648705125094E-003   5.5347788278507934E-002   0.0000000000000000     
  -7.3145492551700761E-003   6.0896672360778524E-002   0.0000000000000000     
  -7.6893236870164009E-003   6.6682531258308600E-002   0.0000000000000000     
  -8.0589881660514933E-003   7.2705364971098183E-002   0.0000000000000000     
  -8.4235426922753473E-003   7.8965173499147223E-002   0.0000000000000000     
  -1.0448454644962277E-002   5.5494025739267802E-002   0.0000000000000000     
  -1.1017941492523508E-002   6.1040034386146996E-002   0.0000000000000000     
  -1.1580177527176449E-002   6.6822091238220943E-002   0.0000000000000000     
  -1.2135162748921107E-002   7.2840196295489684E-002   0.0000000000000000     
  -1.2682897157757476E-002   7.9094349557953164E-002   0.0000000000000000     
  -1.3993215985349838E-002   5.5698758184321198E-002   0.0000000000000000     
  -1.4752078811054033E-002   6.1240741222572864E-002   0.0000000000000000     
  -1.5501826040600759E-002   6.7017475212847455E-002   0.0000000000000000     
  -1.6242457673990018E-002   7.3028960155144984E-002   0.0000000000000000     
  -1.6973973711221810E-002   7.9275196049465424E-002   0.0000000000000000     
  -2.5257702830280837E-011   7.8861832679654367E-002   0.0000000000000000     
  -2.3967451721201849E-011   8.5319111537098355E-002   0.0000000000000000     
  -2.5475184516152855E-011   9.1924566500267146E-002   0.0000000000000000     
  -2.9780902041838010E-011   9.8678197569160672E-002   0.0000000000000000     
  -3.6884602143405498E-011  0.10558000474377902        0.0000000000000000     
  -4.1959103147754216E-003   7.8887667873047643E-002   0.0000000000000000     
  -4.3721388693908417E-003   8.5343703579731450E-002   0.0000000000000000     
  -4.5395647703149458E-003   9.1947876535411519E-002   0.0000000000000000     
  -4.6981880175477365E-003   9.8700186740087792E-002   0.0000000000000000     
  -4.8480086110892114E-003  0.10560063419376031        0.0000000000000000     
  -8.4235426922753473E-003   7.8965173499147223E-002   0.0000000000000000     
  -8.7768928297770350E-003   8.5417479769332436E-002   0.0000000000000000     
  -9.1129441426456344E-003   9.2017806708530464E-002   0.0000000000000000     
  -9.4316966308811475E-003   9.8766154316741350E-002   0.0000000000000000     
  -9.7331502944835672E-003  0.10566252259396502        0.0000000000000000     
  -1.2682897157757476E-002   7.9094349557953164E-002   0.0000000000000000     
  -1.3214261905126036E-002   8.5540440105901325E-002   0.0000000000000000     
  -1.3720138142467253E-002   9.2134357019624066E-002   0.0000000000000000     
  -1.4200525869781135E-002   9.8876100299121333E-002   0.0000000000000000     
  -1.4655425087067672E-002  0.10576566994439322        0.0000000000000000     
  -1.6973973711221810E-002   7.9275196049465424E-002   0.0000000000000000     
  -1.7684246095437839E-002   8.5712584589438076E-002   0.0000000000000000     
  -1.8361146769779801E-002   9.2297527468692186E-002   0.0000000000000000     
  -1.9004675734247696E-002   9.9030024687227797E-002   0.0000000000000000     
  -1.9614832988841525E-002  0.10591007624504485        0.0000000000000000     
  -3.6884602143405498E-011  0.10558000474377902        0.0000000000000000     
  -4.3627870196724650E-011  0.11254355314281306        0.0000000000000000     
  -4.6852290818723275E-011  0.11948240788495375        0.0000000000000000     
  -4.6557863385985124E-011  0.12639656897020113        0.0000000000000000     
  -4.2744586516152427E-011  0.13328603639855516        0.0000000000000000     
  -4.8480086110892114E-003  0.10560063419376031        0.0000000000000000     
  -4.9871032780418583E-003  0.11256314509970095        0.0000000000000000     
  -5.1135487455081698E-003  0.11950164566118170        0.0000000000000000     
  -5.2273450134881433E-003  0.12641613587820247        0.0000000000000000     
  -5.3284920819817779E-003  0.13330661575076339        0.0000000000000000     
  -9.7331502944835672E-003  0.10566252259396502        0.0000000000000000     
  -1.0012827660397506E-002  0.11262192100463546        0.0000000000000000     
  -1.0266251255567566E-002  0.11955935901318662        0.0000000000000000     
  -1.0493421079993752E-002  0.12647483661961845        0.0000000000000000     
  -1.0694337133676061E-002  0.13336835382393097        0.0000000000000000     
  -1.4655425087067672E-002  0.10576566994439322        0.0000000000000000     
  -1.5077173190694812E-002  0.11271988085761665        0.0000000000000000     
  -1.5458107577030481E-002  0.11965554794096853        0.0000000000000000     
  -1.5798228246074686E-002  0.12657267119444895        0.0000000000000000     
  -1.6097535197827438E-002  0.13347125061805784        0.0000000000000000     
  -1.9614832988841525E-002  0.10591007624504485        0.0000000000000000     
  -2.0180139868933775E-002  0.11285702465864440        0.0000000000000000     
  -2.0689117709896919E-002  0.11979021244452746        0.0000000000000000     
  -2.1141766511730966E-002  0.12670963960269402        0.0000000000000000     
  -2.1538086274435906E-002  0.13361530613314407        0.0000000000000000     
  -4.2744586516152427E-011  0.13328603639855516        0.0000000000000000     
  -3.5008362311503283E-011  0.14049673851552308        0.0000000000000000     
  -2.2945092115374266E-011  0.14837460366661218        0.0000000000000000     
  -6.5547731359447831E-012  0.15691963185182242        0.0000000000000000     
   1.4162592106015115E-011  0.16613182307115387        0.0000000000000000     
  -5.3284920819817779E-003  0.13330661575076339        0.0000000000000000     
  -5.4300799173073759E-003  0.14051746360256767        0.0000000000000000     
  -5.5451984857832343E-003  0.14839305775731862        0.0000000000000000     
  -5.6738477874093557E-003  0.15693339821501628        0.0000000000000000     
  -5.8160278221857384E-003  0.16613848497566058        0.0000000000000000     
  -1.0694337133676061E-002  0.13336835382393097        0.0000000000000000     
  -1.0898087633650824E-002  0.14057963888546268        0.0000000000000000     
  -1.1133760796954367E-002  0.14844842006355211        0.0000000000000000     
  -1.1401356623586689E-002  0.15697469735819924        0.0000000000000000     
  -1.1700875113547792E-002  0.16615847076940402        0.0000000000000000     
  -1.6097535197827438E-002  0.13347125061805784        0.0000000000000000     
  -1.6404023184038708E-002  0.14068326436420814        0.0000000000000000     
  -1.6765686956458484E-002  0.14854069058531263        0.0000000000000000     
  -1.7182526515086772E-002  0.15704352928137130        0.0000000000000000     
  -1.7654541859923573E-002  0.16619178045238417        0.0000000000000000     
  -2.1538086274435906E-002  0.13361530613314407        0.0000000000000000     
  -2.1947886568471020E-002  0.14082834003880396        0.0000000000000000     
  -2.2440976964295589E-002  0.14866986932260012        0.0000000000000000     
  -2.3017357461909610E-002  0.15713989398453249        0.0000000000000000     
  -2.3677028061313075E-002  0.16623841402460107        0.0000000000000000     
   0.0000000000000000        0.0000000000000000        0.0000000000000000     
  -8.4152939034274298E-004   1.1093258083772570E-003   0.0000000000000000     
  -1.7019549296233168E-003   2.5975699090427275E-003   0.0000000000000000     
  -2.5812766178417209E-003   4.4647323019964122E-003   0.0000000000000000     
  -3.4794944549979561E-003   6.7108129872383094E-003   0.0000000000000000     
   0.0000000000000000        0.0000000000000000        0.0000000000000000     
  -1.0565271842052769E-003   1.1334949841786527E-003   0.0000000000000000     
  -2.1395728717672775E-003   2.6498167792605382E-003   0.0000000000000000     
  -3.2491370626860010E-003   4.5489653852456560E-003   0.0000000000000000     
  -4.3852197569614485E-003   6.8309408021340074E-003   0.0000000000000000     
   0.0000000000000000        0.0000000000000000        0.0000000000000000     
  -1.2876070430895990E-003   1.1693702590388146E-003   0.0000000000000000     
  -2.6052815970177300E-003   2.7240826945516697E-003   0.0000000000000000     
  -3.9530236617843937E-003   4.6641373065385676E-003   0.0000000000000000     
  -5.3308332373895899E-003   6.9895340949995060E-003   0.0000000000000000     
   0.0000000000000000        0.0000000000000000        0.0000000000000000     
  -1.5347689669957100E-003   1.2169516329577424E-003   0.0000000000000000     
  -3.0990811053746765E-003   2.8203676549161246E-003   0.0000000000000000     
  -4.6929364151368979E-003   4.8102480658751461E-003   0.0000000000000000     
  -6.3163348962823780E-003   7.1865928658348078E-003   0.0000000000000000     
   0.0000000000000000        0.0000000000000000        0.0000000000000000     
  -1.7980129559236090E-003   1.2762391059354370E-003   0.0000000000000000     
  -3.6209713968381146E-003   2.9386716603539008E-003   0.0000000000000000     
  -5.4688753227435157E-003   4.9872976632553924E-003   0.0000000000000000     
  -7.3417247336398138E-003   7.4221171146399102E-003   0.0000000000000000     
  -3.4794944549979561E-003   6.7108129872383094E-003   0.0000000000000000     
  -4.3880907227307258E-003   9.2969836870774921E-003   0.0000000000000000     
  -5.2985477026787353E-003   1.2184416123823025E-002   0.0000000000000000     
  -6.2108653948419823E-003   1.5373110297474912E-002   0.0000000000000000     
  -7.1250437992204712E-003   1.8863066208033154E-002   0.0000000000000000     
  -4.3852197569614485E-003   6.8309408021340074E-003   0.0000000000000000     
  -5.5345032003440240E-003   9.4522716667943159E-003   0.0000000000000000     
  -6.6836696385841306E-003   1.2369486616095311E-002   0.0000000000000000     
  -7.8327190716817683E-003   1.5582585650036987E-002   0.0000000000000000     
  -8.9816514996369379E-003   1.9091568768619345E-002   0.0000000000000000     
  -5.3308332373895899E-003   6.9895340949995060E-003   0.0000000000000000     
  -6.7238571249833732E-003   9.6527660294240536E-003   0.0000000000000000     
  -8.1172421257157991E-003   1.2606326079301776E-002   0.0000000000000000     
  -9.5109882395868709E-003   1.5850214244632677E-002   0.0000000000000000     
  -1.0905095466596583E-002   1.9384430525416756E-002   0.0000000000000000     
  -6.3163348962823780E-003   7.1865928658348078E-003   0.0000000000000000     
  -7.9561524966487718E-003   9.8984667749667053E-003   0.0000000000000000     
  -9.5992651640737434E-003   1.2894934513442431E-002   0.0000000000000000     
  -1.1245672898557286E-002   1.6175996081261988E-002   0.0000000000000000     
  -1.2895375700099410E-002   1.9741651478425371E-002   0.0000000000000000     
  -7.3417247336398138E-003   7.4221171146399102E-003   0.0000000000000000     
  -9.2313893153402240E-003   1.0189373903422266E-002   0.0000000000000000     
  -1.1129738753657961E-002   1.3235311918517264E-002   0.0000000000000000     
  -1.3036773048593023E-002   1.6559931159924914E-002   0.0000000000000000     
  -1.4952492200145415E-002   2.0163231627645207E-002   0.0000000000000000     
  -7.1250437992204712E-003   1.8863066208033154E-002   0.0000000000000000     
  -8.0354862589455435E-003   2.2633120367598916E-002   0.0000000000000000     
  -8.9365961171485441E-003   2.6662109288273381E-002   0.0000000000000000     
  -9.8283733738294774E-003   3.0950032970056534E-002   0.0000000000000000     
  -1.0710818028988336E-002   3.5496891412948386E-002   0.0000000000000000     
  -8.9816514996369379E-003   1.9091568768619345E-002   0.0000000000000000     
  -1.0124695028037652E-002   2.2876235182184672E-002   0.0000000000000000     
  -1.1256077762471929E-002   2.6916384101075257E-002   0.0000000000000000     
  -1.2375799702939769E-002   3.1212015525291091E-002   0.0000000000000000     
  -1.3483860849441169E-002   3.5763129454832183E-002   0.0000000000000000     
  -1.0905095466596583E-002   1.9384430525416756E-002   0.0000000000000000     
  -1.2290738037627976E-002   2.3188517740021897E-002   0.0000000000000000     
  -1.3659090183564079E-002   2.7242018706816012E-002   0.0000000000000000     
  -1.5010151904404899E-002   3.1544933425799088E-002   0.0000000000000000     
  -1.6343923200150427E-002   3.6097261896971142E-002   0.0000000000000000     
  -1.2895375700099410E-002   1.9741651478425371E-002   0.0000000000000000     
  -1.4533615287716510E-002   2.3569968041110591E-002   0.0000000000000000     
  -1.6145633380424993E-002   2.7639013105495644E-002   0.0000000000000000     
  -1.7731429978224866E-002   3.1948786671580534E-002   0.0000000000000000     
  -1.9291005081116121E-002   3.6499288739365261E-002   0.0000000000000000     
  -1.4952492200145415E-002   2.0163231627645207E-002   0.0000000000000000     
  -1.6853326778303257E-002   2.4020586085450754E-002   0.0000000000000000     
  -1.8715707353054677E-002   2.8107367297114157E-002   0.0000000000000000     
  -2.0539633924399673E-002   3.2423575262635417E-002   0.0000000000000000     
  -2.2325106492338244E-002   3.6969209982014549E-002   0.0000000000000000     
  -1.0710818028988336E-002   3.5496891412948386E-002   0.0000000000000000     
  -1.1574301667059299E-002   4.0266752453743844E-002   0.0000000000000000     
  -1.2409195872476539E-002   4.5223683929237792E-002   0.0000000000000000     
  -1.3215500645240050E-002   5.0367685839430236E-002   0.0000000000000000     
  -1.3993215985349838E-002   5.5698758184321198E-002   0.0000000000000000     
  -1.3483860849441169E-002   3.5763129454832183E-002   0.0000000000000000     
  -1.4567534366977383E-002   4.0534713073959339E-002   0.0000000000000000     
  -1.5614093420549669E-002   4.5491753566933420E-002   0.0000000000000000     
  -1.6623538010158020E-002   5.0634250933754378E-002   0.0000000000000000     
  -1.7595868135802446E-002   5.5962205174422255E-002   0.0000000000000000     
  -1.6343923200150427E-002   3.6097261896971142E-002   0.0000000000000000     
  -1.7646480708817403E-002   4.0866746180755663E-002   0.0000000000000000     
  -1.8903901068422546E-002   4.5821128337576157E-002   0.0000000000000000     
  -2.0116184278965863E-002   5.0960408367432652E-002   0.0000000000000000     
  -2.1283330340447357E-002   5.6284586270325114E-002   0.0000000000000000     
  -1.9291005081116121E-002   3.6499288739365261E-002   0.0000000000000000     
  -2.0811140692579357E-002   4.1262851774132775E-002   0.0000000000000000     
  -2.2278618816095178E-002   4.6211808241166032E-002   0.0000000000000000     
  -2.3693439451663582E-002   5.1346158140465031E-002   0.0000000000000000     
  -2.5055602599284573E-002   5.6665901472029774E-002   0.0000000000000000     
  -2.2325106492338244E-002   3.6969209982014549E-002   0.0000000000000000     
  -2.4061514318263255E-002   4.1723029854090689E-002   0.0000000000000000     
  -2.5738246663567561E-002   4.6663793277703029E-002   0.0000000000000000     
  -2.7355303528251173E-002   5.1791500252851536E-002   0.0000000000000000     
  -2.8912684912314090E-002   5.7106150779536229E-002   0.0000000000000000     
  -1.3993215985349838E-002   5.5698758184321198E-002   0.0000000000000000     
  -1.4752078811054033E-002   6.1240741222572864E-002   0.0000000000000000     
  -1.5501826040600759E-002   6.7017475212847455E-002   0.0000000000000000     
  -1.6242457673990018E-002   7.3028960155144984E-002   0.0000000000000000     
  -1.6973973711221810E-002   7.9275196049465424E-002   0.0000000000000000     
  -1.7595868135802446E-002   5.5962205174422255E-002   0.0000000000000000     
  -1.8544110907283681E-002   6.1499327273620376E-002   0.0000000000000000     
  -1.9481293434402466E-002   6.7269328216032112E-002   0.0000000000000000     
  -2.0407415717158806E-002   7.3272208001657443E-002   0.0000000000000000     
  -2.1322477755552700E-002   7.9507966630496377E-002   0.0000000000000000     
  -2.1283330340447357E-002   5.6284586270325114E-002   0.0000000000000000     
  -2.2421187477734483E-002   6.1816326942853786E-002   0.0000000000000000     
  -2.3545603915694720E-002   6.7578295281618878E-002   0.0000000000000000     
  -2.4656579654328048E-002   7.3570491286620396E-002   0.0000000000000000     
  -2.5754114693634488E-002   7.9792914957858327E-002   0.0000000000000000     
  -2.5055602599284573E-002   5.6665901472029774E-002   0.0000000000000000     
  -2.6383308522406446E-002   6.2191740230273074E-002   0.0000000000000000     
  -2.7694757484477497E-002   6.7944376409607779E-002   0.0000000000000000     
  -2.8989949485497747E-002   7.3923810010033841E-002   0.0000000000000000     
  -3.0268884525467169E-002   8.0130041031551316E-002   0.0000000000000000     
  -2.8912684912314090E-002   5.7106150779536229E-002   0.0000000000000000     
  -3.0430474041299557E-002   6.2625567135878274E-002   0.0000000000000000     
  -3.1928754140750831E-002   6.8367571599998789E-002   0.0000000000000000     
  -3.3407525210667886E-002   7.4332164171897808E-002   0.0000000000000000     
  -3.4866787251050753E-002   8.0519344851575303E-002   0.0000000000000000     
  -1.6973973711221810E-002   7.9275196049465424E-002   0.0000000000000000     
  -1.7684246095437839E-002   8.5712584589438076E-002   0.0000000000000000     
  -1.8361146769779801E-002   9.2297527468692186E-002   0.0000000000000000     
  -1.9004675734247696E-002   9.9030024687227797E-002   0.0000000000000000     
  -1.9614832988841525E-002  0.10591007624504485        0.0000000000000000     
  -2.1322477755552700E-002   7.9507966630496377E-002   0.0000000000000000     
  -2.2211385481463019E-002   8.5933862016561849E-002   0.0000000000000000     
  -2.3059044826768654E-002   9.2507152073866811E-002   0.0000000000000000     
  -2.3865455791469588E-002   9.9227836802411248E-002   0.0000000000000000     
  -2.4630618375565842E-002  0.10609591620219515        0.0000000000000000     
  -2.5754114693634488E-002   7.9792914957858327E-002   0.0000000000000000     
  -2.6820220143952148E-002   8.6204221183891774E-002   0.0000000000000000     
  -2.7836907115619185E-002   9.2763064853279731E-002   0.0000000000000000     
  -2.8804175608635574E-002   9.9469445966022252E-002   0.0000000000000000     
  -2.9722025623001330E-002  0.10632336452211931        0.0000000000000000     
  -3.0268884525467169E-002   8.0130041031551316E-002   0.0000000000000000     
  -3.1510750082905235E-002   8.6523662091427797E-002   0.0000000000000000     
  -3.2694733636331401E-002   9.3065265806930975E-002   0.0000000000000000     
  -3.3820835185745649E-002   9.9754852178060807E-002   0.0000000000000000     
  -3.4889054731147985E-002  0.10659242120481734        0.0000000000000000     
  -3.4866787251050753E-002   8.0519344851575303E-002   0.0000000000000000     
  -3.6282975298322265E-002   8.6892184739169986E-002   0.0000000000000000     
  -3.7632524388905290E-002   9.3413754934820528E-002   0.0000000000000000     
  -3.8915434522799802E-002  0.10008405543852694        0.0000000000000000     
  -4.0131705700005821E-002  0.10690308625028923        0.0000000000000000     
  -1.9614832988841525E-002  0.10591007624504485        0.0000000000000000     
  -2.0180139868933775E-002  0.11285702465864440        0.0000000000000000     
  -2.0689117709896919E-002  0.11979021244452746        0.0000000000000000     
  -2.1141766511730966E-002  0.12670963960269402        0.0000000000000000     
  -2.1538086274435906E-002  0.13361530613314407        0.0000000000000000     
  -2.4630618375565842E-002  0.10609591620219515        0.0000000000000000     
  -2.5339398510398192E-002  0.11303376493259135        0.0000000000000000     
  -2.5976662127307426E-002  0.11996375765297269        0.0000000000000000     
  -2.6542409226293546E-002  0.12688589436333914        0.0000000000000000     
  -2.7036639807356551E-002  0.13380017506369071        0.0000000000000000     
  -2.9722025623001330E-002  0.10632336452211931        0.0000000000000000     
  -3.0572619930371855E-002  0.11325051420433004        0.0000000000000000     
  -3.1338121302402544E-002  0.12017658869541356        0.0000000000000000     
  -3.2018529739093422E-002  0.12710158799536991        0.0000000000000000     
  -3.2613845240444458E-002  0.13402551210419902        0.0000000000000000     
  -3.4889054731147985E-002  0.10659242120481734        0.0000000000000000     
  -3.5879804128854761E-002  0.11350727247386044        0.0000000000000000     
  -3.6773495235182301E-002  0.12042870557185011        0.0000000000000000     
  -3.7570128050130581E-002  0.12735672049878627        0.0000000000000000     
  -3.8269702573699639E-002  0.13429131725466900        0.0000000000000000     
  -4.0131705700005821E-002  0.10690308625028923        0.0000000000000000     
  -4.1260951105846912E-002  0.11380403974118260        0.0000000000000000     
  -4.2282783925646661E-002  0.12072010828228227        0.0000000000000000     
  -4.3197204159405048E-002  0.12765129187358829        0.0000000000000000     
  -4.4004211807122079E-002  0.13459759051510056        0.0000000000000000     
  -2.1538086274435906E-002  0.13361530613314407        0.0000000000000000     
  -2.1947886568471020E-002  0.14082834003880396        0.0000000000000000     
  -2.2440976964295589E-002  0.14866986932260012        0.0000000000000000     
  -2.3017357461909610E-002  0.15713989398453249        0.0000000000000000     
  -2.3677028061313075E-002  0.16623841402460107        0.0000000000000000     
  -2.7036639807356551E-002  0.13380017506369071        0.0000000000000000     
  -2.7550319470497211E-002  0.14101428875468963        0.0000000000000000     
  -2.8174413815716289E-002  0.14883592443699803        0.0000000000000000     
  -2.8908922843013784E-002  0.15726508211061591        0.0000000000000000     
  -2.9753846552389690E-002  0.16630176177554334        0.0000000000000000     
  -3.2613845240444458E-002  0.13402551210419902        0.0000000000000000     
  -3.3231963573666708E-002  0.14124053335730449        0.0000000000000000     
  -3.3980780505971177E-002  0.14903882409008973        0.0000000000000000     
  -3.4860296037357880E-002  0.15742038430255478        0.0000000000000000     
  -3.5870510167826823E-002  0.16638521399469963        0.0000000000000000     
  -3.8269702573699639E-002  0.13429131725466900        0.0000000000000000     
  -3.8992818877979514E-002  0.14150707384664854        0.0000000000000000     
  -3.9860077035060275E-002  0.14927856828187522        0.0000000000000000     
  -4.0871477044941915E-002  0.15760580056034904        0.0000000000000000     
  -4.2027018907624454E-002  0.16648877068206996        0.0000000000000000     
  -4.4004211807122079E-002  0.13459759051510056        0.0000000000000000     
  -4.4832885383435633E-002  0.14181391022272180        0.0000000000000000     
  -4.5812303402983569E-002  0.14955515701235447        0.0000000000000000     
  -4.6942465865765885E-002  0.15782133088399866        0.0000000000000000     
  -4.8223372771782590E-002  0.16661243183765434        0.0000000000000000     
   0.0000000000000000        0.0000000000000000        0.0000000000000000     
  -1.7980129559236090E-003   1.2762391059354370E-003   0.0000000000000000     
  -3.6209713968381146E-003   2.9386716603539008E-003   0.0000000000000000     
  -5.4688753227435157E-003   4.9872976632553924E-003   0.0000000000000000     
  -7.3417247336398138E-003   7.4221171146399102E-003   0.0000000000000000     
   0.0000000000000000        0.0000000000000000        0.0000000000000000     
  -2.0691124271972868E-003   1.3543475643677317E-003   0.0000000000000000     
  -4.1636699815983565E-003   3.0934944720084532E-003   0.0000000000000000     
  -6.2836726632032091E-003   5.2174407229221634E-003   0.0000000000000000     
  -8.4291204720118428E-003   7.7261863171088655E-003   0.0000000000000000     
   0.0000000000000000        0.0000000000000000        0.0000000000000000     
  -2.3398407981407325E-003   1.4583918946504606E-003   0.0000000000000000     
  -4.7198943698457119E-003   3.2993358510232341E-003   0.0000000000000000     
  -7.1401607151149390E-003   5.5228318691183231E-003   0.0000000000000000     
  -9.6006398339484132E-003   8.1288799489357220E-003   0.0000000000000000     
   0.0000000000000000        0.0000000000000000        0.0000000000000000     
  -2.6101980687539459E-003   1.5883720967836237E-003   0.0000000000000000     
  -5.2896445615801821E-003   3.5561957973982458E-003   0.0000000000000000     
  -8.0383394784787083E-003   5.9034711018438662E-003   0.0000000000000000     
  -1.0856282819449520E-002   8.6301980101204847E-003   0.0000000000000000     
   0.0000000000000000        0.0000000000000000        0.0000000000000000     
  -2.8801842390369279E-003   1.7442881707672210E-003   0.0000000000000000     
  -5.8729205568017655E-003   3.8640743111334865E-003   0.0000000000000000     
  -8.9782089532945107E-003   6.3593584210987954E-003   0.0000000000000000     
  -1.2196049428515168E-002   9.2301405006631511E-003   0.0000000000000000     
  -7.3417247336398138E-003   7.4221171146399102E-003   0.0000000000000000     
  -9.2313893153402240E-003   1.0189373903422266E-002   0.0000000000000000     
  -1.1129738753657961E-002   1.3235311918517264E-002   0.0000000000000000     
  -1.3036773048593023E-002   1.6559931159924914E-002   0.0000000000000000     
  -1.4952492200145415E-002   2.0163231627645207E-002   0.0000000000000000     
  -8.4291204720118428E-003   7.7261863171088655E-003   0.0000000000000000     
  -1.0591226669161763E-002   1.0561021561636581E-002   0.0000000000000000     
  -1.2761204515790469E-002   1.3663236763573337E-002   0.0000000000000000     
  -1.4939054011897962E-002   1.7032831922919135E-002   0.0000000000000000     
  -1.7124775157484243E-002   2.0669807039673971E-002   0.0000000000000000     
  -9.6006398339484132E-003   8.1288799489357220E-003   0.0000000000000000     
  -1.2077323646217431E-002   1.1048943896455497E-002   0.0000000000000000     
  -1.4546204071793288E-002   1.4214487517657692E-002   0.0000000000000000     
  -1.7007281110675985E-002   1.7625510812542319E-002   0.0000000000000000     
  -1.9460554762865533E-002   2.1282013781109371E-002   0.0000000000000000     
  -1.0856282819449520E-002   8.6301980101204847E-003   0.0000000000000000     
  -1.3689680246507225E-002   1.1653140907879007E-002   0.0000000000000000     
  -1.6484737421666416E-002   1.4889064180770337E-002   0.0000000000000000     
  -1.9241454344927102E-002   1.8337967828794467E-002   0.0000000000000000     
  -2.1959831016289275E-002   2.1999851851951413E-002   0.0000000000000000     
  -1.2196049428515168E-002   9.2301405006631511E-003   0.0000000000000000     
  -1.5428296470031144E-002   1.2373612595907116E-002   0.0000000000000000     
  -1.8576804565409857E-002   1.5686966752911261E-002   0.0000000000000000     
  -2.1641573714651304E-002   1.9170202971675588E-002   0.0000000000000000     
  -2.4622603917755479E-002   2.2823321252200095E-002   0.0000000000000000     
  -1.4952492200145415E-002   2.0163231627645207E-002   0.0000000000000000     
  -1.6853326778303257E-002   2.4020586085450754E-002   0.0000000000000000     
  -1.8715707353054677E-002   2.8107367297114157E-002   0.0000000000000000     
  -2.0539633924399673E-002   3.2423575262635417E-002   0.0000000000000000     
  -2.2325106492338244E-002   3.6969209982014549E-002   0.0000000000000000     
  -1.7124775157484243E-002   2.0669807039673971E-002   0.0000000000000000     
  -1.9289027187511600E-002   2.4550134209824929E-002   0.0000000000000000     
  -2.1402469336942335E-002   2.8649785529359116E-002   0.0000000000000000     
  -2.3465101605776442E-002   3.2968760998276510E-002   0.0000000000000000     
  -2.5476923994013929E-002   3.7507060616577138E-002   0.0000000000000000     
  -1.9460554762865533E-002   2.1282013781109371E-002   0.0000000000000000     
  -2.1879871193464920E-002   2.5168374751015684E-002   0.0000000000000000     
  -2.4239076567577185E-002   2.9268972049918084E-002   0.0000000000000000     
  -2.6538170885202318E-002   3.3583805677816582E-002   0.0000000000000000     
  -2.8777154146340318E-002   3.8112875634711170E-002   0.0000000000000000     
  -2.1959831016289275E-002   2.1999851851951413E-002   0.0000000000000000     
  -2.4625858796163219E-002   2.5875307709022993E-002   0.0000000000000000     
  -2.7225529044959222E-002   2.9964926858791072E-002   0.0000000000000000     
  -2.9758841762677284E-002   3.4268709301255626E-002   0.0000000000000000     
  -3.2225796949317397E-002   3.8786655036416658E-002   0.0000000000000000     
  -2.4622603917755479E-002   2.2823321252200095E-002   0.0000000000000000     
  -2.7526989995606491E-002   2.6670933083846889E-002   0.0000000000000000     
  -3.0361826769088451E-002   3.0737649955978066E-002   0.0000000000000000     
  -3.3127114238201347E-002   3.5023471868593628E-002   0.0000000000000000     
  -3.5822852402945173E-002   3.9528398821693574E-002   0.0000000000000000     
  -2.2325106492338244E-002   3.6969209982014549E-002   0.0000000000000000     
  -2.4061514318263255E-002   4.1723029854090689E-002   0.0000000000000000     
  -2.5738246663567561E-002   4.6663793277703029E-002   0.0000000000000000     
  -2.7355303528251173E-002   5.1791500252851536E-002   0.0000000000000000     
  -2.8912684912314090E-002   5.7106150779536229E-002   0.0000000000000000     
  -2.5476923994013929E-002   3.7507060616577138E-002   0.0000000000000000     
  -2.7429905628814609E-002   4.2249258597442114E-002   0.0000000000000000     
  -2.9316015637338287E-002   4.7179929154052593E-002   0.0000000000000000     
  -3.1135254019584984E-002   5.2299072286408559E-002   0.0000000000000000     
  -3.2887620775554689E-002   5.7606687994510040E-002   0.0000000000000000     
  -2.8777154146340318E-002   3.8112875634711170E-002   0.0000000000000000     
  -3.0948618667178934E-002   4.2843516180999741E-002   0.0000000000000000     
  -3.3045156763905952E-002   4.7763061577080199E-002   0.0000000000000000     
  -3.5066768436521345E-002   5.2871511822952522E-002   0.0000000000000000     
  -3.7013453685025136E-002   5.8168866918616717E-002   0.0000000000000000     
  -3.2225796949317397E-002   3.8786655036416658E-002   0.0000000000000000     
  -3.4617653433356259E-002   4.3505802604763590E-002   0.0000000000000000     
  -3.6925670043270541E-002   4.8413190546785834E-002   0.0000000000000000     
  -3.9149846779060277E-002   5.3508818862483397E-002   0.0000000000000000     
  -4.1290183640725432E-002   5.8792687551856279E-002   0.0000000000000000     
  -3.5822852402945173E-002   3.9528398821693574E-002   0.0000000000000000     
  -3.8437009927346548E-002   4.4236117868733632E-002   0.0000000000000000     
  -4.0957555475432075E-002   4.9130316063169512E-002   0.0000000000000000     
  -4.3384489047201748E-002   5.4210993405001205E-002   0.0000000000000000     
  -4.5717810642655565E-002   5.9478149894228713E-002   0.0000000000000000     
  -2.8912684912314090E-002   5.7106150779536229E-002   0.0000000000000000     
  -3.0430474041299557E-002   6.2625567135878274E-002   0.0000000000000000     
  -3.1928754140750831E-002   6.8367571599998789E-002   0.0000000000000000     
  -3.3407525210667886E-002   7.4332164171897808E-002   0.0000000000000000     
  -3.4866787251050753E-002   8.0519344851575303E-002   0.0000000000000000     
  -3.2887620775554689E-002   5.7606687994510040E-002   0.0000000000000000     
  -3.4595269338534733E-002   6.3117714767023242E-002   0.0000000000000000     
  -3.6280353141812438E-002   6.8847091092614457E-002   0.0000000000000000     
  -3.7942872185387826E-002   7.4794816971283637E-002   0.0000000000000000     
  -3.9582826469260861E-002   8.0960892403030837E-002   0.0000000000000000     
  -3.7013453685025136E-002   5.8168866918616717E-002   0.0000000000000000     
  -3.8910279718232861E-002   6.3668090231061916E-002   0.0000000000000000     
  -4.0782313744960115E-002   6.9382145127277264E-002   0.0000000000000000     
  -4.2629555765206870E-002   7.5311031607262754E-002   0.0000000000000000     
  -4.4452005778973139E-002   8.1454749671018387E-002   0.0000000000000000     
  -4.1290183640725432E-002   5.8792687551856279E-002   0.0000000000000000     
  -4.3375505180393972E-002   6.4276693527994297E-002   0.0000000000000000     
  -4.5434635950193827E-002   6.9972733703987239E-002   0.0000000000000000     
  -4.7467575950125046E-002   7.5880808079835133E-002   0.0000000000000000     
  -4.9474325180187573E-002   8.2000916655537992E-002   0.0000000000000000     
  -4.5717810642655565E-002   5.9478149894228713E-002   0.0000000000000000     
  -4.7990945725018025E-002   6.4943524657820342E-002   0.0000000000000000     
  -5.0237319757513610E-002   7.0618856822744366E-002   0.0000000000000000     
  -5.2456932740142320E-002   7.6504146389000799E-002   0.0000000000000000     
  -5.4649784672904170E-002   8.2599393356589640E-002   0.0000000000000000     
  -3.4866787251050753E-002   8.0519344851575303E-002   0.0000000000000000     
  -3.6282975298322265E-002   8.6892184739169986E-002   0.0000000000000000     
  -3.7632524388905290E-002   9.3413754934820528E-002   0.0000000000000000     
  -3.8915434522799802E-002  0.10008405543852694        0.0000000000000000     
  -4.0131705700005821E-002  0.10690308625028923        0.0000000000000000     
  -3.9582826469260861E-002   8.0960892403030837E-002   0.0000000000000000     
  -4.1173939936366401E-002   8.7310839730747922E-002   0.0000000000000000     
  -4.2689936529639247E-002   9.3810181297326892E-002   0.0000000000000000     
  -4.4130816249079406E-002  0.10045891710276773        0.0000000000000000     
  -4.5496579094686858E-002  0.10725704714707045        0.0000000000000000     
  -4.4452005778973139E-002   8.1454749671018387E-002   0.0000000000000000     
  -4.6220688143200794E-002   8.7780677669791266E-002   0.0000000000000000     
  -4.7906627214831674E-002   9.4256193954828579E-002   0.0000000000000000     
  -4.9509822993865790E-002  0.10088129852613030        0.0000000000000000     
  -5.1030275480303158E-002  0.10765599138369641        0.0000000000000000     
  -4.9474325180187573E-002   8.2000916655537992E-002   0.0000000000000000     
  -5.1423219918825425E-002   8.8301698556300059E-002   0.0000000000000000     
  -5.3282596444482550E-002   9.4751792907325605E-002   0.0000000000000000     
  -5.5052454757158982E-002  0.10135119970861463        0.0000000000000000     
  -5.6732794856854667E-002  0.10809991896016719        0.0000000000000000     
  -5.4649784672904170E-002   8.2599393356589640E-002   0.0000000000000000     
  -5.6781535263240306E-002   8.8873902390274220E-002   0.0000000000000000     
  -5.8817844218591896E-002   9.5296978154817913E-002   0.0000000000000000     
  -6.0758711538958940E-002  0.10186862065022076        0.0000000000000000     
  -6.2604137224341438E-002  0.10858882987648269        0.0000000000000000     
  -4.0131705700005821E-002  0.10690308625028923        0.0000000000000000     
  -4.1260951105846912E-002  0.11380403974118260        0.0000000000000000     
  -4.2282783925646661E-002  0.12072010828228227        0.0000000000000000     
  -4.3197204159405048E-002  0.12765129187358829        0.0000000000000000     
  -4.4004211807122079E-002  0.13459759051510056        0.0000000000000000     
  -4.5496579094686858E-002  0.10725704714707045        0.0000000000000000     
  -4.6765520177192599E-002  0.11414221373638132        0.0000000000000000     
  -4.7915934607327557E-002  0.12105205917684672        0.0000000000000000     
  -4.8947822385091745E-002  0.12798658346846664        0.0000000000000000     
  -4.9861183510485158E-002  0.13494578661124107        0.0000000000000000     
  -5.1030275480303158E-002  0.10765599138369641        0.0000000000000000     
  -5.2442970658736078E-002  0.11452319218954149        0.0000000000000000     
  -5.3722894513756898E-002  0.12142582060568007        0.0000000000000000     
  -5.4870047045365626E-002  0.12836387663211210        0.0000000000000000     
  -5.5884428253562254E-002  0.13533736026883769        0.0000000000000000     
  -5.6732794856854667E-002  0.10809991896016719        0.0000000000000000     
  -5.8293302550477356E-002  0.11494697510066307        0.0000000000000000     
  -5.9703663644934693E-002  0.12184139256878228        0.0000000000000000     
  -6.0963878140226697E-002  0.12878317136452477        0.0000000000000000     
  -6.2073946036353342E-002  0.13577231148789051        0.0000000000000000     
  -6.2604137224341438E-002  0.10858882987648269        0.0000000000000000     
  -6.4316515852416434E-002  0.11541356246974613        0.0000000000000000     
  -6.5858242000860934E-002  0.12229877506615339        0.0000000000000000     
  -6.7229315669674938E-002  0.12924446766570455        0.0000000000000000     
  -6.8429736858858461E-002  0.13625064026839950        0.0000000000000000     
  -4.4004211807122079E-002  0.13459759051510056        0.0000000000000000     
  -4.4832885383435633E-002  0.14181391022272180        0.0000000000000000     
  -4.5812303402983569E-002  0.14955515701235447        0.0000000000000000     
  -4.6942465865765885E-002  0.15782133088399866        0.0000000000000000     
  -4.8223372771782590E-002  0.16661243183765434        0.0000000000000000     
  -4.9861183510485158E-002  0.13494578661124107        0.0000000000000000     
  -5.0796434258620779E-002  0.14216287976510755        0.0000000000000000     
  -5.1893990904611581E-002  0.14987107409000369        0.0000000000000000     
  -5.3153853448457550E-002  0.15807036958592943        0.0000000000000000     
  -5.4576021890158692E-002  0.16676076625288483        0.0000000000000000     
  -5.5884428253562254E-002  0.13533736026883769        0.0000000000000000     
  -5.6927736672120671E-002  0.14255581975338921        0.0000000000000000     
  -5.8161670834814813E-002  0.15022880332329899        0.0000000000000000     
  -5.9586230741644666E-002  0.15835631097856703        0.0000000000000000     
  -6.1201416392610224E-002  0.16693834271919344        0.0000000000000000     
  -6.2073946036353342E-002  0.13577231148789051        0.0000000000000000     
  -6.3226792623935324E-002  0.14299273018756670        0.0000000000000000     
  -6.4615343193593286E-002  0.15062834471224038        0.0000000000000000     
  -6.6239597745327242E-002  0.15867915506191155        0.0000000000000000     
  -6.8099556279137177E-002  0.16714516123658024        0.0000000000000000     
  -6.8429736858858461E-002  0.13625064026839950        0.0000000000000000     
  -6.9693602114064737E-002  0.14347361106764001        0.0000000000000000     
  -7.1255007980946999E-002  0.15106969825682784        0.0000000000000000     
  -7.3113954459505290E-002  0.15903890183596286        0.0000000000000000     
  -7.5270441549739553E-002  0.16738122180504517        0.0000000000000000     
   0.0000000000000000        0.0000000000000000        0.0000000000000000     
  -2.8801842390369279E-003   1.7442881707672210E-003   0.0000000000000000     
  -5.8729205568017655E-003   3.8640743111334865E-003   0.0000000000000000     
  -8.9782089532945107E-003   6.3593584210987954E-003   0.0000000000000000     
  -1.2196049428515168E-002   9.2301405006631511E-003   0.0000000000000000     
   0.0000000000000000        0.0000000000000000        0.0000000000000000     
  -3.2834881508051871E-003   1.9989523108355266E-003   0.0000000000000000     
  -6.6774947634748805E-003   4.3304802917531558E-003   0.0000000000000000     
  -1.0182019838009079E-002   6.9945839427528874E-003   0.0000000000000000     
  -1.3797063374407788E-002   9.9912632638347217E-003   0.0000000000000000     
   0.0000000000000000        0.0000000000000000        0.0000000000000000     
  -3.9537986458742331E-003   2.4251767112228140E-003   0.0000000000000000     
  -7.9111395895639456E-003   5.0629226387814532E-003   0.0000000000000000     
  -1.1872022831069137E-002   7.9132377826759189E-003   0.0000000000000000     
  -1.5836448370389809E-002   1.0976122142906209E-002   0.0000000000000000     
   0.0000000000000000        0.0000000000000000        0.0000000000000000     
  -4.8911157242440663E-003   3.0229613719290828E-003   0.0000000000000000     
  -9.5738550350689608E-003   6.0614013522183787E-003   0.0000000000000000     
  -1.4048217932474684E-002   9.1153199408678873E-003   0.0000000000000000     
  -1.8314204416461238E-002   1.2184717137877610E-002   0.0000000000000000     
   0.0000000000000000        0.0000000000000000        0.0000000000000000     
  -6.0954393859146867E-003   3.7923062929543336E-003   0.0000000000000000     
  -1.1665641099989927E-002   7.3259164320639315E-003   0.0000000000000000     
  -1.6710605142225721E-002   1.0600830417328795E-002   0.0000000000000000     
  -2.1230331512622068E-002   1.3617048248748920E-002   0.0000000000000000     
  -1.2196049428515168E-002   9.2301405006631511E-003   0.0000000000000000     
  -1.5428296470031144E-002   1.2373612595907116E-002   0.0000000000000000     
  -1.8576804565409857E-002   1.5686966752911261E-002   0.0000000000000000     
  -2.1641573714651304E-002   1.9170202971675588E-002   0.0000000000000000     
  -2.4622603917755479E-002   2.2823321252200095E-002   0.0000000000000000     
  -1.3797063374407788E-002   9.9912632638347217E-003   0.0000000000000000     
  -1.7405125407986437E-002   1.3222205573457052E-002   0.0000000000000000     
  -2.0888705974060447E-002   1.6589098190078266E-002   0.0000000000000000     
  -2.4247805072629840E-002   2.0091941113698372E-002   0.0000000000000000     
  -2.7482422703694599E-002   2.3730734344317363E-002   0.0000000000000000     
  -1.5836448370389809E-002   1.0976122142906209E-002   0.0000000000000000     
  -1.9732120151570325E-002   1.4210766453446046E-002   0.0000000000000000     
  -2.3486742118655042E-002   1.7576361448269143E-002   0.0000000000000000     
  -2.7100314271643965E-002   2.1072907127375508E-002   0.0000000000000000     
  -3.0572836610537089E-002   2.4700403490765133E-002   0.0000000000000000     
  -1.8314204416461238E-002   1.2184717137877610E-002   0.0000000000000000     
  -2.2409280700782817E-002   1.5339295235874096E-002   0.0000000000000000     
  -2.6370912999193630E-002   1.8648756527483892E-002   0.0000000000000000     
  -3.0199101311693670E-002   2.2113101012706998E-002   0.0000000000000000     
  -3.3893845638282932E-002   2.5732328691543422E-002   0.0000000000000000     
  -2.1230331512622068E-002   1.3617048248748920E-002   0.0000000000000000     
  -2.5436607055623915E-002   1.6607791920741199E-002   0.0000000000000000     
  -2.9541218615676216E-002   1.9806283427722504E-002   0.0000000000000000     
  -3.3544166192778960E-002   2.3212522769692847E-002   0.0000000000000000     
  -3.7445449786932157E-002   2.6826509946652220E-002   0.0000000000000000     
  -2.4622603917755479E-002   2.2823321252200095E-002   0.0000000000000000     
  -2.7526989995606491E-002   2.6670933083846889E-002   0.0000000000000000     
  -3.0361826769088451E-002   3.0737649955978066E-002   0.0000000000000000     
  -3.3127114238201347E-002   3.5023471868593628E-002   0.0000000000000000     
  -3.5822852402945173E-002   3.9528398821693574E-002   0.0000000000000000     
  -2.7482422703694599E-002   2.3730734344317363E-002   0.0000000000000000     
  -3.0618825735429709E-002   2.7548894668796613E-002   0.0000000000000000     
  -3.3683281036010135E-002   3.1589838873997494E-002   0.0000000000000000     
  -3.6675788605435883E-002   3.5853566959920029E-002   0.0000000000000000     
  -3.9596348443706950E-002   4.0340078926564195E-002   0.0000000000000000     
  -3.0572836610537089E-002   2.4700403490765133E-002   0.0000000000000000     
  -3.3936926959267810E-002   2.8502836257181436E-002   0.0000000000000000     
  -3.7225203141769539E-002   3.2524191145367795E-002   0.0000000000000000     
  -4.0437665158042285E-002   3.6764468155324234E-002   0.0000000000000000     
  -4.3574313008086021E-002   4.1223667287050757E-002   0.0000000000000000     
  -3.3893845638282932E-002   2.5732328691543422E-002   0.0000000000000000     
  -3.7481293667120816E-002   2.9532757849001348E-002   0.0000000000000000     
  -4.0987593086366680E-002   3.3540706770088961E-002   0.0000000000000000     
  -4.4412743896020540E-002   3.7756175454806258E-002   0.0000000000000000     
  -4.7756746096082381E-002   4.2179163903153252E-002   0.0000000000000000     
  -3.7445449786932157E-002   2.6826509946652220E-002   0.0000000000000000     
  -4.1251925858988708E-002   3.0638659444256360E-002   0.0000000000000000     
  -4.4970450869801545E-002   3.4639385748160979E-002   0.0000000000000000     
  -4.8601024819370654E-002   3.8828688858366094E-002   0.0000000000000000     
  -5.2143647707696042E-002   4.3206568774871695E-002   0.0000000000000000     
  -3.5822852402945173E-002   3.9528398821693574E-002   0.0000000000000000     
  -3.8437009927346548E-002   4.4236117868733632E-002   0.0000000000000000     
  -4.0957555475432075E-002   4.9130316063169512E-002   0.0000000000000000     
  -4.3384489047201748E-002   5.4210993405001205E-002   0.0000000000000000     
  -4.5717810642655565E-002   5.9478149894228713E-002   0.0000000000000000     
  -3.9596348443706950E-002   4.0340078926564195E-002   0.0000000000000000     
  -4.2429438740895428E-002   4.5031046367314378E-002   0.0000000000000000     
  -4.5159537687073419E-002   4.9908140875554938E-002   0.0000000000000000     
  -4.7786645282240914E-002   5.4971362451285907E-002   0.0000000000000000     
  -5.0310761526397907E-002   6.0220711094507252E-002   0.0000000000000000     
  -4.3574313008086021E-002   4.1223667287050757E-002   0.0000000000000000     
  -4.6617690465748499E-002   4.5887172494910311E-002   0.0000000000000000     
  -4.9550341304877440E-002   5.0740367733265887E-002   0.0000000000000000     
  -5.2372265525472875E-002   5.5783253002117485E-002   0.0000000000000000     
  -5.5083463127534781E-002   6.1015828301465097E-002   0.0000000000000000     
  -4.7756746096082381E-002   4.2179163903153252E-002   0.0000000000000000     
  -5.1001765101905752E-002   4.6804496251521444E-002   0.0000000000000000     
  -5.4129966328844169E-002   5.1626996636302339E-002   0.0000000000000000     
  -5.7141349776897644E-002   5.6646665057495958E-002   0.0000000000000000     
  -6.0035915446066179E-002   6.1863501515102282E-002   0.0000000000000000     
  -5.2143647707696042E-002   4.3206568774871695E-002   0.0000000000000000     
  -5.5581662649367182E-002   4.7783017637147769E-002   0.0000000000000000     
  -5.8898412758973576E-002   5.2568027584664299E-002   0.0000000000000000     
  -6.2093898036515230E-002   5.7561598617421293E-002   0.0000000000000000     
  -6.5168118481992124E-002   6.2763730735418743E-002   0.0000000000000000     
  -4.5717810642655565E-002   5.9478149894228713E-002   0.0000000000000000     
  -4.7990945725018025E-002   6.4943524657820342E-002   0.0000000000000000     
  -5.0237319757513610E-002   7.0618856822744366E-002   0.0000000000000000     
  -5.2456932740142320E-002   7.6504146389000799E-002   0.0000000000000000     
  -5.4649784672904170E-002   8.2599393356589640E-002   0.0000000000000000     
  -5.0310761526397907E-002   6.0220711094507252E-002   0.0000000000000000     
  -5.2769634725203650E-002   6.5666765572366934E-002   0.0000000000000000     
  -5.5201013184317430E-002   7.1320104652012897E-002   0.0000000000000000     
  -5.7604896903739225E-002   7.7180728333445150E-002   0.0000000000000000     
  -5.9981285883469029E-002   8.3248636616663707E-002   0.0000000000000000     
  -5.5083463127534781E-002   6.1015828301465097E-002   0.0000000000000000     
  -5.7724605554049464E-002   6.6444598223460910E-002   0.0000000000000000     
  -6.0336364248003267E-002   7.2076067360257109E-002   0.0000000000000000     
  -6.2918739209396210E-002   7.7910235711853681E-002   0.0000000000000000     
  -6.5471730438228251E-002   8.3947103278250584E-002   0.0000000000000000     
  -6.0035915446066179E-002   6.1863501515102282E-002   0.0000000000000000     
  -6.2855858211555454E-002   6.7277022611102272E-002   0.0000000000000000     
  -6.5643372948571158E-002   7.2886744947476961E-002   0.0000000000000000     
  -6.8398459657113289E-002   7.8692668524226309E-002   0.0000000000000000     
  -7.1121118337181835E-002   8.4694793341350341E-002   0.0000000000000000     
  -6.5168118481992124E-002   6.2763730735418743E-002   0.0000000000000000     
  -6.8163392697721620E-002   6.8164038735291019E-002   0.0000000000000000     
  -7.1122039286021066E-002   7.3752137413672481E-002   0.0000000000000000     
  -7.4044058246890448E-002   7.9528026770563073E-002   0.0000000000000000     
  -7.6929449580329795E-002   8.5491706805962867E-002   0.0000000000000000     
  -5.4649784672904170E-002   8.2599393356589640E-002   0.0000000000000000     
  -5.6781535263240306E-002   8.8873902390274220E-002   0.0000000000000000     
  -5.8817844218591896E-002   9.5296978154817913E-002   0.0000000000000000     
  -6.0758711538958940E-002  0.10186862065022076        0.0000000000000000     
  -6.2604137224341438E-002  0.10858882987648269        0.0000000000000000     
  -5.9981285883469029E-002   8.3248636616663707E-002   0.0000000000000000     
  -6.2292808396040678E-002   8.9494419529148522E-002   0.0000000000000000     
  -6.4502092713987949E-002   9.5888667098379621E-002   0.0000000000000000     
  -6.6609138837310844E-002  0.10243137932435699        0.0000000000000000     
  -6.8613946766009390E-002  0.10912255620708064        0.0000000000000000     
  -6.5471730438228251E-002   8.3947103278250584E-002   0.0000000000000000     
  -6.7954213536821725E-002   9.0160380330357698E-002   0.0000000000000000     
  -7.0325064107498891E-002   9.6523777139084749E-002   0.0000000000000000     
  -7.2584282150259805E-002  0.10303729370443174        0.0000000000000000     
  -7.4731867665104423E-002  0.10970093002639864        0.0000000000000000     
  -7.1121118337181835E-002   8.4694793341350341E-002   0.0000000000000000     
  -7.3765750685583470E-002   9.0871784793901747E-002   0.0000000000000000     
  -7.6286758399124785E-002   9.7202308276933283E-002   0.0000000000000000     
  -7.8684141477805822E-002  0.10368636379044496        0.0000000000000000     
  -8.0957899921626539E-002  0.11032395133443677        0.0000000000000000     
  -7.6929449580329795E-002   8.5491706805962867E-002   0.0000000000000000     
  -7.9727419842325911E-002   9.1628632919780642E-002   0.0000000000000000     
  -8.2387175588865602E-002   9.7924260511925265E-002   0.0000000000000000     
  -8.4908716819948896E-002  0.10437858958239668        0.0000000000000000     
  -8.7292043535575764E-002  0.11099162013119493        0.0000000000000000     
  -6.2604137224341438E-002  0.10858882987648269        0.0000000000000000     
  -6.4316515852416434E-002  0.11541356246974613        0.0000000000000000     
  -6.5858242000860934E-002  0.12229877506615339        0.0000000000000000     
  -6.7229315669674938E-002  0.12924446766570455        0.0000000000000000     
  -6.8429736858858461E-002  0.13625064026839950        0.0000000000000000     
  -6.8613946766009390E-002  0.10912255620708064        0.0000000000000000     
  -7.0473468473050915E-002  0.11592398399560250        0.0000000000000000     
  -7.2144655931402762E-002  0.12279744893897457        0.0000000000000000     
  -7.3627509141064959E-002  0.12974295103719680        0.0000000000000000     
  -7.4922028102037477E-002  0.13676049029026921        0.0000000000000000     
  -7.4731867665104423E-002  0.10970093002639864        0.0000000000000000     
  -7.6725018320878399E-002  0.11647926937704417        0.0000000000000000     
  -7.8520931786427384E-002  0.12333689502842696        0.0000000000000000     
  -8.0119608061751349E-002  0.13027380698054700        0.0000000000000000     
  -8.1521047146850309E-002  0.13729000523340426        0.0000000000000000     
  -8.0957899921626539E-002  0.11032395133443677        0.0000000000000000     
  -8.3071165395898872E-002  0.11707941861407112        0.0000000000000000     
  -8.4987069565934742E-002  0.12391711333451060        0.0000000000000000     
  -8.6705612431734108E-002  0.13083703549575512        0.0000000000000000     
  -8.8226793993296970E-002  0.13783918509780463        0.0000000000000000     
  -8.7292043535575764E-002  0.11099162013119493        0.0000000000000000     
  -8.9511909698112374E-002  0.11772443170668340        0.0000000000000000     
  -9.1543069269924851E-002  0.12453810385722545        0.0000000000000000     
  -9.3385522251013209E-002  0.13143263658282112        0.0000000000000000     
  -9.5039268641377433E-002  0.13840802988347034        0.0000000000000000     
  -6.8429736858858461E-002  0.13625064026839950        0.0000000000000000     
  -6.9693602114064737E-002  0.14347361106764001        0.0000000000000000     
  -7.1255007980946999E-002  0.15106969825682784        0.0000000000000000     
  -7.3113954459505290E-002  0.15903890183596286        0.0000000000000000     
  -7.5270441549739553E-002  0.16738122180504517        0.0000000000000000     
  -7.4922028102037477E-002  0.13676049029026921        0.0000000000000000     
  -7.6293876376570910E-002  0.14398201184781825        0.0000000000000000     
  -7.8008717526915849E-002  0.15153946085947034        0.0000000000000000     
  -8.0066551553072296E-002  0.15943283732522553        0.0000000000000000     
  -8.2467378455040263E-002  0.16766214124508372        0.0000000000000000     
  -8.1521047146850309E-002  0.13729000523340426        0.0000000000000000     
  -8.2993326645515897E-002  0.14450148198231036        0.0000000000000000     
  -8.4804524161539774E-002  0.15202422942257693        0.0000000000000000     
  -8.6954639694921843E-002  0.15985824755420391        0.0000000000000000     
  -8.9443673245662186E-002  0.16800353637719140        0.0000000000000000     
  -8.8226793993296970E-002  0.13783918509780463        0.0000000000000000     
  -8.9791952920899726E-002  0.14503202147111641        0.0000000000000000     
  -9.1642427884818689E-002  0.15252400394614757        0.0000000000000000     
  -9.3778218885053888E-002  0.16031513252289814        0.0000000000000000     
  -9.6199325921605350E-002  0.16840540720136807        0.0000000000000000     
  -9.5039268641377433E-002  0.13840802988347034        0.0000000000000000     
  -9.6689755202722327E-002  0.14557363031423631        0.0000000000000000     
  -9.8522428696752679E-002  0.15303878443018226        0.0000000000000000     
 -0.10053728912346847       0.16080349223130808        0.0000000000000000     
 -0.10273433648286973       0.16886775371761387        0.0000000000000000     
 </DataArray>
 <DataArray  type="Float64" Name="stress" NumberOfComponents="3" format="ascii">
   13414804160.921335        4024441248.2764006        2895990918.8686414     
   11765344425.620859        1887763229.1017740        1717020009.0909095     
   10313824140.280365        410883376.46041632        810786969.09680414     
   9060243304.8998489       -406198309.64767504        177291798.88632157     
   8004601919.4793158       -563481829.22249603       -183465501.54053450     
   10539542360.714005        3161862708.2142015        2226625526.4075575     
   9667217049.6792984        1587720716.1762462        1447296225.5833249     
   8944039460.2135887        510737796.03493547        863208759.68682885     
   8370009592.3168678       -69086052.209732056        474363128.71806866     
   7945127445.9891443       -151750828.55775404        280759332.67704499     
   8338343730.9529867        2501503119.2858958        1712412629.2990129     
   8021735601.7386541        1423471981.6509926        1275801254.3054621     
   7805483465.7023268        679960821.27610922        956935679.38375819     
   7689587322.8440065        270969638.16124630        755815904.53390074     
   7674047173.1636915        196498432.30640268        672441929.75589120     
   6811208271.6382799        2043362481.4914839        1353352227.5430088     
   6828900081.7989244        1395017025.5260139        1202535095.2573204     
   6898156156.7465858        918552452.18393922        1091967728.1875901     
   7018976496.4812670        613968761.46526098        1021650126.3338172     
   7191361101.0029697        481265953.36997890        991582289.69600236     
   5958135982.7698860        1787440794.8309658        1149444321.1395450     
   6088710489.8601074        1502355847.8013093        1227497748.4389007     
   6222057533.3463621        1226512688.7584245        1268304906.0983255     
   6358177113.2286472        959911317.70231175        1271865794.1178188     
   6497069229.5069656        702551734.63297081        1238180412.4973814     
   8004601919.4793158       -563481829.22249603       -183465501.54053450     
   7920315137.3638439       -193788281.13811970       -79600001.101946384     
   7793410237.1571960        33844873.308990955       -8128659.8402021965     
   7623887218.8593674        119417634.11883163        30948522.244693276     
   7411746082.4703560        62930001.291407108        37631545.152748518     
   7945127445.9891443       -151750828.55775404        280759332.67704499     
   7740765832.0555353        21085300.200852871        280450148.12130582     
   7512099185.8200064        112904654.61972332        265598502.72671482     
   7259127507.2825575        123707234.69886398        236204396.49327341     
   6981850796.4431915        53493040.438271046        192267829.42097571     
   7674047173.1636915        196498432.30640268        672441929.75589120     
   7400615579.8062096        187778597.45751762        589323326.95996451     
   7121192039.9360676        159085607.56643486        509513961.66317779     
   6835776553.5532675        110419462.63315272        433013833.86552978     
   6544369120.6578064        41780162.657673120        359822943.56701946     
   7191361101.0029697        481265953.36997890        991582289.69600236     
   6899864380.6158733        306291610.63188124        847019535.41402531     
   6620688799.5053797        172387732.14912009        723617716.96917737     
   6353834357.6714869        79554317.921694040        621376834.36146367     
   6099301055.1141939        27791367.949603796        540296887.59087849     
   6497069229.5069656        702551734.63297081        1238180412.4973814     
   6238512234.4845228        376624339.72393990        1053538773.4834884     
   6010589464.5279408        152811028.36777949        907909768.64471972     
   5813300919.6372223        31111800.564490080        801293397.98107445     
   5646646599.8123646        11526656.314071655        733689661.49255335     
   7411746082.4703560        62930001.291407108        37631545.152748518     
   7214417017.4344463       -31946762.846240520        16743113.414427895     
   7031464695.0724754       -78901051.404097557        1420064.3258072345     
   6862889115.3844404       -77932864.382162094       -8337602.1131052962     
   6708690278.3703451       -29042201.780433178       -12529885.902318183     
   6981850796.4431915        53493040.438271046        192267829.42097571     
   6807560963.8997803       -8121971.4266734123        182170772.62947375     
   6642874923.3771019       -37724343.222520351        176555030.73494875     
   6487792674.8751526       -35314074.949267149        175420603.73740703     
   6342314218.3939323       -891166.60691308975        178767491.63684553     
   6544369120.6578064        41780162.657673120        359822943.56701946     
   6390021184.1705465        12497702.134528160        354948819.29359192     
   6240504089.0508099       -681953.83021187782        353471942.16441995     
   6095817835.2985954        2241194.7634553909        355392312.17950875     
   5955962422.9139023        21267147.915523529        360709929.33885550     
   6099301055.1141939        27791367.949603796        540296887.59087849     
   5961797678.2467384        29912257.837354898        535077253.40678066     
   5824352192.0935974        32226116.772814989        532170798.61422020     
   5686964596.6547642        34732944.755985022        531577523.21319449     
   5549634891.9302521        37432741.786873817        533297427.20370716     
   5646646599.8123646        11526656.314071655        733689661.49255335     
   5522890446.1283588        44121695.681811094        722556074.96904457     
   5394419232.5054626        60999868.586566687        712651600.08435059     
   5261232958.9436712        62161175.028341055        703976236.83847117     
   5123331625.4429836        47605615.007139444        696529985.23140347     
   6708690278.3703451       -29042201.780433178       -12529885.902318183     
   6487166180.3887930        8639062.2174038887        2156604.2494775434     
   6257191612.0539694        18152091.704326868        19520017.458659526     
   6018766573.3658724       -503113.31964898109        39560353.725215271     
   5771891064.3245087       -47326552.854525089        62277613.049165606     
   6342314218.3939323       -891166.60691308975        178767491.63684553     
   6123393441.1632061        17006690.866306782        178656201.35500127     
   5898500286.4319935        14996623.337912321        182435943.94516435     
   5667634754.2003031       -6921369.1920785904        190106719.40733144     
   5430796844.4681320       -48747286.723669767        201668527.74151325     
   5955962422.9139023        21267147.915523529        360709929.33885550     
   5743113851.6186371        20422264.419505358        348691966.95162183     
   5526770995.6756849        7929765.4311912060        341779147.25102216     
   5306933855.0850420       -16210349.049419165        339971470.23705864     
   5083602429.8467121       -51998079.022325754        343268935.90972954     
   5549634891.9302521        37432741.786873817        533297427.20370716     
   5346327411.7550983        18885782.877017498        512263901.03934741     
   5142003739.7850456       -3048482.0158295631        497549627.37624753     
   4936663876.0200939       -28370052.891668320        489154606.21440524     
   4730307820.4602489       -57078929.750495434        487078837.55382365     
   5123331625.4429836        47605615.007139444        696529985.23140347     
   4933034121.5725813        12397246.238834381        669372003.61817229     
   4744198518.7600775       -17938119.003146172        649747384.32082522     
   4556824817.0054655       -43400480.718821049        637656127.33936179     
   4370913016.3087473       -63989838.908174753        633098232.67378330     
   5771891064.3245087       -47326552.854525089        62277613.049165606     
   5702329959.1070795       -44780037.142254829        72759094.226715341     
   5638697764.3088408       -22470486.699338436        86768392.962298274     
   5580994479.9297953        19602098.474214792        104305509.25589871     
   5529220105.9699402        81437718.378406286        125370443.10750866     
   5430796844.4681320       -48747286.723669767        201668527.74151325     
   5371384985.6660986       -39247397.332596302        215799243.43696254     
   5316691432.9207878       -14019821.085781574        232604629.50650015     
   5266716186.2321920        26935442.016756296        252084685.95014873     
   5221459245.6003170        83618391.975028992        274239412.76789045     
   5083602429.8467121       -51998079.022325754        343268935.90972954     
   5031902254.0774479       -36276084.967226267        359636514.36684477     
   4983709780.0024281       -8861751.9313127995        377825616.01414657     
   4939025007.6216593        30244920.085438967        397836240.85161453     
   4897847936.9351368        81043931.083008051        419668388.87926763     
   4730307820.4602489       -57078929.750495434        487078837.55382365     
   4683881764.3411198       -35866100.046172380        504270907.01639134     
   4639752805.5537596       -6996279.2359352112        522431352.48522121     
   4597920944.0981770        29530532.680227041        541560173.96030819     
   4558386179.9743757        73714335.702304602        561657371.44165015     
   4370913016.3087473       -63989838.908174753        633098232.67378330     
   4327323516.4571152       -38017442.569417477        649702421.38559699     
   4284820509.5747862       -8423402.9996485710        666421838.91974163     
   4243403995.6617594        24792279.801124096        683256485.27622223     
   4203073974.7180400        61629605.832922220        700206360.45503652     
   5529220105.9699402        81437718.378406286        125370443.10750866     
   5264158956.6568346        82473372.257611990        132584638.12756757     
   4995269600.1647520        70748335.540260077        151532075.59878060     
   4722552036.4937010        46262608.226317644        182212755.52112982     
   4446006265.6436739        9016190.3158166409        224626677.89462802     
   5221459245.6003170        83618391.975028992        274239412.76789045     
   4984788688.8137264        85914127.091733694        271129333.97923261     
   4745402157.8417139        79156614.923713207        277834142.08963865     
   4503299652.6842976        63345855.470999241        294353837.09910125     
   4258481173.3414741        38481848.733604908        320688419.00762063     
   4897847936.9351368        81043931.083008051        419668388.87926763     
   4684086956.8119373        82955442.678216457        407531641.44105601     
   4468722235.4968967        79521150.300632000        403291425.34981453     
   4251753772.9900074        70741053.950214863        406947740.60554636     
   4033181569.2912788        56615153.626998186        418500587.20825344     
   4558386179.9743757        73714335.702304602        561657371.44165015     
   4362053760.6514730        73597319.017120838        541791560.51303971     
   4165229833.1302958        71841941.671016216        527903925.37931585     
   3967914397.4108386        68448203.663973570        519994466.04047424     
   3770107453.4931011        63416104.995994806        518063182.49651927     
   4203073974.7180400        61629605.832922220        700206360.45503652     
   4018689100.3323350        57839756.108417749        673909091.19518375     
   3834924950.7419143        56118989.034859180        651671642.17813182     
   3651781525.9467821        56467304.612260818        633494013.40388119     
   3469258825.9469280        58884702.840596199        619376204.87242806     
   4446006265.6436739        9016190.3158166409        224626677.89462802     
   4062127932.9521580       -62856074.071293354        210608445.43828899     
   3680478195.6215000       -127299687.25553775        186957621.36478654     
   3301057053.6516986       -184314649.23692989        153674205.67414951     
   2923864507.0427742       -233900960.01539695        110758198.36635551     
   4258481173.3414741        38481848.733604908        320688419.00762063     
   3856479285.9201927       -38412057.349049807        297699900.85241401     
   3453979168.1205821       -116966731.35946560        271561618.75966901     
   3050980819.9426036       -197182173.29777312        242273572.72938529     
   2647484241.3863006       -279058383.16383243        209835762.76153693     
   4033181569.2912788        56615153.626998186        418500587.20825344     
   3631578491.9391150       -19743684.711505413        383360486.65845168     
   3226750358.4694085       -106852710.10849619        351553449.85070288     
   2818697168.8821445       -204711922.56400514        323079476.78503036     
   2407418923.1773386       -313321322.07798791        297938567.46140796     
   3770107453.4931011        63416104.995994806        518063182.49651927     
   3387425551.0089240       -6850956.1587119102        467590202.85637778     
   2998791766.6679955       -96957623.502592206        426933114.63790548     
   2604206100.4703093       -206903897.03566682        396091917.84110236     
   2203668552.4158711       -336689776.75790823        375066612.46595824     
   3469258825.9469280        58884702.840596199        619376204.87242806     
   3124020463.1296139        266128.30935359001        550389049.44621110     
   2770103392.7163358       -87281471.541768909        497700613.12126470     
   2407507614.7071037       -203758096.71273816        461310895.89759737     
   2036233129.1019125       -349163747.20357263        441219897.77519685     
   2923864507.0427742       -233900960.01539695        110758198.36635551     
   3328218670.1910419       -52049943.376928091        271744254.51998228     
   3728348621.1585536        115720365.99235535        527174124.99998164     
   4124254359.9453192        269409968.09247327        877047809.80636644     
   4515935886.5513105        409018862.92336726        1321365308.9391341     
   2647484241.3863006       -279058383.16383243        209835762.76153693     
   3263988771.2860460       -50065744.369028568        364944129.97552603     
   3884201542.1953883        191287697.79107642        577922436.78974152     
   4508122554.1143093        445001943.31647515        848770683.20416033     
   5135751807.0428267        711076992.20717978        1177488869.2188082     
   2407418923.1773386       -313321322.07798791        297938567.46140796     
   3131577034.8966675       -68536096.606443882        456423774.45784038     
   3867375840.8159370        215051442.86488509        636205046.32832420     
   4614815340.9351444        537441296.33603370        837282383.07286513     
   5373895535.2543020        898633463.80698013        1059655784.6914780     
   2203668552.4158711       -336689776.75790823        375066612.46595824     
   2930983461.0229011       -107461000.08918905        546183187.96690202     
   3677871517.0202236        187011601.21383512        702021953.61574137     
   4444332720.4078350        546728027.15115380        842582909.41247880     
   5230367071.1857309        971688277.72276008        967866055.35710728     
   2036233129.1019125       -349163747.20357263        441219897.77519685     
   2662208049.6647520       -166840454.81724226        634222370.50272477     
   3315688570.8082347        107168172.83789647        775373158.65198970     
   3996674692.5323534        472862135.76181245        864672262.22298646     
   4705166414.8371086        930241433.95453799        902119681.21572864     
   5958135982.7698860        1787440794.8309658        1149444321.1395450     
   6088710489.8601074        1502355847.8013093        1227497748.4389007     
   6222057533.3463621        1226512688.7584245        1268304906.0983255     
   6358177113.2286472        959911317.70231175        1271865794.1178188     
   6497069229.5069656        702551734.63297081        1238180412.4973814     
   5434177808.4331360        1630253342.5299408        1032846493.8239027     
   5489802914.5956936        1372480449.2608232        1113545484.6294792     
   5547660524.6479731        1122149235.6241202        1167534578.1089654     
   5607750638.5899782        879259701.61983430        1194813774.2623599     
   5670073256.4217081        643811847.24796367        1195383073.0896640     
   4894384692.7133684        1468315407.8140104        935716329.33136463     
   4905164318.8449430        1246885744.5744362        1018430845.7191375     
   4917636416.3599358        1031097652.6129224        1084971837.0946598     
   4931800985.2583466        820951131.92946851        1135339303.4579318     
   4947658025.5401754        616446182.52407455        1169533244.8089533     
   4338756635.6105776        1301626990.6831732        858053827.66193056     
   4334794702.6078606        1125571733.7421496        942153831.70787489     
   4331985208.4822521        953357939.72482967        1020616683.0554093     
   4330328153.2337561        784985608.63121474        1093442381.7045336     
   4329823536.8623714        620454740.46130383        1160630927.6552479     
   3767293637.1247659        1130188091.1374297        799858988.81560028     
   3778694065.8844414        1008538416.7639623        884714442.59569168     
   3790706901.0149212        888930096.95984316        974469115.99121368     
   3803332142.5162053        771363131.72507310        1069123009.0021658     
   3816569790.3882933        655837521.05965042        1168676121.6285484     
   6497069229.5069656        702551734.63297081        1238180412.4973814     
   6238512234.4845228        376624339.72393990        1053538773.4834884     
   6010589464.5279408        152811028.36777949        907909768.64471972     
   5813300919.6372223        31111800.564490080        801293397.98107445     
   5646646599.8123646        11526656.314071655        733689661.49255335     
   5670073256.4217081        643811847.24796367        1195383073.0896640     
   5518474542.0287161        383860411.22257257        1073683696.1188989     
   5390801225.7331839        203660302.18871164        980022064.17636275     
   5287053307.5351114        103211520.14638281        914398177.26205611     
   5207230787.4344997        82514065.095584154        876812035.37597907     
   4947658025.5401754        616446182.52407455        1169533244.8089533     
   4871660765.6426525        413063657.54212928        1102949165.0848460     
   4812880076.8741846        267069702.99037290        1053427941.2420737     
   4771315959.2347746        178464318.86880755        1020969573.2806363     
   4746968412.7244205        147247505.17743087        1005574061.2005328     
   4329823536.8623714        620454740.46130383        1160630927.6552479     
   4298070905.3263283        464234078.68260729        1141335180.3813298     
   4276826017.9509425        343039230.77276003        1128127399.8418515     
   4266088874.7362099        256870196.73176360        1121007586.0368135     
   4265859475.6821342        205726976.55961561        1119975738.9662168     
   3816569790.3882933        655837521.05965042        1168676121.6285484     
   3797704961.0797496        537371674.64400923        1188841742.0083499     
   3782639048.9634585        431568885.53587604        1204120439.9756973     
   3771372054.0394201        338429153.73525357        1214512215.5305896     
   3763903976.3076329        257952479.24213636        1220017068.6730285     
   5646646599.8123646        11526656.314071655        733689661.49255335     
   5522890446.1283588        44121695.681811094        722556074.96904457     
   5394419232.5054626        60999868.586566687        712651600.08435059     
   5261232958.9436712        62161175.028341055        703976236.83847117     
   5123331625.4429836        47605615.007139444        696529985.23140347     
   5207230787.4344997        82514065.095584154        876812035.37597907     
   5079487150.4179106        81390147.193635941        855860751.18590641     
   4950202646.4403334        75130006.088387251        838394358.31726456     
   4819377275.5017643        63733641.779835463        824412856.77005994     
   4687011037.6022053        47201054.267982721        813916246.54428577     
   4746968412.7244205        147247505.17743087        1005574061.2005328     
   4621682377.1827297        114338155.44804120        978508304.48478305     
   4498029667.6579571        86873225.775031090        957183218.77308691     
   4376010284.1500950        64852716.158397913        941598804.06544089     
   4255624226.6591449        48276626.598140478        931755060.36184752     
   4265859475.6821342        205726976.55961561        1119975738.9662168     
   4149476126.4228244        142965720.44503069        1090498734.8656781     
   4037900296.1583333        96229527.646501303        1069018181.4518116     
   3931131984.8886580        65518398.164029360        1055534078.7246137     
   3829171192.6137991        50832331.997612953        1050046426.6840875     
   3763903976.3076329        257952479.24213636        1220017068.6730285     
   3662868398.1381869        167272842.18459761        1191832042.3285897     
   3569814531.9414630        103198911.70279920        1173899246.3534403     
   3484742377.7174592        65730687.796733618        1166218680.7475805     
   3407651935.4661746        54868170.466402888        1168790345.5110118     
   5123331625.4429836        47605615.007139444        696529985.23140347     
   4933034121.5725813        12397246.238834381        669372003.61817229     
   4744198518.7600775       -17938119.003146172        649747384.32082522     
   4556824817.0054655       -43400480.718821049        637656127.33936179     
   4370913016.3087473       -63989838.908174753        633098232.67378330     
   4687011037.6022053        47201054.267982721        813916246.54428577     
   4517372394.1596670        18314100.161966085        789468643.47547972     
   4348501445.1959658       -8013872.3479249477        771920321.19016004     
   4180398190.7111020       -31782863.261687517        761271279.68831921     
   4013062630.7050781       -52992872.579328775        757521518.96996117     
   4255624226.6591449        48276626.598140478        931755060.36184752     
   4104832782.1233244        25167588.698074818        909207928.16190326     
   3954114825.4872789        2303510.4639353752        892925995.21303725     
   3803470356.7510147       -20315608.104271889        882909261.51525247     
   3652899375.9145312       -42689767.006548405        879157727.06854939     
   3829171192.6137991        50832331.997612953        1050046426.6840875     
   3695415285.4635468        32957711.847147226        1028589857.6774367     
   3561038659.6340113        13014029.432414293        1012764406.3894612     
   3426041315.1251988       -8998715.2465746403        1002570072.8201663     
   3290423251.9371099       -33080522.189826250        998006856.96954989     
   3407651935.4661746        54868170.466402888        1168790345.5110118     
   3289119904.1803398        41684469.609193921        1147614432.0220821     
   3169272947.6361656        24117684.557526112        1131435554.7194304     
   3048111065.8336563        2167815.3114039898        1120253713.6030567     
   2925634258.7728086       -24165138.129173517        1114068908.6729569     
   4370913016.3087473       -63989838.908174753        633098232.67378330     
   4327323516.4571152       -38017442.569417477        649702421.38559699     
   4284820509.5747862       -8423402.9996485710        666421838.91974163     
   4243403995.6617594        24792279.801124096        683256485.27622223     
   4203073974.7180400        61629605.832922220        700206360.45503652     
   4013062630.7050781       -52992872.579328775        757521518.96996117     
   3968515489.1074896       -33862410.009449005        775155742.25694168     
   3925510947.3376522       -9589948.0137324333        793516997.01751447     
   3884049005.3955612        19824513.407816410        812605283.25167918     
   3844129663.2812271        54380974.255203962        832420600.95943832     
   3652899375.9145312       -42689767.006548405        879157727.06854939     
   3609142600.1460056       -29876835.933037281        898354109.59889030     
   3567384531.0636764       -10401549.238868952        918889326.25407815     
   3527625168.6675482        15736093.075956106        940763377.03411281     
   3489864512.9576168        48536091.011446714        963976261.93900096     
   3290423251.9371099       -33080522.189826250        998006856.96954989     
   3249204849.5726652       -26060720.340184450        1019297523.4114352     
   3210441260.7528691       -10858206.675056577        1042538826.6294236     
   3174132485.4777141        12527018.805552006        1067730766.6235199     
   3140278523.7472115        44094956.101651073        1094873343.3937256     
   2925634258.7728086       -24165138.129173517        1114068908.6729569     
   2888702237.3874698       -22414063.230886698        1137985983.6945777     
   2854681136.4052229       -10959920.322287321        1164465498.1435573     
   2823570955.8260627        10197290.596601367        1193507452.0199034     
   2795371695.6500006        41057569.525813460        1225111845.3236098     
   4203073974.7180400        61629605.832922220        700206360.45503652     
   4018689100.3323350        57839756.108417749        673909091.19518375     
   3834924950.7419143        56118989.034859180        651671642.17813182     
   3651781525.9467821        56467304.612260818        633494013.40388119     
   3469258825.9469280        58884702.840596199        619376204.87242806     
   3844129663.2812271        54380974.255203962        832420600.95943832     
   3671529352.2117405        51963098.608747244        808626120.98214722     
   3499252345.1778193        50622903.080859184        789520260.06421793     
   3327298642.1794677        50360387.671536565        775103018.20563912     
   3155668243.2166901        51175552.380782962        765374395.40641725     
   3489864512.9576168        48536091.011446714        963976261.93900096     
   3330845333.2516441        48029159.857235074        942337580.35794306     
   3171852036.8215261        47608506.289200068        926016316.65279114     
   3012884623.6672673        47274130.307356477        915012470.82355320     
   2853943093.7888570        47026031.911689281        909326042.87022495     
   3140278523.7472115        44094956.101651073        1094873343.3937256     
   2996637043.4520583        46037939.853874803        1075043469.3225603     
   2852724025.6730380        47075798.659882188        1061159811.9438627     
   2708539470.4101634        47208532.519698381        1053222371.2576275     
   2564083377.6634297        46436141.433318138        1051231147.2638625     
   2795371695.6500006        41057569.525813460        1225111845.3236098     
   2668904482.8129663        45989438.598656416        1206743787.8760064     
   2541868311.7323527        49024780.192903757        1194950745.9374270     
   2414263182.4081659        50163594.308578849        1189732719.5078635     
   2286089094.8404064        49405880.945668221        1191089708.5873225     
   3469258825.9469280        58884702.840596199        619376204.87242806     
   3124020463.1296139        266128.30935359001        550389049.44621110     
   2770103392.7163358       -87281471.541768909        497700613.12126470     
   2407507614.7071037       -203758096.71273816        461310895.89759737     
   2036233129.1019125       -349163747.20357263        441219897.77519685     
   3155668243.2166901        51175552.380782962        765374395.40641725     
   2852315873.6489544        939323.19026875496        689696590.20961523     
   2541034835.6160107       -75725800.884259462        628005673.33257794     
   2221825129.1178622       -178819819.84280241        580301644.77531946     
   1894686754.1545143       -308342733.68535602        546584504.53783107     
   2853943093.7888570        47026031.911689281        909326042.87022495     
   2585871486.6664052        3190578.8206126690        827832633.55538535     
   2310621250.2095051       -64573638.718620777        758014281.77881169     
   2028192384.4181576       -156266620.70601559        699870987.54050767     
   1738584889.2923615       -271888367.14156759        653402750.84047771     
   2564083377.6634297        46436141.433318138        1051231147.2638625     
   2324687302.1819754        7019895.2003979683        964797179.48353302     
   2078862636.4968235       -53824985.044834614        887726438.45996475     
   1826609380.6079807       -136098499.30236721        820018924.19316769     
   1567927534.5154538       -239800647.57220137        761674636.68313742     
   2286089094.8404064        49405880.945668221        1191089708.5873225     
   2068763320.1956544        12427272.329610944        1100590227.9940479     
   1845758994.4779711       -43479839.862884998        1017142143.3760388     
   1617076117.6873446       -118315455.63185525        940745454.73329854     
   1382714689.8237846       -212079574.97727042        871400162.06582224     
   2036233129.1019125       -349163747.20357263        441219897.77519685     
   2662208049.6647520       -166840454.81724226        634222370.50272477     
   3315688570.8082347        107168172.83789647        775373158.65198970     
   3996674692.5323534        472862135.76181245        864672262.22298646     
   4705166414.8371086        930241433.95453799        902119681.21572864     
   1894686754.1545143       -308342733.68535602        546584504.53783107     
   2390568461.8560042       -163909078.27732372        771754316.29760230     
   2912214361.8366241        66405218.061151147        957447872.81420612     
   3459624454.0963669        382600155.33005714        1103665174.0876424     
   4032798738.6352658        784675733.52943134        1210406220.1178973     
   1738584889.2923615       -271888367.14156759        653402750.84047771     
   2139731753.6613245       -154736837.85320139        908708258.61407292     
   2564901402.0079222        42490638.027268171        1136912940.4795973     
   3014093834.3321543        319794060.49983358        1338016796.4370432     
   3487309050.6339970        677173429.56448352        1512019826.4864032     
   1567927534.5154538       -239800647.57220137        761674636.68313742     
   1909697925.0807323       -139323733.54484463        1045084197.4521464     
   2273749691.3221354        35424432.736264825        1313768361.6481597     
   2660082833.2396560        284443851.27110755        1567727129.2711911     
   3068697350.8333220        607734522.05972362        1806960500.3212414     
   1382714689.8237846       -212079574.97727042        871400162.06582224     
   1700466976.1142139       -117669765.35226572        1180882132.8118105     
   2038759229.7792633        45206602.188137531        1488014136.3198962     
   2397591450.8189301        276549527.64394063        1792796172.5901034     
   2776963639.2332134        576359011.01512718        2095228241.6223993     
   3767293637.1247659        1130188091.1374297        799858988.81560028     
   3778694065.8844414        1008538416.7639623        884714442.59569168     
   3790706901.0149212        888930096.95984316        974469115.99121368     
   3803332142.5162053        771363131.72507310        1069123009.0021658     
   3816569790.3882933        655837521.05965042        1168676121.6285484     
   3207027441.5500169        962108232.46500504        755977430.82276034     
   3235538058.2009916        868067324.64325750        852908950.22850728     
   3263779261.2796392        773128371.58041942        951731679.19250393     
   3291751050.7859602        677291373.27649081        1052445617.7147492     
   3319453426.7199535        580556329.73147190        1155050765.7952452     
   2684989793.1804128        805496937.95412385        721254771.71379709     
   2722016283.2735991        736486502.34936965        829233566.81154597     
   2757891539.8513265        663638621.69308591        936095561.41036332     
   2792615562.9135952        586953295.98527277        1041840755.5102495     
   2826188352.4604053        506430525.22593027        1146469149.1112039     
   2201180692.0159535        660354207.60478604        695691011.48871100     
   2238128741.1022630        613795949.88229871        813688292.34480798     
   2273043736.7299819        560460847.29784322        927560762.64479268     
   2305925678.8991108        500348899.85141915        1037308422.3886652     
   2336774567.6096482        433460107.54302651        1142931271.5764248     
   1755600138.0566397        526680041.41699189        679286150.14750147     
   1783875431.6869841        499995667.24204504        806273126.82829309     
   1809235851.9156067        463595048.39469081        926127282.89579129     
   1831681398.7425067        417478184.87492931        1038848618.3499962     
   1851212072.1676848        361645076.68276000        1144437133.1909082     
   3816569790.3882933        655837521.05965042        1168676121.6285484     
   3797704961.0797496        537371674.64400923        1188841742.0083499     
   3782639048.9634585        431568885.53587604        1204120439.9756973     
   3771372054.0394201        338429153.73525357        1214512215.5305896     
   3763903976.3076329        257952479.24213636        1220017068.6730285     
   3319453426.7199535        580556329.73147190        1155050765.7952452     
   3293483504.2361054        472901492.87547112        1181837337.5078042     
   3271199630.1912026        377533484.14928746        1205550526.9842048     
   3252601804.5852466        294452303.55292273        1226190334.2244470     
   3237690027.4182348        223657951.08637440        1243756759.2285309     
   2826188352.4604053        506430525.22593027        1146469149.1112039     
   2798294880.1620998        411141160.93782407        1179744991.9443283     
   2773974587.5494318        327762395.60184491        1211760992.7175899     
   2753227474.6224031        256294229.21799171        1242517151.4309905     
   2736053541.3810105        196736661.78626418        1272013468.0845287     
   2336774567.6096482        433460107.54302651        1142931271.5764248     
   2312139088.8577328        352090678.83107018        1182564705.3179231     
   2290963921.0381455        282255619.89354670        1222751837.1758542     
   2273249064.1508894        223954930.73045933        1263492667.1502204     
   2258994518.1959648        177188611.34180796        1304787195.2410209     
   1851212072.1676848        361645076.68276000        1144437133.1909082     
   1835016130.3230021        295750046.55520457        1190296477.6285875     
   1822167630.6573434        241013157.02439541        1238523060.3589969     
   1812666573.1707072        197434408.09032738        1289116881.3821368     
   1806512957.8630948        165013799.75300413        1342077940.6980064     
   3763903976.3076329        257952479.24213636        1220017068.6730285     
   3662868398.1381869        167272842.18459761        1191832042.3285897     
   3569814531.9414630        103198911.70279920        1173899246.3534403     
   3484742377.7174592        65730687.796733618        1166218680.7475805     
   3407651935.4661746        54868170.466402888        1168790345.5110118     
   3237690027.4182348        223657951.08637440        1243756759.2285309     
   3165507351.0004768        150866594.68814564        1231300758.0093460     
   3099650229.9966617        99160423.003055573        1226659001.4623308     
   3040118664.4067864        68539436.031100392        1229831489.5874853     
   2986912654.2308526        59003633.772280812        1240818222.3848081     
   2736053541.3810105        196736661.78626418        1272013468.0845287     
   2685758093.2945991        139743884.02124214        1273354309.3386891     
   2640132044.0633492        98315769.106758356        1280071409.5678976     
   2599175393.6872592        72452317.042809129        1292164768.7721543     
   2562888142.1663313        62153527.829398274        1309634386.9514618     
   2258994518.1959648        177188611.34180796        1304787195.2410209     
   2223620625.0205545        133904710.18388999        1317992696.3166151     
   2191259974.1415262        100664950.01390767        1334136470.6701376     
   2161912565.5588779        77469330.831864476        1353218518.3015888     
   2135578399.2726104        64317852.637754679        1375238839.2109711     
   1806512957.8630948        165013799.75300413        1342077940.6980064     
   1779094946.1783421        133349073.17608511        1365215918.9431257     
   1753034020.2311907        106207965.72450376        1388854184.7690535     
   1728330180.0216410        83590477.398260474        1412992738.1757882     
   1704983425.5496931        65496608.197355390        1437631579.1633315     
   3407651935.4661746        54868170.466402888        1168790345.5110118     
   3289119904.1803398        41684469.609193921        1147614432.0220821     
   3169272947.6361656        24117684.557526112        1131435554.7194304     
   3048111065.8336563        2167815.3114039898        1120253713.6030567     
   2925634258.7728086       -24165138.129173517        1114068908.6729569     
   2986912654.2308526        59003633.772280812        1240818222.3848081     
   2880768671.1650076        42198273.143766284        1217533256.2638865     
   2773977264.6614490        23234834.389541864        1199616289.4577527     
   2666538434.7201767        2113317.5096060038        1187067321.9664028     
   2558452181.3411918       -21166277.496041417        1179886353.7898421     
   2562888142.1663313        62153527.829398274        1309634386.9514618     
   2470192101.9733629        42044475.825448275        1285019120.3226073     
   2377516140.1633053        22002351.764531374        1266142816.1370497     
   2284860256.7361574        2027155.6466476917        1253005474.3947890     
   2192224451.6919193       -17881112.528203011        1245607095.0958240     
   2135578399.2726104        64317852.637754679        1375238839.2109711     
   2057390196.6054068        41223077.654234171        1350072024.1982427     
   1979889574.1417365        20420236.682494164        1331015134.7573216     
   1903076531.8815985        1909329.7225266695        1318068170.8882084     
   1826951069.8249931       -14309643.225665450        1311231132.5909033     
   1704983425.5496931        65496608.197355390        1437631579.1633315     
   1642362955.0611384        39734078.630128086        1412691967.8907928     
   1581097566.5967402        18488489.143426061        1394233245.3185699     
   1521187260.1564991        1759839.7372436523        1382255411.4466650     
   1462632035.7404134       -10451869.588417530        1376758466.2750762     
   2925634258.7728086       -24165138.129173517        1114068908.6729569     
   2888702237.3874698       -22414063.230886698        1137985983.6945777     
   2854681136.4052229       -10959920.322287321        1164465498.1435573     
   2823570955.8260627        10197290.596601367        1193507452.0199034     
   2795371695.6500006        41057569.525813460        1225111845.3236098     
   2558452181.3411918       -21166277.496041417        1179886353.7898421     
   2528052212.9618497       -18454923.058345675        1207084955.1769633     
   2500070039.8510642       -7684251.0587902069        1236524170.3245447     
   2474505662.0088363        11145738.502623916        1268203999.2325912     
   2451359079.4351668        38035045.625895381        1302124441.9010985     
   2192224451.6919193       -17881112.528203011        1245607095.0958240     
   2167437034.4131455       -14485329.122732520        1275511910.1914885     
   2144574287.2683973       -4673978.6038438082        1307335513.3807154     
   2123636210.2576742        11552939.028460979        1341077904.6635091     
   2104622803.3809745        34195423.774179697        1376739084.0398645     
   1826951069.8249931       -14309643.225665450        1311231132.5909033     
   1806856701.7413621       -10505281.424042702        1343266848.7381530     
   1788193878.6572237       -1929102.9574469328        1376899527.3120735     
   1770962600.5725741        11418892.174115658        1412129168.3126550     
   1755162867.4874160        29538703.970645785        1448955771.7399011     
   1462632035.7404134       -10451869.588417530        1376758466.2750762     
   1446311214.9464970       -6514779.9622765779        1410349770.8169601     
   1430928814.0175400        550375.88039284945        1445216212.1186118     
   1416484832.9535420        10743597.939594626        1481357790.1800287     
   1402979271.7544997        24064886.215314388        1518774505.0012088     
   2795371695.6500006        41057569.525813460        1225111845.3236098     
   2668904482.8129663        45989438.598656416        1206743787.8760064     
   2541868311.7323527        49024780.192903757        1194950745.9374270     
   2414263182.4081659        50163594.308578849        1189732719.5078635     
   2286089094.8404064        49405880.945668221        1191089708.5873225     
   2451359079.4351668        38035045.625895381        1302124441.9010985     
   2341408402.5394773        41977538.312974215        1282142646.9330416     
   2231080203.2502232        44661623.021503210        1268519181.7306285     
   2120374481.5674014        46087299.751472116        1261254046.2938673     
   2009291237.4910133        46254568.502887845        1260347240.6227660     
   2104622803.3809745        34195423.774179697        1376739084.0398645     
   2010569560.3027186        36962809.438311338        1355366893.3763559     
   1916330230.6809058        39109906.623923063        1340136346.7351279     
   1821904814.5155406        40636715.331026554        1331047444.1161847     
   1727293311.8066220        41543235.559614897        1328100185.5195284     
   1755162867.4874160        29538703.970645785        1448955771.7399011     
   1676387956.1026871        30945251.974664986        1426416527.2059565     
   1597618394.0244126        32369631.000203431        1409802240.9509263     
   1518854181.2525933        33811841.047254920        1399112912.9748149     
   1440095317.7872334        35271882.115840793        1394348543.2776184     
   1402979271.7544997        24064886.215314388        1518774505.0012088     
   1338863589.9393854        23924865.922042429        1495291548.4218431     
   1274944693.2807372        24440796.150324225        1477516864.3780255     
   1211222581.7785561        25612676.900164425        1465450452.8697548     
   1147697255.4328437        27440508.171563089        1459092313.8970296     
   2286089094.8404064        49405880.945668221        1191089708.5873225     
   2068763320.1956544        12427272.329610944        1100590227.9940479     
   1845758994.4779711       -43479839.862884998        1017142143.3760388     
   1617076117.6873446       -118315455.63185525        940745454.73329854     
   1382714689.8237846       -212079574.97727042        871400162.06582224     
   2009291237.4910133        46254568.502887845        1260347240.6227660     
   1812799547.1433551        12455410.170281172        1162321133.4109581     
   1611183911.1435530       -38423567.002804756        1072536129.6177771     
   1404444329.4916146       -106382363.01634961        990992229.24321818     
   1192580802.1875336       -191420977.87036347        917689432.28728604     
   1727293311.8066220        41543235.559614897        1328100185.5195284     
   1555034869.8799348        11943276.747607827        1223194491.3467834     
   1378207087.7219033       -32887816.168879926        1127719608.0360239     
   1196809965.3325267       -92950043.189851284        1041675535.5872467     
   1010843502.7118022       -168243404.31531405        965062274.00045002     
   1440095317.7872334        35271882.115840793        1394348543.2776184     
   1295469288.4053984        10890872.061603367        1283210301.8015301     
   1146828524.2130146       -26872587.361127079        1182692578.6307852     
   994173025.21008110       -78018496.152363658        1092795373.7653818     
   837502791.39659178       -142546854.31210840        1013518687.2053196     
   1147697255.4328437        27440508.171563089        1459092313.8970296     
   1034102802.7197411        9298196.1122608781        1342368564.7751956     
   917048220.61688364       -20377880.579557717        1237455041.4020619     
   796533509.12427485       -61587721.903883576        1144351743.7776227     
   672558668.24190676       -114331327.86073506        1063058671.9018872     
   1382714689.8237846       -212079574.97727042        871400162.06582224     
   1700466976.1142139       -117669765.35226572        1180882132.8118105     
   2038759229.7792633        45206602.188137531        1488014136.3198962     
   2397591450.8189301        276549527.64394063        1792796172.5901034     
   2776963639.2332134        576359011.01512718        2095228241.6223993     
   1192580802.1875336       -191420977.87036347        917689432.28728604     
   1496293358.2980697       -101553750.25645220        1250336969.7007716     
   1818470311.1224279        49861466.403530240        1575582970.0624886     
   2159111660.6606011        262824672.10957140        1893427433.3724313     
   2518217406.9125986        537335866.86168849        2203870359.6306033     
   1010843502.7118022       -168243404.31531405        965062274.00045002     
   1286083272.0313683       -87248675.695812464        1318453878.9771738     
   1577711867.4039507        48375473.100416303        1659392377.0882444     
   1885729288.8295631        238629042.07339752        1987877768.3336675     
   2210135536.3081880        483512031.22310430        2303910052.7134447     
   837502791.39659178       -142546854.31210840        1013518687.2053196     
   1069836717.3141085       -74754541.670333624        1385232860.6410065     
   1316483898.6238472        40748622.278834879        1739442357.3971665     
   1577444335.3258045        203962637.53540659        2076147177.4738038     
   1852718027.4199853        414887504.09938574        2395347320.8709121     
   672558668.24190676       -114331327.86073506        1063058671.9018872     
   847553694.14629602       -64071348.180027306        1450673914.6922781     
   1034786404.7821010        26980913.938738048        1815732910.9892645     
   1234256800.1493342        158825458.49559665        2158235660.7928491     
   1445964880.2479887        331462285.49052906        2478182164.1030231     
   1755600138.0566397        526680041.41699189        679286150.14750147     
   1783875431.6869841        499995667.24204504        806273126.82829309     
   1809235851.9156067        463595048.39469081        926127282.89579129     
   1831681398.7425067        417478184.87492931        1038848618.3499962     
   1851212072.1676848        361645076.68276000        1144437133.1909082     
   1326025419.1245179        397807625.73735541        668938914.74476302     
   1339422673.3193698        375451580.34142423        791685459.69246805     
   1350633772.4604280        345808351.43285078        909121334.43100679     
   1359658716.5476942        308877939.01163507        1021246538.9603785     
   1366497505.5811679        264660343.07777759        1128061073.2805834     
   890233823.04163671        267070146.91249102        661548032.33509028     
   893959181.81278491        250604273.49911225        780904316.95562685     
   896227103.87807000        229280277.73285666        896772081.77112341     
   897037589.23749197        203098159.61372444        1009151326.7815794     
   896390637.89105105        172057919.14171511        1118042051.9869957     
   448225349.80799592        134467604.94239879        657113502.91848290     
   447484957.16723073        125453746.71510954        773929698.61776876     
   446015846.16853195        114010827.29470879        889079524.91614151     
   443818016.81189978        100138846.68119630        1002562981.8135997     
   440891469.09733403        83837804.874572307        1114380069.3101447     
 -0.57640470921912401      -0.17292141276573722        655635326.49494100     
 -0.61729350454491416       -1.0584230378587689E-002   770761604.67889428     
 -0.66818611369655989       0.11840660234576861        886043663.86606038     
 -0.72908250379056661       0.21405156364771849        1001481504.0564389     
 -0.79998299079442459       0.27634988219485918        1117075125.2500305     
   1851212072.1676848        361645076.68276000        1144437133.1909082     
   1835016130.3230021        295750046.55520457        1190296477.6285875     
   1822167630.6573434        241013157.02439541        1238523060.3589969     
   1812666573.1707072        197434408.09032738        1289116881.3821368     
   1806512957.8630948        165013799.75300413        1342077940.6980064     
   1366497505.5811679        264660343.07777759        1128061073.2805834     
   1360159308.5572593        216981698.30471838        1181772604.2939680     
   1356331693.1660538        177671658.97400361        1236495996.4103334     
   1355014659.4075503        146730225.08562905        1292231249.6296802     
   1356208207.2817502        124157396.63959759        1348978363.9520080     
   896390637.89105105        172057919.14171511        1118042051.9869957     
   896037679.43148947        141433907.84622377        1178629432.2720449     
   897358442.05831051        116388966.83867410        1238873296.4703264     
   900352925.77151322        96923096.119065076        1298773644.5818393     
   905021130.57109892        83036295.687398165        1358330476.6065838     
   440891469.09733403        83837804.874572307        1114380069.3101447     
   442651242.94569319        69106675.179721341        1180866961.5628185     
   445247877.33411396        57165080.618408844        1245654960.5389750     
   448681372.26259738        48013021.190639064        1308744066.2386141     
   452951727.73114282        41650496.896408141        1370134278.6617355     
 -0.79998299079442459       0.27634988219485918        1117075125.2500305     
 -0.90012985046397442       0.30521016403320173        1188485192.1662884     
  -1.0065351654259929       0.31320879812572133        1256840988.6162803     
  -1.1191984960424564       0.30034718488036682        1322142514.6000049     
  -1.2381202748028026       0.26662477171145949        1384389770.1174626     
   1806512957.8630948        165013799.75300413        1342077940.6980064     
   1779094946.1783421        133349073.17608511        1365215918.9431257     
   1753034020.2311907        106207965.72450376        1388854184.7690535     
   1728330180.0216410        83590477.398260474        1412992738.1757882     
   1704983425.5496931        65496608.197355390        1437631579.1633315     
   1356208207.2817502        124157396.63959759        1348978363.9520080     
   1333024725.4056942        99622859.801614821        1373498549.9502552     
   1310859057.8528416        78481037.374307752        1399130350.5884755     
   1289711204.6231925        60731929.357681215        1425873765.8666699     
   1269581165.7167475        46375535.751732469        1453728795.7848368     
   905021130.57109892        83036295.687398165        1358330476.6065838     
   887818827.24421203        66155943.210491657        1383837053.7078285     
   871295066.82613051        51537400.429604113        1411066572.5082123     
   855449849.31685448        39180667.344735831        1440019033.0077343     
   840283174.71638489        29085743.955886126        1470694435.2063942     
   452951727.73114282        41650496.896408141        1370134278.6617355     
   443477251.69389588        32948323.402719572        1396231430.2158477     
   434342047.15105671        25377054.890389532        1424662850.5282631     
   425546114.10262549        18936691.359419405        1455428539.5989821     
   417089452.54860365        13627232.809814259        1488528497.4280047     
  -1.2381202748028026       0.26662477171145949        1384389770.1174626     
  -1.2452542316895701       0.37829750206927931        1410681679.4743109     
  -1.1723787577191611       0.75666798833965876        1439919184.6486275     
  -1.0194923802829106        1.4017417463713648        1472102285.6404138     
 -0.78659551399879202        2.3135169604236165        1507230982.4496689     
   1704983425.5496931        65496608.197355390        1437631579.1633315     
   1642362955.0611384        39734078.630128086        1412691967.8907928     
   1581097566.5967402        18488489.143426061        1394233245.3185699     
   1521187260.1564991        1759839.7372436523        1382255411.4466650     
   1462632035.7404134       -10451869.588417530        1376758466.2750762     
   1269581165.7167475        46375535.751732469        1453728795.7848368     
   1225193325.9653051        27826892.652363360        1432008281.5328496     
   1181821797.6665349        12665954.395237565        1416167236.1165111     
   1139466580.8204353        892720.98034584522        1406205659.5358207     
   1098127675.4270103       -7492807.5922972560        1402123551.7907772     
   840283174.71638489        29085743.955886126        1470694435.2063942     
   812409623.23156941        17235484.583222955        1451797785.6415622     
   785213612.62794399        7643694.8145268261        1438179185.0477099     
   758695142.90550649        310374.64979097247        1429838633.4248354     
   732854214.06425846       -4764475.9109815657        1426776130.7729421     
   417089452.54860365        13627232.809814259        1488528497.4280047     
   404011846.85993433        7959854.4227152020        1472060480.2169306     
   391273011.48097092        3421710.4013047218        1460269092.1121662     
   378872946.41171032        12800.745569631457        1453154333.1137135     
   366811651.65215963       -2266874.5444666892        1450716203.2215688     
 -0.78659551399879202        2.3135169604236165        1507230982.4496689     
  -3.1496029914183064        2.1708342884274714        1492796365.2589538     
  -5.7743854569708857        1.1555676287650511        1482436957.3098803     
  -8.6609492929138909      -0.73230325192075796        1476152758.6024489     
  -11.809289443767476       -3.4927618489751704        1473943769.1366582     
   1462632035.7404134       -10451869.588417530        1376758466.2750762     
   1446311214.9464970       -6514779.9622765779        1410349770.8169601     
   1430928814.0175400        550375.88039284945        1445216212.1186118     
   1416484832.9535420        10743597.939594626        1481357790.1800287     
   1402979271.7544997        24064886.215314388        1518774505.0012088     
   1098127675.4270103       -7492807.5922972560        1402123551.7907772     
   1085013325.1158433       -4802111.8919171691        1436505576.8341334     
   1072602789.3399186        234632.25927078724        1472366610.2411678     
   1060896068.0992420        7617424.8612846136        1509706652.0118790     
   1049893161.3938076        17346265.914107203        1548525702.1462748     
   732854214.06425846       -4764475.9109815657        1426776130.7729421     
   723528824.53273213       -3145427.0473078489        1461675170.0997710     
   714672644.20673919        37652.501478463411        1498257089.3941917     
   706285673.08628011        4784762.7353761196        1536521888.6562052     
   698367911.17135262        11095903.654379398        1576469567.8858094     
   366811651.65215963       -2266874.5444666892        1450716203.2215688     
   361857713.19717062       -1544725.4284272045        1485858550.6138721     
   357138378.61800241       -40563.392984643579        1522887649.5776799     
   352653647.91465741        2245611.5618676692        1561803500.1129968     
   348403521.08713287        5313799.4361214042        1602606102.2198174     
  -11.809289443767476       -3.4927618489751704        1473943769.1366582     
  -8.8908435558809273       -7.0352823383817800        1509055718.3764396     
  -7.4262888192379997       -15.424107012211815        1546258290.7916408     
  -7.4156234266762109       -28.659228979228605        1585551486.3822591     
  -8.8588535316981769       -46.740669965413979        1626935305.1483018     
   1402979271.7544997        24064886.215314388        1518774505.0012088     
   1338863589.9393854        23924865.922042429        1495291548.4218431     
   1274944693.2807372        24440796.150324225        1477516864.3780255     
   1211222581.7785561        25612676.900164425        1465450452.8697548     
   1147697255.4328437        27440508.171563089        1459092313.8970296     
   1049893161.3938076        17346265.914107203        1548525702.1462748     
   1000836417.3659077        16950252.106530905        1525903096.2412913     
   951927262.98056293        17046203.774140477        1509215091.5249953     
   903165698.23777854        17634120.916947246        1498461687.9973872     
   854551723.13754892        18714003.534939617        1493642885.6584656     
   698367911.17135262        11095903.654379398        1576469567.8858094     
   665016758.22535300        10637892.320907027        1554649917.8889782     
   631763999.40799904        10507861.416253239        1538991197.7339776     
   598609634.71929252        10705810.940424234        1529493407.4208033     
   565553664.15922999        11231740.893408865        1526156546.9494531     
   348403521.08713287        5313799.4361214042        1602606102.2198174     
   331404612.51771712        4987786.5651533455        1581532013.3649130     
   314454902.56303579        4825769.0766345114        1566845183.0049767     
   297554391.22309458        4827746.9705810398        1558545611.1400065     
   280703078.49788547        4993720.2469687313        1556633297.7700033     
  -8.8588535316981769       -46.740669965413979        1626935305.1483018     
  -19.756998738483446       -65.160722628072165        1606549382.6690919     
  -27.554318739690160       -73.244691619079859        1592777047.3379903     
  -32.250810527193437       -70.992566043992383        1585618299.1549947     
  -33.846483582877418       -58.404378723396654        1585073138.1201086     
   1147697255.4328437        27440508.171563089        1459092313.8970296     
   1034102802.7197411        9298196.1122608781        1342368564.7751956     
   917048220.61688364       -20377880.579557717        1237455041.4020619     
   796533509.12427485       -61587721.903883576        1144351743.7776227     
   672558668.24190676       -114331327.86073506        1063058671.9018872     
   854551723.13754892        18714003.534939617        1493642885.6584656     
   772379495.63913858        6014356.9390027225        1374485782.1727936     
   687612170.69961524       -15335614.460645586        1266433395.6889510     
   600249748.31897545       -45335910.664015889        1169485726.2069306     
   510292228.49722433       -83986531.671087980        1083642773.7267387     
   565553664.15922999        11231740.893408865        1526156546.9494531     
   512787922.59872675        3370037.9777925909        1405575293.0400319     
   458292115.54575384       -10258549.912724197        1295393247.3855608     
   402066243.00030702       -29654022.778152138        1195610409.9860392     
   344110304.96238887       -54816380.618485108        1106226780.8414717     
   280703078.49788547        4993720.2469687313        1556633297.7700033     
   255328083.59850812        1365239.2286417037        1435637097.3769059     
   229088055.15530443       -5146686.9357744604        1324334596.4918890     
   201982993.16826677       -14542058.246303320        1222725795.1149487     
   174012897.63740215       -26820874.702921800        1130810693.2460878     
  -33.846483582877418       -58.404378723396654        1585073138.1201086     
  -21.361515120879368       -39.308445601080258        1464671195.1834209     
  -10.471731677756530       -25.529796568903961        1353257443.0079377     
  -1.1771399331474344       -17.068454239274214        1250831881.5936613     
   6.5222589234232542       -13.924418760881606        1157394510.9405885     
   672558668.24190676       -114331327.86073506        1063058671.9018872     
   847553694.14629602       -64071348.180027306        1450673914.6922781     
   1034786404.7821010        26980913.938738048        1815732910.9892645     
   1234256800.1493342        158825458.49559665        2158235660.7928491     
   1445964880.2479887        331462285.49052906        2478182164.1030231     
   510292228.49722433       -83986531.671087980        1083642773.7267387     
   626153622.08091199       -50907010.916365743        1484175135.7579334     
   751193278.64868331        12766719.785301954        1865741056.0956833     
   885411198.20053875        107034660.43391189        2228340534.7399945     
   1028807380.7364699        231896811.02944496        2571973571.6908526     
   344110304.96238887       -54816380.618485108        1106226780.8414717     
   411094651.36812341       -35840343.246912241        1516106936.7415738     
   484197839.01059669        3531831.5804580450        1910610455.7481875     
   563419867.88981342        63300143.863636374        2289737337.8613191     
   648760738.00577009        143464593.60261983        2653487583.0809608     
   174012897.63740215       -26820874.702921800        1130810693.2460878     
   202376782.00792044       -18871345.171689719        1546469317.6431952     
   233800085.86784232       -723750.67577932775        1950341109.9467828     
   268282809.21716097        27621908.784785315        2342426070.1568446     
   305824952.05588454        66165633.210035637        2722724198.2733774     
   6.5222589234232542       -13.924418760881606        1157394510.9405885     
   14.000305951186213       -16.690697313259548        1575262278.4628091     
   19.220414637156004       -26.983437004948058        1984933018.6914661     
   22.182585690472330       -44.802637206871594        2386406731.6265621     
   22.886813689647756       -70.148310786484501        2779683417.2680845     
 -0.57640470921912401      -0.17292141276573722        655635326.49494100     
 -0.61729350454491416       -1.0584230378587689E-002   770761604.67889428     
 -0.66818611369655989       0.11840660234576861        886043663.86606038     
 -0.72908250379056661       0.21405156364771849        1001481504.0564389     
 -0.79998299079442459       0.27634988219485918        1117075125.2500305     
  -448225350.94687337       -134467605.28406203        657113503.05451119     
  -447484958.39501619       -125453746.77698608        773929698.74610960     
  -446015847.49929249       -114010827.12368914        889079525.04166758     
  -443818018.25970268       -100138846.32417133        1002562981.9411857     
  -440891470.67624670       -83837804.378433257        1114380069.4446642     
  -890233824.13871825       -267070147.24161547        661548032.58723986     
  -893959182.99197996       -250604273.58916011        780904317.19933152     
  -896227105.14750504       -229280277.61091685        896772082.01613021     
  -897037590.60529399       -203098159.30688566        1009151327.0376364     
  -896390639.36534643       -172057918.67706674        1118042052.2638495     
  -1326025420.1519399       -397807626.04558200        668938915.09312689     
  -1339422674.4081852       -375451580.44710678        791685460.03856063     
  -1350633773.6128242       -345808351.34327668        909121334.78944862     
  -1359658717.7658565       -308877938.73409152        1021246539.3457909     
  -1366497506.8672826       -264660342.61955163        1128061073.7075880     
  -1755600138.9865375       -526680041.69596124        679286150.57217240     
  -1783875432.6436317       -499995667.35082573        806273127.26379645     
  -1809235852.8952494       -463595048.32076794        926127283.36162221     
  -1831681399.7413902       -417478184.60578811        1038848618.8656495     
  -1851212073.1820548       -361645076.20588672        1144437133.7758787     
 -0.79998299079442459       0.27634988219485918        1117075125.2500305     
 -0.90012985046397442       0.30521016403320173        1188485192.1662884     
  -1.0065351654259929       0.31320879812572133        1256840988.6162803     
  -1.1191984960424564       0.30034718488036682        1322142514.6000049     
  -1.2381202748028026       0.26662477171145949        1384389770.1174626     
  -440891470.67624670       -83837804.378433257        1114380069.4446642     
  -442651244.72620428       -69106674.621447250        1180866961.7050042     
  -445247879.33896989       -57165080.073821053        1245654960.6868048     
  -448681374.51454377       -48013020.735556439        1308744066.3900652     
  -452951730.25292552       -41650496.606650755        1370134278.8147855     
  -896390639.36534643       -172057918.67706674        1118042052.2638495     
  -896037681.11446643       -141433907.31676030        1178629432.5522971     
  -897358443.98294485       -116388966.35431424        1238873296.7499325     
  -900352927.97078025       -96923095.789726406        1298773644.8567538     
  -905021133.07797384       -83036295.622998983        1358330476.8727634     
  -1366497506.8672826       -264660342.61955163        1128061073.7075880     
  -1360159310.0649171       -216981697.78073069        1181772604.7081683     
  -1356331694.9384584       -177671658.52826777        1236495996.8056626     
  -1355014661.4879079       -146730224.86216372        1292231250.0000706     
  -1356208209.7132649       -124157396.78241926        1348978364.2913930     
  -1851212073.1820548       -361645076.20588672        1144437133.7758787     
  -1835016131.5775547       -295750046.01335663        1190296478.1726167     
  -1822167632.2055128       -241013156.59568453        1238523060.8539958     
  -1812666575.0659275       -197434407.95286953        1289116881.8200159     
  -1806512960.1588001       -165013800.08491462        1342077941.0706763     
  -1.2381202748028026       0.26662477171145949        1384389770.1174626     
  -1.2452542316895701       0.37829750206927931        1410681679.4743109     
  -1.1723787577191611       0.75666798833965876        1439919184.6486275     
  -1.0194923802829106        1.4017417463713648        1472102285.6404138     
 -0.78659551399879202        2.3135169604236165        1507230982.4496689     
  -452951730.25292552       -41650496.606650755        1370134278.8147855     
  -443477254.20538390       -32948323.076900944        1396231430.5728605     
  -434342049.55213076       -25377054.194780409        1424662851.1513524     
  -425546116.29316950       -18936689.960298866        1455428540.5502608     
  -417089454.42849708       -13627230.373446479        1488528498.7695889     
  -905021133.07797384       -83036295.622998983        1358330476.8727634     
  -887818829.53875899       -66155943.244069844        1383837054.3120463     
  -871295068.86813462       -51537400.427108496        1411066573.5746961     
  -855449851.06610012       -39180667.172114700        1440019034.6607122     
  -840283176.13265657       -29085743.479088098        1470694437.5700951     
  -1356208209.7132649       -124157396.78241926        1348978364.2913930     
  -1333024727.2453809       -99622860.123213112        1373498550.6918683     
  -1310859059.1203873       -78481037.940308273        1399130351.9186587     
  -1289711205.3382843       -60731930.233705401        1425873767.9717653     
  -1269581165.8990722       -46375537.003405333        1453728798.8511863     
  -1806512960.1588001       -165013800.08491462        1342077941.0706763     
  -1779094947.3252501       -133349073.71433288        1365215919.7123268     
  -1753034020.3088913       -106207966.73438603        1388854186.1832414     
  -1728330179.1097233       -83590479.145075679        1412992740.4834197     
  -1704983423.7277453       -65496610.946399748        1437631582.6128619     
 -0.78659551399879202        2.3135169604236165        1507230982.4496689     
  -3.1496029914183064        2.1708342884274714        1492796365.2589538     
  -5.7743854569708857        1.1555676287650511        1482436957.3098803     
  -8.6609492929138909      -0.73230325192075796        1476152758.6024489     
  -11.809289443767476       -3.4927618489751704        1473943769.1366582     
  -417089454.42849708       -13627230.373446479        1488528498.7695889     
  -404011853.37775022       -7959852.7524842918        1472060481.4310551     
  -391273022.94702846       -3421710.5316049308        1460269093.3775408     
  -378872963.13633442       -12803.710816875100        1453154334.6090474     
  -366811673.94566286        2266867.7098929286        1450716205.1255763     
  -840283176.13265657       -29085743.479088098        1470694437.5700951     
  -812409628.68707466       -17235485.200161457        1451797787.9991205     
  -785213622.21976376       -7643696.8488068283        1438179187.7565448     
  -758695156.73072743       -310378.42503121495        1429838636.8423676     
  -732854232.21996140        4764470.0711743236        1426776135.2565913     
  -1269581165.8990722       -46375537.003405333        1453728798.8511863     
  -1225193329.0775712       -27826895.172187507        1432008284.9631488     
  -1181821803.5925922       -12665957.796040058        1416167240.4468899     
  -1139466589.4441292       -892724.87494903803        1406205665.3024111     
  -1098127686.6321864        7492803.5910764933        1402123559.5297091     
  -1704983423.7277453       -65496610.946399748        1437631582.6128619     
  -1642362954.5492437       -39734082.668566823        1412691972.3231421     
  -1581097567.0655081       -18488493.373289943        1394233251.4485788     
  -1521187261.2765408       -1759843.0605728030        1382255419.9891725     
  -1462632037.1823375        10451868.269599259        1376758477.9449253     
  -11.809289443767476       -3.4927618489751704        1473943769.1366582     
  -8.8908435558809273       -7.0352823383817800        1509055718.3764396     
  -7.4262888192379997       -15.424107012211815        1546258290.7916408     
  -7.4156234266762109       -28.659228979228605        1585551486.3822591     
  -8.8588535316981769       -46.740669965413979        1626935305.1483018     
  -366811673.94566286        2266867.7098929286        1450716205.1255763     
  -361857729.60070270        1544713.9819588065        1485858550.1144245     
  -357138391.57743216        40539.181724667549        1522887646.1448829     
  -352653659.87585080       -2245656.6908070147        1561803493.2169497     
  -348403534.49595875       -5313873.6356359571        1602606091.3306317     
  -732854232.21996140        4764470.0711743236        1426776135.2565913     
  -723528838.25937068        3145418.6145573258        1461675170.3154101     
  -714672655.48826730       -37670.140351444483        1498257084.2820258     
  -706285683.90665197       -4784796.1935522854        1536521877.1564441     
  -698367923.51452386       -11095959.545044929        1576469548.9386644     
  -1098127686.6321864        7492803.5910764933        1402123559.5297091     
  -1085013334.8668466        4802106.8625184894        1436505578.9793966     
  -1072602799.1587938       -234643.39033144712        1472366605.2030737     
  -1060896079.5080268       -7617447.1674654484        1509706638.2007451     
  -1049893175.9145479       -17346304.468894124        1548525677.9724081     
  -1462632037.1823375        10451868.269599259        1376758477.9449253     
  -1446311219.4231334        6514778.7258272171        1410349776.1063836     
  -1430928822.5890136       -550380.56822365522        1445216208.9080248     
  -1416484846.6799793       -10743609.612559557        1481357776.3498490     
  -1402979291.6960285       -24064908.407173514        1518774478.4318583     
  -8.8588535316981769       -46.740669965413979        1626935305.1483018     
  -19.756998738483446       -65.160722628072165        1606549382.6690919     
  -27.554318739690160       -73.244691619079859        1592777047.3379903     
  -32.250810527193437       -70.992566043992383        1585618299.1549947     
  -33.846483582877418       -58.404378723396654        1585073138.1201086     
  -348403534.49595875       -5313873.6356359571        1602606091.3306317     
  -331404644.43354362       -4987890.3853356838        1581532008.5738938     
  -314454947.52832347       -4825884.3256837428        1566845185.1763232     
  -297554443.78028476       -4827855.4566382319        1558545621.1379189     
  -280703133.18944037       -4993803.7782400548        1556633316.4586794     
  -698367923.51452386       -11095959.545044929        1576469548.9386644     
  -665016783.31709743       -10637969.872065574        1554649910.2700529     
  -631764032.53487587       -10507944.916433483        1538991203.1716642     
  -598609671.16785550       -10705884.678139359        1529493427.6435018     
  -565553699.21604311       -11231789.157206893        1526156583.6855628     
  -1049893175.9145479       -17346304.468894124        1548525677.9724081     
  -1000836436.4076532       -16950303.620887280        1525903087.7575676     
  -951927282.57397771       -17046255.016944826        1509215101.3240087     
  -903165714.41352272       -17634158.657071173        1498461718.6717360     
  -854551731.92628479       -18714014.541254491        1493642939.8007462     
  -1402979291.6960285       -24064908.407173514        1518774478.4318583     
  -1338863603.7052150       -23924891.631817400        1495291541.0364392     
  -1274944697.6456351       -24440814.627237678        1477516879.6333609     
  -1211222573.5172846       -25612677.393421650        1465450494.2226272     
  -1147697231.3201728       -27440479.930406034        1459092384.8042340     
  -33.846483582877418       -58.404378723396654        1585073138.1201086     
  -21.361515120879368       -39.308445601080258        1464671195.1834209     
  -10.471731677756530       -25.529796568903961        1353257443.0079377     
  -1.1771399331474344       -17.068454239274214        1250831881.5936613     
   6.5222589234232542       -13.924418760881606        1157394510.9405885     
  -280703133.18944037       -4993803.7782400548        1556633316.4586794     
  -255328115.20587018       -1365287.2122328132        1435637114.0868027     
  -229088067.13996196        5146662.9615683556        1324334610.3826251     
  -201982988.99172956        14542046.743116215        1222725805.3461502     
  -174012880.76116431        26820864.132441044        1130810698.9773812     
  -565553699.21604311       -11231789.157206893        1526156583.6855628     
  -512787938.85815930       -3370054.0583994091        1405575325.5022638     
  -458292116.74042177        10258553.573250681        1295393273.8931649     
  -402066232.86283505        29654033.737735122        1195610428.8582654     
  -344110287.22539514        54816386.435058549        1106226790.3975689     
  -854551731.92628479       -18714014.541254491        1493642939.8007462     
  -772379492.31838119       -6014339.8469446003        1374485829.4298010     
  -687612159.27310586        15335646.305269271        1266433433.5395560     
  -600249732.79045534        45335943.915401340        1169485752.1300089     
  -510292212.87043500        83986552.983433336        1083642785.2011609     
  -1147697231.3201728       -27440479.930406034        1459092384.8042340     
  -1034102775.5865389       -9298144.5778738260        1342368625.8694215     
  -917048194.73801363        20377941.157624900        1237455089.3218007     
  -796533488.77459335        61587777.276109934        1144351775.1613774     
  -672558657.69628251        114331363.77756253        1063058683.3881530     
   6.5222589234232542       -13.924418760881606        1157394510.9405885     
   14.000305951186213       -16.690697313259548        1575262278.4628091     
   19.220414637156004       -26.983437004948058        1984933018.6914661     
   22.182585690472330       -44.802637206871594        2386406731.6265621     
   22.886813689647756       -70.148310786484501        2779683417.2680845     
  -174012880.76116431        26820864.132441044        1130810698.9773812     
  -202376748.46899974        18871330.601329505        1546469319.8447156     
  -233800036.24088261        723730.19006106257        1950341109.5775940     
  -268282744.07680315       -27621937.101333074        2342426068.1760082     
  -305824871.97676760       -66165671.272873104        2722724195.6399617     
  -344110287.22539514        54816386.435058549        1106226790.3975689     
  -411094612.52167511        35840347.418322146        1516106943.8362346     
  -484197775.68809688       -3531817.8322201371        1910610462.2995491     
  -563419776.72466290       -63300109.316575423        2289737345.7875051     
  -648760615.63137376       -143464527.03474957        2653487594.3001161     
  -510292212.87043500        83986552.983433336        1083642785.2011609     
  -626153578.15771139        50907033.760311455        1484175150.4373701     
  -751193199.12122917       -12766671.050281316        1865741076.8573310     
  -885411075.76099408       -107034561.44836327        2228340564.4610448     
  -1028807208.0770034       -231896637.43392634        2571973613.2485137     
  -672558657.69628251        114331363.77756253        1063058683.3881530     
  -847553645.37710476        64071389.627303660        1450673939.6481192     
  -1034786306.5402739       -26980829.464107096        1815732953.2509470     
  -1234256641.1857910       -158825293.49667859        2158235724.1966310     
  -1445964649.3136573       -331462002.47041714        2478182252.4851761     
  -1755600138.9865375       -526680041.69596124        679286150.57217240     
  -1783875432.6436317       -499995667.35082573        806273127.26379645     
  -1809235852.8952494       -463595048.32076794        926127283.36162221     
  -1831681399.7413902       -417478184.60578811        1038848618.8656495     
  -1851212073.1820548       -361645076.20588672        1144437133.7758787     
  -2201180692.8040409       -660354207.84121215        695691011.98304212     
  -2238128741.8747888       -613795949.92734158        813688292.86659026     
  -2273043737.4889226       -560460847.15809190        927560763.20218694     
  -2305925679.6464443       -500348899.53346366        1037308422.9898326     
  -2336774568.3473506       -433460107.05345613        1142931272.2295268     
  -2684989793.7659774       -805496938.12979317        721254772.28440142     
  -2722016283.8336735       -736486502.32217562        829233567.41953373     
  -2757891540.3936195       -663638621.48872292        936095562.05256140     
  -2792615563.4458146       -586953295.62943387        1041840756.1834852     
  -2826188352.9902592       -506430524.74430984        1146469149.8123043     
  -3207027441.8723483       -962108232.56170452        755977431.47625077     
  -3235538058.5202885       -868067324.53532887        852908950.92262697     
  -3263779261.6093397       -773128371.31266057        951731679.91274559     
  -3291751051.1395040       -677291372.89369988        1052445618.4466070     
  -3319453427.1107798       -580556329.27844691        1155050766.5242107     
  -3767293637.1231527       -1130188091.1369457        799858989.55858958     
  -3778694065.9346304       -1008538416.5668001        884714443.37586975     
  -3790706901.1360822       -888930096.62990522        974469116.78273940     
  -3803332142.7275095       -771363131.32626033        1069123009.7791984     
  -3816569790.7089124       -655837520.65586722        1168676122.3652468     
  -1851212073.1820548       -361645076.20588672        1144437133.7758787     
  -1835016131.5775547       -295750046.01335663        1190296478.1726167     
  -1822167632.2055128       -241013156.59568453        1238523060.8539958     
  -1812666575.0659275       -197434407.95286953        1289116881.8200159     
  -1806512960.1588001       -165013800.08491462        1342077941.0706763     
  -2336774568.3473506       -433460107.05345613        1142931272.2295268     
  -2312139089.8483124       -352090678.30179334        1182564705.8616574     
  -2290963922.3146749       -282255619.43480086        1222751837.6143770     
  -2273249065.7464380       -223954930.45247728        1263492667.4876862     
  -2258994520.1436024       -177188611.35482538        1304787195.4815843     
  -2826188352.9902592       -506430524.74430984        1146469149.8123043     
  -2798294880.9225435       -411141160.43127155        1179744992.4913926     
  -2773974588.5531721       -327762395.11271596        1211760993.1270194     
  -2753227475.8821459       -256294228.78864241        1242517151.7191832     
  -2736053542.9094629       -196736661.45905375        1272013468.2678850     
  -3319453427.1107798       -580556329.27844691        1155050766.5242107     
  -3293483504.8002477       -472901492.40179217        1181837338.0618236     
  -3271199630.9210048       -377533483.62943316        1205550527.3919220     
  -3252601805.4730506       -294452302.96136963        1226190334.5145068     
  -3237690028.4563847       -223657950.39759910        1243756759.4295771     
  -3816569790.7089124       -655837520.65586722        1168676122.3652468     
  -3797704961.4814272       -537371674.21335506        1188841742.5729489     
  -3782639049.4181738       -431568884.98494995        1204120440.4090850     
  -3771372054.5191526       -338429152.97065139        1214512215.8736563     
  -3763903976.7843647       -257952478.17046511        1220017068.9666612     
  -1806512960.1588001       -165013800.08491462        1342077941.0706763     
  -1779094947.3252501       -133349073.71433288        1365215919.7123268     
  -1753034020.3088913       -106207966.73438603        1388854186.1832414     
  -1728330179.1097233       -83590479.145075679        1412992740.4834197     
  -1704983423.7277453       -65496610.946399748        1437631582.6128619     
  -2258994520.1436024       -177188611.35482538        1304787195.4815843     
  -2223620625.3448062       -133904710.07737994        1317992696.7778995     
  -2191259972.9293966       -100664950.07788849        1334136471.3935561     
  -2161912562.8973756       -77469331.356357694        1353218519.3285539     
  -2135578395.2487404       -64317853.912783742        1375238840.5828946     
  -2736053542.9094629       -196736661.45905375        1272013468.2678850     
  -2685758093.3166294       -139743883.42610908        1273354309.5583024     
  -2640132042.6733775       -98315768.558439970        1280071409.6581388     
  -2599175390.9797082       -72452316.856047034        1292164768.5673943     
  -2562888138.2356219       -62153528.318929553        1309634386.2860689     
  -3237690028.4563847       -223657950.39759910        1243756759.4295771     
  -3165507351.2407179       -150866593.76051712        1231300758.0535347     
  -3099650229.5408292       -99160422.176028013        1226659000.9769893     
  -3040118663.3567200       -68539435.644137025        1229831488.1999407     
  -2986912652.6883903       -59003634.164842367        1240818219.7223885     
  -3763903976.7843647       -257952478.17046511        1220017068.9666612     
  -3662868399.1170716       -167272841.08060443        1191832042.2635975     
  -3569814533.5317554       -103198910.93066251        1173899245.3501074     
  -3484742380.0284133       -65730687.720635176        1166218678.2261922     
  -3407651938.6070457       -54868171.450524092        1168790340.8918509     
  -1704983423.7277453       -65496610.946399748        1437631582.6128619     
  -1642362954.5492437       -39734082.668566823        1412691972.3231421     
  -1581097567.0655081       -18488493.373289943        1394233251.4485788     
  -1521187261.2765408       -1759843.0605728030        1382255419.9891725     
  -1462632037.1823375        10451868.269599259        1376758477.9449253     
  -2135578395.2487404       -64317853.912783742        1375238840.5828946     
  -2057390192.1810501       -41223079.722966790        1350072025.9728489     
  -1979889569.0680912       -20420238.715592146        1331015137.4211800     
  -1903076525.9098630       -1909330.8906521797        1318068174.9278877     
  -1826951062.7063675        14309643.751847267        1311231138.4929707     
  -2562888138.2356219       -62153528.318929553        1309634386.2860689     
  -2470192096.5838323       -42044476.808657765        1285019119.3857403     
  -2377516133.1467395       -22002352.680710554        1266142815.1870060     
  -2284860247.9243417       -2027155.9350818396        1253005473.6898680     
  -2192224440.9166422        17881113.428223729        1245607094.8943245     
  -2986912652.6883903       -59003634.164842367        1240818219.7223885     
  -2880768667.7575893       -42198273.925642729        1217533252.5618174     
  -2773977259.3014503       -23234835.268646002        1199616284.7460577     
  -2666538427.3199739       -2113318.1938567162        1187067316.2751148     
  -2558452171.8131576        21166277.298728347        1179886347.1489832     
  -3407651938.6070457       -54868171.450524092        1168790340.8918509     
  -3289119905.7023239       -41684471.073917747        1147614425.5010769     
  -3169272947.5322289       -24117686.479403615        1131435546.0983353     
  -3048111064.0967598       -2167817.6669775248        1120253702.6836264     
  -2925634255.3959203        24165135.363355994        1114068895.2569494     
  -1462632037.1823375        10451868.269599259        1376758477.9449253     
  -1446311219.4231334        6514778.7258272171        1410349776.1063836     
  -1430928822.5890136       -550380.56822365522        1445216208.9080248     
  -1416484846.6799793       -10743609.612559557        1481357776.3498490     
  -1402979291.6960285       -24064908.407173514        1518774478.4318583     
  -1826951062.7063675        14309643.751847267        1311231138.4929707     
  -1806856702.4341941        10505280.739424109        1343266846.1277783     
  -1788193887.5537968        1929099.7544167042        1376899514.9328372     
  -1770962618.0651684       -11418899.203155279        1412129144.9081490     
  -1755162893.9683130       -29538716.133305430        1448955736.0537093     
  -2192224440.9166422        17881113.428223729        1245607094.8943245     
  -2167437033.7598763        14485328.258630991        1275511900.1246779     
  -2144574296.4615719        4673976.8941633701        1307335493.0553520     
  -2123636229.0217259       -11552940.665162921        1341077873.6863470     
  -2104622831.4403431       -34195424.419366002        1376739042.0176609     
  -2558452171.8131576        21166277.298728347        1179886347.1489832     
  -2528052213.4001756        18454921.283451915        1207084938.0970798     
  -2500070049.3123426        7684250.8510159254        1236524143.2755678     
  -2474505679.5496593       -11145733.998587728        1268203962.6844425     
  -2451359104.1121206       -38035033.265348315        1302124396.3237066     
  -2925634255.3959203        24165135.363355994        1114068895.2569494     
  -2888702241.3550949        22414059.813893676        1137985960.0449882     
  -2854681146.1061101        10959921.624957800        1164465465.5934851     
  -2823570969.6489573       -10197279.203413844        1193507411.9024372     
  -2795371711.9836450       -41057542.671254635        1225111798.9718478     
  -1402979291.6960285       -24064908.407173514        1518774478.4318583     
  -1338863603.7052150       -23924891.631817400        1495291541.0364392     
  -1274944697.6456351       -24440814.627237678        1477516879.6333609     
  -1211222573.5172846       -25612677.393421650        1465450494.2226272     
  -1147697231.3201728       -27440479.930406034        1459092384.8042340     
  -1755162893.9683130       -29538716.133305430        1448955736.0537093     
  -1676387966.1150038       -30945259.158963263        1426416515.0237958     
  -1597618385.5440676       -32369626.459195614        1409802254.7729239     
  -1518854152.2554967       -33811818.033975720        1399112955.3010926     
  -1440095266.2492921       -35271833.883314252        1394348616.6083028     
  -2104622831.4403431       -34195424.419366002        1376739042.0176609     
  -2010569564.3339727       -36962797.428876519        1355366877.7769275     
  -1916330209.8611069       -39109879.216735601        1340136359.1019347     
  -1821904768.0217388       -40636669.782925487        1331047485.9926856     
  -1727293238.8158762       -41543169.127461970        1328100258.4491749     
  -2451359104.1121206       -38035033.265348315        1302124396.3237066     
  -2341408398.3621173       -41977506.441542387        1282142629.2958298     
  -2231080170.5967512       -44661572.899857044        1268519192.6203959     
  -2120374420.8160217       -46087232.640293956        1261254086.2974007     
  -2009291149.0199268       -46254485.662847996        1260347310.3268492     
  -2795371711.9836450       -41057542.671254635        1225111798.9718478     
  -2668904468.1994357       -45989386.196948886        1206743769.5805085     
  -2541868267.7510028       -49024707.508563042        1194950755.3283067     
  -2414263110.6383362       -50163506.606062651        1189732756.2152469     
  -2286088996.8614421       -49405783.489476681        1191089772.2413275     
  -1147697231.3201728       -27440479.930406034        1459092384.8042340     
  -1034102775.5865389       -9298144.5778738260        1342368625.8694215     
  -917048194.73801363        20377941.157624900        1237455089.3218007     
  -796533488.77459335        61587777.276109934        1144351775.1613774     
  -672558657.69628251        114331363.77756253        1063058683.3881530     
  -1440095266.2492921       -35271833.883314252        1394348616.6083028     
  -1295469244.5213783       -10890809.498199701        1283210359.1407268     
  -1146828491.2135587        26872653.486605883        1182692617.1971076     
  -994173006.32582629        78018555.071124554        1092795390.7774477     
  -837502789.85818458        142546895.25532848        1013518679.8817505     
  -1727293238.8158762       -41543169.127461970        1328100258.4491749     
  -1555034813.5600777       -11943204.449686825        1223194543.3246877     
  -1378207050.2593505        32887887.044512391        1127719636.8609226     
  -1196809948.9136906        92950105.355149627        1041675539.0578824     
  -1010843509.5231119        168243450.48219526        965062249.91556299     
  -2009291149.0199268       -46254485.662847996        1260347310.3268492     
  -1812799482.7026305       -12455329.432330132        1162321178.4213073     
  -1611183871.8753881        38423641.831347048        1072536148.3132528     
  -1404444316.5382047        106382428.12816304        990992220.00268114     
  -1192580816.6910660        191421029.45815313        917689393.48959756     
  -2286088996.8614421       -49405783.489476681        1191089772.2413275     
  -2068763251.9490387       -12427184.446124911        1100590264.4305851     
  -1845758956.0616734        43479917.847101569        1017142151.5540906     
  -1617076109.1993392        118315523.39022315        940745433.61184621     
  -1382714711.3620491        212079632.18319905        871400110.60385036     
  -672558657.69628251        114331363.77756253        1063058683.3881530     
  -847553645.37710476        64071389.627303660        1450673939.6481192     
  -1034786306.5402739       -26980829.464107096        1815732953.2509470     
  -1234256641.1857910       -158825293.49667859        2158235724.1966310     
  -1445964649.3136573       -331462002.47041714        2478182252.4851761     
  -837502789.85818458        142546895.25532848        1013518679.8817505     
  -1069836672.8540615        74754583.904276729        1385232874.3796732     
  -1316483807.2295570       -40748565.378830314        1739442392.9541080     
  -1577444192.9846661       -203962552.59398866        2076147235.6050580     
  -1852717830.1193912       -414887377.74119306        2395347402.3325167     
  -1010843509.5231119        168243450.48219526        965062249.91556299     
  -1286083240.0236120        87248716.273466647        1318453875.1046331     
  -1577711799.8009915       -48375448.858205259        1659392391.1038692     
  -1885729188.8552539       -238629044.91280568        1987877797.9132681     
  -2210135407.1863928       -483512071.89034253        2303910095.5328417     
  -1192580816.6910660        191421029.45815313        917689393.48959756     
  -1496293346.8857458        101553786.73488075        1250336941.8230016     
  -1818470284.2545731       -49861479.902207851        1575582947.7002258     
  -2159111628.7975454       -262824770.45312726        1893427411.1212699     
  -2518217380.5146713       -537336084.91787863        2203870332.0861287     
  -1382714711.3620491        212079632.18319905        871400110.60385036     
  -1700466993.4404688        117669795.28852153        1180882074.5347786     
  -2038759260.5903065       -45206658.510876656        1488014062.7431765     
  -2397591512.8115535       -276549729.21497411        1792796075.2290511     
  -2776963750.1042166       -576359416.82379460        2095228111.9924002     
  -3767293637.1231527       -1130188091.1369457        799858989.55858958     
  -3778694065.9346304       -1008538416.5668001        884714443.37586975     
  -3790706901.1360822       -888930096.62990522        974469116.78273940     
  -3803332142.7275095       -771363131.32626033        1069123009.7791984     
  -3816569790.7089124       -655837520.65586722        1168676122.3652468     
  -4338756635.2781963       -1301626990.5834589        858053828.47845161     
  -4334794702.4005442       -1125571733.5537405        942153832.53833723     
  -4331985208.4097986       -953357939.48037887        1020616683.8942162     
  -4330328153.3059607       -784985608.36337495        1093442382.5460882     
  -4329823537.0890284       -620454740.20272768        1160630928.4939549     
  -4894384692.0972853       -1468315407.6291854        935716330.18287039     
  -4905164318.3693485       -1246885744.3915479        1018430846.5722739     
  -4917636416.0252504       -1031097652.4333742        1084971837.9640751     
  -4931800985.0649920       -820951131.75466359        1135339304.3582737     
  -4947658025.4885721       -616446182.35541677        1169533245.7548699     
  -5434177807.5804167       -1630253342.2741249        1032846494.6718457     
  -5489802913.8410416       -1372480449.0802221        1113545485.4776802     
  -5547660523.9824362       -1122149235.4888892        1167534578.9923162     
  -5607750638.0046024       -879259701.50012589        1194813775.2157538     
  -5670073255.9075413       -643811847.11393309        1195383074.1479931     
  -5958135981.7275925       -1787440794.5182776        1149444321.9453776     
  -6088710488.8156233       -1502355847.6197634        1227497749.2545555     
  -6222057532.2813578       -1226512688.6469250        1268304906.9789391     
  -6358177112.1247959       -959911317.59976292        1271865795.1185284     
  -6497069228.3459358       -702551734.47827744        1238180413.6733236     
  -3816569790.7089124       -655837520.65586722        1168676122.3652468     
  -3797704961.4814272       -537371674.21335506        1188841742.5729489     
  -3782639049.4181738       -431568884.98494995        1204120440.4090850     
  -3771372054.5191526       -338429152.97065139        1214512215.8736563     
  -3763903976.7843647       -257952478.17046511        1220017068.9666612     
  -4329823537.0890284       -620454740.20272768        1160630928.4939549     
  -4298070905.5317688       -464234078.34762967        1141335181.1399133     
  -4276826018.1036348       -343039230.25628042        1128127400.5466666     
  -4266088874.8046265       -256870195.92867827        1121007586.7142153     
  -4265859475.6347394       -205726975.36482620        1119975739.6425593     
  -4947658025.4885721       -616446182.35541677        1169533245.7548699     
  -4871660765.5090809       -413063657.25999570        1102949166.0467107     
  -4812880076.6236038       -267069702.47796202        1053427942.2317072     
  -4771315958.8321457       -178464318.00931907        1020969574.3098600     
  -4746968412.1347008       -147247503.85406280        1005574062.2811680     
  -5670073255.9075413       -643811847.11393309        1195383074.1479931     
  -5518474541.4133568       -383860410.95045090        1073683697.2933426     
  -5390801224.9780798       -203660301.64999676        980022065.46420789     
  -5287053306.6017132       -103211519.21257281        914398178.66058898     
  -5207230786.2842541       -82514063.638176203        876812036.88248813     
  -6497069228.3459358       -702551734.47827744        1238180413.6733236     
  -6238512233.2446012       -376624339.41899657        1053538774.8798062     
  -6010589463.1670637       -152811027.77238321        907909770.24416757     
  -5813300918.1133308       -31111799.538443089        801293399.76640391     
  -5646646598.0833969       -11526654.717168808        733689663.44651866     
  -3763903976.7843647       -257952478.17046511        1220017068.9666612     
  -3662868399.1170716       -167272841.08060443        1191832042.2635975     
  -3569814533.5317554       -103198910.93066251        1173899245.3501074     
  -3484742380.0284133       -65730687.720635176        1166218678.2261922     
  -3407651938.6070457       -54868171.450524092        1168790340.8918509     
  -4265859475.6347394       -205726975.36482620        1119975739.6425593     
  -4149476128.1286497       -142965719.49626279        1090498735.2086711     
  -4037900299.6996918       -96229527.218137503        1069018181.1430439     
  -3931131990.3478622       -65518398.530445337        1055534077.4456779     
  -3829171200.0731659       -50832333.433187723        1050046424.1165737     
  -4746968412.1347008       -147247503.85406280        1005574062.2811680     
  -4621682378.8507109       -114338154.42506742        978508305.28877378     
  -4498029671.6390047       -86873225.237026215        957183219.24332869     
  -4376010290.4995842       -64852716.289935827        941598804.14483047     
  -4255624235.4324512       -48276627.583800793        931755059.99328327     
  -5207230786.2842541       -82514063.638176203        876812036.88248813     
  -5079487151.2832537       -81390145.867016315        855860752.50390744     
  -4950202649.3496971       -75130004.987326622        838394359.65096164     
  -4819377280.4835787       -63733640.999109507        824412858.32365072     
  -4687011044.6849051       -47201053.902364016        813916248.52197635     
  -5646646598.0833969       -11526654.717168808        733689663.44651866     
  -5522890445.4262838       -44121693.822110415        722556076.85406840     
  -5394419232.8317671       -60999866.469043970        712651602.36594272     
  -5261232960.2998466       -62161172.657963514        703976239.98213661     
  -5123331627.8305235       -47605612.388876438        696529989.70265543     
  -3407651938.6070457       -54868171.450524092        1168790340.8918509     
  -3289119905.7023239       -41684471.073917747        1147614425.5010769     
  -3169272947.5322289       -24117686.479403615        1131435546.0983353     
  -3048111064.0967598       -2167817.6669775248        1120253702.6836264     
  -2925634255.3959203        24165135.363355994        1114068895.2569494     
  -3829171200.0731659       -50832333.433187723        1050046424.1165737     
  -3695415291.6940417       -32957713.675520420        1028589854.2374526     
  -3561038664.7460847       -13014032.021735191        1012764401.9549757     
  -3426041319.2292948        8998711.5281546116        1002570067.2691460     
  -3290423255.1436710        33080516.974162579        998006850.17996216     
  -4255624235.4324512       -48276627.583800793        931755059.99328327     
  -4104832789.8400311       -25167589.923399210        909207927.81318307     
  -3954114832.3753190       -2303512.6886849403        892925994.83834326     
  -3803470363.0383091        20315604.120346069        882909261.06876302     
  -3652899381.8290086        42689760.503688335        879157726.50444210     
  -4687011044.6849051       -47201053.902364016        813916248.52197635     
  -4517372400.1402941       -18314099.817563295        789468646.22827089     
  -4348501450.4199266        8013871.5197577477        771920324.74843717     
  -4180398195.5238047        31782860.109591722        761271284.08247793     
  -4013062635.4519300        52992865.951939344        757521524.23038876     
  -5123331627.8305235       -47605612.388876438        696529989.70265543     
  -4933034122.5948257       -12397243.358004808        669372009.48271418     
  -4744198518.8799124        17938120.603582144        649747391.68525910     
  -4556824816.6857824        43400479.495892048        637656136.31028843     
  -4370913016.0124397        63989833.318916321        633098243.35780621     
  -2925634255.3959203        24165135.363355994        1114068895.2569494     
  -2888702241.3550949        22414059.813893676        1137985960.0449882     
  -2854681146.1061101        10959921.624957800        1164465465.5934851     
  -2823570969.6489573       -10197279.203413844        1193507411.9024372     
  -2795371711.9836450       -41057542.671254635        1225111798.9718478     
  -3290423255.1436710        33080516.974162579        998006850.17996216     
  -3249204857.3566504        26060714.169312477        1019297509.3554862     
  -3210441271.5634766        10858204.718297482        1042538806.1727171     
  -3174132497.7641587       -12527011.378892064        1067730740.6316530     
  -3140278535.9586868       -44094934.122245908        1094873312.7322953     
  -3652899381.8290086        42689760.503688335        879157726.50444210     
  -3609142609.2065048        29876827.770245552        898354104.66510165     
  -3567384541.7798696        10401544.383917093        918889317.34871626     
  -3527625179.5490961       -15736089.655290604        940763364.55528510     
  -3489864522.5141864       -48536074.347377539        963976246.28480983     
  -4013062635.4519300        52992865.951939344        757521524.23038876     
  -3968515496.9046669        33862400.616682768        775155745.97383690     
  -3925510956.7552795        9589940.6218371391        793516999.12148607     
  -3884049015.0037770       -19824514.032610893        812605283.67333627     
  -3844129671.6501451       -54380963.346648693        832420599.62939489     
  -4370913016.0124397        63989833.318916321        633098243.35780621     
  -4327323520.4511280        38017432.708639383        649702433.28168821     
  -4284820516.4897141        8423393.4320471287        666421851.49102247     
  -4243404004.1281929       -24792284.510848284        683256497.98580849     
  -4203073983.3665600       -61629601.120049953        700206372.76604640     
  -2795371711.9836450       -41057542.671254635        1225111798.9718478     
  -2668904468.1994357       -45989386.196948886        1206743769.5805085     
  -2541868267.7510028       -49024707.508563042        1194950755.3283067     
  -2414263110.6383362       -50163506.606062651        1189732756.2152469     
  -2286088996.8614421       -49405783.489476681        1191089772.2413275     
  -3140278535.9586868       -44094934.122245908        1094873312.7322953     
  -2996637026.3124270       -46037894.497270226        1075043464.4003315     
  -2852723980.7056665       -47075735.003959298        1061159832.4037253     
  -2708539399.1383972       -47208455.642284870        1053222416.7424793     
  -2564083281.6106291       -46436056.412279963        1051231217.4165930     
  -3489864522.5141864       -48536074.347377539        963976246.28480983     
  -3330845315.0166802       -48029121.974969149        942337588.19120908     
  -3171851992.2623954       -47608452.079968452        926016347.62918615     
  -3012884554.2513328       -47274064.662376285        915012524.59874153     
  -2853943000.9834886       -47025959.722185016        909326119.09987283     
  -3844129671.6501451       -54380963.346648693        832420599.62939489     
  -3671529334.3121905       -51963068.630042553        808626140.95314467     
  -3499252302.4211864       -50622858.736596346        789520301.00468886     
  -3327298575.9771357       -50360333.666321158        775103079.78402913     
  -3155668154.9800215       -51175493.419185400        765374477.29116821     
  -4203073983.3665600       -61629601.120049953        700206372.76604640     
  -4018689084.1989670       -57839734.462499142        673909122.68613338     
  -3834924911.1820502       -56118954.973854303        651671692.53023255     
  -3651781464.3158045       -56467262.654126167        633494082.29834855     
  -3469258743.6002312       -58884657.503298759        619376291.99048066     
  -2286088996.8614421       -49405783.489476681        1191089772.2413275     
  -2068763251.9490387       -12427184.446124911        1100590264.4305851     
  -1845758956.0616734        43479917.847101569        1017142151.5540906     
  -1617076109.1993392        118315523.39022315        940745433.61184621     
  -1382714711.3620491        212079632.18319905        871400110.60385036     
  -2564083281.6106291       -46436056.412279963        1051231217.4165930     
  -2324687238.4699993       -7019821.1164563894        964797222.23524868     
  -2078862604.8842001        53825048.996611714        887726453.16002560     
  -1826609380.8532181        136098553.92694867        820018910.19092607     
  -1567927566.3770638        239800693.67452860        761674593.32794678     
  -2853943000.9834886       -47025959.722185016        909326119.09987283     
  -2585871427.6950064       -3190518.5980094671        827832682.59650934     
  -2310621224.4911304        64573688.910794020        758014303.37114143     
  -2028192391.3718650        156266662.80423999        699870981.42376757     
  -1738584928.3372054        271888403.08231831        653402716.75438666     
  -3155668154.9800215       -51175493.419185400        765374477.29116821     
  -2852315819.6240458       -939276.89077508450        689696645.51437092     
  -2541034814.8824663        75725837.589656234        628005702.18743968     
  -2221825140.7552819        178819850.02210557        580301647.31037283     
  -1894686797.2424948        308342760.40656459        546584480.88317728     
  -3469258743.6002312       -58884657.503298759        619376291.99048066     
  -3124020414.2571244       -266095.99474084377        550389110.98882949     
  -2770103376.0582042        87281495.033201456        497700649.60891545     
  -2407507629.0034637        203758115.58054006        461310907.85074002     
  -2036233173.0929058        349163765.64727092        441219885.71430612     
  -1382714711.3620491        212079632.18319905        871400110.60385036     
  -1700466993.4404688        117669795.28852153        1180882074.5347786     
  -2038759260.5903065       -45206658.510876656        1488014062.7431765     
  -2397591512.8115535       -276549729.21497411        1792796075.2290511     
  -2776963750.1042166       -576359416.82379460        2095228111.9924002     
  -1567927566.3770638        239800693.67452860        761674593.32794678     
  -1909697970.9111447        139323758.16737509        1045084131.7209517     
  -2273749763.3970108       -35424470.512391448        1313768266.7042282     
  -2660082943.8346562       -284443992.36473906        1567726998.2777920     
  -3068697512.2240772       -607734807.38969636        1806960326.4416320     
  -1738584928.3372054        271888403.08231831        653402716.75438666     
  -2139731820.1475182        154736859.51649451        908708192.91570818     
  -2564901502.7899609       -42490653.489782810        1136912837.9801173     
  -3014093976.2645531       -319794135.93655026        1338016651.9476151     
  -3487309240.5712872       -677173587.82378972        1512019634.8181937     
  -1894686797.2424948        308342760.40656459        546584480.88317728     
  -2390568541.1495709        163909099.33592927        771754258.11905611     
  -2912214478.7691536       -66405207.443055630        957447776.57082713     
  -3459624610.1012430       -382600159.93039858        1103665036.2384961     
  -4032798935.1458368       -784675758.12608814        1210406037.1220584     
  -2036233173.0929058        349163765.64727092        441219885.71430612     
  -2662208133.9173160        166840477.62563968        634222327.33099318     
  -3315688691.3345804       -107168132.37219095        775373082.47637653     
  -3996674845.3447285       -472862064.34628379        864672151.15045834     
  -4705166595.9477415       -930241318.29660010        902119533.35324228     
  -5958135981.7275925       -1787440794.5182776        1149444321.9453776     
  -6088710488.8156233       -1502355847.6197634        1227497749.2545555     
  -6222057532.2813578       -1226512688.6469250        1268304906.9789391     
  -6358177112.1247959       -959911317.59976292        1271865795.1185284     
  -6497069228.3459358       -702551734.47827744        1238180413.6733236     
  -6811208270.5011358       -2043362481.1503408        1353352228.2789972     
  -6828900080.5326090       -1395017025.3224139        1202535095.9689293     
  -6898156155.3331022       -918552452.05788279        1091967728.9188359     
  -7018976494.9026146       -613968761.35674667        1021650127.1287163     
  -7191361099.2411432       -481265953.21900678        991582290.59857166     
  -8338343729.8633709       -2501503118.9590111        1712412629.9482346     
  -8021735600.4246626       -1423471981.4775851        1275801254.8957195     
  -7805483464.1462898       -679960821.19727302        956935679.94794738     
  -7689587321.0282507       -270969638.11807537        755815905.10491776     
  -7674047171.0705490       -196498432.23999500        672441930.36663055     
  -10539542359.814299       -3161862707.9442897        2226625526.9530907     
  -9667217048.4917850       -1587720716.0852768        1447296226.0349262     
  -8944039458.7209225       -510737796.06509781        863208760.06627345     
  -8370009590.5017099        69086052.116249084        474363129.04713112     
  -7945127443.8341465        151750828.45876026        280759332.97750169     
  -13414804160.353920       -4024441248.1061759        2895990919.2935643     
  -11765344424.733976       -1887763229.1454887        1717020009.3865499     
  -10313824139.056999       -410883376.66135454        810786969.27381396     
  -9060243303.3229866        406198309.34622717        177291798.95535842     
  -8004601917.5319405        563481828.87725353       -183465501.56881717     
  -6497069228.3459358       -702551734.47827744        1238180413.6733236     
  -6238512233.2446012       -376624339.41899657        1053538774.8798062     
  -6010589463.1670637       -152811027.77238321        907909770.24416757     
  -5813300918.1133308       -31111799.538443089        801293399.76640391     
  -5646646598.0833969       -11526654.717168808        733689663.44651866     
  -7191361099.2411432       -481265953.21900678        991582290.59857166     
  -6899864378.7860918       -306291610.39845586        847019536.50622821     
  -6620688797.5764856       -172387731.72937965        723617718.27549601     
  -6353834355.6123161       -79554317.211773872        621376835.90637541     
  -6099301052.8935928       -27791366.845643759        540296889.39886463     
  -7674047171.0705490       -196498432.23999500        672441930.36663055     
  -7400615577.5368271       -187778597.34068918        589323327.71688104     
  -7121192037.4701920       -159085607.33166265        509513962.63247389     
  -6835776550.8706379       -110419462.21290970        433013835.11341369     
  -6544369117.7381639       -41780161.984429836        359822945.15969783     
  -7945127443.8341465        151750828.45876026        280759332.97750169     
  -7740765829.4968033       -21085300.245695114        280450148.51176196     
  -7512099182.8481846       -112904654.57923031        265598503.31510210     
  -7259127503.8882885       -123707234.54184151        236204397.38752180     
  -6981850792.6171179       -53493040.133534908        192267830.72901854     
  -8004601917.5319405        563481828.87725353       -183465501.56881717     
  -7920315134.6660213        193788280.88652897       -79600001.109125748     
  -7793410233.7104683       -33844873.472086906       -8128659.6766230706     
  -7623887214.6652756       -119417634.19857359        30948522.728694726     
  -7411746077.5304508       -62930001.292948723        37631546.106823802     
  -5646646598.0833969       -11526654.717168808        733689663.44651866     
  -5522890445.4262838       -44121693.822110415        722556076.85406840     
  -5394419232.8317671       -60999866.469043970        712651602.36594272     
  -5261232960.2998466       -62161172.657963514        703976239.98213661     
  -5123331627.8305235       -47605612.388876438        696529989.70265543     
  -6099301052.8935928       -27791366.845643759        540296889.39886463     
  -5961797675.9368858       -29912256.379907846        535077255.14541042     
  -5824352189.7381153       -32226115.107291460        532170800.65562642     
  -5686964594.2972860       -34732943.027800560        531577525.92950934     
  -5549634889.6143875       -37432740.141426086        533297430.96706200     
  -6544369117.7381639       -41780161.984429836        359822945.15969783     
  -6390021180.3123074       -12497701.097145319        354948820.76734477     
  -6240504084.3397226        681954.94588255882        353471943.79800391     
  -6095817829.8204174       -2241193.8553416729        355392314.25168067     
  -5955962416.7543859       -21267147.500818729        360709932.12836832     
  -6981850792.6171179       -53493040.133534908        192267830.72901854     
  -6807560958.5525465        8121972.0261621475        182170773.71986610     
  -6642874916.6365919        37724343.690474510        176555031.79307735     
  -6487792666.8692532        35314074.859396458        175420604.94864899     
  -6342314209.2505293        891165.53293800354        178767493.18657985     
  -7411746077.5304508       -62930001.292948723        37631546.106823802     
  -7214417010.6576052        31946762.990036488        16743114.002982100     
  -7031464686.6287155        78901051.126493931        1420064.6408430524     
  -6862889105.4437809        77932863.116444111       -8337601.9795854185     
  -6708690267.1028004        29042198.959873676       -12529885.858307235     
  -5123331627.8305235       -47605612.388876438        696529989.70265543     
  -4933034122.5948257       -12397243.358004808        669372009.48271418     
  -4744198518.8799124        17938120.603582144        649747391.68525910     
  -4556824816.6857824        43400479.495892048        637656136.31028843     
  -4370913016.0124397        63989833.318916321        633098243.35780621     
  -5549634889.6143875       -37432740.141426086        533297430.96706200     
  -5346327408.0142040       -18885781.274646759        512263905.44817358     
  -5142003734.8394461        3048482.8406989574        497549632.44042677     
  -4936663870.0901232        28370052.204602242        489154611.94382173     
  -4730307813.7662344        57078926.817061663        487078843.95835608     
  -5955962416.7543859       -21267147.500818729        360709932.12836832     
  -5743113844.2506990       -20422264.436423063        348691969.92177874     
  -5526770987.0770855       -7929765.8056206703        341779150.31498837     
  -5306933845.2335567        16210348.391578436        339971473.30798960     
  -5083602418.7201052        51998078.155179024        343268938.90078962     
  -6342314209.2505293        891165.53293800354        178767493.18657985     
  -6123393431.3043184       -17006692.843336821        178656202.90353122     
  -5898500275.5928364       -14996625.335379839        182435945.30893883     
  -5667634742.1160793        6921368.0568304062        190106720.40279710     
  -5430796830.8740473        48747287.333287477        201668528.18510723     
  -6708690267.1028004        29042198.959873676       -12529885.858307235     
  -6487166169.1750603       -8639066.4953908920        2156604.3934341846     
  -6257191600.3866882       -18152095.748557806        19520017.422284774     
  -6018766560.7376938        503111.20035576820        39560353.228239737     
  -5771891050.2280731        47326554.351357937        62277611.811303228     
  -4370913016.0124397        63989833.318916321        633098243.35780621     
  -4327323520.4511280        38017432.708639383        649702433.28168821     
  -4284820516.4897141        8423393.4320471287        666421851.49102247     
  -4243404004.1281929       -24792284.510848284        683256497.98580849     
  -4203073983.3665600       -61629601.120049953        700206372.76604640     
  -4730307813.7662344        57078926.817061663        487078843.95835608     
  -4683881763.4046831        35866093.993546963        504270915.12894315     
  -4639752809.4400787        6996273.1802058220        522431361.44808435     
  -4597920951.8724279       -29530535.622977018        541560182.91578341     
  -4558386190.7017221       -73714332.415981531        561657379.53204429     
  -5083602418.7201052        51998078.155179024        343268938.90078962     
  -5031902251.0922928        36276081.858232975        359636519.05484396     
  -4983709784.6584854        8861748.2479474545        377825621.22056162     
  -4939025019.4186935       -30244922.675719738        397836245.39794302     
  -4897847955.3729000       -81043930.912717581        419668391.58699012     
  -5430796830.8740473        48747287.333287477        201668528.18510723     
  -5371384983.5139637        39247396.302715302        215799245.05939665     
  -5316691442.1449375        14019818.635274410        232604630.80845943     
  -5266716206.7669802       -26935445.669063091        252084685.43228757     
  -5221459277.3800774       -83618396.610247374        274239408.93088937     
  -5771891050.2280731        47326554.351357937        62277611.811303228     
  -5702329960.6696920        44780037.326972961        72759093.142599210     
  -5638697781.8994255        22470484.342198133        86768390.211769938     
  -5580994513.9172907       -19602104.603012800        104305503.01881871     
  -5529220156.7232676       -81437729.508587122        125370431.56374273     
  -4203073983.3665600       -61629601.120049953        700206372.76604640     
  -4018689084.1989670       -57839734.462499142        673909122.68613338     
  -3834924911.1820502       -56118954.973854303        651671692.53023255     
  -3651781464.3158045       -56467262.654126167        633494082.29834855     
  -3469258743.6002312       -58884657.503298759        619376291.99048066     
  -4558386190.7017221       -73714332.415981531        561657379.53204429     
  -4362053747.8616562       -73597301.878355980        541791584.54197180     
  -4165229797.9676137       -71841914.494139433        527903965.40361643     
  -3967914341.0195956       -68448170.263341904        519994522.11698139     
  -3770107377.0176029       -63416069.185956478        518063254.68206221     
  -4897847955.3729000       -81043930.912717581        419668391.58699012     
  -4684086951.9240627       -82955431.414134741        407531657.09218526     
  -4468722208.2165985       -79521131.053457737        403291454.37680221     
  -4251753724.2505131       -70741029.830708742        406947783.44083697     
  -4033181500.0257998       -56615127.745863199        418500644.28429925     
  -5221459277.3800774       -83618396.610247374        274239408.93088937     
  -4984788696.3861780       -85914123.069828033        271129340.33677471     
  -4745402141.9289961       -79156604.651796818        277834159.44978577     
  -4503299614.0085516       -63345841.356215000        294353866.26991981     
  -4258481112.6248159       -38481833.183015347        320688460.79718286     
  -5529220156.7232676       -81437729.508587122        125370431.56374273     
  -5264158981.2480078       -82473376.845431805        132584634.27573974     
  -4995269599.1048136       -70748335.289160013        151532080.62257993     
  -4722552010.2937088       -46262604.839841843        182212770.60422739     
  -4446006214.8146667       -9016185.4974238873        224626704.22072062     
  -3469258743.6002312       -58884657.503298759        619376291.99048066     
  -3124020414.2571244       -266095.99474084377        550389110.98882949     
  -2770103376.0582042        87281495.033201456        497700649.60891545     
  -2407507629.0034637        203758115.58054006        461310907.85074002     
  -2036233173.0929058        349163765.64727092        441219885.71430612     
  -3770107377.0176029       -63416069.185956478        518063254.68206221     
  -3387425504.9184690        6850979.5306060314        467590251.11334080     
  -2998791749.6249437        96957638.895139337        426933140.68720514     
  -2604206111.1370173        206903908.90767527        396091923.40366012     
  -2203668589.4547062        336689789.56816554        375066599.26270437     
  -4033181500.0257998       -56615127.745863199        418500644.28429925     
  -3631578446.5396352        19743699.768000841        383360521.54350710     
  -3226750335.5205002        106852719.05843592        351553465.46615416     
  -2818697166.9683919        204711930.12544405        323079476.05224872     
  -2407418940.8833213        313321332.96901047        297938553.30177516     
  -4258481112.6248159       -38481833.183015347        320688460.79718286     
  -3856479239.1206174        38412064.717463732        297699922.27933037     
  -3453979133.7448740        116966735.52309513        271561623.94577152     
  -3050980796.4975953        197182179.23385072        242273565.79649737     
  -2647484227.3787570        279058395.84979165        209835747.83151874     
  -4446006214.8146667       -9016185.4974238873        224626704.22072062     
  -4062127882.6614308        62856074.378977299        210608453.32080796     
  -3680478144.2980733        127299688.28909373        186957616.12603670     
  -3301056999.7245841        184314656.23298860        153674192.63641661     
  -2923864448.9409938        233900978.21056604        110758182.85192731     
  -2036233173.0929058        349163765.64727092        441219885.71430612     
  -2662208133.9173160        166840477.62563968        634222327.33099318     
  -3315688691.3345804       -107168132.37219095        775373082.47637653     
  -3996674845.3447285       -472862064.34628379        864672151.15045834     
  -4705166595.9477415       -930241318.29660010        902119533.35324228     
  -2203668589.4547062        336689789.56816554        375066599.26270437     
  -2930983543.3606462        107461015.07534552        546183152.39998507     
  -3677871641.4347134       -187011573.31126213        702021894.20843673     
  -4444332883.6769199       -546727975.59165728        842582824.68805194     
  -5230367270.0872612       -971688191.76583564        967865943.83884656     
  -2407418940.8833213        313321332.96901047        297938553.30177516     
  -3131577101.7494483        68536107.841371536        456423745.78851163     
  -3867375954.3589640       -215051423.09755898        636205002.08888221     
  -4614815498.7118959       -537441259.84786975        837282322.20289588     
  -5373895734.8082247       -898633402.40949774        1059655706.1305420     
  -2647484227.3787570        279058395.84979165        209835747.83151874     
  -3263988809.0837231        50065755.923774719        364944107.49656284     
  -3884201630.1073465       -191287681.73109055        577922406.11771059     
  -4508122690.4496622       -445001917.11492407        848770643.69497430     
  -5135751990.1106215       -711076950.22758996        1177488820.2283416     
  -2923864448.9409938        233900978.21056604        110758182.85192731     
  -3328218665.3634634        52049959.322551727        271744237.52413779     
  -3728348668.6798577       -115720349.21186852        527174106.29492301     
  -4124254458.8902020       -269409947.39280105        877047789.16429424     
  -4515936035.9944677       -409018835.22012389        1321365286.1322393     
 </DataArray>
 <DataArray  type="Float64" Name="VM" NumberOfComponents="1" format="ascii">
   12935466634.043324     
   11341131690.139553     
   10211666915.174805     
   9275104229.7133884     
   8306779770.9911957     
   10130563987.826359     
   9322612341.7420139     
   8827458527.1751709     
   8444829513.4619894     
   8036805057.2699299     
   7982742149.0119190     
   7735554614.5652504     
   7669920050.9170761     
   7670287223.4752293     
   7666694715.2961531     
   6491903239.4127312     
   6587244409.8387537     
   6757896068.6855898     
   6961671015.9147110     
   7171892390.3183384     
   5657577256.1804132     
   5890866734.1922197     
   6116591601.0162573     
   6332257698.8649483     
   6537601429.9816380     
   8306779770.9911957     
   8020150778.5159235     
   7776555782.8184271     
   7565075264.3875380     
   7380770107.8618841     
   8036805057.2699299     
   7745491639.7859068     
   7470465739.7340565     
   7209688384.9039536     
   6963226434.4104462     
   7666694715.2961531     
   7379471559.5991516     
   7098071468.3146305     
   6822589956.5392246     
   6553282049.1117201     
   7171892390.3183384     
   6909478904.1919594     
   6655282111.4972086     
   6405497052.2636156     
   6156987898.4299393     
   6537601429.9816380     
   6327806656.6237936     
   6140435897.2564449     
   5961609396.5053082     
   5782262990.4249802     
   7380770107.8618841     
   7230501487.5992088     
   7071245798.3769312     
   6902200641.4577007     
   6723293451.2375765     
   6963226434.4104462     
   6818929654.3128633     
   6668832244.3986492     
   6512613026.8484287     
   6350313058.8861628     
   6553282049.1117201     
   6413316796.9676695     
   6270803355.8611403     
   6125703982.0542955     
   5978094119.3900938     
   6156987898.4299393     
   6018680791.6296158     
   5880989542.8382149     
   5743950875.7864285     
   5607613488.0671492     
   5782262990.4249802     
   5641528884.6944408     
   5504365348.0684834     
   5370674023.1771727     
   5240453792.0784197     
   6723293451.2375765     
   6482852042.5777693     
   6248226816.1201544     
   6019408152.3170443     
   5796702982.8879290     
   6350313058.8861628     
   6122732389.9020739     
   5899484855.6145267     
   5680649707.4931269     
   5466505086.4338837     
   5978094119.3900938     
   5764654773.2989674     
   5554446280.1183958     
   5347576906.3719540     
   5144274070.5479965     
   5607613488.0671492     
   5410161439.4318342     
   5215223289.0106230     
   5022880168.4209232     
   4833302015.2158375     
   5240453792.0784197     
   5061422718.4940195     
   4884604216.2510986     
   4710002166.9223585     
   4537742768.3882618     
   5796702982.8879290     
   5726238243.2973299     
   5651964963.1929150     
   5574147768.1951714     
   5493247969.6814737     
   5466505086.4338837     
   5404057535.1858768     
   5338937923.5891104     
   5271413818.1872606     
   5201888160.0441113     
   5144274070.5479965     
   5088409302.5270424     
   5030890844.5777855     
   4971953679.1941690     
   4911914733.7186852     
   4833302015.2158375     
   4782352431.0127439     
   4730604570.7667341     
   4678229608.7190952     
   4625438029.9191418     
   4537742768.3882618     
   4489769217.2706842     
   4441644371.7492332     
   4393450437.0007772     
   4345280439.1182632     
   5493247969.6814737     
   5228456224.8935938     
   4967212760.2239008     
   4710176733.0368624     
   4458513025.7138634     
   5201888160.0441113     
   4964651960.3749762     
   4730861747.0393915     
   4500931862.9118586     
   4275604251.3655453     
   4911914733.7186852     
   4696512305.2885723     
   4484236392.0862656     
   4275331600.0706325     
   4070239289.8724060     
   4625438029.9191418     
   4426342553.2957945     
   4229788445.2956080     
   4035915750.2490072     
   3844972648.3182511     
   4345280439.1182632     
   4157310177.8270488     
   3970971467.4309111     
   3786348452.6637259     
   3603584130.2906747     
   4458513025.7138634     
   4110137637.0905557     
   3759721816.6552205     
   3407378760.6913638     
   3053586443.0713177     
   4275604251.3655453     
   3909976849.7115307     
   3545263192.1882372     
   3181988883.3902864     
   2820982489.0376296     
   4070239289.8724060     
   3701533288.4014034     
   3337497847.5636201     
   2979450060.4357705     
   2629531131.6448398     
   3844972648.3182511     
   3486234027.8000655     
   3136833469.7254119     
   2798961494.7947769     
   2476588916.0297356     
   3603584130.2906747     
   3266107293.3759413     
   2943804895.5316362     
   2639428474.9286842     
   2358636144.5820656     
   3053586443.0713177     
   3387405663.0609083     
   3783684243.0653777     
   4275345495.1589446     
   4894066738.3394442     
   2820982489.0376296     
   3349491895.6907454     
   3922065229.1606674     
   4547120782.7789707     
   5233459876.2308311     
   2629531131.6448398     
   3263597091.2316175     
   3922426397.7106895     
   4605246660.6867685     
   5312790614.4706802     
   2476588916.0297356     
   3132431412.4573278     
   3788457742.0522828     
   4444209882.8509884     
   5101855107.7512093     
   2358636144.5820656     
   2960754208.7491665     
   3528958774.9786258     
   4068182079.1949840     
   4590039119.8479328     
   5657577256.1804132     
   5890866734.1922197     
   6116591601.0162573     
   6332257698.8649483     
   6537601429.9816380     
   5150654668.8561869     
   5311020814.6028757     
   5468076824.6023788     
   5618899853.1523104     
   5761994981.3311396     
   4642321224.1230106     
   4755079994.4339724     
   4869007967.6753864     
   4981449600.2510948     
   5090460191.7215538     
   4132840226.3466678     
   4223883992.3145800     
   4320883006.4769621     
   4422165506.3815689     
   4526264337.9735060     
   3623727262.2454262     
   3719257907.9446473     
   3826062237.8209863     
   3944066213.9438305     
   4073167045.4879503     
   6537601429.9816380     
   6327806656.6237936     
   6140435897.2564449     
   5961609396.5053082     
   5782262990.4249802     
   5761994981.3311396     
   5651634826.9534531     
   5557486203.8694611     
   5470491071.6848583     
   5385052395.3368101     
   5090460191.7215538     
   5053799043.1760607     
   5027812415.9655457     
   5007287933.7900667     
   4988982788.1976748     
   4526264337.9735060     
   4538893453.4867125     
   4556293656.5970240     
   4575985087.4368734     
   4596228372.3080940     
   4073167045.4879503     
   4112248323.7280922     
   4148717712.8435736     
   4181693314.2492876     
   4210454750.4579921     
   5782262990.4249802     
   5641528884.6944408     
   5504365348.0684834     
   5370674023.1771727     
   5240453792.0784197     
   5385052395.3368101     
   5252797991.2368307     
   5123178437.6350346     
   4996225826.6677589     
   4872006518.1560078     
   4988982788.1976748     
   4870012533.5686693     
   4753699469.3111267     
   4640010846.1477442     
   4528987026.5878716     
   4596228372.3080940     
   4495878217.8038111     
   4399287817.6299467     
   4306156807.0076580     
   4216430094.4705729     
   4210454750.4579921     
   4134401716.0492053     
   4064473293.6664028     
   3999861682.9923320     
   3940348108.6587539     
   5240453792.0784197     
   5061422718.4940195     
   4884604216.2510986     
   4710002166.9223585     
   4537742768.3882618     
   4872006518.1560078     
   4711055015.6390753     
   4553236247.2539177     
   4398659578.9180384     
   4247547550.5584702     
   4528987026.5878716     
   4384855072.1178589     
   4244746342.6221619     
   4108850883.6447854     
   3977460573.9357138     
   4216430094.4705729     
   4087710752.5636697     
   3963823591.8102884     
   3845011091.3731585     
   3731605750.4660215     
   3940348108.6587539     
   3825440990.8076200     
   3716029655.0954556     
   3612379157.2543645     
   3514835234.5166721     
   4537742768.3882618     
   4489769217.2706842     
   4441644371.7492332     
   4393450437.0007772     
   4345280439.1182632     
   4247547550.5584702     
   4205620599.0294037     
   4163698029.9188418     
   4121918527.2355456     
   4080442967.7342682     
   3977460573.9357138     
   3944078221.0216351     
   3911076538.7887564     
   3878657385.2245173     
   3847060746.8635993     
   3731605750.4660215     
   3709392168.2995334     
   3688166514.5724673     
   3668195539.2551723     
   3649803562.1704965     
   3514835234.5166721     
   3506406544.9371166     
   3499793033.4952655     
   3495317477.4037995     
   3493381538.5337667     
   4345280439.1182632     
   4157310177.8270488     
   3970971467.4309111     
   3786348452.6637259     
   3603584130.2906747     
   4080442967.7342682     
   3905595027.2140861     
   3733659607.4600863     
   3564862190.8667235     
   3399523764.9355969     
   3847060746.8635993     
   3687934391.6798425     
   3533330359.8500566     
   3383640135.1081300     
   3239384905.8094158     
   3649803562.1704965     
   3508724761.0669041     
   3374038629.7523417     
   3246287206.1164436     
   3126159707.9167609     
   3493381538.5337667     
   3372108606.9009929     
   3259233846.1131163     
   3155386951.3724980     
   3061336656.8669424     
   3603584130.2906747     
   3266107293.3759413     
   2943804895.5316362     
   2639428474.9286842     
   2358636144.5820656     
   3399523764.9355969     
   3091936551.5146127     
   2799676357.7151532     
   2525082136.9702229     
   2272749412.6808529     
   3239384905.8094158     
   2955403814.3859611     
   2686280419.5961452     
   2434005047.7795167     
   2202295886.6980281     
   3126159707.9167609     
   2860140217.4085565     
   2607802988.9889588     
   2370847218.7078104     
   2152286202.7829885     
   3061336656.8669424     
   2808580348.9996314     
   2567626235.8783884     
   2339928384.9929681     
   2127942182.1691267     
   2358636144.5820656     
   2960754208.7491665     
   3528958774.9786258     
   4068182079.1949840     
   4590039119.8479328     
   2272749412.6808529     
   2814308761.3259315     
   3322970839.4754257     
   3800784371.4424205     
   4255583628.3420911     
   2202295886.6980281     
   2722267968.0463634     
   3217025561.2885189     
   3687005210.1840634     
   4137268072.7306933     
   2152286202.7829885     
   2684963026.1782398     
   3204466910.4900923     
   3711281427.4848628     
   4209110370.5680556     
   2127942182.1691267     
   2699810270.2568235     
   3272457129.7569427     
   3847626017.7457676     
   4428671685.7252531     
   3623727262.2454262     
   3719257907.9446473     
   3826062237.8209863     
   3944066213.9438305     
   4073167045.4879503     
   3136825686.3133903     
   3255141098.6862082     
   3382904339.0800066     
   3519630567.2236419     
   3664848403.5107884     
   2693672175.0894876     
   2830184037.7834473     
   2974048305.8916197     
   3124160275.0738945     
   3279591279.1582499     
   2297751757.0731144     
   2449178900.0669603     
   2605378873.9841743     
   2764398880.6045933     
   2924787199.7669320     
   1954270497.8315542     
   2119081475.8830380     
   2285308991.5366950     
   2449954512.0823503     
   2611034396.8074784     
   4073167045.4879503     
   4112248323.7280922     
   4148717712.8435736     
   4181693314.2492876     
   4210454750.4579921     
   3664848403.5107884     
   3701809642.0139971     
   3737425233.7429700     
   3770810625.2627816     
   3801225736.9593916     
   3279591279.1582499     
   3320299959.7831035     
   3361287365.6684895     
   3401743458.9158101     
   3440997972.1237669     
   2924787199.7669320     
   2975105080.1252079     
   3027690976.0945506     
   3081874906.9022121     
   3137131302.6578193     
   2611034396.8074784     
   2676277881.0458937     
   2746094309.3610096     
   2819986649.0184937     
   2897609126.5525737     
   4210454750.4579921     
   4134401716.0492053     
   4064473293.6664028     
   3999861682.9923320     
   3940348108.6587539     
   3801225736.9593916     
   3756851457.5570178     
   3718114929.2949781     
   3684576991.6752753     
   3656197411.9909453     
   3440997972.1237669     
   3423711467.4946747     
   3411179419.0381012     
   3403191906.8264251     
   3399763643.7358189     
   3137131302.6578193     
   3142607217.3763237     
   3151337969.4644156     
   3163224082.0708709     
   3178257645.8572278     
   2897609126.5525737     
   2921842510.5875010     
   2947027327.7640643     
   2973093686.4902205     
   2999990221.3009419     
   3940348108.6587539     
   3825440990.8076200     
   3716029655.0954556     
   3612379157.2543645     
   3514835234.5166721     
   3656197411.9909453     
   3553337453.4510398     
   3456627626.1466351     
   3366330781.1663661     
   3282784474.7899041     
   3399763643.7358189     
   3309619501.5843511     
   3226470059.7316637     
   3150559774.2926769     
   3082203481.1070042     
   3178257645.8572278     
   3101261875.2610717     
   3032285238.0690198     
   2971528468.7308111     
   2919260050.8777471     
   2999990221.3009419     
   2936115270.6928272     
   2881429898.7115536     
   2836058320.8267937     
   2800192953.3919158     
   3514835234.5166721     
   3506406544.9371166     
   3499793033.4952655     
   3495317477.4037995     
   3493381538.5337667     
   3282784474.7899041     
   3287735672.4298568     
   3294934974.9450932     
   3304655270.4899735     
   3317220920.1652465     
   3082203481.1070042     
   3100029203.2209530     
   3120356205.2530231     
   3143389861.8198857     
   3169364213.7565460     
   2919260050.8777471     
   2949054173.8779516     
   2981383505.0428896     
   3016379096.9874959     
   3054184420.6679878     
   2800192953.3919158     
   2840517628.9350281     
   2883178753.4429536     
   2928239961.2962899     
   2975768037.0467596     
   3493381538.5337667     
   3372108606.9009929     
   3259233846.1131163     
   3155386951.3724980     
   3061336656.8669424     
   3317220920.1652465     
   3212061357.0625892     
   3115684935.0011792     
   3028642427.6961451     
   2951588955.7685766     
   3169364213.7565460     
   3079041758.9827394     
   2997799180.2248626     
   2926091960.9514651     
   2864447761.9308643     
   3054184420.6679878     
   2977137932.2322192     
   2909354753.8609462     
   2851185163.7716613     
   2803024676.6872015     
   2975768037.0467596     
   2910117939.9025979     
   2853785015.3181090     
   2807014176.7785096     
   2770075760.1771064     
   3061336656.8669424     
   2808580348.9996314     
   2567626235.8783884     
   2339928384.9929681     
   2127942182.1691267     
   2951588955.7685766     
   2704956455.2818027     
   2471901827.9452696     
   2253749316.9293814     
   2052714696.7502699     
   2864447761.9308643     
   2624560566.5676999     
   2400232728.1931777     
   2192601447.1259646     
   2003550288.9354389     
   2803024676.6872015     
   2569851461.4593611     
   2354366423.5310183     
   2157460535.1914182     
   1980599481.8755603     
   2770075760.1771064     
   2542774048.8438401     
   2335372590.0920115     
   2148473435.5711427     
   1983074017.8015251     
   2127942182.1691267     
   2699810270.2568235     
   3272457129.7569427     
   3847626017.7457676     
   4428671685.7252531     
   2052714696.7502699     
   2662928612.2047248     
   3265889454.4357376     
   3862457053.9425998     
   4455126697.9940100     
   2003550288.9354389     
   2643632627.5219722     
   3267405935.6558175     
   3875293932.3583050     
   4469212508.2315388     
   1980599481.8755603     
   2643241235.9218516     
   3279958009.5718470     
   3890932149.1078277     
   4477621303.1920166     
   1983074017.8015251     
   2662728061.6434364     
   3306697658.1561065     
   3914910915.3785381     
   4488380484.4400358     
   1954270497.8315542     
   2119081475.8830380     
   2285308991.5366950     
   2449954512.0823503     
   2611034396.8074784     
   1652733829.3232648     
   1820007205.7015078     
   1989029755.2173934     
   2157067987.9367266     
   2322341100.3701386     
   1392488866.1717472     
   1570786486.4669387     
   1750115929.9104714     
   1928444403.2691460     
   2104505425.3620563     
   1205864909.0506334     
   1398836766.8131649     
   1591372103.8905284     
   1782682359.2077577     
   1972303097.5788167     
   1135593696.7262471     
   1334998259.8271625     
   1534672643.5404968     
   1734616847.8662491     
   1934830872.8044202     
   2611034396.8074784     
   2676277881.0458937     
   2746094309.3610096     
   2819986649.0184937     
   2897609126.5525737     
   2322341100.3701386     
   2406604286.1462870     
   2493388903.8138008     
   2582316341.5337586     
   2673118096.8212481     
   2104505425.3620563     
   2205370485.5474815     
   2306247401.5815654     
   2406907439.8327365     
   2507188409.7560434     
   1972303097.5788167     
   2086496116.1007283     
   2197960356.7980313     
   2306623239.3976603     
   2412434080.2824020     
   1934830872.8044202     
   2058516736.8752720     
   2176912449.3184943     
   2290018010.1340847     
   2397833419.3220434     
   2897609126.5525737     
   2921842510.5875010     
   2947027327.7640643     
   2973093686.4902205     
   2999990221.3009419     
   2673118096.8212481     
   2704362160.9453793     
   2737577465.1841140     
   2772735958.8254204     
   2809820591.2478871     
   2507188409.7560434     
   2545364288.3798132     
   2586548574.9387074     
   2630736953.7236538     
   2677929778.4265814     
   2412434080.2824020     
   2455917843.3005929     
   2503451097.9630647     
   2555035490.8930721     
   2610673629.6968966     
   2397833419.3220434     
   2443372342.1561003     
   2494013186.6045747     
   2549755952.6674690     
   2610600640.3447814     
   2999990221.3009419     
   2936115270.6928272     
   2881429898.7115536     
   2836058320.8267937     
   2800192953.3919158     
   2809820591.2478871     
   2760384548.1962433     
   2720015295.6918449     
   2688793545.5824752     
   2666837069.7414660     
   2677929778.4265814     
   2639972464.9118671     
   2610688609.3942704     
   2590115535.9103494     
   2578305654.4137354     
   2610673629.6968966     
   2580883420.1585026     
   2559086735.3055062     
   2545292204.7128191     
   2539511754.1315970     
   2610600640.3447814     
   2585599149.9826555     
   2567656129.0785275     
   2556771577.6323977     
   2552945495.6442637     
   2800192953.3919158     
   2840517628.9350281     
   2883178753.4429536     
   2928239961.2962899     
   2975768037.0467596     
   2666837069.7414660     
   2715351201.6267228     
   2766552988.1777992     
   2820482178.9496064     
   2877179238.0640016     
   2578305654.4137354     
   2633488668.9397020     
   2691663611.6614265     
   2752849701.5912719     
   2817065979.1322408     
   2539511754.1315970     
   2599005436.4862442     
   2661789377.3888979     
   2727868808.0524201     
   2797248801.9754429     
   2552945495.6442637     
   2613761175.6803446     
   2678197921.2757335     
   2746255732.4304256     
   2817934609.1444345     
   2975768037.0467596     
   2910117939.9025979     
   2853785015.3181090     
   2807014176.7785096     
   2770075760.1771064     
   2877179238.0640016     
   2823143140.7452278     
   2779104157.5346270     
   2745224034.3460169     
   2721676686.7342124     
   2817065979.1322408     
   2772380778.0289865     
   2738262112.6645207     
   2714790923.3716936     
   2702052250.4608064     
   2797248801.9754429     
   2758972897.2269945     
   2731739220.6369224     
   2715569677.1722646     
   2710486870.2970252     
   2817934609.1444345     
   2782625155.6512823     
   2758770771.1189389     
   2746371455.5473990     
   2745427208.9366693     
   2770075760.1771064     
   2542774048.8438401     
   2335372590.0920115     
   2148473435.5711427     
   1983074017.8015251     
   2721676686.7342124     
   2501918141.7423487     
   2301119568.9624996     
   2119589244.5292017     
   1957844363.9696016     
   2702052250.4608064     
   2487601336.4603047     
   2291062921.3698983     
   2112560594.1029289     
   1952304456.5255790     
   2710486870.2970252     
   2499601435.4954066     
   2305487636.1190639     
   2128173150.7462258     
   1967705643.0948489     
   2745427208.9366693     
   2536884926.4403172     
   2343910647.0104923     
   2166504370.6471992     
   2004666097.3504324     
   1983074017.8015251     
   2662728061.6434364     
   3306697658.1561065     
   3914910915.3785381     
   4488380484.4400358     
   1957844363.9696016     
   2652331614.3133988     
   3316298105.1363630     
   3949322009.8879390     
   4551789512.6307993     
   1952304456.5255790     
   2660969343.4737830     
   3344255800.1386089     
   4001809031.7057605     
   4633722849.9195480     
   1967705643.0948489     
   2686974816.2027698     
   3386196029.8220096     
   4065243883.7950377     
   4724124561.2604332     
   2004666097.3504324     
   2728434301.5442982     
   3438004837.9946837     
   4133377706.7015924     
   4814552907.6650028     
   1135593696.7262471     
   1334998259.8271625     
   1534672643.5404968     
   1734616847.8662491     
   1934830872.8044202     
   1205864909.6074390     
   1398836767.3595467     
   1591372104.4379358     
   1782682359.7671869     
   1972303098.1605918     
   1392488867.0852108     
   1570786487.3961825     
   1750115930.8692675     
   1928444404.2744000     
   2104505426.4319618     
   1652733830.3974781     
   1820007206.8250620     
   1989029756.4060774     
   2157067989.2124910     
   2322341101.7584577     
   1954270498.9343271     
   2119081477.0524828     
   2285308992.7934980     
   2449954513.4547496     
   2611034398.3286061     
   1934830872.8044202     
   2058516736.8752720     
   2176912449.3184943     
   2290018010.1340847     
   2397833419.3220434     
   1972303098.1605918     
   2086496116.7311201     
   2197960357.4704256     
   2306623240.1048503     
   2412434081.0170879     
   2104505426.4319618     
   2205370486.7002411     
   2306247402.8022590     
   2406907441.1045060     
   2507188411.0615563     
   2322341101.7584577     
   2406604287.6414294     
   2493388905.3924046     
   2582316343.1682563     
   2673118098.4826221     
   2611034398.3286061     
   2676277882.6885386     
   2746094311.0947189     
   2819986650.8054476     
   2897609128.3517241     
   2397833419.3220434     
   2443372342.1561003     
   2494013186.6045747     
   2549755952.6674690     
   2610600640.3447814     
   2412434081.0170879     
   2455917844.3712082     
   2503451099.4845285     
   2555035492.9815722     
   2610673632.4690261     
   2507188411.0615563     
   2545364290.1308303     
   2586548577.3520260     
   2630736957.0193667     
   2677929782.8272839     
   2673118098.4826221     
   2704362162.8808498     
   2737577467.6931138     
   2772735962.2132807     
   2809820595.8259974     
   2897609128.3517241     
   2921842512.1985879     
   2947027329.5443211     
   2973093688.8044763     
   2999990224.5233693     
   2610600640.3447814     
   2585599149.9826555     
   2567656129.0785275     
   2556771577.6323977     
   2552945495.6442637     
   2610673632.4690261     
   2580883423.3718324     
   2559086739.2073121     
   2545292209.5427423     
   2539511760.1249990     
   2677929782.8272839     
   2639972470.3714747     
   2610688616.4419193     
   2590115545.0665374     
   2578305666.1937733     
   2809820595.8259974     
   2760384554.3667455     
   2720015304.2936859     
   2688793557.4592476     
   2666837085.7426696     
   2999990224.5233693     
   2936115275.7329078     
   2881429906.7322626     
   2836058333.0284944     
   2800192971.0114064     
   2552945495.6442637     
   2613761175.6803446     
   2678197921.2757335     
   2746255732.4304256     
   2817934609.1444345     
   2539511760.1249990     
   2599005437.1147194     
   2661789371.6111732     
   2727868794.8691683     
   2797248780.4369326     
   2578305666.1937733     
   2633488671.9097528     
   2691663603.7785788     
   2752849680.8680406     
   2817065943.6509409     
   2666837085.7426696     
   2715351207.9227018     
   2766552981.7835045     
   2820482156.9127526     
   2877179197.4851260     
   2800192971.0114064     
   2840517638.7806993     
   2883178751.7057862     
   2928239944.1410508     
   2975768000.6345587     
   2817934609.1444345     
   2782625155.6512823     
   2758770771.1189389     
   2746371455.5473990     
   2745427208.9366693     
   2797248780.4369326     
   2758972886.7450509     
   2731739223.0798378     
   2715569694.3479834     
   2710486903.9379067     
   2817065943.6509409     
   2772380762.1788034     
   2738262120.1003261     
   2714790957.6779003     
   2702052315.1223989     
   2877179197.4851260     
   2823143124.8603554     
   2779104171.6883788     
   2745224083.8802204     
   2721676776.9503393     
   2975768000.6345587     
   2910117929.0920606     
   2853785036.9752340     
   2807014237.9165077     
   2770075867.9245048     
   2745427208.9366693     
   2536884926.4403172     
   2343910647.0104923     
   2166504370.6471992     
   2004666097.3504324     
   2710486903.9379067     
   2499601465.0827022     
   2305487660.0163250     
   2128173167.3458619     
   1967705650.7569773     
   2702052315.1223989     
   2487601393.1919827     
   2291062966.9571652     
   2112560625.3415508     
   1952304470.0704060     
   2721676776.9503393     
   2501918221.2035160     
   2301119632.9739151     
   2119589288.2943182     
   1957844382.3059862     
   2770075867.9245048     
   2542774144.9071460     
   2335372668.4138503     
   2148473489.7349410     
   1983074040.5544987     
   2004666097.3504324     
   2728434301.5442982     
   3438004837.9946837     
   4133377706.7015924     
   4814552907.6650028     
   1967705650.7569773     
   2686974816.7090926     
   3386196025.0406904     
   4065243875.5513654     
   4724124551.3849592     
   1952304470.0704060     
   2660969349.7158761     
   3344255803.2132492     
   4001809035.0825329     
   4633722856.5533810     
   1957844382.3059862     
   2652331631.3002348     
   3316298127.6485929     
   3949322042.8190947     
   4551789559.2243013     
   1983074040.5544987     
   2662728093.9154067     
   3306697709.9604211     
   3914910992.6631346     
   4488380589.6538038     
   1954270498.9343271     
   2119081477.0524828     
   2285308992.7934980     
   2449954513.4547496     
   2611034398.3286061     
   2297751758.1185431     
   2449178901.1868749     
   2605378875.1909018     
   2764398881.9121552     
   2924787201.1903219     
   2693672176.0089459     
   2830184038.7896585     
   2974048306.9895511     
   3124160276.2653513     
   3279591280.4423542     
   3136825687.0462060     
   3255141099.5314827     
   3382904340.0362830     
   3519630568.2821441     
   3664848404.6564693     
   3623727262.7360978     
   3719257908.5922780     
   3826062238.6185284     
   3944066214.8731189     
   4073167046.5208397     
   2611034398.3286061     
   2676277882.6885386     
   2746094311.0947189     
   2819986650.8054476     
   2897609128.3517241     
   2924787201.1903219     
   2975105081.6278443     
   3027690977.6630540     
   3081874908.5185256     
   3137131304.3014898     
   3279591280.4423542     
   3320299961.1107807     
   3361287367.0448508     
   3401743460.3451328     
   3440997973.6101174     
   3664848404.6564693     
   3701809643.1607089     
   3737425234.9144049     
   3770810626.4858155     
   3801225738.2632446     
   4073167046.5208397     
   4112248324.7050548     
   4148717713.8057194     
   4181693315.2443590     
   4210454751.5381579     
   2897609128.3517241     
   2921842512.1985879     
   2947027329.5443211     
   2973093688.8044763     
   2999990224.5233693     
   3137131304.3014898     
   3142607218.2123713     
   3151337969.5395188     
   3163224081.4360628     
   3178257644.5725069     
   3440997973.6101174     
   3423711467.9656816     
   3411179418.2803206     
   3403191904.6214700     
   3399763639.8640909     
   3801225738.2632446     
   3756851458.1516247     
   3718114928.7633581     
   3684576989.5816851     
   3656197407.8786016     
   4210454751.5381579     
   4134401717.2848129     
   4064473294.4930940     
   3999861682.8131380     
   3940348106.8308859     
   2999990224.5233693     
   2936115275.7329078     
   2881429906.7322626     
   2836058333.0284944     
   2800192971.0114064     
   3178257644.5725069     
   3101261874.0142527     
   3032285237.6311698     
   2971528469.9104948     
   2919260054.5255184     
   3399763639.8640909     
   3309619496.1503210     
   3226470053.1354647     
   3150559766.9595108     
   3082203473.4928045     
   3656197407.8786016     
   3553337446.5956607     
   3456627616.6108074     
   3366330769.0155172     
   3282784460.0948129     
   3940348106.8308859     
   3825440985.6253934     
   3716029646.3253651     
   3612379144.6380582     
   3514835217.7670584     
   2800192971.0114064     
   2840517638.7806993     
   2883178751.7057862     
   2928239944.1410508     
   2975768000.6345587     
   2919260054.5255184     
   2949054170.5245042     
   2981383492.2677760     
   3016379072.3170166     
   3054184381.5903168     
   3082203473.4928045     
   3100029190.0305543     
   3120356185.4410100     
   3143389834.2675586     
   3169364177.2687654     
   3282784460.0948129     
   3287735653.2632542     
   3294934951.6028261     
   3304655243.1884937     
   3317220889.0127873     
   3514835217.7670584     
   3506406523.7630525     
   3499793009.4679661     
   3495317452.0231352     
   3493381513.1705699     
   2975768000.6345587     
   2910117929.0920606     
   2853785036.9752340     
   2807014237.9165077     
   2770075867.9245048     
   3054184381.5903168     
   2977137918.3596973     
   2909354770.5409865     
   2851185216.6634822     
   2803024771.7500253     
   3169364177.2687654     
   3079041744.7675271     
   2997799192.0394835     
   2926092003.0203600     
   2864447838.9535456     
   3317220889.0127873     
   3212061344.1240578     
   3115684942.3807745     
   3028642458.0746269     
   2951589012.4258986     
   3493381513.1705699     
   3372108595.8152390     
   3259233849.7219048     
   3155386970.7088885     
   3061336693.6046491     
   2770075867.9245048     
   2542774144.9071460     
   2335372668.4138503     
   2148473489.7349410     
   1983074040.5544987     
   2803024771.7500253     
   2569851540.8283172     
   2354366482.2484965     
   2157460567.7045126     
   1980599481.5299923     
   2864447838.9535456     
   2624560627.0897036     
   2400232768.3741231     
   2192601462.3639503     
   2003550273.3775167     
   2951589012.4258986     
   2704956496.9489737     
   2471901851.9302535     
   2253749319.7231512     
   2052714673.6142640     
   3061336693.6046491     
   2808580373.6939487     
   2567626247.0066075     
   2339928380.2767859     
   2127942158.3034549     
   1983074040.5544987     
   2662728093.9154067     
   3306697709.9604211     
   3914910992.6631346     
   4488380589.6538038     
   1980599481.5299923     
   2643241248.6395197     
   3279958040.7387438     
   3890932200.9510207     
   4477621375.8648787     
   2003550273.3775167     
   2643632616.8378901     
   3267405930.3611951     
   3875293931.7922034     
   4469212511.9275990     
   2052714673.6142640     
   2662928577.9455457     
   3265889403.7635479     
   3862456983.6966882     
   4455126608.4603481     
   2127942158.3034549     
   2699810215.8095160     
   3272457031.6050634     
   3847625869.7369189     
   4428671489.6290483     
   3623727262.7360978     
   3719257908.5922780     
   3826062238.6185284     
   3944066214.8731189     
   4073167046.5208397     
   4132840226.5795779     
   4223883992.7316275     
   4320883007.0753126     
   4422165507.1537180     
   4526264338.9082098     
   4642321224.1247721     
   4755079994.6002617     
   4869007968.0066462     
   4981449600.7489233     
   5090460192.3880358     
   5150654668.6555653     
   5311020814.5005178     
   5468076824.6021280     
   5618899853.2630939     
   5761994981.5635529     
   5657577255.8044186     
   5890866733.8032475     
   6116591600.6218195     
   6332257698.4791775     
   6537601429.6185837     
   4073167046.5208397     
   4112248324.7050548     
   4148717713.8057194     
   4181693315.2443590     
   4210454751.5381579     
   4526264338.9082098     
   4538893454.3673401     
   4556293657.4616489     
   4575985088.3258467     
   4596228373.2605610     
   5090460192.3880358     
   5053799043.7954416     
   5027812416.5724106     
   5007287934.4220123     
   4988982788.8892269     
   5761994981.5635529     
   5651634827.1572161     
   5557486204.0736837     
   5470491071.9264927     
   5385052395.6515541     
   6537601429.6185837     
   6327806656.2678719     
   6140435896.9273357     
   5961609396.2381029     
   5782262990.2586222     
   4210454751.5381579     
   4134401717.2848129     
   4064473294.4930940     
   3999861682.8131380     
   3940348106.8308859     
   4596228373.2605610     
   4495878220.0083303     
   4399287820.8037891     
   4306156810.8477240     
   4216430098.6470962     
   4988982788.8892269     
   4870012536.0780306     
   4753699473.5704441     
   4640010852.0797396     
   4528987034.1048212     
   5385052395.6515541     
   5252797993.3320293     
   5123178441.5954008     
   4996225832.5771074     
   4872006526.0989637     
   5782262990.2586222     
   5641528885.6299171     
   5504365350.2868042     
   5370674026.8676605     
   5240453797.4407196     
   3940348106.8308859     
   3825440985.6253934     
   3716029646.3253651     
   3612379144.6380582     
   3514835217.7670584     
   4216430098.6470962     
   4087710754.7625918     
   3963823591.8408446     
   3845011089.0273175     
   3731605745.5143757     
   4528987034.1048212     
   4384855078.5361938     
   4244746347.7652521     
   4108850887.3288970     
   3977460575.9693389     
   4872006526.0989637     
   4711055022.9099035     
   4553236253.6603880     
   4398659584.2701788     
   4247547554.6739235     
   5240453797.4407196     
   5061422723.2126560     
   4884604220.0896416     
   4710002169.6522961     
   4537742769.8019066     
   3514835217.7670584     
   3506406523.7630525     
   3499793009.4679661     
   3495317452.0231352     
   3493381513.1705699     
   3731605745.5143757     
   3709392160.8119397     
   3688166505.7937155     
   3668195530.3566461     
   3649803554.1998219     
   3977460575.9693389     
   3944078222.1790400     
   3911076540.0736070     
   3878657387.5606656     
   3847060751.0531025     
   4247547554.6739235     
   4205620603.9663739     
   4163698036.5099535     
   4121918536.2241964     
   4080442979.7417674     
   4537742769.8019066     
   4489769221.4659538     
   4441644379.4520922     
   4393450448.8359852     
   4345280455.5863438     
   3493381513.1705699     
   3372108595.8152390     
   3259233849.7219048     
   3155386970.7088885     
   3061336693.6046491     
   3649803554.1998219     
   3508724760.7901568     
   3374038637.3729506     
   3246287222.3936253     
   3126159734.2223444     
   3847060751.0531025     
   3687934397.9476690     
   3533330368.1059170     
   3383640145.7181716     
   3239384919.6673861     
   4080442979.7417674     
   3905595036.6030803     
   3733659613.8283772     
   3564862194.1506848     
   3399523765.4779801     
   4345280455.5863438     
   4157310187.8190413     
   3970971470.2612672     
   3786348447.8706160     
   3603584117.6901011     
   3061336693.6046491     
   2808580373.6939487     
   2567626247.0066075     
   2339928380.2767859     
   2127942158.3034549     
   3126159734.2223444     
   2860140238.8915420     
   2607803005.2844796     
   2370847228.5530434     
   2152286203.6691127     
   3239384919.6673861     
   2955403830.3116908     
   2686280438.2370648     
   2434005068.7631145     
   2202295908.2163706     
   3399523765.4779801     
   3091936560.0357056     
   2799676375.6842852     
   2525082164.7844958     
   2272749449.2210937     
   3603584117.6901011     
   3266107293.1959591     
   2943804909.8652205     
   2639428504.8495922     
   2358636189.7391534     
   2127942158.3034549     
   2699810215.8095160     
   3272457031.6050634     
   3847625869.7369189     
   4428671489.6290483     
   2152286203.6691127     
   2684962993.2438140     
   3204466831.4729252     
   3711281296.7618141     
   4209110189.8283257     
   2202295908.2163706     
   2722267966.1485152     
   3217025526.3441305     
   3687005138.4599266     
   4137267966.3466988     
   2272749449.2210937     
   2814308793.2979956     
   3322970862.0341787     
   3800784383.8764429     
   4255583633.1815972     
   2358636189.7391534     
   2960754270.6761265     
   3528958853.9608960     
   4068182176.3957481     
   4590039235.8063250     
   5657577255.8044186     
   5890866733.8032475     
   6116591600.6218195     
   6332257698.4791775     
   6537601429.6185837     
   6491903238.9304914     
   6587244409.1122112     
   6757896067.7405062     
   6961671014.7877731     
   7171892389.0507689     
   7982742148.5305786     
   7735554613.6735945     
   7669920049.6468086     
   7670287221.8758926     
   7666694713.4200630     
   10130563987.446609     
   9322612340.8537273     
   8827458525.8037529     
   8444829511.6638479     
   8036805055.0998564     
   12935466633.863850     
   11341131689.412188     
   10211666913.912586     
   9275104227.9820518     
   8306779768.8607244     
   6537601429.6185837     
   6327806656.2678719     
   6140435896.9273357     
   5961609396.2381029     
   5782262990.2586222     
   7171892389.0507689     
   6909478902.9131575     
   6655282110.2273312     
   6405497051.0267200     
   6156987897.2529507     
   7666694713.4200630     
   7379471557.5890903     
   7098071466.1895962     
   6822589954.3144455     
   6553282046.7995758     
   8036805055.0998564     
   7745491637.2523460     
   7470465736.8506346     
   7209688381.6797781     
   6963226430.8476219     
   8306779768.8607244     
   8020150775.6889963     
   7776555779.2902002     
   7565075260.1609602     
   7380770102.9361382     
   5782262990.2586222     
   5641528885.6299171     
   5504365350.2868042     
   5370674026.8676605     
   5240453797.4407196     
   6156987897.2529507     
   6018680790.5256338     
   5880989541.8816662     
   5743950875.0586853     
   5607613487.6599035     
   6553282046.7995758     
   6413316793.8866873     
   6270803352.0040665     
   6125703977.4160175     
   5978094113.9743919     
   6963226430.8476219     
   6818929649.3587103     
   6668832237.9850645     
   6512613018.9039593     
   6350313049.3480530     
   7380770102.9361382     
   7230501480.8989334     
   7071245789.7926378     
   6902200630.8735085     
   6723293438.5505219     
   5240453797.4407196     
   5061422723.2126560     
   4884604220.0896416     
   4710002169.6522961     
   4537742769.8019066     
   5607613487.6599035     
   5410161437.7801027     
   5215223285.9895573     
   5022880163.9083576     
   4833302009.0910978     
   5978094113.9743919     
   5764654766.5022211     
   5554446271.9486313     
   5347576896.8376989     
   5144274059.6579247     
   6350313049.3480530     
   6122732379.2082367     
   5899484843.9239855     
   5680649694.9614630     
   5466505073.2253342     
   6723293438.5505219     
   6482852029.2294750     
   6248226802.4394722     
   6019408138.6201735     
   5796702969.5118237     
   4537742769.8019066     
   4489769221.4659538     
   4441644379.4520922     
   4393450448.8359852     
   4345280455.5863438     
   4833302009.0910978     
   4782352429.6489477     
   4730604574.5721006     
   4678229618.0179167     
   4625438044.9196701     
   5144274059.6579247     
   5088409298.9990082     
   5030890848.5364027     
   4971953690.6977234     
   4911914752.7276649     
   5466505073.2253342     
   5404057532.7139969     
   5338937931.7305231     
   5271413836.7711277     
   5201888188.8293428     
   5796702969.5118237     
   5726238244.9116211     
   5651964979.4653234     
   5574147798.7679110     
   5493248014.1640406     
   4345280455.5863438     
   4157310187.8190413     
   3970971470.2612672     
   3786348447.8706160     
   3603584117.6901011     
   4625438044.9196701     
   4426342557.7815609     
   4229788438.8735175     
   4035915732.8135471     
   3844972620.1066022     
   4911914752.7276649     
   4696512309.9492769     
   4484236382.2228680     
   4275331575.8291564     
   4070239251.7876573     
   5201888188.8293428     
   4964651970.9037237     
   4730861739.2493467     
   4500931837.0735579     
   4275604208.1726608     
   5493248014.1640406     
   5228456246.9285059     
   4967212759.7479820     
   4710176710.3115892     
   4458512981.4505730     
   3603584117.6901011     
   3266107293.1959591     
   2943804909.8652205     
   2639428504.8495922     
   2358636189.7391534     
   3844972620.1066022     
   3486234013.7886662     
   3136833471.6385140     
   2798961513.8756375     
   2476588952.9467139     
   4070239251.7876573     
   3701533262.0440559     
   3337497834.5564084     
   2979450062.4174137     
   2629531150.3802953     
   4275604208.1726608     
   3909976811.9228292     
   3545263161.4878941     
   3181988861.8142252     
   2820982479.0748935     
   4458512981.4505730     
   4110137588.3711982     
   3759721765.3040295     
   3407378708.9917173     
   3053586393.6291800     
   2358636189.7391534     
   2960754270.6761265     
   3528958853.9608960     
   4068182176.3957481     
   4590039235.8063250     
   2476588952.9467139     
   3132431479.8327794     
   3788457838.9054894     
   4444210007.3304739     
   5101855256.9437046     
   2629531150.3802953     
   3263597149.6796961     
   3922426493.6822925     
   4605246790.4082642     
   5312790773.1018877     
   2820982479.0748935     
   3349491931.2610545     
   3922065307.6905689     
   4547120899.5735769     
   5233460025.2705898     
   3053586393.6291800     
   3387405662.2687936     
   3783684289.1008887     
   4275345583.4657035     
   4894066861.9843369     
 </DataArray>
 <DataArray  type="Float64" Name="strain" NumberOfComponents="3" format="ascii">
  0.20345786310730693        0.0000000000000000       0.12549293981764112     
  0.18665025761483878       -2.7364001643074731E-002   7.4404200393939413E-002
  0.16984265212237065       -4.4721064427061551E-002   3.5134101994194845E-002
  0.15303504662990253       -5.2071188351960493E-002   7.6826446184072687E-003
  0.13622744113743440       -4.9414373417771509E-002  -7.9501717334231614E-003
  0.15984972580416240        0.0000000000000000        9.6487106144327484E-002
  0.15318168058044043       -2.1874073312125729E-002   6.2716169775277414E-002
  0.14651363535671846       -3.6207900700485685E-002   3.7405712919762586E-002
  0.13984559013299647       -4.3001482165079881E-002   2.0555735577782976E-002
  0.13317754490927450       -4.2254817705908290E-002   1.2166237749338615E-002
  0.12646487991945363        0.0000000000000000        7.4204547269623888E-002
  0.12657823345405594       -1.6384144981176726E-002   5.5284721019903359E-002
  0.12669158698865823       -2.7694736973909815E-002   4.1467212773296187E-002
  0.12680494052326055       -3.3931775978199269E-002   3.2752022529802367E-002
  0.12691829405786284       -3.5095261994045078E-002   2.9139150289421951E-002
  0.10330332545318058        0.0000000000000000        5.8645263193530382E-002
  0.10683991623568534       -1.0894216650227722E-002   5.2109854127817219E-002
  0.11037650701819007       -1.9181573247333945E-002   4.7318601554795572E-002
  0.11391309780069481       -2.4862069791318653E-002   4.4271505474465414E-002
  0.11744968858319960       -2.7935706282181866E-002   4.2968565886826772E-002
   9.0365062405343269E-002   0.0000000000000000        4.9809253916046944E-002
   9.3966728925328591E-002  -5.4042883192787191E-003   5.3191569099019030E-002
   9.7568395445313913E-002  -1.0668409520758069E-002   5.4959879264260769E-002
  0.10117006196529924       -1.5792363604438042E-002   5.5114184411772148E-002
  0.10477172848528457       -2.0776150570318647E-002   5.3654484541553193E-002
  0.13622744113743440       -4.9414373417771509E-002  -7.9501717334231614E-003
  0.13297419369508801       -4.2831380372454556E-002  -3.4493333810843435E-003
  0.12972094625274164       -3.8402969963969455E-002  -3.5224192640876187E-004
  0.12646769881039530       -3.6129142192316312E-002   1.3411026306033753E-003
  0.12321445136804890       -3.6009897057494994E-002   1.6307002899524359E-003
  0.13317754490927450       -4.2254817705908290E-002   1.2166237749338615E-002
  0.12890733736658799       -3.8352407490263467E-002   1.2152839751923251E-002
  0.12463712982390149       -3.5678751685437979E-002   1.1509268451490976E-002
  0.12036692228121497       -3.4233850291431722E-002   1.0235523848041848E-002
  0.11609671473852851       -3.4017703308244773E-002   8.3316059415756150E-003
  0.12691829405786284       -3.5095261994045078E-002   2.9139150289421951E-002
  0.12240470000948257       -3.3873434608072427E-002   2.5537344168265128E-002
  0.11789110596110229       -3.2954533406906426E-002   2.2078938338737704E-002
  0.11337751191272202       -3.2338558390547126E-002   1.8763932800839624E-002
  0.10886391786434174       -3.2025509558994483E-002   1.5592327554570844E-002
  0.11744968858319960       -2.7935706282181866E-002   4.2968565886826772E-002
  0.11346628162377181       -2.9394461725881348E-002   3.6704179867941097E-002
  0.10948287466434407       -3.0230315128374898E-002   3.1356767735331019E-002
  0.10549946770491632       -3.0443266489662536E-002   2.6926329488996759E-002
  0.10151606074548855       -3.0033315809744242E-002   2.3412865128938067E-002
  0.10477172848528457       -2.0776150570318647E-002   5.3654484541553193E-002
  0.10209208220945568       -2.4915488843690280E-002   4.5653346850951168E-002
   9.9412435933626794E-002  -2.7506096849843384E-002   3.9342756641271188E-002
   9.6732789657797927E-002  -2.8547974588777943E-002   3.4722713912513227E-002
   9.4053143381969045E-002  -2.8041122060493959E-002   3.1793218664677311E-002
  0.12321445136804890       -3.6009897057494994E-002   1.6307002899524359E-003
  0.12040001743813863       -3.6604531134609569E-002   7.2553491462520880E-004
  0.11758558350822841       -3.6472340998764001E-002   6.1536120784980164E-005
  0.11477114957831816       -3.5613326649958241E-002  -3.6129609156789616E-004
  0.11195671564840792       -3.4027488088192281E-002  -5.4296172243378793E-004
  0.11609671473852851       -3.4017703308244773E-002   8.3316059415756150E-003
  0.11349995925546305       -3.4173171009943465E-002   7.8940668139438619E-003
  0.11090320377239762       -3.3843113670594178E-002   7.6507179985144461E-003
  0.10830644828933221       -3.3027531290196879E-002   7.6015594952876381E-003
  0.10570969280626677       -3.1726423868751547E-002   7.7465913042633061E-003
  0.10886391786434174       -3.2025509558994483E-002   1.5592327554570844E-002
  0.10643786455883647       -3.1741810885277263E-002   1.5381115502722316E-002
  0.10401181125333123       -3.1213886342424248E-002   1.5317117493791530E-002
  0.10158575794782598       -3.0441735930435386E-002   1.5400333527778714E-002
   9.9159704642320753E-002  -2.9425359649310784E-002   1.5630763604683739E-002
  0.10151606074548855       -3.0033315809744242E-002   2.3412865128938067E-002
   9.9213733348258865E-002  -2.9310450760611111E-002   2.3186680980960495E-002
   9.6911405951029206E-002  -2.8584659014254402E-002   2.3060734606616208E-002
   9.4609078553799478E-002  -2.7855940570674070E-002   2.3035026005905096E-002
   9.2306751156569847E-002  -2.7124295429870035E-002   2.3109555178827311E-002
   9.4053143381969045E-002  -2.8041122060493959E-002   3.1793218664677311E-002
   9.1827565623730262E-002  -2.6879090635944944E-002   3.1310763248658599E-002
   8.9601987865491547E-002  -2.5955431686084534E-002   3.0881569336988525E-002
   8.7376410107252805E-002  -2.5270145210912667E-002   3.0505636929667086E-002
   8.5150832349014022E-002  -2.4823231210429259E-002   3.0182966026694152E-002
  0.11195671564840792       -3.4027488088192281E-002  -5.4296172243378793E-004
  0.10807624102872621       -3.2291846531653901E-002   9.3452850810693544E-005
  0.10419576640904452       -3.0983423198531063E-002   8.4586742320857944E-004
  0.10031529178936278       -3.0102218088823511E-002   1.7142819947593285E-003
   9.6434817169681109E-002  -2.9648231202531294E-002   2.6986965654638428E-003
  0.10570969280626677       -3.1726423868751547E-002   7.7465913042633061E-003
  0.10197152389838857       -3.0333522358044249E-002   7.7417687253833883E-003
   9.8233354990510321E-002  -2.9242557709861429E-002   7.9055575709571224E-003
   9.4495186082632104E-002  -2.8453529924202824E-002   8.2379578409843626E-003
   9.0757017174753873E-002  -2.7966439001068488E-002   8.7389695354655739E-003
   9.9159704642320753E-002  -2.9425359649310784E-002   1.5630763604683739E-002
   9.5616452871546437E-002  -2.8375198184434763E-002   1.5109985234570279E-002
   9.2073201100772134E-002  -2.7501692221191906E-002   1.4810429714210961E-002
   8.8529949329997790E-002  -2.6804841759582195E-002   1.4732097043605875E-002
   8.4986697559223487E-002  -2.6284646799605654E-002   1.4874987222754946E-002
   9.2306751156569847E-002  -2.7124295429870035E-002   2.3109555178827311E-002
   8.9011027948199872E-002  -2.6416874010825195E-002   2.2198102378371720E-002
   8.5715304739829898E-002  -2.5760826732522384E-002   2.1560483852970727E-002
   8.2419581531459910E-002  -2.5156153594961608E-002   2.1196699602624228E-002
   7.9123858323089963E-002  -2.4602854598142834E-002   2.1106749627332357E-002
   8.5150832349014022E-002  -2.4823231210429259E-002   3.0182966026694152E-002
   8.2155249128348845E-002  -2.4458549837215668E-002   2.9006120156787468E-002
   7.9159665907683682E-002  -2.4019961243852819E-002   2.8155719987235761E-002
   7.6164082687018519E-002  -2.3507465430341008E-002   2.7631765518039010E-002
   7.3168499466353343E-002  -2.2921062396679986E-002   2.7434256749197278E-002
   9.6434817169681109E-002  -2.9648231202531294E-002   2.6986965654638428E-003
   9.5262732837495923E-002  -2.9257983747906308E-002   3.1528940831576646E-003
   9.4090648505310709E-002  -2.8567996933199849E-002   3.7599636950329252E-003
   9.2918564173125509E-002  -2.7578270758412061E-002   4.5199054010889445E-003
   9.1746479840940309E-002  -2.6288805223542933E-002   5.4327192013253756E-003
   9.0757017174753873E-002  -2.7966439001068488E-002   8.7389695354655739E-003
   8.9719320081097953E-002  -2.7511048217207096E-002   9.3513005489350431E-003
   8.8681622987442033E-002  -2.6817120849366965E-002   1.0079533945281674E-002
   8.7643925893786084E-002  -2.5884656897548354E-002   1.0923669724506445E-002
   8.6606228800130136E-002  -2.4713656361751102E-002   1.1883707886608585E-002
   8.4986697559223487E-002  -2.6284646799605654E-002   1.4874987222754946E-002
   8.4046417992793596E-002  -2.5764112686507676E-002   1.5584248955896607E-002
   8.3106138426363690E-002  -2.5066244765534020E-002   1.6372443360613019E-002
   8.2165858859933785E-002  -2.4191043036684311E-002   1.7239570436903297E-002
   8.1225579293503908E-002  -2.3138507499958882E-002   1.8185630184768264E-002
   7.9123858323089963E-002  -2.4602854598142834E-002   2.1106749627332357E-002
   7.8244026572582864E-002  -2.4017177155808471E-002   2.1851739304043626E-002
   7.7364194822075669E-002  -2.3315368681701049E-002   2.2638691941026252E-002
   7.6484363071568487E-002  -2.2497429175820437E-002   2.3467607538280023E-002
   7.5604531321061402E-002  -2.1563358638166802E-002   2.4338486095804843E-002
   7.3168499466353343E-002  -2.2921062396679986E-002   2.7434256749197278E-002
   7.2312145820465662E-002  -2.2270241625109197E-002   2.8153771593375870E-002
   7.1455792174578009E-002  -2.1564492597868072E-002   2.8878279686522138E-002
   7.0599438528690370E-002  -2.0803815314956731E-002   2.9607781028636294E-002
   6.9743084882802731E-002  -1.9988209776374832E-002   3.0342275619718251E-002
   9.1746479840940309E-002  -2.6288805223542933E-002   5.4327192013253756E-003
   8.7323615749659189E-002  -2.4946238578990643E-002   5.7453343188612616E-003
   8.2900751658377902E-002  -2.3797209075152759E-002   6.5663899426138261E-003
   7.8477887567096755E-002  -2.2841716712029878E-002   7.8958860725822921E-003
   7.4055023475815496E-002  -2.2079761489621430E-002   9.7338227087672147E-003
   8.6606228800130136E-002  -2.4713656361751102E-002   1.1883707886608585E-002
   8.2650240844770101E-002  -2.3492041325873070E-002   1.1748937805766746E-002
   7.8694252889410010E-002  -2.2407733873813354E-002   1.2039479490551008E-002
   7.4738264934049961E-002  -2.1460734005571500E-002   1.2755332940961053E-002
   7.0782276978689884E-002  -2.0651041721147290E-002   1.3896498156996895E-002
   8.1225579293503908E-002  -2.3138507499958882E-002   1.8185630184768264E-002
   7.7653338733474547E-002  -2.2037844072756080E-002   1.7659704462445761E-002
   7.4081098173445117E-002  -2.1018258672473950E-002   1.7475961765158629E-002
   7.0508857613415715E-002  -2.0079751299113123E-002   1.7634402092907009E-002
   6.6936617053386327E-002  -1.9222321952673094E-002   1.8135025445690983E-002
   7.5604531321061402E-002  -2.1563358638166802E-002   2.4338486095804843E-002
   7.2332909415772279E-002  -2.0583646819638687E-002   2.3477634288898385E-002
   6.9061287510483182E-002  -1.9628783471134545E-002   2.2875836766437022E-002
   6.5789665605194114E-002  -1.8698768592654635E-002   2.2533093528420551E-002
   6.2518043699905046E-002  -1.7793602184198926E-002   2.2449404574849167E-002
   6.9743084882802731E-002  -1.9988209776374832E-002   3.0342275619718251E-002
   6.6688952891663489E-002  -1.9129449566521378E-002   2.9202727285124630E-002
   6.3634820900524275E-002  -1.8239308269795251E-002   2.8239104494385714E-002
   6.0580688909385061E-002  -1.7317785886196230E-002   2.7451407247501516E-002
   5.7526556918245819E-002  -1.6364882415724702E-002   2.6839635544471885E-002
   7.4055023475815496E-002  -2.2079761489621430E-002   9.7338227087672147E-003
   6.8016412586225761E-002  -2.1358240899282344E-002   9.1263659689925225E-003
   6.1977801696636026E-002  -2.0524052432366463E-002   8.1014969258074165E-003
   5.5939190807046291E-002  -1.9577196088873990E-002   6.6592155792131458E-003
   4.9900579917456556E-002  -1.8517671868803820E-002   4.7995219292087388E-003
   7.0782276978689884E-002  -2.0651041721147290E-002   1.3896498156996895E-002
   6.4466715052081791E-002  -1.9922597385418461E-002   1.2900329036937941E-002
   5.8151153125473698E-002  -1.9219341363260672E-002   1.1767670146252324E-002
   5.1835591198865591E-002  -1.8541273654675901E-002   1.0498521484940029E-002
   4.5520029272257512E-002  -1.7888394259662044E-002   9.0928830529999338E-003
   6.6936617053386327E-002  -1.9222321952673094E-002   1.8135025445690983E-002
   6.0625026622542780E-002  -1.8486953871553996E-002   1.6612287755199573E-002
   5.4313436191699288E-002  -1.7914630294155312E-002   1.5233982826863793E-002
   4.8001845760855769E-002  -1.7505351220477475E-002   1.4000110660684649E-002
   4.1690255330012249E-002  -1.7259116650519823E-002   1.2910671256661010E-002
   6.2518043699905046E-002  -1.7793602184198926E-002   2.2449404574849167E-002
   5.6491347297608963E-002  -1.7051310357689822E-002   2.0262242123776371E-002
   5.0464650895312886E-002  -1.6609919225049848E-002   1.8500434967642570E-002
   4.4437954493016824E-002  -1.6469428786279328E-002   1.7163983106447768E-002
   3.8411258090720726E-002  -1.6629839041377825E-002   1.6252886540191525E-002
   5.7526556918245819E-002  -1.6364882415724702E-002   2.6839635544471885E-002
   5.2065677077280131E-002  -1.5615666843825510E-002   2.3850192142669147E-002
   4.6604797236314444E-002  -1.5305208155944494E-002   2.1567026568588138E-002
   4.1143917395348756E-002  -1.5433506352081156E-002   1.9990138822229220E-002
   3.5683037554383068E-002  -1.6000561432235771E-002   1.9119528903591865E-002
   4.9900579917456556E-002  -1.8517671868803820E-002   4.7995219292087388E-003
   5.5730560886735336E-002  -1.7508592407237344E-002   1.1775584362532565E-002
   6.1560541856014117E-002  -1.6713070339253511E-002   2.2844212083332538E-002
   6.7390522825292953E-002  -1.6131105664852041E-002   3.8005405091609212E-002
   7.3220503794571679E-002  -1.5762698384033769E-002   5.7259163387362477E-002
   4.5520029272257512E-002  -1.7888394259662044E-002   9.0928830529999338E-003
   5.4650141576612576E-002  -1.7154372929247375E-002   1.5814245632272794E-002
   6.3780253880967752E-002  -1.6232879414459001E-002   2.5043305594222132E-002
   7.2910366185322789E-002  -1.5123913715296963E-002   3.6780062938846947E-002
   8.2040478489677882E-002  -1.3827475831761138E-002   5.1024517666148350E-002
   4.1690255330012249E-002  -1.7259116650519823E-002   1.2910671256661010E-002
   5.2535631064643346E-002  -1.6800153451257405E-002   1.9778363559839751E-002
   6.3381006799274525E-002  -1.5752688489664934E-002   2.7568885340894050E-002
   7.4226382533905580E-002  -1.4116721765741830E-002   3.6282236599824158E-002
   8.5071758268536801E-002  -1.1892253279488507E-002   4.5918417336630712E-002
   3.8411258090720726E-002  -1.6629839041377825E-002   1.6252886540191525E-002
   4.9387029350827630E-002  -1.6445933973267657E-002   2.3667938145232423E-002
   6.0362800610934554E-002  -1.5272497564870535E-002   3.0420951323348794E-002
   7.1338571871041478E-002  -1.3109529816186613E-002   3.6511926074540749E-002
   8.2314343131148382E-002  -9.9570307272159875E-003   4.1940862398807982E-002
   3.5683037554383068E-002  -1.6000561432235771E-002   1.9119528903591865E-002
   4.5204336435165415E-002  -1.6091714495277798E-002   2.7482969388451406E-002
   5.4725635315947763E-002  -1.4792306640076233E-002   3.3599503541586223E-002
   6.4246934196730165E-002  -1.2102337866631559E-002   3.7469131362996080E-002
   7.3768233077512457E-002  -8.0218081749432457E-003   3.9091852852681575E-002
   9.0365062405343269E-002   0.0000000000000000        4.9809253916046944E-002
   9.3966728925328591E-002  -5.4042883192787191E-003   5.3191569099019030E-002
   9.7568395445313913E-002  -1.0668409520758069E-002   5.4959879264260769E-002
  0.10117006196529924       -1.5792363604438042E-002   5.5114184411772148E-002
  0.10477172848528457       -2.0776150570318647E-002   5.3654484541553193E-002
   8.2418363427902569E-002   0.0000000000000000        4.4756681399035783E-002
   8.4634312996957436E-002  -4.5743404186314139E-003   4.8253637667277430E-002
   8.6850262566012276E-002  -9.0358153628378561E-003   5.0593165051388500E-002
   8.9066212135067130E-002  -1.3384424832619320E-002   5.1775263551368932E-002
   9.1282161704121983E-002  -1.7620168827975811E-002   5.1799933167218773E-002
   7.4231501172819417E-002   0.0000000000000000        4.0547707604359134E-002
   7.5518309924543531E-002  -3.7443925179841101E-003   4.4132003314495960E-002
   7.6805118676267659E-002  -7.4032212049176416E-003   4.7015446274101924E-002
   7.8091927427991772E-002  -1.0976486060800593E-002   4.9198036483177041E-002
   7.9378736179715886E-002  -1.4464187085632969E-002   5.0679773941721309E-002
   6.5804475640093757E-002   0.0000000000000000        3.7182332532016991E-002
   6.6618719708086915E-002  -2.9144446173368062E-003   4.0826666040674579E-002
   6.7432963776080046E-002  -5.7706270469974315E-003   4.4226722932401069E-002
   6.8247207844073204E-002  -8.5685472889818707E-003   4.7382503207196454E-002
   6.9061451912066349E-002  -1.1308205343290131E-002   5.0294006865060747E-002
   5.7137286829725617E-002   0.0000000000000000        3.4660556182009347E-002
   5.7935542347587549E-002  -2.0844967166895011E-003   3.8337625845813308E-002
   5.8733797865449466E-002  -4.1380328890772162E-003   4.2226995026285928E-002
   5.9532053383311391E-002  -6.1606085171631419E-003   4.6328663723427185E-002
   6.0330308901173302E-002  -8.1522236009472903E-003   5.0642631937237094E-002
  0.10477172848528457       -2.0776150570318647E-002   5.3654484541553193E-002
  0.10209208220945568       -2.4915488843690280E-002   4.5653346850951168E-002
   9.9412435933626794E-002  -2.7506096849843384E-002   3.9342756641271188E-002
   9.6732789657797927E-002  -2.8547974588777943E-002   3.4722713912513227E-002
   9.4053143381969045E-002  -2.8041122060493959E-002   3.1793218664677311E-002
   9.1282161704121983E-002  -1.7620168827975811E-002   5.1799933167218773E-002
   9.0055273644365733E-002  -2.1194699189767369E-002   4.6526293498485617E-002
   8.8828385584609509E-002  -2.3559667758854059E-002   4.2467622780975718E-002
   8.7601497524853286E-002  -2.4715074535235849E-002   3.9623921014689097E-002
   8.6374609465097077E-002  -2.4660919518912763E-002   3.7995188199625760E-002
   7.9378736179715886E-002  -1.4464187085632969E-002   5.0679773941721309E-002
   7.9129027806333560E-002  -1.7473909535844441E-002   4.7794463820343330E-002
   7.8879319432951206E-002  -1.9613238667864706E-002   4.5648544120489860E-002
   7.8629611059568866E-002  -2.0882174481693744E-002   4.4242014842160907E-002
   7.8379902686186526E-002  -2.1280716977331589E-002   4.3574875985356420E-002
   6.9061451912066349E-002  -1.1308205343290131E-002   5.0294006865060747E-002
   6.9313344695359103E-002  -1.3753119881921520E-002   4.9457857816524294E-002
   6.9565237478651912E-002  -1.5666809576875378E-002   4.8885520659813567E-002
   6.9817130261944679E-002  -1.7049274428151656E-002   4.8576995394928581E-002
   7.0069023045237488E-002  -1.7900514435750411E-002   4.8532282021869391E-002
   6.0330308901173302E-002  -8.1522236009472903E-003   5.0642631937237094E-002
   6.0608224311442443E-002  -1.0032330227998593E-002   5.1516475487028500E-002
   6.0886139721711599E-002  -1.1720380485886027E-002   5.2178552398946879E-002
   6.1164055131980734E-002  -1.3216374374609541E-002   5.2628862672992216E-002
   6.1441970542249869E-002  -1.4520311894169226E-002   5.2867406309164568E-002
   9.4053143381969045E-002  -2.8041122060493959E-002   3.1793218664677311E-002
   9.1827565623730262E-002  -2.6879090635944944E-002   3.1310763248658599E-002
   8.9601987865491547E-002  -2.5955431686084534E-002   3.0881569336988525E-002
   8.7376410107252805E-002  -2.5270145210912667E-002   3.0505636929667086E-002
   8.5150832349014022E-002  -2.4823231210429259E-002   3.0182966026694152E-002
   8.6374609465097077E-002  -2.4660919518912763E-002   3.7995188199625760E-002
   8.4251168437663670E-002  -2.4040933298862290E-002   3.7087299218055945E-002
   8.2127727410230278E-002  -2.3498846464061876E-002   3.6330422193748130E-002
   8.0004286382796885E-002  -2.3034659014511561E-002   3.5724557126702597E-002
   7.7880845355363507E-002  -2.2648370950211313E-002   3.5269704016919048E-002
   7.8379902686186526E-002  -2.1280716977331589E-002   4.3574875985356420E-002
   7.6456348842471961E-002  -2.1202775961779628E-002   4.2402026527673935E-002
   7.4532794998757451E-002  -2.1042261242039263E-002   4.1477939480167099E-002
   7.2609241155042928E-002  -2.0799172818110511E-002   4.0802614842835774E-002
   7.0685687311328377E-002  -2.0473510689993382E-002   4.0376052615680058E-002
   7.0069023045237488E-002  -1.7900514435750411E-002   4.8532282021869391E-002
   6.8443106838155257E-002  -1.8364618624696943E-002   4.7254945177512719E-002
   6.6817190631073040E-002  -1.8585676020016640E-002   4.6324121196245169E-002
   6.5191274423990822E-002  -1.8563686621709468E-002   4.5739810078066594E-002
   6.3565358216908591E-002  -1.8298650429775444E-002   4.5502011822977126E-002
   6.1441970542249869E-002  -1.4520311894169226E-002   5.2867406309164568E-002
   6.0211442424713463E-002  -1.5526461287614309E-002   5.1646055167572216E-002
   5.8980914307177057E-002  -1.6129090797993996E-002   5.0868967341982416E-002
   5.7750386189640651E-002  -1.6328200425308401E-002   5.0536142832395152E-002
   5.6519858072104232E-002  -1.6123790169557492E-002   5.0647581638810515E-002
   8.5150832349014022E-002  -2.4823231210429259E-002   3.0182966026694152E-002
   8.2155249128348845E-002  -2.4458549837215668E-002   2.9006120156787468E-002
   7.9159665907683682E-002  -2.4019961243852819E-002   2.8155719987235761E-002
   7.6164082687018519E-002  -2.3507465430341008E-002   2.7631765518039010E-002
   7.3168499466353343E-002  -2.2921062396679986E-002   2.7434256749197278E-002
   7.7880845355363507E-002  -2.2648370950211313E-002   3.5269704016919048E-002
   7.5197969401851278E-002  -2.2281626968098898E-002   3.4210307883937453E-002
   7.2515093448339063E-002  -2.1876071765111912E-002   3.3449880584906937E-002
   6.9832217494826807E-002  -2.1431705341250301E-002   3.2988422119827165E-002
   6.7149341541314606E-002  -2.0948527696514202E-002   3.2825932488698320E-002
   7.0685687311328377E-002  -2.0473510689993382E-002   4.0376052615680058E-002
   6.8288041758565024E-002  -2.0104704098982039E-002   3.9399010220349140E-002
   6.5890396205801643E-002  -1.9732182286370810E-002   3.8693459792564951E-002
   6.3492750653038277E-002  -1.9355945252159605E-002   3.8259401332327608E-002
   6.1095105100274924E-002  -1.8975992996348459E-002   3.8096834839637141E-002
   6.3565358216908591E-002  -1.8298650429775444E-002   4.5502011822977126E-002
   6.1425466198490042E-002  -1.7927781229865280E-002   4.4572227166022257E-002
   5.9285574180071451E-002  -1.7588292807629819E-002   4.3886457610209983E-002
   5.7145682161652854E-002  -1.7280185163068906E-002   4.3444703155540540E-002
   5.5005790143234298E-002  -1.7003458296182654E-002   4.3246963802013830E-002
   5.6519858072104232E-002  -1.6123790169557492E-002   5.0647581638810515E-002
   5.4610242721626359E-002  -1.5750858360748465E-002   4.9729958720956896E-002
   5.2700627371148466E-002  -1.5444403328888728E-002   4.9028874037841987E-002
   5.0791012020670587E-002  -1.5204425073978216E-002   4.8544327589465794E-002
   4.8881396670192673E-002  -1.5030923596016932E-002   4.8276319375828131E-002
   7.3168499466353343E-002  -2.2921062396679986E-002   2.7434256749197278E-002
   7.2312145820465662E-002  -2.2270241625109197E-002   2.8153771593375870E-002
   7.1455792174578009E-002  -2.1564492597868072E-002   2.8878279686522138E-002
   7.0599438528690370E-002  -2.0803815314956731E-002   2.9607781028636294E-002
   6.9743084882802731E-002  -1.9988209776374832E-002   3.0342275619718251E-002
   6.7149341541314606E-002  -2.0948527696514202E-002   3.2825932488698320E-002
   6.6311236868505402E-002  -2.0406950945694932E-002   3.3590082164467475E-002
   6.5473132195696199E-002  -1.9787387203583799E-002   3.4385736537425625E-002
   6.4635027522886940E-002  -1.9089836470180865E-002   3.5212895607572764E-002
   6.3796922850077764E-002  -1.8314298745486068E-002   3.6071559374908996E-002
   6.1095105100274924E-002  -1.8975992996348459E-002   3.8096834839637141E-002
   6.0301760848765276E-002  -1.8543660266280647E-002   3.8928678082618580E-002
   5.9508416597255621E-002  -1.8010281809299530E-002   3.9818537471010051E-002
   5.8715072345746022E-002  -1.7375857625405139E-002   4.0766413004811555E-002
   5.7921728094236374E-002  -1.6640387714597304E-002   4.1772304684023376E-002
   5.5005790143234298E-002  -1.7003458296182654E-002   4.3246963802013830E-002
   5.4283717761245340E-002  -1.6680369586866400E-002   4.4169559347828860E-002
   5.3561645379256437E-002  -1.6233176415015288E-002   4.5176682487275022E-002
   5.2839572997267478E-002  -1.5661878780629371E-002   4.6268333220352530E-002
   5.2117500615278603E-002  -1.4966476683708541E-002   4.7444511547061446E-002
   4.8881396670192673E-002  -1.5030923596016932E-002   4.8276319375828131E-002
   4.8257107605945593E-002  -1.4817078907452125E-002   4.9312725960098364E-002
   4.7632818541698485E-002  -1.4456071020730904E-002   5.0460171586220820E-002
   4.7008529477451370E-002  -1.3947899935853623E-002   5.1718656254195819E-002
   4.6384240413204270E-002  -1.3292565652819777E-002   5.3088179964023097E-002
   6.9743084882802731E-002  -1.9988209776374832E-002   3.0342275619718251E-002
   6.6688952891663489E-002  -1.9129449566521378E-002   2.9202727285124630E-002
   6.3634820900524275E-002  -1.8239308269795251E-002   2.8239104494385714E-002
   6.0580688909385061E-002  -1.7317785886196230E-002   2.7451407247501516E-002
   5.7526556918245819E-002  -1.6364882415724702E-002   2.6839635544471885E-002
   6.3796922850077764E-002  -1.8314298745486068E-002   3.6071559374908996E-002
   6.0932340377151936E-002  -1.7491595117579584E-002   3.5040465242559715E-002
   5.8067757904226025E-002  -1.6652546674541441E-002   3.4212544602782780E-002
   5.5203175431300114E-002  -1.5797153416371730E-002   3.3587797455577696E-002
   5.2338592958374258E-002  -1.4925415343070403E-002   3.3166223800944750E-002
   5.7921728094236374E-002  -1.6640387714597304E-002   4.1772304684023376E-002
   5.5273943088241226E-002  -1.5853740668637636E-002   4.0834628482177532E-002
   5.2626158082246105E-002  -1.5065785079287630E-002   4.0127373721620951E-002
   4.9978373076251012E-002  -1.4276520946547064E-002   3.9650540402353975E-002
   4.7330588070255836E-002  -1.3485948270416132E-002   3.9404128524376414E-002
   5.2117500615278603E-002  -1.4966476683708541E-002   4.7444511547061446E-002
   4.9713761024931594E-002  -1.4215886219695710E-002   4.6585217003977615E-002
   4.7310021434584557E-002  -1.3479023484033820E-002   4.5983591850900715E-002
   4.4906281844237561E-002  -1.2755888476722509E-002   4.5639636087830525E-002
   4.2502542253890573E-002  -1.2046481197761846E-002   4.5553349714767377E-002
   4.6384240413204270E-002  -1.3292565652819777E-002   5.3088179964023097E-002
   4.4251794187222832E-002  -1.2578031770753895E-002   5.2292230807960277E-002
   4.2119347961241366E-002  -1.1892261888780037E-002   5.1781198990621835E-002
   3.9986901735259872E-002  -1.1235256006897849E-002   5.1555084512007424E-002
   3.7854455509278434E-002  -1.0607014125107561E-002   5.1613887372117306E-002
   5.7526556918245819E-002  -1.6364882415724702E-002   2.6839635544471885E-002
   5.2065677077280131E-002  -1.5615666843825510E-002   2.3850192142669147E-002
   4.6604797236314444E-002  -1.5305208155944494E-002   2.1567026568588138E-002
   4.1143917395348756E-002  -1.5433506352081156E-002   1.9990138822229220E-002
   3.5683037554383068E-002  -1.6000561432235771E-002   1.9119528903591865E-002
   5.2338592958374258E-002  -1.4925415343070403E-002   3.3166223800944750E-002
   4.7533901278197899E-002  -1.4245923981740294E-002   2.9886852242416662E-002
   4.2729209598021470E-002  -1.3967270859484376E-002   2.7213579177745043E-002
   3.7924517917845048E-002  -1.4089455976302685E-002   2.5146404606930510E-002
   3.3119826237668681E-002  -1.4612479332195172E-002   2.3685328529972682E-002
   4.7330588070255836E-002  -1.3485948270416132E-002   3.9404128524376414E-002
   4.3081905217003690E-002  -1.2876181119655147E-002   3.5872747454066697E-002
   3.8833222363751516E-002  -1.2629333563024536E-002   3.2847285543748508E-002
   3.4584539510499369E-002  -1.2745405600524382E-002   3.0327742793422000E-002
   3.0335856657247195E-002  -1.3224397232154600E-002   2.8314119203087365E-002
   4.2502542253890573E-002  -1.2046481197761846E-002   4.5553349714767377E-002
   3.8709688893697601E-002  -1.1506438257569911E-002   4.1807877777619767E-002
   3.4916835533504567E-002  -1.1291396266564696E-002   3.8468145666598473E-002
   3.1123982173311512E-002  -1.1401355224746022E-002   3.5534153381703931E-002
   2.7331128813118569E-002  -1.1836315132113959E-002   3.3005900922935955E-002
   3.7854455509278434E-002  -1.0607014125107561E-002   5.1613887372117306E-002
   3.4417252308279522E-002  -1.0136695395484757E-002   4.7692243213075414E-002
   3.0980049107280611E-002  -9.9534589701046061E-003   4.4076159546295013E-002
   2.7542845906281685E-002  -1.0057304848967642E-002   4.0765636371776270E-002
   2.4105642705282759E-002  -1.0448233032073428E-002   3.7760673689518964E-002
   3.5683037554383068E-002  -1.6000561432235771E-002   1.9119528903591865E-002
   4.5204336435165415E-002  -1.6091714495277798E-002   2.7482969388451406E-002
   5.4725635315947763E-002  -1.4792306640076233E-002   3.3599503541586223E-002
   6.4246934196730165E-002  -1.2102337866631559E-002   3.7469131362996080E-002
   7.3768233077512457E-002  -8.0218081749432457E-003   3.9091852852681575E-002
   3.3119826237668681E-002  -1.4612479332195172E-002   2.3685328529972682E-002
   4.0662353088986691E-002  -1.4684660280568751E-002   3.3442687039562768E-002
   4.8204879940304646E-002  -1.3454318174830601E-002   4.1489407821948932E-002
   5.5747406791622503E-002  -1.0921453014980886E-002   4.7825490877131172E-002
   6.3289933642940610E-002  -7.0860648010191429E-003   5.2450936205108878E-002
   3.0335856657247195E-002  -1.3224397232154600E-002   2.8314119203087365E-002
   3.6435880083621419E-002  -1.3277606065859981E-002   3.9377357873276495E-002
   4.2535903509995698E-002  -1.2116329709585143E-002   4.9266227420782550E-002
   4.8635926936370075E-002  -9.7405681633302137E-003   5.7980727845605207E-002
   5.4735950362744201E-002  -6.1503214270952622E-003   6.5520859147744137E-002
   2.7331128813118569E-002  -1.1836315132113959E-002   3.3005900922935955E-002
   3.2524917419069765E-002  -1.1870551851151073E-002   4.5286981889593014E-002
   3.7718706025020934E-002  -1.0778341244339597E-002   5.6929962338086920E-002
   4.2912494630972062E-002  -8.5596833116798193E-003   6.7934842268418283E-002
   4.8106283236923411E-002  -5.2145780531712149E-003   7.8301621680587130E-002
   2.4105642705282759E-002  -1.0448233032073428E-002   3.7760673689518964E-002
   2.8929465095331564E-002  -1.0463497636442165E-002   5.1171559088511787E-002
   3.3753287485380368E-002  -9.4403527790940245E-003   6.4480612573862173E-002
   3.8577109875429130E-002  -7.3787984600289722E-003   7.7687834145571150E-002
   4.3400932265477921E-002  -4.2788346792472787E-003   9.0793223803637302E-002
   5.7137286829725617E-002   0.0000000000000000        3.4660556182009347E-002
   5.7935542347587549E-002  -2.0844967166895011E-003   3.8337625845813308E-002
   5.8733797865449466E-002  -4.1380328890772162E-003   4.2226995026285928E-002
   5.9532053383311391E-002  -6.1606085171631419E-003   4.6328663723427185E-002
   6.0330308901173302E-002  -8.1522236009472903E-003   5.0642631937237094E-002
   4.8639916196841923E-002   0.0000000000000000        3.2759022002319615E-002
   4.9585297680133575E-002  -1.7099015469506677E-003   3.6959387843235318E-002
   5.0530679163425227E-002  -3.4334234467245390E-003   4.1241706098341838E-002
   5.1476060646716885E-002  -5.1705656993216217E-003   4.5605976767639132E-002
   5.2421442130008530E-002  -6.9213283047419027E-003   5.0052199851127292E-002
   4.0722345196569594E-002   0.0000000000000000        3.1254373440931210E-002
   4.1684505542813138E-002  -1.3353063772118352E-003   3.5933454561833660E-002
   4.2646665889056683E-002  -2.7288140043718679E-003   4.0564140994449077E-002
   4.3608826235300220E-002  -4.1805228814800954E-003   4.5146432738777477E-002
   4.4570986581543771E-002  -5.6904330085365230E-003   4.9680329794818838E-002
   3.3384573828908630E-002   0.0000000000000000        3.0146610497844142E-002
   3.4233165935626225E-002  -9.6071120747300313E-004   3.5259826001608346E-002
   3.5081758042343821E-002  -2.0242045620191920E-003   4.0194299714607681E-002
   3.5930350149061423E-002  -3.1904800636385704E-003   4.4950031636842157E-002
   3.6778942255779011E-002  -4.4595377123311346E-003   4.9527021768311745E-002
   2.6626602093859034E-002   0.0000000000000000        2.9435733173058396E-002
   2.7231278858572842E-002  -5.8611603773416933E-004   3.4938502162559365E-002
   2.7835955623286657E-002  -1.3195951196665195E-003   4.0132182258817622E-002
   2.8440632388000469E-002  -2.2004372457970454E-003   4.5016773461833172E-002
   2.9045309152714277E-002  -3.2286424161257557E-003   4.9592275771606027E-002
   6.0330308901173302E-002  -8.1522236009472903E-003   5.0642631937237094E-002
   6.0608224311442443E-002  -1.0032330227998593E-002   5.1516475487028500E-002
   6.0886139721711599E-002  -1.1720380485886027E-002   5.2178552398946879E-002
   6.1164055131980734E-002  -1.3216374374609541E-002   5.2628862672992216E-002
   6.1441970542249869E-002  -1.4520311894169226E-002   5.2867406309164568E-002
   5.2421442130008530E-002  -6.9213283047419027E-003   5.0052199851127292E-002
   5.2526884272891074E-002  -8.5857259732560094E-003   5.1212951292004844E-002
   5.2632326415773610E-002  -1.0063773415134555E-002   5.2240522835982205E-002
   5.2737768558656160E-002  -1.1355470630377520E-002   5.3134914483059376E-002
   5.2843210701538704E-002  -1.2460817618984932E-002   5.3896126233236336E-002
   4.4570986581543771E-002  -5.6904330085365230E-003   4.9680329794818838E-002
   4.4582542198012547E-002  -7.1391217185134319E-003   5.1122282984254225E-002
   4.4594097814481308E-002  -8.4071663443830765E-003   5.2509643017762231E-002
   4.4605653430950090E-002  -9.4945668861454863E-003   5.3842409895342926E-002
   4.4617209047418852E-002  -1.0401323343800648E-002   5.5120583616996240E-002
   3.6778942255779011E-002  -4.4595377123311346E-003   4.9527021768311745E-002
   3.6775198086806862E-002  -5.6925174637708284E-003   5.1244470563776665E-002
   3.6771453917834693E-002  -6.7505592736316162E-003   5.2985912944287020E-002
   3.6767709748862530E-002  -7.6336631419134590E-003   5.4751348909842887E-002
   3.6763965579890374E-002  -8.3418290686163594E-003   5.6540778460444238E-002
   2.9045309152714277E-002  -3.2286424161257557E-003   4.9592275771606027E-002
   2.9104851939274014E-002  -4.2459132090282674E-003   5.1579514030572128E-002
   2.9164394725833747E-002  -5.0939522028801282E-003   5.3669332615556530E-002
   2.9223937512393484E-002  -5.7727593976814144E-003   5.5861731526559266E-002
   2.9283480298953224E-002  -6.2823347934320706E-003   5.8156710763580283E-002
   6.1441970542249869E-002  -1.4520311894169226E-002   5.2867406309164568E-002
   6.0211442424713463E-002  -1.5526461287614309E-002   5.1646055167572216E-002
   5.8980914307177057E-002  -1.6129090797993996E-002   5.0868967341982416E-002
   5.7750386189640651E-002  -1.6328200425308401E-002   5.0536142832395152E-002
   5.6519858072104232E-002  -1.6123790169557492E-002   5.0647581638810515E-002
   5.2843210701538704E-002  -1.2460817618984932E-002   5.3896126233236336E-002
   5.2004122876567221E-002  -1.3313093510199957E-002   5.3356366180404992E-002
   5.1165035051595753E-002  -1.3845577433265716E-002   5.3155223396701007E-002
   5.0325947226624271E-002  -1.4058269388182259E-002   5.3292697882124367E-002
   4.9486859401652809E-002  -1.3951169374949585E-002   5.3768789636675016E-002
   4.4617209047418852E-002  -1.0401323343800648E-002   5.5120583616996240E-002
   4.4063915468137108E-002  -1.1099725732785627E-002   5.5178686738009866E-002
   4.3510621888855364E-002  -1.1562064068537440E-002   5.5469761081275562E-002
   4.2957328309573606E-002  -1.1788338351056145E-002   5.5993806646793355E-002
   4.2404034730291862E-002  -1.1778548580341684E-002   5.6750823434563349E-002
   3.6763965579890374E-002  -8.3418290686163594E-003   5.6540778460444238E-002
   3.6390820199423128E-002  -8.8863579553712727E-003   5.7113016840386652E-002
   3.6017674818955896E-002  -9.2785507038091689E-003   5.7812580395705963E-002
   3.5644529438488642E-002  -9.5184073139299823E-003   5.8639469126402180E-002
   3.5271384058021403E-002  -9.6059277857338081E-003   5.9593683032475413E-002
   2.9283480298953224E-002  -6.2823347934320706E-003   5.8156710763580283E-002
   2.8984837070425276E-002  -6.6729901779569584E-003   5.9159356487535446E-002
   2.8686193841897328E-002  -6.9950373390808909E-003   6.0183681339992315E-002
   2.8387550613369381E-002  -7.2484762768038630E-003   6.1229685320950820E-002
   2.8088907384841440E-002  -7.4333069911258765E-003   6.2297368430411032E-002
   5.6519858072104232E-002  -1.6123790169557492E-002   5.0647581638810515E-002
   5.4610242721626359E-002  -1.5750858360748465E-002   4.9729958720956896E-002
   5.2700627371148466E-002  -1.5444403328888728E-002   4.9028874037841987E-002
   5.0791012020670587E-002  -1.5204425073978216E-002   4.8544327589465794E-002
   4.8881396670192673E-002  -1.5030923596016932E-002   4.8276319375828131E-002
   4.9486859401652809E-002  -1.3951169374949585E-002   5.3768789636675016E-002
   4.7801819820364626E-002  -1.3700538803428933E-002   5.2759774438101745E-002
   4.6116780239076435E-002  -1.3482639083481546E-002   5.1983372543169287E-002
   4.4431740657788252E-002  -1.3297470215107451E-002   5.1439583951877449E-002
   4.2746701076500068E-002  -1.3145032198306650E-002   5.1128408664226493E-002
   4.2404034730291862E-002  -1.1778548580341684E-002   5.6750823434563349E-002
   4.0959645987095478E-002  -1.1650219246109345E-002   5.5684161880646316E-002
   3.9515257243899100E-002  -1.1520874838074338E-002   5.4866188699272157E-002
   3.8070868500702723E-002  -1.1390515356236660E-002   5.4296903890440860E-002
   3.6626479757506332E-002  -1.1259140800596312E-002   5.3976307454152370E-002
   3.5271384058021403E-002  -9.6059277857338081E-003   5.9593683032475413E-002
   3.4083721221818943E-002  -9.5998996887897980E-003   5.8503121048590512E-002
   3.2896058385616475E-002  -9.5591105926671159E-003   5.7677322506150604E-002
   3.1708395549414008E-002  -9.4835604973658814E-003   5.7116287405155695E-002
   3.0520732713211547E-002  -9.3732494028860580E-003   5.6820015745605808E-002
   2.8088907384841440E-002  -7.4333069911258765E-003   6.2297368430411032E-002
   2.7174045524535000E-002  -7.5495801314702238E-003   6.1216651941934361E-002
   2.6259183664228542E-002  -7.5973463472599340E-003   6.0416773963804696E-002
   2.5344321803922099E-002  -7.5766056384951007E-003   5.9897734496022148E-002
   2.4429459943615645E-002  -7.4873580051756927E-003   5.9659533538586634E-002
   4.8881396670192673E-002  -1.5030923596016932E-002   4.8276319375828131E-002
   4.8257107605945593E-002  -1.4817078907452125E-002   4.9312725960098364E-002
   4.7632818541698485E-002  -1.4456071020730904E-002   5.0460171586220820E-002
   4.7008529477451370E-002  -1.3947899935853623E-002   5.1718656254195819E-002
   4.6384240413204270E-002  -1.3292565652819777E-002   5.3088179964023097E-002
   4.2746701076500068E-002  -1.3145032198306650E-002   5.1128408664226493E-002
   4.2226478164655891E-002  -1.2947843115781676E-002   5.2307014724335077E-002
   4.1706255252811686E-002  -1.2628421050235157E-002   5.3582714047396937E-002
   4.1186032340967481E-002  -1.2186766001667114E-002   5.4955506633412289E-002
   4.0665809429123304E-002  -1.1622877970077578E-002   5.6425392482380932E-002
   3.6626479757506332E-002  -1.1259140800596312E-002   5.3976307454152370E-002
   3.6196377219166090E-002  -1.1078607324111270E-002   5.5272182774964505E-002
   3.5766274680825841E-002  -1.0800771079739382E-002   5.6651205579830999E-002
   3.5336172142485599E-002  -1.0425632067480688E-002   5.8113375868752058E-002
   3.4906069604145343E-002  -9.9531902873352118E-003   5.9658693641727462E-002
   3.0520732713211547E-002  -9.3732494028860580E-003   5.6820015745605808E-002
   3.0166804769476252E-002  -9.2093715324408562E-003   5.8208230111986628E-002
   2.9812876825740960E-002  -8.9731211092435662E-003   5.9665646183523185E-002
   2.9458948882005658E-002  -8.6644981332942763E-003   6.1192263960215050E-002
   2.9105020938270373E-002  -8.2835026045929849E-003   6.2788083442062381E-002
   2.4429459943615645E-002  -7.4873580051756927E-003   5.9659533538586634E-002
   2.4137760815586336E-002  -7.3401357407704287E-003   6.1115156735401605E-002
   2.3846061687557034E-002  -7.1454711387478193E-003   6.2626035858473178E-002
   2.3554362559527725E-002  -6.9033641991077983E-003   6.4192170907801244E-002
   2.3262663431498423E-002  -6.6138149218505915E-003   6.5813561883385718E-002
   4.6384240413204270E-002  -1.3292565652819777E-002   5.3088179964023097E-002
   4.4251794187222832E-002  -1.2578031770753895E-002   5.2292230807960277E-002
   4.2119347961241366E-002  -1.1892261888780037E-002   5.1781198990621835E-002
   3.9986901735259872E-002  -1.1235256006897849E-002   5.1555084512007424E-002
   3.7854455509278434E-002  -1.0607014125107561E-002   5.1613887372117306E-002
   4.0665809429123304E-002  -1.1622877970077578E-002   5.6425392482380932E-002
   3.8813585684093085E-002  -1.1007416374147816E-002   5.5559514700431800E-002
   3.6961361939062874E-002  -1.0411040632559397E-002   5.4969164541660565E-002
   3.5109138194032663E-002  -9.8337507453124719E-003   5.4654342006067586E-002
   3.3256914449002445E-002  -9.2755467124069346E-003   5.4615047093653196E-002
   3.4906069604145343E-002  -9.9531902873352118E-003   5.9658693641727462E-002
   3.3324678624520418E-002  -9.4368009775417372E-003   5.8732565379642089E-002
   3.1743287644895486E-002  -8.9298193763391459E-003   5.8072575025188880E-002
   3.0161896665270548E-002  -8.4322454837272610E-003   5.7678722578368001E-002
   2.8580505685645630E-002  -7.9440792997061971E-003   5.7551008039179563E-002
   2.9105020938270373E-002  -8.2835026045929849E-003   6.2788083442062381E-002
   2.7785073008504791E-002  -7.8661855809356862E-003   6.1811382845591449E-002
   2.6465125078739195E-002  -7.4485981201186727E-003   6.1091430441206809E-002
   2.5145177148973612E-002  -7.0307402221420501E-003   6.0628226228908649E-002
   2.3825229219208020E-002  -6.6126118870054873E-003   6.0421770208696803E-002
   2.3262663431498423E-002  -6.6138149218505915E-003   6.5813561883385718E-002
   2.2194768836046208E-002  -6.2955701843295520E-003   6.4795967098279866E-002
   2.1126874240594000E-002  -5.9673768638982827E-003   6.4025730789714436E-002
   2.0058979645141781E-002  -5.6292349605567074E-003   6.3502852957689371E-002
   1.8991085049689577E-002  -5.2811444743048330E-003   6.3227333602204616E-002
   3.7854455509278434E-002  -1.0607014125107561E-002   5.1613887372117306E-002
   3.4417252308279522E-002  -1.0136695395484757E-002   4.7692243213075414E-002
   3.0980049107280611E-002  -9.9534589701046061E-003   4.4076159546295013E-002
   2.7542845906281685E-002  -1.0057304848967642E-002   4.0765636371776270E-002
   2.4105642705282759E-002  -1.0448233032073428E-002   3.7760673689518964E-002
   3.3256914449002445E-002  -9.2755467124069346E-003   5.4615047093653196E-002
   3.0151048734871178E-002  -8.8564075662120878E-003   5.0367249114474849E-002
   2.7045183020739910E-002  -8.6963123390978447E-003   4.6476565616770341E-002
   2.3939317306608657E-002  -8.7952610310639001E-003   4.2942996600539456E-002
   2.0833451592477376E-002  -9.1532536421103927E-003   3.9766542065782395E-002
   2.8580505685645630E-002  -7.9440792997061971E-003   5.7551008039179563E-002
   2.5857531447594208E-002  -7.5761197369395433E-003   5.3005094625027283E-002
   2.3134557209542786E-002  -7.4391657080908474E-003   4.8867849681561035E-002
   2.0411582971491368E-002  -7.5332172131601545E-003   4.5139273208780688E-002
   1.7688608733439942E-002  -7.8582742521475790E-003   4.1819365206686165E-002
   2.3825229219208020E-002  -6.6126118870054873E-003   6.0421770208696803E-002
   2.1536700446448623E-002  -6.2958319076669364E-003   5.5605779744732978E-002
   1.9248171673689210E-002  -6.1820190770838571E-003   5.1250011740667359E-002
   1.6959642900929835E-002  -6.2711733952564661E-003   4.7354466196499884E-002
   1.4671114128170404E-002  -6.5632948621847653E-003   4.3919143112230517E-002
   1.8991085049689577E-002  -5.2811444743048330E-003   6.3227333602204616E-002
   1.7188555731434380E-002  -5.0155440783943572E-003   5.8169304473591810E-002
   1.5386026413179182E-002  -4.9248724460770471E-003   5.3623051794089355E-002
   1.3583497094923999E-002  -5.0091295773527673E-003   4.9588575563696988E-002
   1.1780967776668788E-002  -5.2683154722217851E-003   4.6065875782415111E-002
   2.4105642705282759E-002  -1.0448233032073428E-002   3.7760673689518964E-002
   2.8929465095331564E-002  -1.0463497636442165E-002   5.1171559088511787E-002
   3.3753287485380368E-002  -9.4403527790940245E-003   6.4480612573862173E-002
   3.8577109875429130E-002  -7.3787984600289722E-003   7.7687834145571150E-002
   4.3400932265477921E-002  -4.2788346792472787E-003   9.0793223803637302E-002
   2.0833451592477376E-002  -9.1532536421103927E-003   3.9766542065782395E-002
   2.5445991389583422E-002  -9.1740292957645520E-003   5.4181268687033435E-002
   3.0058531186689483E-002  -8.2613271155533019E-003   6.8275262036041173E-002
   3.4671070983795495E-002  -6.4151471014768160E-003   8.2048522112805361E-002
   3.9283610780901534E-002  -3.6354892535348515E-003   9.5501048917326137E-002
   1.7688608733439942E-002  -7.8582742521475790E-003   4.1819365206686165E-002
   2.1870964579001867E-002  -7.8845609550870499E-003   5.7133001422344204E-002
   2.6053320424563764E-002  -7.0823014520128152E-003   7.1907003007157258E-002
   3.0235676270125734E-002  -5.4514957429245246E-003   8.6141369961125591E-002
   3.4418032115687613E-002  -2.9921438278225354E-003   9.9836102284249273E-002
   1.4671114128170404E-002  -6.5632948621847653E-003   4.3919143112230517E-002
   1.8204384663586811E-002  -6.5950926144094368E-003   6.0026757294443615E-002
   2.1737655199003281E-002  -5.9032757884719886E-003   7.5375835487210552E-002
   2.5270925734419709E-002  -4.4878443843722454E-003   8.9966377690531493E-002
   2.8804196269836158E-002  -2.3487984021101638E-003  0.10379838390440620     
   1.1780967776668788E-002  -5.2683154722217851E-003   4.6065875782415111E-002
   1.4446251643338404E-002  -5.3056242737319348E-003   6.2862536303332051E-002
   1.7111535510007991E-002  -4.7242501249315366E-003   7.8681759476201457E-002
   1.9776819376677586E-002  -3.5241930258200597E-003   9.3523545301023456E-002
   2.2442103243347167E-002  -1.7054529763977921E-003  0.10738789377779767     
   2.6626602093859034E-002   0.0000000000000000        2.9435733173058396E-002
   2.7231278858572842E-002  -5.8611603773416933E-004   3.4938502162559365E-002
   2.7835955623286657E-002  -1.3195951196665195E-003   4.0132182258817622E-002
   2.8440632388000469E-002  -2.2004372457970454E-003   4.5016773461833172E-002
   2.9045309152714277E-002  -3.2286424161257557E-003   4.9592275771606027E-002
   2.0111385523388522E-002   0.0000000000000000        2.8987352972273065E-002
   2.0446453320282373E-002  -4.3958702757311129E-004   3.4306369920006949E-002
   2.0781521117176214E-002  -9.8969633842129444E-004   3.9395257825343630E-002
   2.1116588914070061E-002  -1.6503279325445529E-003   4.4254016688283070E-002
   2.1451656710963912E-002  -2.4214818099428798E-003   4.8882646508825275E-002
   1.3501879649464824E-002   0.0000000000000000        2.8667081401187247E-002
   1.3646298329384188E-002  -2.9305801741205326E-004   3.3839187068077162E-002
   1.3790717009303550E-002  -6.5979755717607280E-004   3.8860123543415351E-002
   1.3935135689222913E-002  -1.1002186192920534E-003   4.3729890827201773E-002
   1.4079554369142275E-002  -1.6143212037600038E-003   4.8448488919436483E-002
   6.7980844720879384E-003   0.0000000000000000        2.8474918459800925E-002
   6.8308138858782976E-003  -1.4652900725099435E-004   3.3536953606769983E-002
   6.8635432996686551E-003  -3.2989877593084683E-004   3.8526779413032800E-002
   6.8962727134590151E-003  -5.5010930603956090E-004   4.3444395878589323E-002
   6.9290021272493717E-003  -8.0716059757713135E-004   4.8289803003439602E-002
  -8.7421380898233814E-012   0.0000000000000000        2.8410864148114112E-002
  -1.0235303923855632E-011   2.9100636830814430E-012   3.3399669536085419E-002
  -1.1728468240004841E-011   5.3143739409122759E-012   3.8395225434195948E-002
  -1.3221632881414702E-011   7.2129385797481405E-012   4.3397531842445686E-002
  -1.4714799257548039E-011   8.6057463238864429E-012   4.8406588760834653E-002
   2.9045309152714277E-002  -3.2286424161257557E-003   4.9592275771606027E-002
   2.9104851939274014E-002  -4.2459132090282674E-003   5.1579514030572128E-002
   2.9164394725833747E-002  -5.0939522028801282E-003   5.3669332615556530E-002
   2.9223937512393484E-002  -5.7727593976814144E-003   5.5861731526559266E-002
   2.9283480298953224E-002  -6.2823347934320706E-003   5.8156710763580283E-002
   2.1451656710963912E-002  -2.4214818099428798E-003   4.8882646508825275E-002
   2.1584413317764062E-002  -3.1844349043743227E-003   5.1210146186071941E-002
   2.1717169924564211E-002  -3.8204641495968757E-003   5.3581493177781117E-002
   2.1849926531364361E-002  -4.3295695456106011E-003   5.5996687483952805E-002
   2.1982683138164514E-002  -4.7117510924154574E-003   5.8455729104587018E-002
   1.4079554369142275E-002  -1.6143212037600038E-003   4.8448488919436483E-002
   1.4226791784627039E-002  -2.1229565997203850E-003   5.1073942065121947E-002
   1.4374029200111804E-002  -2.5469760963136509E-003   5.3684509513714146E-002
   1.4521266615596563E-002  -2.8863796935398155E-003   5.6280191265213039E-002
   1.4668504031081324E-002  -3.1411673913988580E-003   5.8860987319618634E-002
   6.9290021272493717E-003  -8.0716059757713135E-004   4.8289803003439602E-002
   7.0319873398629468E-003  -1.0614782950664437E-003   5.1170901667722139E-002
   7.1349725524765218E-003  -1.2734880430304227E-003   5.3978381623355588E-002
   7.2379577650900943E-003  -1.4431898414690022E-003   5.6712242870339949E-002
   7.3409429777036728E-003  -1.5705836903822448E-003   5.9372485408675207E-002
  -1.4714799257548039E-011   8.6057463238864429E-012   4.8406588760834653E-002
  -1.6528214994565582E-011   9.5874853195399012E-012   5.1501024993872498E-002
  -1.8341630081061822E-011   1.0252822462558653E-011   5.4463109506705479E-002
  -2.0155044191776106E-011   1.0601778894885061E-011   5.7292842299333548E-002
  -2.1968461771937342E-011   1.0634347569205005E-011   5.9990223371756711E-002
   2.9283480298953224E-002  -6.2823347934320706E-003   5.8156710763580283E-002
   2.8984837070425276E-002  -6.6729901779569584E-003   5.9159356487535446E-002
   2.8686193841897328E-002  -6.9950373390808909E-003   6.0183681339992315E-002
   2.8387550613369381E-002  -7.2484762768038630E-003   6.1229685320950820E-002
   2.8088907384841440E-002  -7.4333069911258765E-003   6.2297368430411032E-002
   2.1982683138164514E-002  -4.7117510924154574E-003   5.8455729104587018E-002
   2.1718964457753499E-002  -5.0047426303348914E-003   5.9518270497844389E-002
   2.1455245777342487E-002  -5.2462779996924110E-003   6.0628981858833940E-002
   2.1191527096931471E-002  -5.4363572004879433E-003   6.1787863187555692E-002
   2.0927808416520463E-002  -5.5749802327215298E-003   6.2994914484009595E-002
   1.4668504031081324E-002  -3.1411673913988580E-003   5.8860987319618634E-002
   1.4466200738017743E-002  -3.3364950827128662E-003   5.9966272327339233E-002
   1.4263897444954154E-002  -3.4975186603039173E-003   6.1146218142022535E-002
   1.4061594151890563E-002  -3.6242381241720087E-003   6.2400824763668483E-002
   1.3859290858826983E-002  -3.7166534743171553E-003   6.3730092192277085E-002
   7.3409429777036728E-003  -1.5705836903822448E-003   5.9372485408675207E-002
   7.2265459112180004E-003  -1.6682475350908200E-003   6.0503361976020069E-002
   7.1121488447323314E-003  -1.7487593209154582E-003   6.1735390189558065E-002
   6.9977517782466607E-003  -1.8121190478561371E-003   6.3068570049289230E-002
   6.8833547117609899E-003  -1.8583267159127809E-003   6.4502901555213543E-002
  -2.1968461771937342E-011   1.0634347569205005E-011   5.9990223371756711E-002
  -2.2645724705172565E-011   1.2531229526269172E-011   6.1129539443886806E-002
  -2.3322985903684312E-011   1.8473026927590119E-011   6.2396498001440523E-002
  -2.4000248403238666E-011   2.8459824340937301E-011   6.3791099044417932E-002
  -2.4677510035431283E-011   4.2491593577054232E-011   6.5313342572818983E-002
   2.8088907384841440E-002  -7.4333069911258765E-003   6.2297368430411032E-002
   2.7174045524535000E-002  -7.5495801314702238E-003   6.1216651941934361E-002
   2.6259183664228542E-002  -7.5973463472599340E-003   6.0416773963804696E-002
   2.5344321803922099E-002  -7.5766056384951007E-003   5.9897734496022148E-002
   2.4429459943615645E-002  -7.4873580051756927E-003   5.9659533538586634E-002
   2.0927808416520463E-002  -5.5749802327215298E-003   6.2994914484009595E-002
   2.0280754302826599E-002  -5.6621850856204692E-003   6.2053692199756816E-002
   1.9633700189132727E-002  -5.6980097484120480E-003   6.1367246898382147E-002
   1.8986646075438859E-002  -5.6824542210964129E-003   6.0935578579885560E-002
   1.8339591961744992E-002  -5.6155185036733390E-003   6.0758687244267015E-002
   1.3859290858826983E-002  -3.7166534743171553E-003   6.3730092192277085E-002
   1.3453982964276709E-002  -3.7747900397707979E-003   6.2911237377801035E-002
   1.3048675069726432E-002  -3.7986731495642731E-003   6.2321098018734096E-002
   1.2643367175176154E-002  -3.7883028036976834E-003   6.1959674115076205E-002
   1.2238059280625883E-002  -3.7436790021709854E-003   6.1826965666827494E-002
   6.8833547117609899E-003  -1.8583267159127809E-003   6.4502901555213543E-002
   6.6937315088853293E-003  -1.8873949939210849E-003   6.3789287476066991E-002
   6.5041083060096583E-003  -1.8993365507164427E-003   6.3278327324860537E-002
   6.3144851031339908E-003  -1.8941513862990580E-003   6.2970021101594248E-002
   6.1248619002583268E-003  -1.8718395006685762E-003   6.2864368806267987E-002
  -2.4677510035431283E-011   4.2491593577054232E-011   6.5313342572818983E-002
  -6.3347554632442460E-011   5.1928586430882717E-011   6.4687842494554670E-002
  -1.0201759576000669E-010   4.8131387764271949E-011   6.4238934816761475E-002
  -1.4068763862229439E-010   3.1099692265890155E-011   6.3966619539439454E-002
  -1.7935768148458209E-010   8.3374973591787693E-013   6.3870896662588522E-002
   2.4429459943615645E-002  -7.4873580051756927E-003   5.9659533538586634E-002
   2.4137760815586336E-002  -7.3401357407704287E-003   6.1115156735401605E-002
   2.3846061687557034E-002  -7.1454711387478193E-003   6.2626035858473178E-002
   2.3554362559527725E-002  -6.9033641991077983E-003   6.4192170907801244E-002
   2.3262663431498423E-002  -6.6138149218505915E-003   6.5813561883385718E-002
   1.8339591961744992E-002  -5.6155185036733390E-003   6.0758687244267015E-002
   1.8107565978056975E-002  -5.5051018237778360E-003   6.2248574996145778E-002
   1.7875539994368955E-002  -5.3591034090450795E-003   6.3802553110450605E-002
   1.7643514010680941E-002  -5.1775232594747991E-003   6.5420621587181427E-002
   1.7411488026992925E-002  -4.9603613750672515E-003   6.7102780426338576E-002
   1.2238059280625883E-002  -3.7436790021709854E-003   6.1826965666827494E-002
   1.2074540877448742E-002  -3.6700679067854583E-003   6.3339257370990082E-002
   1.1911022474271594E-002  -3.5727356793423884E-003   6.4924473873748306E-002
   1.1747504071094454E-002  -3.4516823198417982E-003   6.6582615175102222E-002
   1.1583985667917313E-002  -3.3069078282837727E-003   6.8313681275051746E-002
   6.1248619002583268E-003  -1.8718395006685762E-003   6.2864368806267987E-002
   6.0386855137616463E-003  -1.8350339897929731E-003   6.4387203859934461E-002
   5.9525091272649632E-003  -1.7863679496397562E-003   6.5991798148366129E-002
   5.8663327407682854E-003  -1.7258413802088259E-003   6.7678151671563200E-002
   5.7801563542716075E-003  -1.6534542815003078E-003   6.9446264429525423E-002
  -1.7935768148458209E-010   8.3374973591787693E-013   6.3870896662588522E-002
  -1.1300431423943991E-010  -7.2800487860291696E-011   6.5392414462979054E-002
  -4.6650945259574250E-011  -2.1993700610734024E-010   6.7004525934304435E-002
   1.9702421118206193E-011  -4.4057569918709572E-010   6.8707231076564568E-002
   8.6055790965433587E-011  -7.3471689843174204E-010   7.0500529889759744E-002
   2.3262663431498423E-002  -6.6138149218505915E-003   6.5813561883385718E-002
   2.2194768836046208E-002  -6.2955701843295520E-003   6.4795967098279866E-002
   2.1126874240594000E-002  -5.9673768638982827E-003   6.4025730789714436E-002
   2.0058979645141781E-002  -5.6292349605567074E-003   6.3502852957689371E-002
   1.8991085049689577E-002  -5.2811444743048330E-003   6.3227333602204616E-002
   1.7411488026992925E-002  -4.9603613750672515E-003   6.7102780426338576E-002
   1.6595855695565806E-002  -4.7216778850540236E-003   6.6122467503789292E-002
   1.5780223364138680E-002  -4.4755329186671397E-003   6.5399320632749794E-002
   1.4964591032711572E-002  -4.2219264759064384E-003   6.4933339813220109E-002
   1.4148958701284450E-002  -3.9608585567720844E-003   6.4724525045200182E-002
   1.1583985667917313E-002  -3.3069078282837727E-003   6.8313681275051746E-002
   1.1030423175484683E-002  -3.1477855857783149E-003   6.7368163108522394E-002
   1.0476860683052052E-002  -2.9836889734357747E-003   6.6689618568472359E-002
   9.9232981906194201E-003  -2.8146179912560583E-003   6.6278047654901473E-002
   9.3697356981867902E-003  -2.6405726392393358E-003   6.6133450367809640E-002
   5.7801563542716075E-003  -1.6534542815003078E-003   6.9446264429525423E-002
   5.4984712758028515E-003  -1.5738932865026964E-003   6.8533053912479561E-002
   5.2167861973340911E-003  -1.4918450282046039E-003   6.7896624596882324E-002
   4.9351011188653385E-003  -1.4073095066057893E-003   6.7536976482733616E-002
   4.6534160403965807E-003  -1.3202867217066150E-003   6.7454109570033477E-002
   8.6055790965433587E-011  -7.3471689843174204E-010   7.0500529889759744E-002
  -3.4796991676966371E-012  -9.8722705010878542E-010   6.9617139915660653E-002
  -9.3015187566103386E-011  -1.0829732666195468E-009   6.9020338717979579E-002
  -1.8255067856659535E-010  -1.0219553814305726E-009   6.8710126296716439E-002
  -2.7208616609764036E-010  -8.0417389414222384E-010   6.8686502651871373E-002
   1.8991085049689577E-002  -5.2811444743048330E-003   6.3227333602204616E-002
   1.7188555731434380E-002  -5.0155440783943572E-003   5.8169304473591810E-002
   1.5386026413179182E-002  -4.9248724460770471E-003   5.3623051794089355E-002
   1.3583497094923999E-002  -5.0091295773527673E-003   4.9588575563696988E-002
   1.1780967776668788E-002  -5.2683154722217851E-003   4.6065875782415111E-002
   1.4148958701284450E-002  -3.9608585567720844E-003   6.4724525045200182E-002
   1.2842919809290629E-002  -3.7616581958789808E-003   5.9561050560821061E-002
   1.1536880917296814E-002  -3.6936544278421690E-003   5.4878780479854547E-002
   1.0230842025303003E-002  -3.7568472526618088E-003   5.0677714802300329E-002
   8.9248031333091782E-003  -3.9512366703375879E-003   4.6957853528158677E-002
   9.3697356981867902E-003  -2.6405726392393358E-003   6.6133450367809640E-002
   8.5296151867564826E-003  -2.5077723133637569E-003   6.0908262698401383E-002
   7.6894946753261854E-003  -2.4624364096075060E-003   5.6133707386707636E-002
   6.8493741638958779E-003  -2.5045649279707375E-003   5.1809784432728365E-002
   6.0092536524655737E-003  -2.6341578684533629E-003   4.7936493836463770E-002
   4.6534160403965807E-003  -1.3202867217066150E-003   6.7454109570033477E-002
   4.2486418638319270E-003  -1.2538864308485123E-003   6.2210940886332590E-002
   3.8438676872672795E-003  -1.2312183913727633E-003   5.7387832514648525E-002
   3.4390935107026293E-003  -1.2522826032797226E-003   5.2984784454981115E-002
   3.0343193341379783E-003  -1.3170790665690407E-003   4.9001796707330472E-002
  -2.7208616609764036E-010  -8.0417389414222384E-010   6.8686502651871373E-002
  -1.5948302400925485E-010  -5.4833318441360746E-010   6.3469085124614910E-002
  -4.6879878451422385E-011  -3.7313795109295000E-010   5.8641155863677297E-002
   6.5723272310580505E-011  -2.7858853765549974E-010   5.4202714869058657E-002
   1.7832640919479559E-010  -2.6468494063180970E-010   5.0153762140758840E-002
   1.1780967776668788E-002  -5.2683154722217851E-003   4.6065875782415111E-002
   1.4446251643338404E-002  -5.3056242737319348E-003   6.2862536303332051E-002
   1.7111535510007991E-002  -4.7242501249315366E-003   7.8681759476201457E-002
   1.9776819376677586E-002  -3.5241930258200597E-003   9.3523545301023456E-002
   2.2442103243347167E-002  -1.7054529763977921E-003  0.10738789377779767     
   8.9248031333091782E-003  -3.9512366703375879E-003   4.6957853528158677E-002
   1.0690428755930362E-002  -3.9792182923439889E-003   6.4314255882843785E-002
   1.2456054378551545E-002  -3.5431877301550507E-003   8.0848779097479617E-002
   1.4221680001172753E-002  -2.6431449837708287E-003   9.6561423172066424E-002
   1.5987305623793940E-002  -1.2790900531916005E-003  0.11145218810660362     
   6.0092536524655737E-003  -2.6341578684533629E-003   4.7936493836463770E-002
   7.0307792390366178E-003  -2.6528123109558210E-003   6.5697967258801532E-002
   8.0523048256076549E-003  -2.3621253353786828E-003   8.2793119749088123E-002
   9.0738304121787076E-003  -1.7620969417217937E-003   9.9221951307323822E-002
   1.0095355998749736E-002  -8.5272712998518685E-004  0.11498446193350831     
   3.0343193341379783E-003  -1.3170790665690407E-003   4.9001796707330472E-002
   3.4673030926571230E-003  -1.3264063295677642E-003   6.7013670431205125E-002
   3.9002868511762686E-003  -1.1810629406022004E-003   8.4514781431027253E-002
   4.3332706096954228E-003  -8.8104889967271626E-004  0.10150512970679661     
   4.7662543682145640E-003  -4.2636420677882869E-004  0.11798471525851302     
   1.7832640919479559E-010  -2.6468494063180970E-010   5.0153762140758840E-002
   3.1679191908606796E-010  -3.4817981831025691E-010   6.8261365400055063E-002
   4.5525742897734034E-010  -5.4582602326824770E-010   8.6013764143296867E-002
   5.9372294754223010E-010  -8.5762354856688816E-010  0.10341095837048436     
   7.3218844875988509E-010  -1.2835725815563137E-009  0.12045294808161700     
  -8.7421380898233814E-012   0.0000000000000000        2.8410864148114112E-002
  -1.0235303923855632E-011   2.9100636830814430E-012   3.3399669536085419E-002
  -1.1728468240004841E-011   5.3143739409122759E-012   3.8395225434195948E-002
  -1.3221632881414702E-011   7.2129385797481405E-012   4.3397531842445686E-002
  -1.4714799257548039E-011   8.6057463238864429E-012   4.8406588760834653E-002
  -6.7980844893609131E-003   0.0000000000000000        2.8474918465695484E-002
  -6.8308139060320062E-003   1.4652901235864650E-004   3.3536953612331416E-002
  -6.8635433227030966E-003   3.2989878543497695E-004   3.8526779418472261E-002
  -6.8962727393741888E-003   5.5010931922899135E-004   4.3444395884118046E-002
  -6.9290021560452792E-003   8.0716061374067928E-004   4.8289803009268779E-002
  -1.3501879666103894E-002   0.0000000000000000        2.8667081412113726E-002
  -1.3646298348587198E-002   2.9305802180723062E-004   3.3839187078637700E-002
  -1.3790717031070500E-002   6.5979756555557822E-004   3.8860123554032310E-002
  -1.3935135713553804E-002   1.1002186312450424E-003   4.3729890838297578E-002
  -1.4079554396037109E-002   1.6143212188756200E-003   4.8448488931433484E-002
  -2.0111385538971089E-002   0.0000000000000000        2.8987352987368833E-002
  -2.0446453337900888E-002   4.3958703125581409E-004   3.4306369935004292E-002
  -2.0781521136830690E-002   9.8969634567617776E-004   3.9395257840876108E-002
  -2.1116588935760485E-002   1.6503279432610908E-003   4.4254016704984273E-002
  -2.1451656734690284E-002   2.4214818240105517E-003   4.8882646527328814E-002
  -2.6626602107962485E-002   0.0000000000000000        2.9435733191460804E-002
  -2.7231278873973069E-002   5.8611604070439756E-004   3.4938502181431179E-002
  -2.7835955639983648E-002   1.3195951257967808E-003   4.0132182279003628E-002
  -2.8440632405994228E-002   2.2004372552771479E-003   4.5016773484178145E-002
  -2.9045309172004811E-002   3.2286424291454946E-003   4.9592275796954743E-002
  -1.4714799257548039E-011   8.6057463238864429E-012   4.8406588760834653E-002
  -1.6528214994565582E-011   9.5874853195399012E-012   5.1501024993872498E-002
  -1.8341630081061822E-011   1.0252822462558653E-011   5.4463109506705479E-002
  -2.0155044191776106E-011   1.0601778894885061E-011   5.7292842299333548E-002
  -2.1968461771937342E-011   1.0634347569205005E-011   5.9990223371756711E-002
  -6.9290021560452792E-003   8.0716061374067928E-004   4.8289803009268779E-002
  -7.0319873723295023E-003   1.0614783132735675E-003   5.1170901673883516E-002
  -7.1349725886137262E-003   1.2734880621311649E-003   5.3978381629761540E-002
  -7.2379578048979466E-003   1.4431898603134447E-003   5.6712242876902824E-002
  -7.3409430211821723E-003   1.5705837078204485E-003   5.9372485415307374E-002
  -1.4079554396037109E-002   1.6143212188756200E-003   4.8448488931433484E-002
  -1.4226791815323972E-002   2.1229566169596601E-003   5.1073942077266211E-002
  -1.4374029234610843E-002   2.5469761140094870E-003   5.3684509525830405E-002
  -1.4521266653897707E-002   2.8863797100251282E-003   5.6280191277125996E-002
  -1.4668504073184570E-002   3.1411674050065529E-003   5.8860987331153081E-002
  -2.1451656734690284E-002   2.4214818240105517E-003   4.8882646527328814E-002
  -2.1584413345511630E-002   3.1844349206457405E-003   5.1210146204020625E-002
  -2.1717169956332969E-002   3.8204641658878295E-003   5.3581493194912053E-002
  -2.1849926567154312E-002   4.3295695597368100E-003   5.5996687500003063E-002
  -2.1982683177975651E-002   4.7117511021926694E-003   5.8455729119293698E-002
  -2.9045309172004811E-002   3.2286424291454946E-003   4.9592275796954743E-002
  -2.9104851962892461E-002   4.2459132243318296E-003   5.1579514054146729E-002
  -2.9164394753780121E-002   5.0939522177661546E-003   5.3669332637006482E-002
  -2.9223937544667778E-002   5.7727594094484783E-003   5.5861731545534019E-002
  -2.9283480335555431E-002   6.2823347993787582E-003   5.8156710779729309E-002
  -2.1968461771937342E-011   1.0634347569205005E-011   5.9990223371756711E-002
  -2.2645724705172565E-011   1.2531229526269172E-011   6.1129539443886806E-002
  -2.3322985903684312E-011   1.8473026927590119E-011   6.2396498001440523E-002
  -2.4000248403238666E-011   2.8459824340937301E-011   6.3791099044417932E-002
  -2.4677510035431283E-011   4.2491593577054232E-011   6.5313342572818983E-002
  -7.3409430211821723E-003   1.5705837078204485E-003   5.9372485415307374E-002
  -7.2265459547052264E-003   1.6682475530785702E-003   6.0503361991490617E-002
  -7.1121488882282778E-003   1.7487593445143137E-003   6.1735390216558605E-002
  -6.9977518217513301E-003   1.8121190821275327E-003   6.3068570090511297E-002
  -6.8833547552743859E-003   1.8583267659183778E-003   6.4502901613348859E-002
  -1.4668504073184570E-002   3.1411674050065529E-003   5.8860987331153081E-002
  -1.4466200776092302E-002   3.3364950936259647E-003   5.9966272353522011E-002
  -1.4263897479000035E-002   3.4975186705555319E-003   6.1146218188236831E-002
  -1.4061594181907762E-002   3.6242381357952554E-003   6.2400824835297526E-002
  -1.3859290884815504E-002   3.7166534893451481E-003   6.3730092294704124E-002
  -2.1982683177975651E-002   4.7117511021926694E-003   5.8455729119293698E-002
  -2.1718964486806949E-002   5.0047426341733531E-003   5.9518270529980960E-002
  -2.1455245795638248E-002   5.2462779965967987E-003   6.0628981916475214E-002
  -2.1191527104469546E-002   5.4363571894629984E-003   6.1787863278776500E-002
  -2.0927808413300844E-002   5.5749802127719392E-003   6.2994914616884737E-002
  -2.9283480335555431E-002   6.2823347993787582E-003   5.8156710779729309E-002
  -2.8984837086849173E-002   6.6729901747207034E-003   5.9159356520867498E-002
  -2.8686193838142929E-002   6.9950373226380230E-003   6.0183681401273795E-002
  -2.8387550589436678E-002   7.2484762431306894E-003   6.1229685420948185E-002
  -2.8088907340730423E-002   7.4333069361987303E-003   6.2297368579890683E-002
  -2.4677510035431283E-011   4.2491593577054232E-011   6.5313342572818983E-002
  -6.3347554632442460E-011   5.1928586430882717E-011   6.4687842494554670E-002
  -1.0201759576000669E-010   4.8131387764271949E-011   6.4238934816761475E-002
  -1.4068763862229439E-010   3.1099692265890155E-011   6.3966619539439454E-002
  -1.7935768148458209E-010   8.3374973591787693E-013   6.3870896662588522E-002
  -6.8833547552743859E-003   1.8583267659183778E-003   6.4502901613348859E-002
  -6.6937316258667487E-003   1.8873950543473461E-003   6.3789287528679059E-002
  -6.5041084964591158E-003   1.8993366058750599E-003   6.3278327379693439E-002
  -6.3144853670514898E-003   1.8941514205013908E-003   6.2970021166392054E-002
  -6.1248622376438456E-003   1.8718394982265296E-003   6.2864368888774974E-002
  -1.3859290884815504E-002   3.7166534893451481E-003   6.3730092294704124E-002
  -1.3453983052117103E-002   3.7747900567660156E-003   6.2911237479961885E-002
  -1.3048675219418694E-002   3.7986731636187043E-003   6.2321098136116942E-002
  -1.2643367386720302E-002   3.7883028099031171E-003   6.1959674263169270E-002
  -1.2238059554021895E-002   3.7436789956193789E-003   6.1826965861118958E-002
  -2.0927808413300844E-002   5.5749802127719392E-003   6.2994914616884737E-002
  -2.0280754342098580E-002   5.6621850591847302E-003   6.2053692348403119E-002
  -1.9633700270896337E-002   5.6980097213622932E-003   6.1367247086031897E-002
  -1.8986646199694077E-002   5.6824541993048296E-003   6.0935578829771145E-002
  -1.8339592128491823E-002   5.6155184930122073E-003   6.0758687579620732E-002
  -2.8088907340730423E-002   7.4333069361987303E-003   6.2297368579890683E-002
  -2.7174045495811226E-002   7.5495800616034378E-003   6.1216652134002819E-002
  -2.6259183650892019E-002   7.5973462791060417E-003   6.0416774229438419E-002
  -2.5344321805972819E-002   7.5766055887064917E-003   5.9897734866197476E-002
  -2.4429459961053619E-002   7.4873579904050080E-003   5.9659534044280094E-002
  -1.7935768148458209E-010   8.3374973591787693E-013   6.3870896662588522E-002
  -1.1300431423943991E-010  -7.2800487860291696E-011   6.5392414462979054E-002
  -4.6650945259574250E-011  -2.1993700610734024E-010   6.7004525934304435E-002
   1.9702421118206193E-011  -4.4057569918709572E-010   6.8707231076564568E-002
   8.6055790965433587E-011  -7.3471689843174204E-010   7.0500529889759744E-002
  -6.1248622376438456E-003   1.8718394982265296E-003   6.2864368888774974E-002
  -6.0386857299215063E-003   1.8350338810361605E-003   6.4387203838291732E-002
  -5.9525092221991592E-003   1.7863676109159052E-003   6.5991797999611593E-002
  -5.8663327144768112E-003   1.7258406878658036E-003   6.7678151372734488E-002
  -5.7801562067544658E-003   1.6534531118858609E-003   6.9446263957660709E-002
  -1.2238059554021895E-002   3.7436789956193789E-003   6.1826965861118958E-002
  -1.2074541064062298E-002   3.6700678348728089E-003   6.3339257380334441E-002
  -1.1911022574102700E-002   3.5727354417688130E-003   6.4924473652221121E-002
  -1.1747504084143105E-002   3.4516818163073887E-003   6.6582614676779242E-002
  -1.1583985594183506E-002   3.3069069584885369E-003   6.8313680454008791E-002
  -1.8339592128491823E-002   5.6155184930122073E-003   6.0758687579620732E-002
  -1.8107566115426701E-002   5.5051017887095405E-003   6.2248575089107187E-002
  -1.7875540102361573E-002   5.3591032726217781E-003   6.3802552892133199E-002
  -1.7643514089296451E-002   5.1775229447490433E-003   6.5420620988698955E-002
  -1.7411488076231330E-002   4.9603608050911713E-003   6.7102779378804350E-002
  -2.4429459961053619E-002   7.4873579904050080E-003   5.9659534044280094E-002
  -2.4137760884014689E-002   7.3401357425461194E-003   6.1115156964609951E-002
  -2.3846061806975776E-002   7.1454711034746737E-003   6.2626035719347745E-002
  -2.3554362729936856E-002   6.9033640731905703E-003   6.4192170308493460E-002
  -2.3262663652897940E-002   6.6138146516939167E-003   6.5813560732047194E-002
   8.6055790965433587E-011  -7.3471689843174204E-010   7.0500529889759744E-002
  -3.4796991676966371E-012  -9.8722705010878542E-010   6.9617139915660653E-002
  -9.3015187566103386E-011  -1.0829732666195468E-009   6.9020338717979579E-002
  -1.8255067856659535E-010  -1.0219553814305726E-009   6.8710126296716439E-002
  -2.7208616609764036E-010  -8.0417389414222384E-010   6.8686502651871373E-002
  -5.7801562067544658E-003   1.6534531118858609E-003   6.9446263957660709E-002
  -5.4984712886323823E-003   1.5738917157454568E-003   6.8533053704868729E-002
  -5.2167863705103058E-003   1.4918433322135549E-003   6.7896624690974003E-002
  -4.9351014523882214E-003   1.4073079612907866E-003   6.7536976915976488E-002
  -4.6534165342661388E-003   1.3202856029765342E-003   6.7454110379876114E-002
  -1.1583985594183506E-002   3.3069069584885369E-003   6.8313680454008791E-002
  -1.1030423205924629E-002   3.1477844187177279E-003   6.7368162778368962E-002
  -1.0476860817665763E-002   2.9836877474004875E-003   6.6689618804105455E-002
  -9.9232984294068943E-003   2.8146169445369545E-003   6.6278048531218409E-002
  -9.3697360411480191E-003   2.6405720101267682E-003   6.6133451959707726E-002
  -1.7411488076231330E-002   4.9603608050911713E-003   6.7102779378804350E-002
  -1.6595855755356451E-002   4.7216771216901446E-003   6.6122467136161267E-002
  -1.5780223434481572E-002   4.4755321625874755E-003   6.5399321057373713E-002
  -1.4964591113606691E-002   4.2219259277830948E-003   6.4933341142441897E-002
  -1.4148958792731807E-002   3.9608584172771827E-003   6.4724527391365666E-002
  -2.3262663652897940E-002   6.6138146516939167E-003   6.5813560732047194E-002
  -2.2194768936927827E-002   6.2955698246624503E-003   6.4795966778245701E-002
  -2.1126874220957728E-002   5.9673765777742138E-003   6.4025731450778972E-002
  -2.0058979504987633E-002   5.6292349110293946E-003   6.3502854749647175E-002
  -1.8991084789017516E-002   5.2811448244274306E-003   6.3227336674850143E-002
  -2.7208616609764036E-010  -8.0417389414222384E-010   6.8686502651871373E-002
  -1.5948302400925485E-010  -5.4833318441360746E-010   6.3469085124614910E-002
  -4.6879878451422385E-011  -3.7313795109295000E-010   5.8641155863677297E-002
   6.5723272310580505E-011  -2.7858853765549974E-010   5.4202714869058657E-002
   1.7832640919479559E-010  -2.6468494063180970E-010   5.0153762140758840E-002
  -4.6534165342661388E-003   1.3202856029765342E-003   6.7454110379876114E-002
  -4.2486421507033391E-003   1.2538857891588040E-003   6.2210941610428117E-002
  -3.8438677671405411E-003   1.2312180517259491E-003   5.7387833116580425E-002
  -3.4390933835777406E-003   1.2522823906772514E-003   5.2984784898333172E-002
  -3.0343190000149435E-003   1.3170788060131722E-003   4.9001796955686516E-002
  -9.3697360411480191E-003   2.6405720101267682E-003   6.6133451959707726E-002
  -8.5296153773439902E-003   2.5077721266508063E-003   6.0908264105098101E-002
  -7.6894947135399492E-003   2.4624364765896203E-003   5.6133708535370481E-002
  -6.8493740497359273E-003   2.5045650599430942E-003   5.1809785250524834E-002
  -6.0092533859318793E-003   2.6341578767112850E-003   4.7936494250561318E-002
  -1.4148958792731807E-002   3.9608584172771827E-003   6.4724527391365666E-002
  -1.2842919839404963E-002   3.7616584641428294E-003   5.9561052608624709E-002
  -1.1536880886078111E-002   3.6936549014533505E-003   5.4878782120047431E-002
  -1.0230841932751263E-002   3.7568477292089656E-003   5.0677715925633721E-002
  -8.9248029794244173E-003   3.9512369474093978E-003   4.6957854025383640E-002
  -1.8991084789017516E-002   5.2811448244274306E-003   6.3227336674850143E-002
  -1.7188555536886280E-002   5.0155448016347970E-003   5.8169307121008262E-002
  -1.5386026284755019E-002   4.9248733263171501E-003   5.3623053870611365E-002
  -1.3583497032623773E-002   5.0091303984747988E-003   4.9588576923659686E-002
  -1.1780967780492521E-002   5.2683160181074551E-003   4.6065876280153295E-002
   1.7832640919479559E-010  -2.6468494063180970E-010   5.0153762140758840E-002
   3.1679191908606796E-010  -3.4817981831025691E-010   6.8261365400055063E-002
   4.5525742897734034E-010  -5.4582602326824770E-010   8.6013764143296867E-002
   5.9372294754223010E-010  -8.5762354856688816E-010  0.10341095837048436     
   7.3218844875988509E-010  -1.2835725815563137E-009  0.12045294808161700     
  -3.0343190000149435E-003   1.3170788060131722E-003   4.9001796955686516E-002
  -3.4673024608233103E-003   1.3264059190338240E-003   6.7013670526604341E-002
  -3.9002859216316823E-003   1.1810623510387641E-003   8.4514781415029078E-002
  -4.3332693824400534E-003   8.8104810202846440E-004  0.10150512962096037     
  -4.7662528432484280E-003   4.2636317200261953E-004  0.11798471514439834     
  -6.0092533859318793E-003   2.6341578767112850E-003   4.7936494250561318E-002
  -7.0307786124528624E-003   2.6528121862470777E-003   6.5697967566236831E-002
  -8.0523038389738472E-003   2.3621252479034821E-003   8.2793120032980463E-002
  -9.0738290654948373E-003   1.7620970616803906E-003   9.9221951650791895E-002
  -1.0095354292015815E-002   8.5272762757770959E-004  0.11498446241967170     
  -8.9248029794244173E-003   3.9512369474093978E-003   4.6957854025383640E-002
  -1.0690428138096748E-002   3.9792184534604147E-003   6.4314256518952700E-002
  -1.2456053296769080E-002   3.5431881447681238E-003   8.0848779997151010E-002
  -1.4221678455441419E-002   2.6431460213322492E-003   9.6561424459978618E-002
  -1.5987303614113758E-002   1.2790920831529107E-003  0.11145218990743559     
  -1.1780967780492521E-002   5.2683160181074551E-003   4.6065876280153295E-002
  -1.4446251037754931E-002   5.3056247206739182E-003   6.2862537384751838E-002
  -1.7111534295017362E-002   4.7242510416329181E-003   7.8681761307541037E-002
  -1.9776817552279793E-002   3.5241949809843125E-003   9.3523548048520685E-002
  -2.2442100809542204E-002   1.7054565387280007E-003  0.10738789760769096     
  -2.6626602107962485E-002   0.0000000000000000        2.9435733191460804E-002
  -2.7231278873973069E-002   5.8611604070439756E-004   3.4938502181431179E-002
  -2.7835955639983648E-002   1.3195951257967808E-003   4.0132182279003628E-002
  -2.8440632405994228E-002   2.2004372552771479E-003   4.5016773484178145E-002
  -2.9045309172004811E-002   3.2286424291454946E-003   4.9592275796954743E-002
  -3.3384573840861284E-002   0.0000000000000000        3.0146610519265159E-002
  -3.4233165948276439E-002   9.6071121058491794E-004   3.5259826024218913E-002
  -3.5081758055691588E-002   2.0242045681430829E-003   4.0194299738761437E-002
  -3.5930350163106750E-002   3.1904800726744930E-003   4.4950031662892749E-002
  -3.6778942270521899E-002   4.4595377241791511E-003   4.9527021796612829E-002
  -4.0722345205450657E-002   0.0000000000000000        3.1254373465657397E-002
  -4.1684505552283681E-002   1.3353063804654400E-003   3.5933454588179793E-002
  -4.2646665899116719E-002   2.7288140104893858E-003   4.0564141022277664E-002
  -4.3608826245949743E-002   4.1805228900718425E-003   4.5146432767951022E-002
  -4.4570986592782774E-002   5.6904330192127997E-003   4.9680329825199848E-002
  -4.8639916201730617E-002   0.0000000000000000        3.2759022030637533E-002
  -4.9585297685994824E-002   1.7099015503459596E-003   3.6959387873313834E-002
  -5.0530679170259024E-002   3.4334234528356883E-003   4.1241706129552309E-002
  -5.1476060654523231E-002   5.1705657074691876E-003   4.5605976799352972E-002
  -5.2421442138787432E-002   6.9213283142464527E-003   5.0052199882715802E-002
  -5.7137286829701150E-002   0.0000000000000000        3.4660556214205551E-002
  -5.7935542349409834E-002   2.0844967202264817E-003   3.8337625879621022E-002
  -5.8733797869118511E-002   4.1380328951819909E-003   4.2226995060585373E-002
  -5.9532053388827187E-002   6.1606085248665406E-003   4.6328663757098598E-002
  -6.0330308908535871E-002   8.1522236092801074E-003   5.0642631969160690E-002
  -2.9045309172004811E-002   3.2286424291454946E-003   4.9592275796954743E-002
  -2.9104851962892461E-002   4.2459132243318296E-003   5.1579514054146729E-002
  -2.9164394753780121E-002   5.0939522177661546E-003   5.3669332637006482E-002
  -2.9223937544667778E-002   5.7727594094484783E-003   5.5861731545534019E-002
  -2.9283480335555431E-002   6.2823347993787582E-003   5.8156710779729309E-002
  -3.6778942270521899E-002   4.4595377241791511E-003   4.9527021796612829E-002
  -3.6775198105962900E-002   5.6925174775450055E-003   5.1244470587338491E-002
  -3.6771453941403909E-002   6.7505592876600266E-003   5.2985912963289673E-002
  -3.6767709776844910E-002   7.6336631545242352E-003   5.4751348924466404E-002
  -3.6763965612285912E-002   8.3418290781375887E-003   5.6540778470868649E-002
  -4.4570986592782774E-002   5.6904330192127997E-003   4.9680329825199848E-002
  -4.4582542213219369E-002   7.1391217307581927E-003   5.1122283007960345E-002
  -4.4594097833655949E-002   8.4071663575539263E-003   5.2509643035504171E-002
  -4.4605653454092550E-002   9.4945668996000224E-003   5.3842409907831276E-002
  -4.4617209074529117E-002   1.0401323356896419E-002   5.5120583624941683E-002
  -5.2421442138787432E-002   6.9213283142464527E-003   5.0052199882715802E-002
  -5.2526884284661839E-002   8.5857259839713703E-003   5.1212951316012362E-002
  -5.2632326430536253E-002   1.0063773427447806E-002   5.2240522853649954E-002
  -5.2737768576410667E-002   1.1355470644675760E-002   5.3134914495628627E-002
  -5.2843210722285081E-002   1.2460817635655271E-002   5.3896126241948339E-002
  -6.0330308908535871E-002   8.1522236092801074E-003   5.0642631969160690E-002
  -6.0608224320290345E-002   1.0032330237184554E-002   5.1516475511494457E-002
  -6.0886139732044813E-002   1.1720380497341702E-002   5.2178552417727023E-002
  -6.1164055143799287E-002   1.3216374389751573E-002   5.2628862687858435E-002
  -6.1441970555553754E-002   1.4520311914414073E-002   5.2867406321888653E-002
  -2.9283480335555431E-002   6.2823347993787582E-003   5.8156710779729309E-002
  -2.8984837086849173E-002   6.6729901747207034E-003   5.9159356520867498E-002
  -2.8686193838142929E-002   6.9950373226380230E-003   6.0183681401273795E-002
  -2.8387550589436678E-002   7.2484762431306894E-003   6.1229685420948185E-002
  -2.8088907340730423E-002   7.4333069361987303E-003   6.2297368579890683E-002
  -3.6763965612285912E-002   8.3418290781375887E-003   5.6540778470868649E-002
  -3.6390820205359872E-002   8.8863579587676982E-003   5.7113016860375648E-002
  -3.6017674798433839E-002   9.2785506966821772E-003   5.7812580427054103E-002
  -3.5644529391507807E-002   9.5184072918809183E-003   5.8639469170904006E-002
  -3.5271383984581753E-002   9.6059277443639735E-003   5.9593683091925427E-002
  -4.4617209074529117E-002   1.0401323356896419E-002   5.5120583624941683E-002
  -4.4063915471479947E-002   1.1099725742814663E-002   5.5178686747526434E-002
  -4.3510621868430757E-002   1.1562064070726220E-002   5.5469761085186017E-002
  -4.2957328265381567E-002   1.1788338340631090E-002   5.5993806637920418E-002
  -4.2404034662332390E-002   1.1778548552529286E-002   5.6750823405729657E-002
  -5.2843210722285081E-002   1.2460817635655271E-002   5.3896126241948339E-002
  -5.2004122885209378E-002   1.3313093526861636E-002   5.3356366182319842E-002
  -5.1165035048133682E-002   1.3845577444770347E-002   5.3155223375669532E-002
  -5.0325947211057986E-002   1.4058269389381317E-002   5.3292697821997428E-002
  -4.9486859373982291E-002   1.3951169360694578E-002   5.3768789521303498E-002
  -6.1441970555553754E-002   1.4520311914414073E-002   5.2867406321888653E-002
  -6.0211442446548170E-002   1.5526461310908617E-002   5.1646055164755893E-002
  -5.8980914337542614E-002   1.6129090818814404E-002   5.0868967298504653E-002
  -5.7750386228537044E-002   1.6328200438131480E-002   5.0536142723135002E-002
  -5.6519858119531474E-002   1.6123790168859828E-002   5.0647581438646880E-002
  -2.8088907340730423E-002   7.4333069361987303E-003   6.2297368579890683E-002
  -2.7174045495811226E-002   7.5495800616034378E-003   6.1216652134002819E-002
  -2.6259183650892019E-002   7.5973462791060417E-003   6.0416774229438419E-002
  -2.5344321805972819E-002   7.5766055887064917E-003   5.9897734866197476E-002
  -2.4429459961053619E-002   7.4873579904050080E-003   5.9659534044280094E-002
  -3.5271383984581753E-002   9.6059277443639735E-003   5.9593683091925427E-002
  -3.4083721137736001E-002   9.5998996321891364E-003   5.8503121125490117E-002
  -3.2896058290890227E-002   9.5591105334139198E-003   5.7677322621584468E-002
  -3.1708395444044454E-002   9.4835604480384451E-003   5.7116287580208466E-002
  -3.0520732597198695E-002   9.3732493760626256E-003   5.6820016001362064E-002
  -4.2404034662332390E-002   1.1778548552529286E-002   5.6750823405729657E-002
  -4.0959645892353916E-002   1.1650219202774866E-002   5.5684161840048749E-002
  -3.9515257122375441E-002   1.1520874787721857E-002   5.4866188658103596E-002
  -3.8070868352396953E-002   1.1390515307370345E-002   5.4296903859894274E-002
  -3.6626479582418485E-002   1.1259140761720271E-002   5.3976307445420729E-002
  -4.9486859373982291E-002   1.3951169360694578E-002   5.3768789521303498E-002
  -4.7801819759664937E-002   1.3700538773360567E-002   5.2759774277678750E-002
  -4.6116780145347612E-002   1.3482639042029820E-002   5.1983372338995838E-002
  -4.4431740531030280E-002   1.3297470166702257E-002   5.1439583705254970E-002
  -4.2746700916712940E-002   1.3145032147377930E-002   5.1128408376455936E-002
  -5.6519858119531474E-002   1.6123790168859828E-002   5.0647581438646880E-002
  -5.4610242739669142E-002   1.5750858343946322E-002   4.9729958438380004E-002
  -5.2700627359806795E-002   1.5444403296337752E-002   4.9028873664261195E-002
  -5.0791011979944449E-002   1.5204425026034175E-002   4.8544327116290475E-002
  -4.8881396600082117E-002   1.5030923533035534E-002   4.8276318794467810E-002
  -2.4429459961053619E-002   7.4873579904050080E-003   5.9659534044280094E-002
  -2.4137760884014689E-002   7.3401357425461194E-003   6.1115156964609951E-002
  -2.3846061806975776E-002   7.1454711034746737E-003   6.2626035719347745E-002
  -2.3554362729936856E-002   6.9033640731905703E-003   6.4192170308493460E-002
  -2.3262663652897940E-002   6.6138146516939167E-003   6.5813560732047194E-002
  -3.0520732597198695E-002   9.3732493760626256E-003   5.6820016001362064E-002
  -3.0166804777600354E-002   9.2093715244947055E-003   5.8208229998870389E-002
  -2.9812876958002030E-002   8.9731211003425959E-003   5.9665645647089614E-002
  -2.9458949138403696E-002   8.6644981036065882E-003   6.1192262946019788E-002
  -2.9105021318805355E-002   8.2835025342864743E-003   6.2788081895660736E-002
  -3.6626479582418485E-002   1.1259140761720271E-002   5.3976307445420729E-002
  -3.6196377203957755E-002   1.1078607306443229E-002   5.5272182338736042E-002
  -3.5766274825497012E-002   1.0800771097210581E-002   5.6651204699065254E-002
  -3.5336172447036282E-002   1.0425632134022580E-002   5.8113374526408371E-002
  -3.4906070068575559E-002   9.9531904168789487E-003   5.9658691820765303E-002
  -4.2746700916712940E-002   1.3145032147377930E-002   5.1128408376455936E-002
  -4.2226478163086854E-002   1.2947843088391742E-002   5.2307013984206792E-002
  -4.1706255409460789E-002   1.2628421094078645E-002   5.3582712875274600E-002
  -4.1186032655834717E-002   1.2186766164438503E-002   5.4955505049659181E-002
  -4.0665809902208604E-002   1.1622878299471465E-002   5.6425390507360625E-002
  -4.8881396600082117E-002   1.5030923533035534E-002   4.8276318794467810E-002
  -4.8257107654987710E-002   1.4817078870340367E-002   4.9312724935282826E-002
  -4.7632818709893297E-002   1.4456071090946515E-002   5.0460170175717689E-002
  -4.7008529764798884E-002   1.3947900194854555E-002   5.1718654515772275E-002
  -4.6384240819704478E-002   1.3292566182063981E-002   5.3088177955446736E-002
  -2.3262663652897940E-002   6.6138146516939167E-003   6.5813560732047194E-002
  -2.2194768936927827E-002   6.2955698246624503E-003   6.4795966778245701E-002
  -2.1126874220957728E-002   5.9673765777742138E-003   6.4025731450778972E-002
  -2.0058979504987633E-002   5.6292349110293946E-003   6.3502854749647175E-002
  -1.8991084789017516E-002   5.2811448244274306E-003   6.3227336674850143E-002
  -2.9105021318805355E-002   8.2835025342864743E-003   6.2788081895660736E-002
  -2.7785073139455246E-002   7.8661855112589635E-003   6.1811382317697824E-002
  -2.6465124960105148E-002   7.4485981534004111E-003   6.1091431040160044E-002
  -2.5145176780755066E-002   7.0307404607112215E-003   6.0628228063047351E-002
  -2.3825228601404964E-002   6.6126124331912228E-003   6.0421773386359789E-002
  -3.4906070068575559E-002   9.9531904168789487E-003   5.9658691820765303E-002
  -3.3324678751755162E-002   9.4368011978552546E-003   5.8732564703666855E-002
  -3.1743287434934771E-002   8.9298197290266085E-003   5.8072575561083833E-002
  -3.0161896118114356E-002   8.4322460103932705E-003   5.7678724393016377E-002
  -2.8580504801293961E-002   7.9440800419550150E-003   5.7551011199464250E-002
  -4.0665809902208604E-002   1.1622878299471465E-002   5.6425390507360625E-002
  -3.8813585773827576E-002   1.1007416884451546E-002   5.5559513936152626E-002
  -3.6961361645446569E-002   1.0411041304652806E-002   5.4969165013550494E-002
  -3.5109137517065556E-002   9.8337515600752084E-003   5.4654343739554030E-002
  -3.3256913388684542E-002   9.2755476507188350E-003   5.4615050114163469E-002
  -4.6384240819704478E-002   1.3292566182063981E-002   5.3088177955446736E-002
  -4.4251794205672518E-002   1.2578032571048031E-002   5.2292230015155372E-002
  -4.2119347591640564E-002   1.1892262880278962E-002   5.1781199397559957E-002
  -3.9986900977608625E-002   1.1235257109757302E-002   5.1555086102660699E-002
  -3.7854454363576651E-002   1.0607015259482599E-002   5.1613890130457529E-002
  -1.8991084789017516E-002   5.2811448244274306E-003   6.3227336674850143E-002
  -1.7188555536886280E-002   5.0155448016347970E-003   5.8169307121008262E-002
  -1.5386026284755019E-002   4.9248733263171501E-003   5.3623053870611365E-002
  -1.3583497032623773E-002   5.0091303984747988E-003   4.9588576923659686E-002
  -1.1780967780492521E-002   5.2683160181074551E-003   4.6065876280153295E-002
  -2.3825228601404964E-002   6.6126124331912228E-003   6.0421773386359789E-002
  -2.1536700027865306E-002   6.2958327309702300E-003   5.5605782229431494E-002
  -1.9248171454325676E-002   6.1820200141778914E-003   5.1250013411874656E-002
  -1.6959642880786059E-002   6.2711742828145400E-003   4.7354466933689401E-002
  -1.4671114307246387E-002   6.5632955368797319E-003   4.3919142794875854E-002
  -2.8580504801293961E-002   7.9440800419550150E-003   5.7551011199464250E-002
  -2.5857530870419525E-002   7.5761206603056075E-003   5.3005096877403138E-002
  -2.3134556939545071E-002   7.4391667020386257E-003   4.8867850930639979E-002
  -2.0411583008670589E-002   7.5332181671542795E-003   4.5139273359174906E-002
  -1.7688609077796177E-002   7.8582750556521475E-003   4.1819364163007730E-002
  -3.3256913388684542E-002   9.2755476507188350E-003   5.4615050114163469E-002
  -3.0151048064548859E-002   8.8564085896409850E-003   5.0367251064923318E-002
  -2.7045182740413204E-002   8.6963133898993912E-003   4.6476566426907624E-002
  -2.3939317416277563E-002   8.7952620514937414E-003   4.2942996200116185E-002
  -2.0833452092141866E-002   9.1532545744245492E-003   3.9766540384549229E-002
  -3.7854454363576651E-002   1.0607015259482599E-002   5.1613890130457529E-002
  -3.4417251610253358E-002   1.0136696518976446E-002   4.7692244791992022E-002
  -3.0980048856930065E-002   9.9534600777600596E-003   4.4076159900677259E-002
  -2.7542846103606772E-002   1.0057305935833750E-002   4.0765635456513336E-002
  -2.4105643350283479E-002   1.0448234093196895E-002   3.7760671459500184E-002
  -1.1780967780492521E-002   5.2683160181074551E-003   4.6065876280153295E-002
  -1.4446251037754931E-002   5.3056247206739182E-003   6.2862537384751838E-002
  -1.7111534295017362E-002   4.7242510416329181E-003   7.8681761307541037E-002
  -1.9776817552279793E-002   3.5241949809843125E-003   9.3523548048520685E-002
  -2.2442100809542204E-002   1.7054565387280007E-003  0.10738789760769096     
  -1.4671114307246387E-002   6.5632955368797319E-003   4.3919142794875854E-002
  -1.8204384133755743E-002   6.5950930960082532E-003   6.0026757889785842E-002
  -2.1737653960265134E-002   5.9032762798339466E-003   7.5375837028011344E-002
  -2.5270923786774493E-002   4.4878450883568538E-003   8.9966380209552513E-002
  -2.8804193613283888E-002   2.3487995215770718E-003  0.10379838743440906     
  -1.7688609077796177E-002   7.8582750556521475E-003   4.1819364163007730E-002
  -2.1870964248427535E-002   7.8845614713425050E-003   5.7133001254534105E-002
  -2.6053319419058835E-002   7.0823015180348711E-003   7.1907003614501003E-002
  -3.0235674589690203E-002   5.4514951957295079E-003   8.6141371242908285E-002
  -3.4418029760321496E-002   2.9921425044262540E-003   9.9836104139756465E-002
  -2.0833452092141866E-002   9.1532545744245492E-003   3.9766540384549229E-002
  -2.5445991381770169E-002   9.1740298466767428E-003   5.4181267478996736E-002
  -3.0058530671398513E-002   8.2613267562360697E-003   6.8275261067009790E-002
  -3.4671069961026785E-002   6.4151453031022721E-003   8.2048521148588363E-002
  -3.9283609250655133E-002   3.6354854872753806E-003   9.5501047723732246E-002
  -2.4105643350283479E-002   1.0448234093196895E-002   3.7760671459500184E-002
  -2.8929465533783755E-002   1.0463498222011036E-002   5.1171556563173737E-002
  -3.3753287717284058E-002   9.4403519944369213E-003   6.4480609385537652E-002
  -3.8577109900784355E-002   7.3787954104748664E-003   7.7687829926592220E-002
  -4.3400932084284638E-002   4.2788284701245072E-003   9.0793218186337343E-002
  -5.7137286829701150E-002   0.0000000000000000        3.4660556214205551E-002
  -5.7935542349409834E-002   2.0844967202264817E-003   3.8337625879621022E-002
  -5.8733797869118511E-002   4.1380328951819909E-003   4.2226995060585373E-002
  -5.9532053388827187E-002   6.1606085248665406E-003   4.6328663757098598E-002
  -6.0330308908535871E-002   8.1522236092801074E-003   5.0642631969160690E-002
  -6.5804475635052651E-002   0.0000000000000000        3.7182332567399570E-002
  -6.6618719705573703E-002   2.9144446194403779E-003   4.0826666076661279E-002
  -6.7432963776094743E-002   5.7706270507093425E-003   4.4226722968749368E-002
  -6.8247207846615809E-002   8.5685472938068878E-003   4.7382503243663825E-002
  -6.9061451917136835E-002   1.1308205348733015E-002   5.0294006901404710E-002
  -7.4231501163475488E-002   0.0000000000000000        4.0547707641257716E-002
  -7.5518309917531390E-002   3.7443925186542728E-003   4.4132003351465200E-002
  -7.6805118671587305E-002   7.4032212062366846E-003   4.7015446311776586E-002
  -7.8091927425643221E-002   1.0976486062747233E-002   4.9198036522191860E-002
  -7.9378736179699122E-002   1.4464187088185917E-002   5.0679773982711028E-002
  -8.2418363414969650E-002   0.0000000000000000        4.4756681435779981E-002
  -8.4634312985282914E-002   4.5743404178681720E-003   4.8253637704032806E-002
  -8.6850262555596164E-002   9.0358153617640276E-003   5.0593165089667033E-002
  -8.9066212125909414E-002   1.3384424831687582E-002   5.1775263592682662E-002
  -9.1282161696222691E-002   1.7620168827638821E-002   5.1799933213079706E-002
  -9.0365062389535150E-002   0.0000000000000000        4.9809253950966366E-002
  -9.3966728908828248E-002   5.4042883170820639E-003   5.3191569134364070E-002
  -9.7568395428121346E-002   1.0668409517291377E-002   5.4959879302420696E-002
 -0.10117006194741444        1.5792363600627930E-002   5.5114184455136231E-002
 -0.10477172846670754        2.0776150567091721E-002   5.3654484592510696E-002
  -6.0330308908535871E-002   8.1522236092801074E-003   5.0642631969160690E-002
  -6.0608224320290345E-002   1.0032330237184554E-002   5.1516475511494457E-002
  -6.0886139732044813E-002   1.1720380497341702E-002   5.2178552417727023E-002
  -6.1164055143799287E-002   1.3216374389751573E-002   5.2628862687858435E-002
  -6.1441970555553754E-002   1.4520311914414073E-002   5.2867406321888653E-002
  -6.9061451917136835E-002   1.1308205348733015E-002   5.0294006901404710E-002
  -6.9313344700457996E-002   1.3753119888531682E-002   4.9457857849396242E-002
  -6.9565237483779171E-002   1.5666809586246833E-002   4.8885520690355552E-002
  -6.9817130267100375E-002   1.7049274441878492E-002   4.8576995424282662E-002
  -7.0069023050421536E-002   1.7900514455426599E-002   4.8532282051177565E-002
  -7.9378736179699122E-002   1.4464187088185917E-002   5.0679773982711028E-002
  -7.9129027805518032E-002   1.7473909539878811E-002   4.7794463862024128E-002
  -7.8879319431336914E-002   1.9613238675151985E-002   4.5648544163373980E-002
  -7.8629611057155838E-002   2.0882174494005413E-002   4.4242014886760599E-002
  -7.8379902682974706E-002   2.1280716996439127E-002   4.3574876032183948E-002
  -9.1282161696222691E-002   1.7620168827638821E-002   5.1799933213079706E-002
  -9.0055273635470348E-002   2.1194699191225932E-002   4.6526293549378178E-002
  -8.8828385574718019E-002   2.3559667764057123E-002   4.2467622836782341E-002
  -8.7601497513965690E-002   2.4715074546132351E-002   3.9623921075292189E-002
  -8.6374609453213361E-002   2.4660919537451670E-002   3.7995188264907817E-002
 -0.10477172846670754        2.0776150567091721E-002   5.3654484592510696E-002
 -0.10209208219031504        2.4915488842573066E-002   4.5653346911458267E-002
  -9.9412435913922487E-002   2.7506096852962268E-002   3.9342756710580594E-002
  -9.6732789637529973E-002   2.8547974598259272E-002   3.4722713989877502E-002
  -9.4053143361137445E-002   2.8041122078464174E-002   3.1793218749349143E-002
  -6.1441970555553754E-002   1.4520311914414073E-002   5.2867406321888653E-002
  -6.0211442446548170E-002   1.5526461310908617E-002   5.1646055164755893E-002
  -5.8980914337542614E-002   1.6129090818814404E-002   5.0868967298504653E-002
  -5.7750386228537044E-002   1.6328200438131480E-002   5.0536142723135002E-002
  -5.6519858119531474E-002   1.6123790168859828E-002   5.0647581438646880E-002
  -7.0069023050421536E-002   1.7900514455426599E-002   4.8532282051177565E-002
  -6.8443106871329512E-002   1.8364618649038867E-002   4.7254945192375747E-002
  -6.6817190692237502E-002   1.8585676044862831E-002   4.6324121182865233E-002
  -6.5191274513145478E-002   1.8563686642898557E-002   4.5739810022646044E-002
  -6.3565358334053496E-002   1.8298650443146033E-002   4.5502011711718193E-002
  -7.8379902682974706E-002   2.1280716996439127E-002   4.3574876032183948E-002
  -7.6456348875386521E-002   2.1202775987169100E-002   4.2402026562513531E-002
  -7.4532795067798280E-002   2.1042261270911251E-002   4.1477939500544243E-002
  -7.2609241260210067E-002   2.0799172847665661E-002   4.0802614846275988E-002
  -7.0685687452621854E-002   2.0473510717432246E-002   4.0376052599708945E-002
  -8.6374609453213361E-002   2.4660919537451670E-002   3.7995188264907817E-002
  -8.4251168458719147E-002   2.4040933325299330E-002   3.7087299275169322E-002
  -8.2127727464224989E-002   2.3498846496959710E-002   3.6330422251541671E-002
  -8.0004286469730762E-002   2.3034659052432734E-002   3.5724557194024863E-002
  -7.7880845475236590E-002   2.2648370991718455E-002   3.5269704102618975E-002
  -9.4053143361137445E-002   2.8041122078464174E-002   3.1793218749349143E-002
  -9.1827565621327503E-002   2.6879090663429576E-002   3.1310763330342967E-002
  -8.9601987881517575E-002   2.5955431723008106E-002   3.0881569435857518E-002
  -8.7376410141707633E-002   2.5270145257199842E-002   3.0505637065892585E-002
  -8.5150832401897678E-002   2.4823231266004678E-002   3.0182966220448401E-002
  -5.6519858119531474E-002   1.6123790168859828E-002   5.0647581438646880E-002
  -5.4610242739669142E-002   1.5750858343946322E-002   4.9729958438380004E-002
  -5.2700627359806795E-002   1.5444403296337752E-002   4.9028873664261195E-002
  -5.0791011979944449E-002   1.5204425026034175E-002   4.8544327116290475E-002
  -4.8881396600082117E-002   1.5030923533035534E-002   4.8276318794467810E-002
  -6.3565358334053496E-002   1.8298650443146033E-002   4.5502011711718193E-002
  -6.1425466293189762E-002   1.7927781230544872E-002   4.4572227016956283E-002
  -5.9285574252326070E-002   1.7588292790034838E-002   4.3886457418048946E-002
  -5.7145682211462358E-002   1.7280185121615717E-002   4.3444702914996323E-002
  -5.5005790170598666E-002   1.7003458225287732E-002   4.3246963507798358E-002
  -7.0685687452621854E-002   2.0473510717432246E-002   4.0376052599708945E-002
  -6.8288041881050199E-002   2.0104704117143504E-002   3.9399010205237936E-002
  -6.5890396309478558E-002   1.9732182283731844E-002   3.8693459776328210E-002
  -6.3492750737906889E-002   1.9355945217197319E-002   3.8259401312979731E-002
  -6.1095105166335248E-002   1.8975992917539847E-002   3.8096834815192493E-002
  -7.7880845475236590E-002   2.2648370991718455E-002   3.5269704102618975E-002
  -7.5197969503250417E-002   2.2281627003742081E-002   3.4210308003225075E-002
  -7.2515093531264244E-002   2.1876071777428931E-002   3.3449880739098943E-002
  -6.9832217559278043E-002   2.1431705312778888E-002   3.2988422310240711E-002
  -6.7149341587291869E-002   2.0948527609791975E-002   3.2825932716650179E-002
  -8.5150832401897678E-002   2.4823231266004678E-002   3.0182966220448401E-002
  -8.2155249159790403E-002   2.4458549890340714E-002   2.9006120410917616E-002
  -7.9159665917683114E-002   2.4019961271125930E-002   2.8155720306361230E-002
  -7.6164082675575839E-002   2.3507465408360448E-002   2.7631765906779165E-002
  -7.3168499433468565E-002   2.2921062302044132E-002   2.7434257212171603E-002
  -4.8881396600082117E-002   1.5030923533035534E-002   4.8276318794467810E-002
  -4.8257107654987710E-002   1.4817078870340367E-002   4.9312724935282826E-002
  -4.7632818709893297E-002   1.4456071090946515E-002   5.0460170175717689E-002
  -4.7008529764798884E-002   1.3947900194854555E-002   5.1718654515772275E-002
  -4.6384240819704478E-002   1.3292566182063981E-002   5.3088177955446736E-002
  -5.5005790170598666E-002   1.7003458225287732E-002   4.3246963507798358E-002
  -5.4283717860124064E-002   1.6680369522938457E-002   4.4169558738737735E-002
  -5.3561645549649428E-002   1.6233176436455672E-002   4.5176681600817739E-002
  -5.2839573239174854E-002   1.5661878965839260E-002   4.6268332094038293E-002
  -5.2117500928700225E-002   1.4966477111089338E-002   4.7444510218399460E-002
  -6.1095105166335248E-002   1.8975992917539847E-002   3.8096834815192493E-002
  -6.0301760958959644E-002   1.8543660175536616E-002   3.8928677868821072E-002
  -5.9508416751584081E-002   1.8010281781964635E-002   3.9818537085111037E-002
  -5.8715072544208477E-002   1.7375857736823968E-002   4.0766412464062353E-002
  -5.7921728336832887E-002   1.6640388040114640E-002   4.1772304005675095E-002
  -6.7149341587291869E-002   2.0948527609791975E-002   3.2825932716650179E-002
  -6.6311236951494532E-002   2.0406950828134714E-002   3.3590082325532934E-002
  -6.5473132315697180E-002   1.9787387127473681E-002   3.4385736628597730E-002
  -6.4635027679899898E-002   1.9089836507808704E-002   3.5212895625844572E-002
  -6.3796923044102505E-002   1.8314298969139914E-002   3.6071559317273780E-002
  -7.3168499433468565E-002   2.2921062302044132E-002   2.7434257212171603E-002
  -7.2312145837728672E-002   2.2270241480732964E-002   2.8153772108873154E-002
  -7.1455792241988808E-002   2.1564492472982692E-002   2.8878280231277642E-002
  -7.0599438646248971E-002   2.0803815278793492E-002   2.9607781579385033E-002
  -6.9743085050509079E-002   1.9988209898165299E-002   3.0342276153195347E-002
  -4.6384240819704478E-002   1.3292566182063981E-002   5.3088177955446736E-002
  -4.4251794205672518E-002   1.2578032571048031E-002   5.2292230015155372E-002
  -4.2119347591640564E-002   1.1892262880278962E-002   5.1781199397559957E-002
  -3.9986900977608625E-002   1.1235257109757302E-002   5.1555086102660699E-002
  -3.7854454363576651E-002   1.0607015259482599E-002   5.1613890130457529E-002
  -5.2117500928700225E-002   1.4966477111089338E-002   4.7444510218399460E-002
  -4.9713760966054100E-002   1.4215886889940965E-002   4.6585216790681033E-002
  -4.7310021003407983E-002   1.3479024320129013E-002   4.5983592737494763E-002
  -4.4906281040761858E-002   1.2755889401653904E-002   4.5639638058840769E-002
  -4.2502541078115748E-002   1.2046482134515146E-002   4.5553352754719029E-002
  -5.7921728336832887E-002   1.6640388040114640E-002   4.1772304005675095E-002
  -5.5273942973736487E-002   1.5853741208833913E-002   4.0834628821619062E-002
  -5.2626157610640080E-002   1.5065785759979168E-002   4.0127375063931402E-002
  -4.9978372247543666E-002   1.4276521693550393E-002   3.9650542732612135E-002
  -4.7330586884447218E-002   1.3485949009547693E-002   3.9404131827661157E-002
  -6.3796923044102505E-002   1.8314298969139914E-002   3.6071559317273780E-002
  -6.0932340228719628E-002   1.7491595527726909E-002   3.5040466107969605E-002
  -5.8067757413336800E-002   1.6652547199829327E-002   3.4212546376869851E-002
  -5.5203174597953993E-002   1.5797153985446993E-002   3.3587800123974595E-002
  -5.2338591782571102E-002   1.4925415884580351E-002   3.3166227349283955E-002
  -6.9743085050509079E-002   1.9988209898165299E-002   3.0342276153195347E-002
  -6.6688952731003628E-002   1.9129449846619850E-002   2.9202728649732446E-002
  -6.3634820411498233E-002   1.8239308639679347E-002   2.8239106676310077E-002
  -6.0580688091992782E-002   1.7317786277343587E-002   2.7451410232928436E-002
  -5.7526555772487359E-002   1.6364882759612842E-002   2.6839639319587494E-002
  -3.7854454363576651E-002   1.0607015259482599E-002   5.1613890130457529E-002
  -3.4417251610253358E-002   1.0136696518976446E-002   4.7692244791992022E-002
  -3.0980048856930065E-002   9.9534600777600596E-003   4.4076159900677259E-002
  -2.7542846103606772E-002   1.0057305935833750E-002   4.0765635456513336E-002
  -2.4105643350283479E-002   1.0448234093196895E-002   3.7760671459500184E-002
  -4.2502541078115748E-002   1.2046482134515146E-002   4.5553352754719029E-002
  -3.8709688202251034E-002   1.1506439173742389E-002   4.1807879630194111E-002
  -3.4916835326386397E-002   1.1291397174364531E-002   3.8468146303601111E-002
  -3.1123982450521712E-002   1.1401356136381900E-002   3.5534152774940132E-002
  -2.7331129574657040E-002   1.1836316059794127E-002   3.3005899044211029E-002
  -4.7330586884447218E-002   1.3485949009547693E-002   3.9404131827661157E-002
  -4.3081904535260056E-002   1.2876181828508207E-002   3.5872749579182073E-002
  -3.8833222186072811E-002   1.2629334270968885E-002   3.2847286479416128E-002
  -3.4584539836885621E-002   1.2745406336929993E-002   3.0327742528363264E-002
  -3.0335857487698348E-002   1.3224398026391332E-002   2.8314117726023422E-002
  -5.2338591782571102E-002   1.4925415884580351E-002   3.3166227349283955E-002
  -4.7533900609280220E-002   1.4245924483273976E-002   2.9886854638956073E-002
  -4.2729209435989388E-002   1.3967271367573270E-002   2.7213580428122386E-002
  -3.7924518262698562E-002   1.4089456537478170E-002   2.5146404716782821E-002
  -3.3119827089407736E-002   1.4612479992988550E-002   2.3685327504937684E-002
  -5.7526555772487359E-002   1.6364882759612842E-002   2.6839639319587494E-002
  -5.2065676424311702E-002   1.5615667138039940E-002   2.3850194809515946E-002
  -4.6604797076136073E-002   1.5305208464177711E-002   2.1567028149719669E-002
  -4.1143917727960430E-002   1.5433506738026320E-002   1.9990139340198734E-002
  -3.5683038379784787E-002   1.6000561959585713E-002   1.9119528380953266E-002
  -2.4105643350283479E-002   1.0448234093196895E-002   3.7760671459500184E-002
  -2.8929465533783755E-002   1.0463498222011036E-002   5.1171556563173737E-002
  -3.3753287717284058E-002   9.4403519944369213E-003   6.4480609385537652E-002
  -3.8577109900784355E-002   7.3787954104748664E-003   7.7687829926592220E-002
  -4.3400932084284638E-002   4.2788284701245072E-003   9.0793218186337343E-002
  -2.7331129574657040E-002   1.1836316059794127E-002   3.3005899044211029E-002
  -3.2524918306022624E-002   1.1870552490678643E-002   4.5286979041241238E-002
  -3.7718707037388222E-002   1.0778340975111864E-002   5.6929958223849886E-002
  -4.2912495768753917E-002   8.5596815130942992E-003   6.7934836592037653E-002
  -4.8106284500119473E-002   5.2145741046254468E-003   7.8301614145804055E-002
  -3.0335857487698348E-002   1.3224398026391332E-002   2.8314117726023422E-002
  -3.6435881300041106E-002   1.3277606759345834E-002   3.9377355026347358E-002
  -4.2535905112383768E-002   1.2116329955786757E-002   4.9266222979138415E-002
  -4.8635928924726464E-002   9.7405676157135950E-003   5.7980721584396655E-002
  -5.4735952737069174E-002   6.1503197391266085E-003   6.5520850842121725E-002
  -3.3119827089407736E-002   1.4612479992988550E-002   2.3685327504937684E-002
  -4.0662354515839161E-002   1.4684661028013343E-002   3.3442684518492430E-002
  -4.8204881942270621E-002   1.3454318936461509E-002   4.1489403651402509E-002
  -5.5747409368702060E-002   1.0921453718332905E-002   4.7825484903668163E-002
  -6.3289936795133506E-002   7.0860653736277146E-003   5.2450928275289202E-002
  -3.5683038379784787E-002   1.6000561959585713E-002   1.9119528380953266E-002
  -4.5204337953416801E-002   1.6091715296680575E-002   2.7482967517676371E-002
  -5.4725637527048718E-002   1.4792307917136385E-002   3.3599500240642982E-002
  -6.4246937100680718E-002   1.2102339820952244E-002   3.7469126549853196E-002
  -7.3768236674312704E-002   8.0218110081287097E-003   3.9091846445307166E-002
  -9.0365062389535150E-002   0.0000000000000000        4.9809253950966366E-002
  -9.3966728908828248E-002   5.4042883170820639E-003   5.3191569134364070E-002
  -9.7568395428121346E-002   1.0668409517291377E-002   5.4959879302420696E-002
 -0.10117006194741444        1.5792363600627930E-002   5.5114184455136231E-002
 -0.10477172846670754        2.0776150567091721E-002   5.3654484592510696E-002
 -0.10330332543593390        0.0000000000000000        5.8645263225423211E-002
 -0.10683991621559809        1.0894216647289484E-002   5.2109854158653601E-002
 -0.11037650699526230        1.9181573242367467E-002   4.7318601586482885E-002
 -0.11391309777492650        2.4862069785233962E-002   4.4271505508911041E-002
 -0.11744968855459069        2.7935706275888938E-002   4.2968565925938104E-002
 -0.12646487990292779        0.0000000000000000        7.4204547297756829E-002
 -0.12657823343302313        1.6384144977496899E-002   5.5284721045481183E-002
 -0.12669158696311847        2.7694736967443567E-002   4.1467212797744388E-002
 -0.12680494049321381        3.3931775969839997E-002   3.2752022554546435E-002
 -0.12691829402330917        3.5095261984686162E-002   2.9139150315887322E-002
 -0.15984972579051687        0.0000000000000000        9.6487106167967254E-002
 -0.15318168056110337        2.1874073307704314E-002   6.2716169794846802E-002
 -0.14651363533168990        3.6207900692519654E-002   3.7405712936205184E-002
 -0.13984559010227640        4.3001482154446033E-002   2.0555735592042348E-002
 -0.13317754487286290        4.2254817693483396E-002   1.2166237762358405E-002
 -0.20345786309870112        0.0000000000000000       0.12549293983605445     
 -0.18665025759983883        2.7364001637911736E-002   7.4404200406750498E-002
 -0.16984265210097654        4.4721064417595754E-002   3.5134102001865272E-002
 -0.15303504660211426        5.2071188339052055E-002   7.6826446213988653E-003
 -0.13622744110325197        4.9414373402280602E-002  -7.9501717346487435E-003
 -0.10477172846670754        2.0776150567091721E-002   5.3654484592510696E-002
 -0.10209208219031504        2.4915488842573066E-002   4.5653346911458267E-002
  -9.9412435913922487E-002   2.7506096852962268E-002   3.9342756710580594E-002
  -9.6732789637529973E-002   2.8547974598259272E-002   3.4722713989877502E-002
  -9.4053143361137445E-002   2.8041122078464174E-002   3.1793218749349143E-002
 -0.11744968855459069        2.7935706275888938E-002   4.2968565925938104E-002
 -0.11346628159444258        2.9394461720622860E-002   3.6704179915269891E-002
 -0.10948287463429453        3.0230315125726100E-002   3.1356767791938162E-002
 -0.10549946767414640        3.0443266491198682E-002   2.6926329555942936E-002
 -0.10151606071399832        3.0033315817040565E-002   2.3412865207284132E-002
 -0.12691829402330917        3.5095261984686162E-002   2.9139150315887322E-002
 -0.12240469997224368        3.3873434598672647E-002   2.5537344201064845E-002
 -0.11789110592117821        3.2954533398489916E-002   2.2078938380740536E-002
 -0.11337751187011276        3.2338558384138030E-002   1.8763932854914595E-002
 -0.10886391781904725        3.2025509555616991E-002   1.5592327623586906E-002
 -0.13317754487286290        4.2254817693483396E-002   1.2166237762358405E-002
 -0.12890733732371826        3.8352407476722430E-002   1.2152839768843017E-002
 -0.12463712977457359        3.5678751671253749E-002   1.1509268476987758E-002
 -0.12036692222542894        3.4233850277077420E-002   1.0235523886792611E-002
 -0.11609671467628430        3.4017703294193340E-002   8.3316059982574703E-003
 -0.13622744110325197        4.9414373402280602E-002  -7.9501717346487435E-003
 -0.13297419364886634        4.2831380354772255E-002  -3.4493333813954488E-003
 -0.12972094619448071        3.8402969944017561E-002  -3.5224191932033307E-004
 -0.12646769874009506        3.6129142170016816E-002   1.3411026515767715E-003
 -0.12321445128570943        3.6009897032769772E-002   1.6307003312956980E-003
  -9.4053143361137445E-002   2.8041122078464174E-002   3.1793218749349143E-002
  -9.1827565621327503E-002   2.6879090663429576E-002   3.1310763330342967E-002
  -8.9601987881517575E-002   2.5955431723008106E-002   3.0881569435857518E-002
  -8.7376410141707633E-002   2.5270145257199842E-002   3.0505637065892585E-002
  -8.5150832401897678E-002   2.4823231266004678E-002   3.0182966220448401E-002
 -0.10151606071399832        3.0033315817040565E-002   2.3412865207284132E-002
  -9.9213733317048566E-002   2.9310450773352634E-002   2.3186681056301117E-002
  -9.6911405920098809E-002   2.8584659030235722E-002   2.3060734695077145E-002
  -9.4609078523149093E-002   2.7855940587689754E-002   2.3035026123612072E-002
  -9.2306751126199321E-002   2.7124295445714833E-002   2.3109555341906021E-002
 -0.10886391781904725        3.2025509555616991E-002   1.5592327623586906E-002
 -0.10643786449971940        3.1741810883275781E-002   1.5381115566584939E-002
 -0.10401181118039146        3.1213886337463321E-002   1.5317117564580169E-002
 -0.10158575786106358        3.0441735918179724E-002   1.5400333617572830E-002
  -9.9159704541735685E-002   2.9425359625424953E-002   1.5630763725562626E-002
 -0.11609671467628430        3.4017703294193340E-002   8.3316059982574703E-003
 -0.11349995916933993        3.4173170993198769E-002   7.8940668611941975E-003
 -0.11090320366239557        3.3843113644690871E-002   7.6507180443666856E-003
 -0.10830644815545121        3.3027531248669542E-002   7.6015595477747890E-003
 -0.10570969264850685        3.1726423805134948E-002   7.7465913714184599E-003
 -0.12321445128570943        3.6009897032769772E-002   1.6307003312956980E-003
 -0.12040001732591027        3.6604531103121965E-002   7.2553494012922437E-004
 -0.11758558336611107        3.6472340951918474E-002   6.1536134436532275E-005
 -0.11477114940631189        3.5613326579159638E-002  -3.6129608578203479E-004
 -0.11195671544651270        3.4027487984845228E-002  -5.4296172052664682E-004
  -8.5150832401897678E-002   2.4823231266004678E-002   3.0182966220448401E-002
  -8.2155249159790403E-002   2.4458549890340714E-002   2.9006120410917616E-002
  -7.9159665917683114E-002   2.4019961271125930E-002   2.8155720306361230E-002
  -7.6164082675575839E-002   2.3507465408360448E-002   2.7631765906779165E-002
  -7.3168499433468565E-002   2.2921062302044132E-002   2.7434257212171603E-002
  -9.2306751126199321E-002   2.7124295445714833E-002   2.3109555341906021E-002
  -8.9011027893863490E-002   2.6416874018826905E-002   2.2198102569420855E-002
  -8.5715304661527603E-002   2.5760826721542212E-002   2.1560484072418493E-002
  -8.2419581429191729E-002   2.5156153553860656E-002   2.1196699850898941E-002
  -7.9123858196855884E-002   2.4602854515782202E-002   2.1106749904862096E-002
  -9.9159704541735685E-002   2.9425359625424953E-002   1.5630763725562626E-002
  -9.5616452748662872E-002   2.8375198147313110E-002   1.5109985363277078E-002
  -9.2073200955589990E-002   2.7501692171958414E-002   1.4810429846982829E-002
  -8.8529949162517163E-002   2.6804841699360753E-002   1.4732097176679549E-002
  -8.4986697369444308E-002   2.6284646729520175E-002   1.4874987352367551E-002
 -0.10570969264850685        3.1726423805134948E-002   7.7465913714184599E-003
 -0.10197152372418862        3.0333522275799309E-002   7.7417687924863530E-003
  -9.8233354799870373E-002   2.9242557622374515E-002   7.9055576300540165E-003
  -9.4495185875552140E-002   2.8453529844860905E-002   8.2379578841212074E-003
  -9.0757016951233893E-002   2.7966438943258363E-002   8.7389695546879805E-003
 -0.11195671544651270        3.4027487984845228E-002  -5.4296172052664682E-004
 -0.10807624082044071        3.2291846404285451E-002   9.3452857048814675E-005
 -0.10419576619436868        3.0983423072790811E-002   8.4586742163234030E-004
 -0.10031529156829667        3.0102217990361065E-002   1.7142819732237219E-003
  -9.6434816942224666E-002   2.9648231156996330E-002   2.6986965118231399E-003
  -7.3168499433468565E-002   2.2921062302044132E-002   2.7434257212171603E-002
  -7.2312145837728672E-002   2.2270241480732964E-002   2.8153772108873154E-002
  -7.1455792241988808E-002   2.1564492472982692E-002   2.8878280231277642E-002
  -7.0599438646248971E-002   2.0803815278793492E-002   2.9607781579385033E-002
  -6.9743085050509079E-002   1.9988209898165299E-002   3.0342276153195347E-002
  -7.9123858196855884E-002   2.4602854515782202E-002   2.1106749904862096E-002
  -7.8244026526712446E-002   2.4017177050249194E-002   2.1851739655587538E-002
  -7.7364194856569007E-002   2.3315368600203827E-002   2.2638692329416989E-002
  -7.6484363186425583E-002   2.2497429165645857E-002   2.3467607926350612E-002
  -7.5604531516282131E-002   2.1563358746575584E-002   2.4338486446388585E-002
  -8.4986697369444308E-002   2.6284646729520175E-002   1.4874987352367551E-002
  -8.4046417927496050E-002   2.5764112619765349E-002   1.5584249159043238E-002
  -8.3106138485547820E-002   2.5066244727424882E-002   1.6372443586224337E-002
  -8.2165859043599632E-002   2.4191043052498140E-002   1.7239570633910864E-002
  -8.1225579601651401E-002   2.3138507594985869E-002   1.8185630302102906E-002
  -9.0757016951233893E-002   2.7966438943258363E-002   8.7389695546879805E-003
  -8.9719320040079625E-002   2.7511048189281736E-002   9.3513006192405216E-003
  -8.8681623128925316E-002   2.6817120854645923E-002   1.0079534001699909E-002
  -8.7643926217771034E-002   2.5884656939350520E-002   1.0923669702065795E-002
  -8.6606229306616725E-002   2.4713656443396265E-002   1.1883707720338539E-002
  -9.6434816942224666E-002   2.9648231156996330E-002   2.6986965118231399E-003
  -9.5262732864463073E-002   2.9257983758798012E-002   3.1528940361792990E-003
  -9.4090648786701425E-002   2.8567996981867100E-002   3.7599635758433642E-003
  -9.2918564708939777E-002   2.7578270826202907E-002   4.5199051308154777E-003
  -9.1746480631178184E-002   2.6288805291806550E-002   5.4327187010955180E-003
  -6.9743085050509079E-002   1.9988209898165299E-002   3.0342276153195347E-002
  -6.6688952731003628E-002   1.9129449846619850E-002   2.9202728649732446E-002
  -6.3634820411498233E-002   1.8239308639679347E-002   2.8239106676310077E-002
  -6.0580688091992782E-002   1.7317786277343587E-002   2.7451410232928436E-002
  -5.7526555772487359E-002   1.6364882759612842E-002   2.6839639319587494E-002
  -7.5604531516282131E-002   2.1563358746575584E-002   2.4338486446388585E-002
  -7.2332909288302494E-002   2.0583647041335681E-002   2.3477635330152111E-002
  -6.9061287060322857E-002   1.9628783748269076E-002   2.2875838500823378E-002
  -6.5789664832343220E-002   1.8698768867375613E-002   2.2533095958402527E-002
  -6.2518042604363597E-002   1.7793602398655406E-002   2.2449407702889362E-002
  -8.1225579601651401E-002   2.3138507594985869E-002   1.8185630302102906E-002
  -7.7653338708330383E-002   2.2037844236051402E-002   1.7659705140661362E-002
  -7.4081097815009350E-002   2.1018258856858693E-002   1.7475963022994763E-002
  -7.0508856921688345E-002   2.0079751457407421E-002   1.7634403949102935E-002
  -6.6936616028367341E-002   1.9222322037697942E-002   1.8135027918986302E-002
  -8.6606229306616725E-002   2.4713656443396265E-002   1.1883707720338539E-002
  -8.2650240991087170E-002   2.3492041430767094E-002   1.1748938081260237E-002
  -7.8694252675557616E-002   2.2407733965448366E-002   1.2039480242824051E-002
  -7.4738264360028117E-002   2.1460734047439173E-002   1.2755334205029860E-002
  -7.0782276044498521E-002   2.0651041676740492E-002   1.3896499967877923E-002
  -9.1746480631178184E-002   2.6288805291806550E-002   5.4327187010955180E-003
  -8.7323616136572968E-002   2.4946238625482842E-002   5.7453341519487222E-003
  -8.2900751641967751E-002   2.3797209074038067E-002   6.5663901603117969E-003
  -7.8477887147362591E-002   2.2841716637471178E-002   7.8958867261831878E-003
  -7.4055022652757319E-002   2.2079761315782931E-002   9.7338238495645601E-003
  -5.7526555772487359E-002   1.6364882759612842E-002   2.6839639319587494E-002
  -5.2065676424311702E-002   1.5615667138039940E-002   2.3850194809515946E-002
  -4.6604797076136073E-002   1.5305208464177711E-002   2.1567028149719669E-002
  -4.1143917727960430E-002   1.5433506738026320E-002   1.9990139340198734E-002
  -3.5683038379784787E-002   1.6000561959585713E-002   1.9119528380953266E-002
  -6.2518042604363597E-002   1.7793602398655406E-002   2.2449407702889362E-002
  -5.6491346646294183E-002   1.7051310516769114E-002   2.0262244214911435E-002
  -5.0464650688224762E-002   1.6609919396377043E-002   1.8500436096445555E-002
  -4.4437954730155327E-002   1.6469429037479673E-002   1.7163983347491939E-002
  -3.8411258772085927E-002   1.6629839440076288E-002   1.6252885968050523E-002
  -6.6936616028367341E-002   1.9222322037697942E-002   1.8135027918986302E-002
  -6.0625025941167254E-002   1.8486953895498190E-002   1.6612289266885308E-002
  -5.4313435853967182E-002   1.7914630328576431E-002   1.5233983503533347E-002
  -4.8001845766767082E-002   1.7505351336932692E-002   1.4000110628930779E-002
  -4.1690255679567072E-002   1.7259116920566780E-002   1.2910670643076924E-002
  -7.0782276044498521E-002   2.0651041676740492E-002   1.3896499967877923E-002
  -6.4466714308930945E-002   1.9922597274227481E-002   1.2900329965437649E-002
  -5.8151152573363375E-002   1.9219341260775957E-002   1.1767670370983432E-002
  -5.1835590837795847E-002   1.8541273636385490E-002   1.0498521184514886E-002
  -4.5520029102228243E-002   1.7888394401056981E-002   9.0928824060324785E-003
  -7.4055022652757319E-002   2.2079761315782931E-002   9.7338238495645601E-003
  -6.8016411749585393E-002   2.1358240652956773E-002   9.1263663105683457E-003
  -6.1977800846413356E-002   2.0524052192975262E-002   8.1014966987949244E-003
  -5.5939189943241346E-002   1.9577195935839398E-002   6.6592150142447196E-003
  -4.9900579040069393E-002   1.8517671881547737E-002   4.7995212569168499E-003
  -3.5683038379784787E-002   1.6000561959585713E-002   1.9119528380953266E-002
  -4.5204337953416801E-002   1.6091715296680575E-002   2.7482967517676371E-002
  -5.4725637527048718E-002   1.4792307917136385E-002   3.3599500240642982E-002
  -6.4246937100680718E-002   1.2102339820952244E-002   3.7469126549853196E-002
  -7.3768236674312704E-002   8.0218110081287097E-003   3.9091846445307166E-002
  -3.8411258772085927E-002   1.6629839440076288E-002   1.6252885968050523E-002
  -4.9387030798054163E-002   1.6445934634725656E-002   2.3667936603999351E-002
  -6.0362802824022246E-002   1.5272498651985864E-002   3.0420948749032256E-002
  -7.1338574849990372E-002   1.3109531491856976E-002   3.6511922403148919E-002
  -8.2314346875958511E-002   9.9570331543390456E-003   4.1940857566350020E-002
  -4.1690255679567072E-002   1.7259116920566780E-002   1.2910670643076924E-002
  -5.2535632235030993E-002   1.6800153972770099E-002   1.9778362317502171E-002
  -6.3381008790494936E-002   1.5752689386835501E-002   2.7568883423851560E-002
  -7.4226385345958920E-002   1.4116723162761651E-002   3.6282233962125487E-002
  -8.5071761901422918E-002   1.1892255300549492E-002   4.5918413932323487E-002
  -4.5520029102228243E-002   1.7888394401056981E-002   9.0928824060324785E-003
  -5.4650142264347591E-002   1.7154373310814860E-002   1.5814244658184391E-002
  -6.3780255426466995E-002   1.6232880121685226E-002   2.5043304265100791E-002
  -7.2910368588586419E-002   1.5123914833666242E-002   3.6780061226782221E-002
  -8.2040481750705732E-002   1.3827477446759939E-002   5.1024515543228136E-002
  -4.9900579040069393E-002   1.8517671881547737E-002   4.7995212569168499E-003
  -5.5730560886003810E-002   1.7508592648859844E-002   1.1775583626045971E-002
  -6.1560542731938284E-002   1.6713070856534812E-002   2.2844211272779996E-002
  -6.7390524577872701E-002   1.6131106504570995E-002   3.8005404197119418E-002
  -7.3220506423807175E-002   1.5762699592970275E-002   5.7259162399063701E-002
 </DataArray>
 </PointData>
 </Piece>
 <Piece  NumberOfPoints="          1600 "  NumberOfCells="         1024 ">
 <Points>
 <DataArray  type="Float64" NumberOfComponents="3"  format="ascii" >
  0.50000000000000000        0.0000000000000000        0.0000000000000000     
  0.53125000000000000        0.0000000000000000        0.0000000000000000     
  0.56250000000000000        0.0000000000000000        0.0000000000000000     
  0.59375000000000000        0.0000000000000000        0.0000000000000000     
  0.62500000000000000        0.0000000000000000        0.0000000000000000     
  0.50000000000000000        3.1250000000000000E-002   0.0000000000000000     
  0.53125000000000000        3.1250000000000000E-002   0.0000000000000000     
  0.56250000000000000        3.1250000000000000E-002   0.0000000000000000     
  0.59375000000000000        3.1250000000000000E-002   0.0000000000000000     
  0.62500000000000000        3.1250000000000000E-002   0.0000000000000000     
  0.50000000000000000        6.2500000000000000E-002   0.0000000000000000     
  0.53125000000000000        6.2500000000000000E-002   0.0000000000000000     
  0.56250000000000000        6.2500000000000000E-002   0.0000000000000000     
  0.59375000000000000        6.2500000000000000E-002   0.0000000000000000     
  0.62500000000000000        6.2500000000000000E-002   0.0000000000000000     
  0.50000000000000000        9.3750000000000000E-002   0.0000000000000000     
  0.53125000000000000        9.3750000000000000E-002   0.0000000000000000     
  0.56250000000000000        9.3750000000000000E-002   0.0000000000000000     
  0.59375000000000000        9.3750000000000000E-002   0.0000000000000000     
  0.62500000000000000        9.3750000000000000E-002   0.0000000000000000     
  0.50000000000000000       0.12500000000000000        0.0000000000000000     
  0.53125000000000000       0.12500000000000000        0.0000000000000000     
  0.56250000000000000       0.12500000000000000        0.0000000000000000     
  0.59375000000000000       0.12500000000000000        0.0000000000000000     
  0.62500000000000000       0.12500000000000000        0.0000000000000000     
  0.62500000000000000        0.0000000000000000        0.0000000000000000     
  0.65625000000000000        0.0000000000000000        0.0000000000000000     
  0.68750000000000000        0.0000000000000000        0.0000000000000000     
  0.71875000000000000        0.0000000000000000        0.0000000000000000     
  0.75000000000000000        0.0000000000000000        0.0000000000000000     
  0.62500000000000000        3.1250000000000000E-002   0.0000000000000000     
  0.65625000000000000        3.1250000000000000E-002   0.0000000000000000     
  0.68750000000000000        3.1250000000000000E-002   0.0000000000000000     
  0.71875000000000000        3.1250000000000000E-002   0.0000000000000000     
  0.75000000000000000        3.1250000000000000E-002   0.0000000000000000     
  0.62500000000000000        6.2500000000000000E-002   0.0000000000000000     
  0.65625000000000000        6.2500000000000000E-002   0.0000000000000000     
  0.68750000000000000        6.2500000000000000E-002   0.0000000000000000     
  0.71875000000000000        6.2500000000000000E-002   0.0000000000000000     
  0.75000000000000000        6.2500000000000000E-002   0.0000000000000000     
  0.62500000000000000        9.3750000000000000E-002   0.0000000000000000     
  0.65625000000000000        9.3750000000000000E-002   0.0000000000000000     
  0.68750000000000000        9.3750000000000000E-002   0.0000000000000000     
  0.71875000000000000        9.3750000000000000E-002   0.0000000000000000     
  0.75000000000000000        9.3750000000000000E-002   0.0000000000000000     
  0.62500000000000000       0.12500000000000000        0.0000000000000000     
  0.65625000000000000       0.12500000000000000        0.0000000000000000     
  0.68750000000000000       0.12500000000000000        0.0000000000000000     
  0.71875000000000000       0.12500000000000000        0.0000000000000000     
  0.75000000000000000       0.12500000000000000        0.0000000000000000     
  0.75000000000000000        0.0000000000000000        0.0000000000000000     
  0.78125000000000000        0.0000000000000000        0.0000000000000000     
  0.81250000000000000        0.0000000000000000        0.0000000000000000     
  0.84375000000000000        0.0000000000000000        0.0000000000000000     
  0.87500000000000000        0.0000000000000000        0.0000000000000000     
  0.75000000000000000        3.1250000000000000E-002   0.0000000000000000     
  0.78125000000000000        3.1250000000000000E-002   0.0000000000000000     
  0.81250000000000000        3.1250000000000000E-002   0.0000000000000000     
  0.84375000000000000        3.1250000000000000E-002   0.0000000000000000     
  0.87500000000000000        3.1250000000000000E-002   0.0000000000000000     
  0.75000000000000000        6.2500000000000000E-002   0.0000000000000000     
  0.78125000000000000        6.2500000000000000E-002   0.0000000000000000     
  0.81250000000000000        6.2500000000000000E-002   0.0000000000000000     
  0.84375000000000000        6.2500000000000000E-002   0.0000000000000000     
  0.87500000000000000        6.2500000000000000E-002   0.0000000000000000     
  0.75000000000000000        9.3750000000000000E-002   0.0000000000000000     
  0.78125000000000000        9.3750000000000000E-002   0.0000000000000000     
  0.81250000000000000        9.3750000000000000E-002   0.0000000000000000     
  0.84375000000000000        9.3750000000000000E-002   0.0000000000000000     
  0.87500000000000000        9.3750000000000000E-002   0.0000000000000000     
  0.75000000000000000       0.12500000000000000        0.0000000000000000     
  0.78125000000000000       0.12500000000000000        0.0000000000000000     
  0.81250000000000000       0.12500000000000000        0.0000000000000000     
  0.84375000000000000       0.12500000000000000        0.0000000000000000     
  0.87500000000000000       0.12500000000000000        0.0000000000000000     
  0.87500000000000000        0.0000000000000000        0.0000000000000000     
  0.90625000000000000        0.0000000000000000        0.0000000000000000     
  0.93750000000000000        0.0000000000000000        0.0000000000000000     
  0.96875000000000000        0.0000000000000000        0.0000000000000000     
   1.0000000000000000        0.0000000000000000        0.0000000000000000     
  0.87500000000000000        3.1250000000000000E-002   0.0000000000000000     
  0.90625000000000000        3.1250000000000000E-002   0.0000000000000000     
  0.93750000000000000        3.1250000000000000E-002   0.0000000000000000     
  0.96875000000000000        3.1250000000000000E-002   0.0000000000000000     
   1.0000000000000000        3.1250000000000000E-002   0.0000000000000000     
  0.87500000000000000        6.2500000000000000E-002   0.0000000000000000     
  0.90625000000000000        6.2500000000000000E-002   0.0000000000000000     
  0.93750000000000000        6.2500000000000000E-002   0.0000000000000000     
  0.96875000000000000        6.2500000000000000E-002   0.0000000000000000     
   1.0000000000000000        6.2500000000000000E-002   0.0000000000000000     
  0.87500000000000000        9.3750000000000000E-002   0.0000000000000000     
  0.90625000000000000        9.3750000000000000E-002   0.0000000000000000     
  0.93750000000000000        9.3750000000000000E-002   0.0000000000000000     
  0.96875000000000000        9.3750000000000000E-002   0.0000000000000000     
   1.0000000000000000        9.3750000000000000E-002   0.0000000000000000     
  0.87500000000000000       0.12500000000000000        0.0000000000000000     
  0.90625000000000000       0.12500000000000000        0.0000000000000000     
  0.93750000000000000       0.12500000000000000        0.0000000000000000     
  0.96875000000000000       0.12500000000000000        0.0000000000000000     
   1.0000000000000000       0.12500000000000000        0.0000000000000000     
   1.0000000000000000        0.0000000000000000        0.0000000000000000     
   1.0312500000000000        0.0000000000000000        0.0000000000000000     
   1.0625000000000000        0.0000000000000000        0.0000000000000000     
   1.0937500000000000        0.0000000000000000        0.0000000000000000     
   1.1250000000000000        0.0000000000000000        0.0000000000000000     
   1.0000000000000000        3.1250000000000000E-002   0.0000000000000000     
   1.0312500000000000        3.1250000000000000E-002   0.0000000000000000     
   1.0625000000000000        3.1250000000000000E-002   0.0000000000000000     
   1.0937500000000000        3.1250000000000000E-002   0.0000000000000000     
   1.1250000000000000        3.1250000000000000E-002   0.0000000000000000     
   1.0000000000000000        6.2500000000000000E-002   0.0000000000000000     
   1.0312500000000000        6.2500000000000000E-002   0.0000000000000000     
   1.0625000000000000        6.2500000000000000E-002   0.0000000000000000     
   1.0937500000000000        6.2500000000000000E-002   0.0000000000000000     
   1.1250000000000000        6.2500000000000000E-002   0.0000000000000000     
   1.0000000000000000        9.3750000000000000E-002   0.0000000000000000     
   1.0312500000000000        9.3750000000000000E-002   0.0000000000000000     
   1.0625000000000000        9.3750000000000000E-002   0.0000000000000000     
   1.0937500000000000        9.3750000000000000E-002   0.0000000000000000     
   1.1250000000000000        9.3750000000000000E-002   0.0000000000000000     
   1.0000000000000000       0.12500000000000000        0.0000000000000000     
   1.0312500000000000       0.12500000000000000        0.0000000000000000     
   1.0625000000000000       0.12500000000000000        0.0000000000000000     
   1.0937500000000000       0.12500000000000000        0.0000000000000000     
   1.1250000000000000       0.12500000000000000        0.0000000000000000     
   1.1250000000000000        0.0000000000000000        0.0000000000000000     
   1.1562500000000000        0.0000000000000000        0.0000000000000000     
   1.1875000000000000        0.0000000000000000        0.0000000000000000     
   1.2187500000000000        0.0000000000000000        0.0000000000000000     
   1.2500000000000000        0.0000000000000000        0.0000000000000000     
   1.1250000000000000        3.1250000000000000E-002   0.0000000000000000     
   1.1562500000000000        3.1250000000000000E-002   0.0000000000000000     
   1.1875000000000000        3.1250000000000000E-002   0.0000000000000000     
   1.2187500000000000        3.1250000000000000E-002   0.0000000000000000     
   1.2500000000000000        3.1250000000000000E-002   0.0000000000000000     
   1.1250000000000000        6.2500000000000000E-002   0.0000000000000000     
   1.1562500000000000        6.2500000000000000E-002   0.0000000000000000     
   1.1875000000000000        6.2500000000000000E-002   0.0000000000000000     
   1.2187500000000000        6.2500000000000000E-002   0.0000000000000000     
   1.2500000000000000        6.2500000000000000E-002   0.0000000000000000     
   1.1250000000000000        9.3750000000000000E-002   0.0000000000000000     
   1.1562500000000000        9.3750000000000000E-002   0.0000000000000000     
   1.1875000000000000        9.3750000000000000E-002   0.0000000000000000     
   1.2187500000000000        9.3750000000000000E-002   0.0000000000000000     
   1.2500000000000000        9.3750000000000000E-002   0.0000000000000000     
   1.1250000000000000       0.12500000000000000        0.0000000000000000     
   1.1562500000000000       0.12500000000000000        0.0000000000000000     
   1.1875000000000000       0.12500000000000000        0.0000000000000000     
   1.2187500000000000       0.12500000000000000        0.0000000000000000     
   1.2500000000000000       0.12500000000000000        0.0000000000000000     
   1.2500000000000000        0.0000000000000000        0.0000000000000000     
   1.2812500000000000        0.0000000000000000        0.0000000000000000     
   1.3125000000000000        0.0000000000000000        0.0000000000000000     
   1.3437500000000000        0.0000000000000000        0.0000000000000000     
   1.3750000000000000        0.0000000000000000        0.0000000000000000     
   1.2500000000000000        3.1250000000000000E-002   0.0000000000000000     
   1.2812500000000000        3.1250000000000000E-002   0.0000000000000000     
   1.3125000000000000        3.1250000000000000E-002   0.0000000000000000     
   1.3437500000000000        3.1250000000000000E-002   0.0000000000000000     
   1.3750000000000000        3.1250000000000000E-002   0.0000000000000000     
   1.2500000000000000        6.2500000000000000E-002   0.0000000000000000     
   1.2812500000000000        6.2500000000000000E-002   0.0000000000000000     
   1.3125000000000000        6.2500000000000000E-002   0.0000000000000000     
   1.3437500000000000        6.2500000000000000E-002   0.0000000000000000     
   1.3750000000000000        6.2500000000000000E-002   0.0000000000000000     
   1.2500000000000000        9.3750000000000000E-002   0.0000000000000000     
   1.2812500000000000        9.3750000000000000E-002   0.0000000000000000     
   1.3125000000000000        9.3750000000000000E-002   0.0000000000000000     
   1.3437500000000000        9.3750000000000000E-002   0.0000000000000000     
   1.3750000000000000        9.3750000000000000E-002   0.0000000000000000     
   1.2500000000000000       0.12500000000000000        0.0000000000000000     
   1.2812500000000000       0.12500000000000000        0.0000000000000000     
   1.3125000000000000       0.12500000000000000        0.0000000000000000     
   1.3437500000000000       0.12500000000000000        0.0000000000000000     
   1.3750000000000000       0.12500000000000000        0.0000000000000000     
   1.3750000000000000        0.0000000000000000        0.0000000000000000     
   1.4062500000000000        0.0000000000000000        0.0000000000000000     
   1.4375000000000000        0.0000000000000000        0.0000000000000000     
   1.4687500000000000        0.0000000000000000        0.0000000000000000     
   1.5000000000000000        0.0000000000000000        0.0000000000000000     
   1.3750000000000000        3.1250000000000000E-002   0.0000000000000000     
   1.4062500000000000        3.1250000000000000E-002   0.0000000000000000     
   1.4375000000000000        3.1250000000000000E-002   0.0000000000000000     
   1.4687500000000000        3.1250000000000000E-002   0.0000000000000000     
   1.5000000000000000        3.1250000000000000E-002   0.0000000000000000     
   1.3750000000000000        6.2500000000000000E-002   0.0000000000000000     
   1.4062500000000000        6.2500000000000000E-002   0.0000000000000000     
   1.4375000000000000        6.2500000000000000E-002   0.0000000000000000     
   1.4687500000000000        6.2500000000000000E-002   0.0000000000000000     
   1.5000000000000000        6.2500000000000000E-002   0.0000000000000000     
   1.3750000000000000        9.3750000000000000E-002   0.0000000000000000     
   1.4062500000000000        9.3750000000000000E-002   0.0000000000000000     
   1.4375000000000000        9.3750000000000000E-002   0.0000000000000000     
   1.4687500000000000        9.3750000000000000E-002   0.0000000000000000     
   1.5000000000000000        9.3750000000000000E-002   0.0000000000000000     
   1.3750000000000000       0.12500000000000000        0.0000000000000000     
   1.4062500000000000       0.12500000000000000        0.0000000000000000     
   1.4375000000000000       0.12500000000000000        0.0000000000000000     
   1.4687500000000000       0.12500000000000000        0.0000000000000000     
   1.5000000000000000       0.12500000000000000        0.0000000000000000     
  0.50000000000000000       0.12500000000000000        0.0000000000000000     
  0.53125000000000000       0.12500000000000000        0.0000000000000000     
  0.56250000000000000       0.12500000000000000        0.0000000000000000     
  0.59375000000000000       0.12500000000000000        0.0000000000000000     
  0.62500000000000000       0.12500000000000000        0.0000000000000000     
  0.50000000000000000       0.15625000000000000        0.0000000000000000     
  0.53125000000000000       0.15625000000000000        0.0000000000000000     
  0.56250000000000000       0.15625000000000000        0.0000000000000000     
  0.59375000000000000       0.15625000000000000        0.0000000000000000     
  0.62500000000000000       0.15625000000000000        0.0000000000000000     
  0.50000000000000000       0.18750000000000000        0.0000000000000000     
  0.53125000000000000       0.18750000000000000        0.0000000000000000     
  0.56250000000000000       0.18750000000000000        0.0000000000000000     
  0.59375000000000000       0.18750000000000000        0.0000000000000000     
  0.62500000000000000       0.18750000000000000        0.0000000000000000     
  0.50000000000000000       0.21875000000000000        0.0000000000000000     
  0.53125000000000000       0.21875000000000000        0.0000000000000000     
  0.56250000000000000       0.21875000000000000        0.0000000000000000     
  0.59375000000000000       0.21875000000000000        0.0000000000000000     
  0.62500000000000000       0.21875000000000000        0.0000000000000000     
  0.50000000000000000       0.25000000000000000        0.0000000000000000     
  0.53125000000000000       0.25000000000000000        0.0000000000000000     
  0.56250000000000000       0.25000000000000000        0.0000000000000000     
  0.59375000000000000       0.25000000000000000        0.0000000000000000     
  0.62500000000000000       0.25000000000000000        0.0000000000000000     
  0.62500000000000000       0.12500000000000000        0.0000000000000000     
  0.65625000000000000       0.12500000000000000        0.0000000000000000     
  0.68750000000000000       0.12500000000000000        0.0000000000000000     
  0.71875000000000000       0.12500000000000000        0.0000000000000000     
  0.75000000000000000       0.12500000000000000        0.0000000000000000     
  0.62500000000000000       0.15625000000000000        0.0000000000000000     
  0.65625000000000000       0.15625000000000000        0.0000000000000000     
  0.68750000000000000       0.15625000000000000        0.0000000000000000     
  0.71875000000000000       0.15625000000000000        0.0000000000000000     
  0.75000000000000000       0.15625000000000000        0.0000000000000000     
  0.62500000000000000       0.18750000000000000        0.0000000000000000     
  0.65625000000000000       0.18750000000000000        0.0000000000000000     
  0.68750000000000000       0.18750000000000000        0.0000000000000000     
  0.71875000000000000       0.18750000000000000        0.0000000000000000     
  0.75000000000000000       0.18750000000000000        0.0000000000000000     
  0.62500000000000000       0.21875000000000000        0.0000000000000000     
  0.65625000000000000       0.21875000000000000        0.0000000000000000     
  0.68750000000000000       0.21875000000000000        0.0000000000000000     
  0.71875000000000000       0.21875000000000000        0.0000000000000000     
  0.75000000000000000       0.21875000000000000        0.0000000000000000     
  0.62500000000000000       0.25000000000000000        0.0000000000000000     
  0.65625000000000000       0.25000000000000000        0.0000000000000000     
  0.68750000000000000       0.25000000000000000        0.0000000000000000     
  0.71875000000000000       0.25000000000000000        0.0000000000000000     
  0.75000000000000000       0.25000000000000000        0.0000000000000000     
  0.75000000000000000       0.12500000000000000        0.0000000000000000     
  0.78125000000000000       0.12500000000000000        0.0000000000000000     
  0.81250000000000000       0.12500000000000000        0.0000000000000000     
  0.84375000000000000       0.12500000000000000        0.0000000000000000     
  0.87500000000000000       0.12500000000000000        0.0000000000000000     
  0.75000000000000000       0.15625000000000000        0.0000000000000000     
  0.78125000000000000       0.15625000000000000        0.0000000000000000     
  0.81250000000000000       0.15625000000000000        0.0000000000000000     
  0.84375000000000000       0.15625000000000000        0.0000000000000000     
  0.87500000000000000       0.15625000000000000        0.0000000000000000     
  0.75000000000000000       0.18750000000000000        0.0000000000000000     
  0.78125000000000000       0.18750000000000000        0.0000000000000000     
  0.81250000000000000       0.18750000000000000        0.0000000000000000     
  0.84375000000000000       0.18750000000000000        0.0000000000000000     
  0.87500000000000000       0.18750000000000000        0.0000000000000000     
  0.75000000000000000       0.21875000000000000        0.0000000000000000     
  0.78125000000000000       0.21875000000000000        0.0000000000000000     
  0.81250000000000000       0.21875000000000000        0.0000000000000000     
  0.84375000000000000       0.21875000000000000        0.0000000000000000     
  0.87500000000000000       0.21875000000000000        0.0000000000000000     
  0.75000000000000000       0.25000000000000000        0.0000000000000000     
  0.78125000000000000       0.25000000000000000        0.0000000000000000     
  0.81250000000000000       0.25000000000000000        0.0000000000000000     
  0.84375000000000000       0.25000000000000000        0.0000000000000000     
  0.87500000000000000       0.25000000000000000        0.0000000000000000     
  0.87500000000000000       0.12500000000000000        0.0000000000000000     
  0.90625000000000000       0.12500000000000000        0.0000000000000000     
  0.93750000000000000       0.12500000000000000        0.0000000000000000     
  0.96875000000000000       0.12500000000000000        0.0000000000000000     
   1.0000000000000000       0.12500000000000000        0.0000000000000000     
  0.87500000000000000       0.15625000000000000        0.0000000000000000     
  0.90625000000000000       0.15625000000000000        0.0000000000000000     
  0.93750000000000000       0.15625000000000000        0.0000000000000000     
  0.96875000000000000       0.15625000000000000        0.0000000000000000     
   1.0000000000000000       0.15625000000000000        0.0000000000000000     
  0.87500000000000000       0.18750000000000000        0.0000000000000000     
  0.90625000000000000       0.18750000000000000        0.0000000000000000     
  0.93750000000000000       0.18750000000000000        0.0000000000000000     
  0.96875000000000000       0.18750000000000000        0.0000000000000000     
   1.0000000000000000       0.18750000000000000        0.0000000000000000     
  0.87500000000000000       0.21875000000000000        0.0000000000000000     
  0.90625000000000000       0.21875000000000000        0.0000000000000000     
  0.93750000000000000       0.21875000000000000        0.0000000000000000     
  0.96875000000000000       0.21875000000000000        0.0000000000000000     
   1.0000000000000000       0.21875000000000000        0.0000000000000000     
  0.87500000000000000       0.25000000000000000        0.0000000000000000     
  0.90625000000000000       0.25000000000000000        0.0000000000000000     
  0.93750000000000000       0.25000000000000000        0.0000000000000000     
  0.96875000000000000       0.25000000000000000        0.0000000000000000     
   1.0000000000000000       0.25000000000000000        0.0000000000000000     
   1.0000000000000000       0.12500000000000000        0.0000000000000000     
   1.0312500000000000       0.12500000000000000        0.0000000000000000     
   1.0625000000000000       0.12500000000000000        0.0000000000000000     
   1.0937500000000000       0.12500000000000000        0.0000000000000000     
   1.1250000000000000       0.12500000000000000        0.0000000000000000     
   1.0000000000000000       0.15625000000000000        0.0000000000000000     
   1.0312500000000000       0.15625000000000000        0.0000000000000000     
   1.0625000000000000       0.15625000000000000        0.0000000000000000     
   1.0937500000000000       0.15625000000000000        0.0000000000000000     
   1.1250000000000000       0.15625000000000000        0.0000000000000000     
   1.0000000000000000       0.18750000000000000        0.0000000000000000     
   1.0312500000000000       0.18750000000000000        0.0000000000000000     
   1.0625000000000000       0.18750000000000000        0.0000000000000000     
   1.0937500000000000       0.18750000000000000        0.0000000000000000     
   1.1250000000000000       0.18750000000000000        0.0000000000000000     
   1.0000000000000000       0.21875000000000000        0.0000000000000000     
   1.0312500000000000       0.21875000000000000        0.0000000000000000     
   1.0625000000000000       0.21875000000000000        0.0000000000000000     
   1.0937500000000000       0.21875000000000000        0.0000000000000000     
   1.1250000000000000       0.21875000000000000        0.0000000000000000     
   1.0000000000000000       0.25000000000000000        0.0000000000000000     
   1.0312500000000000       0.25000000000000000        0.0000000000000000     
   1.0625000000000000       0.25000000000000000        0.0000000000000000     
   1.0937500000000000       0.25000000000000000        0.0000000000000000     
   1.1250000000000000       0.25000000000000000        0.0000000000000000     
   1.1250000000000000       0.12500000000000000        0.0000000000000000     
   1.1562500000000000       0.12500000000000000        0.0000000000000000     
   1.1875000000000000       0.12500000000000000        0.0000000000000000     
   1.2187500000000000       0.12500000000000000        0.0000000000000000     
   1.2500000000000000       0.12500000000000000        0.0000000000000000     
   1.1250000000000000       0.15625000000000000        0.0000000000000000     
   1.1562500000000000       0.15625000000000000        0.0000000000000000     
   1.1875000000000000       0.15625000000000000        0.0000000000000000     
   1.2187500000000000       0.15625000000000000        0.0000000000000000     
   1.2500000000000000       0.15625000000000000        0.0000000000000000     
   1.1250000000000000       0.18750000000000000        0.0000000000000000     
   1.1562500000000000       0.18750000000000000        0.0000000000000000     
   1.1875000000000000       0.18750000000000000        0.0000000000000000     
   1.2187500000000000       0.18750000000000000        0.0000000000000000     
   1.2500000000000000       0.18750000000000000        0.0000000000000000     
   1.1250000000000000       0.21875000000000000        0.0000000000000000     
   1.1562500000000000       0.21875000000000000        0.0000000000000000     
   1.1875000000000000       0.21875000000000000        0.0000000000000000     
   1.2187500000000000       0.21875000000000000        0.0000000000000000     
   1.2500000000000000       0.21875000000000000        0.0000000000000000     
   1.1250000000000000       0.25000000000000000        0.0000000000000000     
   1.1562500000000000       0.25000000000000000        0.0000000000000000     
   1.1875000000000000       0.25000000000000000        0.0000000000000000     
   1.2187500000000000       0.25000000000000000        0.0000000000000000     
   1.2500000000000000       0.25000000000000000        0.0000000000000000     
   1.2500000000000000       0.12500000000000000        0.0000000000000000     
   1.2812500000000000       0.12500000000000000        0.0000000000000000     
   1.3125000000000000       0.12500000000000000        0.0000000000000000     
   1.3437500000000000       0.12500000000000000        0.0000000000000000     
   1.3750000000000000       0.12500000000000000        0.0000000000000000     
   1.2500000000000000       0.15625000000000000        0.0000000000000000     
   1.2812500000000000       0.15625000000000000        0.0000000000000000     
   1.3125000000000000       0.15625000000000000        0.0000000000000000     
   1.3437500000000000       0.15625000000000000        0.0000000000000000     
   1.3750000000000000       0.15625000000000000        0.0000000000000000     
   1.2500000000000000       0.18750000000000000        0.0000000000000000     
   1.2812500000000000       0.18750000000000000        0.0000000000000000     
   1.3125000000000000       0.18750000000000000        0.0000000000000000     
   1.3437500000000000       0.18750000000000000        0.0000000000000000     
   1.3750000000000000       0.18750000000000000        0.0000000000000000     
   1.2500000000000000       0.21875000000000000        0.0000000000000000     
   1.2812500000000000       0.21875000000000000        0.0000000000000000     
   1.3125000000000000       0.21875000000000000        0.0000000000000000     
   1.3437500000000000       0.21875000000000000        0.0000000000000000     
   1.3750000000000000       0.21875000000000000        0.0000000000000000     
   1.2500000000000000       0.25000000000000000        0.0000000000000000     
   1.2812500000000000       0.25000000000000000        0.0000000000000000     
   1.3125000000000000       0.25000000000000000        0.0000000000000000     
   1.3437500000000000       0.25000000000000000        0.0000000000000000     
   1.3750000000000000       0.25000000000000000        0.0000000000000000     
   1.3750000000000000       0.12500000000000000        0.0000000000000000     
   1.4062500000000000       0.12500000000000000        0.0000000000000000     
   1.4375000000000000       0.12500000000000000        0.0000000000000000     
   1.4687500000000000       0.12500000000000000        0.0000000000000000     
   1.5000000000000000       0.12500000000000000        0.0000000000000000     
   1.3750000000000000       0.15625000000000000        0.0000000000000000     
   1.4062500000000000       0.15625000000000000        0.0000000000000000     
   1.4375000000000000       0.15625000000000000        0.0000000000000000     
   1.4687500000000000       0.15625000000000000        0.0000000000000000     
   1.5000000000000000       0.15625000000000000        0.0000000000000000     
   1.3750000000000000       0.18750000000000000        0.0000000000000000     
   1.4062500000000000       0.18750000000000000        0.0000000000000000     
   1.4375000000000000       0.18750000000000000        0.0000000000000000     
   1.4687500000000000       0.18750000000000000        0.0000000000000000     
   1.5000000000000000       0.18750000000000000        0.0000000000000000     
   1.3750000000000000       0.21875000000000000        0.0000000000000000     
   1.4062500000000000       0.21875000000000000        0.0000000000000000     
   1.4375000000000000       0.21875000000000000        0.0000000000000000     
   1.4687500000000000       0.21875000000000000        0.0000000000000000     
   1.5000000000000000       0.21875000000000000        0.0000000000000000     
   1.3750000000000000       0.25000000000000000        0.0000000000000000     
   1.4062500000000000       0.25000000000000000        0.0000000000000000     
   1.4375000000000000       0.25000000000000000        0.0000000000000000     
   1.4687500000000000       0.25000000000000000        0.0000000000000000     
   1.5000000000000000       0.25000000000000000        0.0000000000000000     
  0.50000000000000000       0.25000000000000000        0.0000000000000000     
  0.53125000000000000       0.25000000000000000        0.0000000000000000     
  0.56250000000000000       0.25000000000000000        0.0000000000000000     
  0.59375000000000000       0.25000000000000000        0.0000000000000000     
  0.62500000000000000       0.25000000000000000        0.0000000000000000     
  0.50000000000000000       0.28125000000000000        0.0000000000000000     
  0.53125000000000000       0.28125000000000000        0.0000000000000000     
  0.56250000000000000       0.28125000000000000        0.0000000000000000     
  0.59375000000000000       0.28125000000000000        0.0000000000000000     
  0.62500000000000000       0.28125000000000000        0.0000000000000000     
  0.50000000000000000       0.31250000000000000        0.0000000000000000     
  0.53125000000000000       0.31250000000000000        0.0000000000000000     
  0.56250000000000000       0.31250000000000000        0.0000000000000000     
  0.59375000000000000       0.31250000000000000        0.0000000000000000     
  0.62500000000000000       0.31250000000000000        0.0000000000000000     
  0.50000000000000000       0.34375000000000000        0.0000000000000000     
  0.53125000000000000       0.34375000000000000        0.0000000000000000     
  0.56250000000000000       0.34375000000000000        0.0000000000000000     
  0.59375000000000000       0.34375000000000000        0.0000000000000000     
  0.62500000000000000       0.34375000000000000        0.0000000000000000     
  0.50000000000000000       0.37500000000000000        0.0000000000000000     
  0.53125000000000000       0.37500000000000000        0.0000000000000000     
  0.56250000000000000       0.37500000000000000        0.0000000000000000     
  0.59375000000000000       0.37500000000000000        0.0000000000000000     
  0.62500000000000000       0.37500000000000000        0.0000000000000000     
  0.62500000000000000       0.25000000000000000        0.0000000000000000     
  0.65625000000000000       0.25000000000000000        0.0000000000000000     
  0.68750000000000000       0.25000000000000000        0.0000000000000000     
  0.71875000000000000       0.25000000000000000        0.0000000000000000     
  0.75000000000000000       0.25000000000000000        0.0000000000000000     
  0.62500000000000000       0.28125000000000000        0.0000000000000000     
  0.65625000000000000       0.28125000000000000        0.0000000000000000     
  0.68750000000000000       0.28125000000000000        0.0000000000000000     
  0.71875000000000000       0.28125000000000000        0.0000000000000000     
  0.75000000000000000       0.28125000000000000        0.0000000000000000     
  0.62500000000000000       0.31250000000000000        0.0000000000000000     
  0.65625000000000000       0.31250000000000000        0.0000000000000000     
  0.68750000000000000       0.31250000000000000        0.0000000000000000     
  0.71875000000000000       0.31250000000000000        0.0000000000000000     
  0.75000000000000000       0.31250000000000000        0.0000000000000000     
  0.62500000000000000       0.34375000000000000        0.0000000000000000     
  0.65625000000000000       0.34375000000000000        0.0000000000000000     
  0.68750000000000000       0.34375000000000000        0.0000000000000000     
  0.71875000000000000       0.34375000000000000        0.0000000000000000     
  0.75000000000000000       0.34375000000000000        0.0000000000000000     
  0.62500000000000000       0.37500000000000000        0.0000000000000000     
  0.65625000000000000       0.37500000000000000        0.0000000000000000     
  0.68750000000000000       0.37500000000000000        0.0000000000000000     
  0.71875000000000000       0.37500000000000000        0.0000000000000000     
  0.75000000000000000       0.37500000000000000        0.0000000000000000     
  0.75000000000000000       0.25000000000000000        0.0000000000000000     
  0.78125000000000000       0.25000000000000000        0.0000000000000000     
  0.81250000000000000       0.25000000000000000        0.0000000000000000     
  0.84375000000000000       0.25000000000000000        0.0000000000000000     
  0.87500000000000000       0.25000000000000000        0.0000000000000000     
  0.75000000000000000       0.28125000000000000        0.0000000000000000     
  0.78125000000000000       0.28125000000000000        0.0000000000000000     
  0.81250000000000000       0.28125000000000000        0.0000000000000000     
  0.84375000000000000       0.28125000000000000        0.0000000000000000     
  0.87500000000000000       0.28125000000000000        0.0000000000000000     
  0.75000000000000000       0.31250000000000000        0.0000000000000000     
  0.78125000000000000       0.31250000000000000        0.0000000000000000     
  0.81250000000000000       0.31250000000000000        0.0000000000000000     
  0.84375000000000000       0.31250000000000000        0.0000000000000000     
  0.87500000000000000       0.31250000000000000        0.0000000000000000     
  0.75000000000000000       0.34375000000000000        0.0000000000000000     
  0.78125000000000000       0.34375000000000000        0.0000000000000000     
  0.81250000000000000       0.34375000000000000        0.0000000000000000     
  0.84375000000000000       0.34375000000000000        0.0000000000000000     
  0.87500000000000000       0.34375000000000000        0.0000000000000000     
  0.75000000000000000       0.37500000000000000        0.0000000000000000     
  0.78125000000000000       0.37500000000000000        0.0000000000000000     
  0.81250000000000000       0.37500000000000000        0.0000000000000000     
  0.84375000000000000       0.37500000000000000        0.0000000000000000     
  0.87500000000000000       0.37500000000000000        0.0000000000000000     
  0.87500000000000000       0.25000000000000000        0.0000000000000000     
  0.90625000000000000       0.25000000000000000        0.0000000000000000     
  0.93750000000000000       0.25000000000000000        0.0000000000000000     
  0.96875000000000000       0.25000000000000000        0.0000000000000000     
   1.0000000000000000       0.25000000000000000        0.0000000000000000     
  0.87500000000000000       0.28125000000000000        0.0000000000000000     
  0.90625000000000000       0.28125000000000000        0.0000000000000000     
  0.93750000000000000       0.28125000000000000        0.0000000000000000     
  0.96875000000000000       0.28125000000000000        0.0000000000000000     
   1.0000000000000000       0.28125000000000000        0.0000000000000000     
  0.87500000000000000       0.31250000000000000        0.0000000000000000     
  0.90625000000000000       0.31250000000000000        0.0000000000000000     
  0.93750000000000000       0.31250000000000000        0.0000000000000000     
  0.96875000000000000       0.31250000000000000        0.0000000000000000     
   1.0000000000000000       0.31250000000000000        0.0000000000000000     
  0.87500000000000000       0.34375000000000000        0.0000000000000000     
  0.90625000000000000       0.34375000000000000        0.0000000000000000     
  0.93750000000000000       0.34375000000000000        0.0000000000000000     
  0.96875000000000000       0.34375000000000000        0.0000000000000000     
   1.0000000000000000       0.34375000000000000        0.0000000000000000     
  0.87500000000000000       0.37500000000000000        0.0000000000000000     
  0.90625000000000000       0.37500000000000000        0.0000000000000000     
  0.93750000000000000       0.37500000000000000        0.0000000000000000     
  0.96875000000000000       0.37500000000000000        0.0000000000000000     
   1.0000000000000000       0.37500000000000000        0.0000000000000000     
   1.0000000000000000       0.25000000000000000        0.0000000000000000     
   1.0312500000000000       0.25000000000000000        0.0000000000000000     
   1.0625000000000000       0.25000000000000000        0.0000000000000000     
   1.0937500000000000       0.25000000000000000        0.0000000000000000     
   1.1250000000000000       0.25000000000000000        0.0000000000000000     
   1.0000000000000000       0.28125000000000000        0.0000000000000000     
   1.0312500000000000       0.28125000000000000        0.0000000000000000     
   1.0625000000000000       0.28125000000000000        0.0000000000000000     
   1.0937500000000000       0.28125000000000000        0.0000000000000000     
   1.1250000000000000       0.28125000000000000        0.0000000000000000     
   1.0000000000000000       0.31250000000000000        0.0000000000000000     
   1.0312500000000000       0.31250000000000000        0.0000000000000000     
   1.0625000000000000       0.31250000000000000        0.0000000000000000     
   1.0937500000000000       0.31250000000000000        0.0000000000000000     
   1.1250000000000000       0.31250000000000000        0.0000000000000000     
   1.0000000000000000       0.34375000000000000        0.0000000000000000     
   1.0312500000000000       0.34375000000000000        0.0000000000000000     
   1.0625000000000000       0.34375000000000000        0.0000000000000000     
   1.0937500000000000       0.34375000000000000        0.0000000000000000     
   1.1250000000000000       0.34375000000000000        0.0000000000000000     
   1.0000000000000000       0.37500000000000000        0.0000000000000000     
   1.0312500000000000       0.37500000000000000        0.0000000000000000     
   1.0625000000000000       0.37500000000000000        0.0000000000000000     
   1.0937500000000000       0.37500000000000000        0.0000000000000000     
   1.1250000000000000       0.37500000000000000        0.0000000000000000     
   1.1250000000000000       0.25000000000000000        0.0000000000000000     
   1.1562500000000000       0.25000000000000000        0.0000000000000000     
   1.1875000000000000       0.25000000000000000        0.0000000000000000     
   1.2187500000000000       0.25000000000000000        0.0000000000000000     
   1.2500000000000000       0.25000000000000000        0.0000000000000000     
   1.1250000000000000       0.28125000000000000        0.0000000000000000     
   1.1562500000000000       0.28125000000000000        0.0000000000000000     
   1.1875000000000000       0.28125000000000000        0.0000000000000000     
   1.2187500000000000       0.28125000000000000        0.0000000000000000     
   1.2500000000000000       0.28125000000000000        0.0000000000000000     
   1.1250000000000000       0.31250000000000000        0.0000000000000000     
   1.1562500000000000       0.31250000000000000        0.0000000000000000     
   1.1875000000000000       0.31250000000000000        0.0000000000000000     
   1.2187500000000000       0.31250000000000000        0.0000000000000000     
   1.2500000000000000       0.31250000000000000        0.0000000000000000     
   1.1250000000000000       0.34375000000000000        0.0000000000000000     
   1.1562500000000000       0.34375000000000000        0.0000000000000000     
   1.1875000000000000       0.34375000000000000        0.0000000000000000     
   1.2187500000000000       0.34375000000000000        0.0000000000000000     
   1.2500000000000000       0.34375000000000000        0.0000000000000000     
   1.1250000000000000       0.37500000000000000        0.0000000000000000     
   1.1562500000000000       0.37500000000000000        0.0000000000000000     
   1.1875000000000000       0.37500000000000000        0.0000000000000000     
   1.2187500000000000       0.37500000000000000        0.0000000000000000     
   1.2500000000000000       0.37500000000000000        0.0000000000000000     
   1.2500000000000000       0.25000000000000000        0.0000000000000000     
   1.2812500000000000       0.25000000000000000        0.0000000000000000     
   1.3125000000000000       0.25000000000000000        0.0000000000000000     
   1.3437500000000000       0.25000000000000000        0.0000000000000000     
   1.3750000000000000       0.25000000000000000        0.0000000000000000     
   1.2500000000000000       0.28125000000000000        0.0000000000000000     
   1.2812500000000000       0.28125000000000000        0.0000000000000000     
   1.3125000000000000       0.28125000000000000        0.0000000000000000     
   1.3437500000000000       0.28125000000000000        0.0000000000000000     
   1.3750000000000000       0.28125000000000000        0.0000000000000000     
   1.2500000000000000       0.31250000000000000        0.0000000000000000     
   1.2812500000000000       0.31250000000000000        0.0000000000000000     
   1.3125000000000000       0.31250000000000000        0.0000000000000000     
   1.3437500000000000       0.31250000000000000        0.0000000000000000     
   1.3750000000000000       0.31250000000000000        0.0000000000000000     
   1.2500000000000000       0.34375000000000000        0.0000000000000000     
   1.2812500000000000       0.34375000000000000        0.0000000000000000     
   1.3125000000000000       0.34375000000000000        0.0000000000000000     
   1.3437500000000000       0.34375000000000000        0.0000000000000000     
   1.3750000000000000       0.34375000000000000        0.0000000000000000     
   1.2500000000000000       0.37500000000000000        0.0000000000000000     
   1.2812500000000000       0.37500000000000000        0.0000000000000000     
   1.3125000000000000       0.37500000000000000        0.0000000000000000     
   1.3437500000000000       0.37500000000000000        0.0000000000000000     
   1.3750000000000000       0.37500000000000000        0.0000000000000000     
   1.3750000000000000       0.25000000000000000        0.0000000000000000     
   1.4062500000000000       0.25000000000000000        0.0000000000000000     
   1.4375000000000000       0.25000000000000000        0.0000000000000000     
   1.4687500000000000       0.25000000000000000        0.0000000000000000     
   1.5000000000000000       0.25000000000000000        0.0000000000000000     
   1.3750000000000000       0.28125000000000000        0.0000000000000000     
   1.4062500000000000       0.28125000000000000        0.0000000000000000     
   1.4375000000000000       0.28125000000000000        0.0000000000000000     
   1.4687500000000000       0.28125000000000000        0.0000000000000000     
   1.5000000000000000       0.28125000000000000        0.0000000000000000     
   1.3750000000000000       0.31250000000000000        0.0000000000000000     
   1.4062500000000000       0.31250000000000000        0.0000000000000000     
   1.4375000000000000       0.31250000000000000        0.0000000000000000     
   1.4687500000000000       0.31250000000000000        0.0000000000000000     
   1.5000000000000000       0.31250000000000000        0.0000000000000000     
   1.3750000000000000       0.34375000000000000        0.0000000000000000     
   1.4062500000000000       0.34375000000000000        0.0000000000000000     
   1.4375000000000000       0.34375000000000000        0.0000000000000000     
   1.4687500000000000       0.34375000000000000        0.0000000000000000     
   1.5000000000000000       0.34375000000000000        0.0000000000000000     
   1.3750000000000000       0.37500000000000000        0.0000000000000000     
   1.4062500000000000       0.37500000000000000        0.0000000000000000     
   1.4375000000000000       0.37500000000000000        0.0000000000000000     
   1.4687500000000000       0.37500000000000000        0.0000000000000000     
   1.5000000000000000       0.37500000000000000        0.0000000000000000     
  0.50000000000000000       0.37500000000000000        0.0000000000000000     
  0.53125000000000000       0.37500000000000000        0.0000000000000000     
  0.56250000000000000       0.37500000000000000        0.0000000000000000     
  0.59375000000000000       0.37500000000000000        0.0000000000000000     
  0.62500000000000000       0.37500000000000000        0.0000000000000000     
  0.50000000000000000       0.40625000000000000        0.0000000000000000     
  0.53125000000000000       0.40625000000000000        0.0000000000000000     
  0.56250000000000000       0.40625000000000000        0.0000000000000000     
  0.59375000000000000       0.40625000000000000        0.0000000000000000     
  0.62500000000000000       0.40625000000000000        0.0000000000000000     
  0.50000000000000000       0.43750000000000000        0.0000000000000000     
  0.53125000000000000       0.43750000000000000        0.0000000000000000     
  0.56250000000000000       0.43750000000000000        0.0000000000000000     
  0.59375000000000000       0.43750000000000000        0.0000000000000000     
  0.62500000000000000       0.43750000000000000        0.0000000000000000     
  0.50000000000000000       0.46875000000000000        0.0000000000000000     
  0.53125000000000000       0.46875000000000000        0.0000000000000000     
  0.56250000000000000       0.46875000000000000        0.0000000000000000     
  0.59375000000000000       0.46875000000000000        0.0000000000000000     
  0.62500000000000000       0.46875000000000000        0.0000000000000000     
  0.50000000000000000       0.50000000000000000        0.0000000000000000     
  0.53125000000000000       0.50000000000000000        0.0000000000000000     
  0.56250000000000000       0.50000000000000000        0.0000000000000000     
  0.59375000000000000       0.50000000000000000        0.0000000000000000     
  0.62500000000000000       0.50000000000000000        0.0000000000000000     
  0.62500000000000000       0.37500000000000000        0.0000000000000000     
  0.65625000000000000       0.37500000000000000        0.0000000000000000     
  0.68750000000000000       0.37500000000000000        0.0000000000000000     
  0.71875000000000000       0.37500000000000000        0.0000000000000000     
  0.75000000000000000       0.37500000000000000        0.0000000000000000     
  0.62500000000000000       0.40625000000000000        0.0000000000000000     
  0.65625000000000000       0.40625000000000000        0.0000000000000000     
  0.68750000000000000       0.40625000000000000        0.0000000000000000     
  0.71875000000000000       0.40625000000000000        0.0000000000000000     
  0.75000000000000000       0.40625000000000000        0.0000000000000000     
  0.62500000000000000       0.43750000000000000        0.0000000000000000     
  0.65625000000000000       0.43750000000000000        0.0000000000000000     
  0.68750000000000000       0.43750000000000000        0.0000000000000000     
  0.71875000000000000       0.43750000000000000        0.0000000000000000     
  0.75000000000000000       0.43750000000000000        0.0000000000000000     
  0.62500000000000000       0.46875000000000000        0.0000000000000000     
  0.65625000000000000       0.46875000000000000        0.0000000000000000     
  0.68750000000000000       0.46875000000000000        0.0000000000000000     
  0.71875000000000000       0.46875000000000000        0.0000000000000000     
  0.75000000000000000       0.46875000000000000        0.0000000000000000     
  0.62500000000000000       0.50000000000000000        0.0000000000000000     
  0.65625000000000000       0.50000000000000000        0.0000000000000000     
  0.68750000000000000       0.50000000000000000        0.0000000000000000     
  0.71875000000000000       0.50000000000000000        0.0000000000000000     
  0.75000000000000000       0.50000000000000000        0.0000000000000000     
  0.75000000000000000       0.37500000000000000        0.0000000000000000     
  0.78125000000000000       0.37500000000000000        0.0000000000000000     
  0.81250000000000000       0.37500000000000000        0.0000000000000000     
  0.84375000000000000       0.37500000000000000        0.0000000000000000     
  0.87500000000000000       0.37500000000000000        0.0000000000000000     
  0.75000000000000000       0.40625000000000000        0.0000000000000000     
  0.78125000000000000       0.40625000000000000        0.0000000000000000     
  0.81250000000000000       0.40625000000000000        0.0000000000000000     
  0.84375000000000000       0.40625000000000000        0.0000000000000000     
  0.87500000000000000       0.40625000000000000        0.0000000000000000     
  0.75000000000000000       0.43750000000000000        0.0000000000000000     
  0.78125000000000000       0.43750000000000000        0.0000000000000000     
  0.81250000000000000       0.43750000000000000        0.0000000000000000     
  0.84375000000000000       0.43750000000000000        0.0000000000000000     
  0.87500000000000000       0.43750000000000000        0.0000000000000000     
  0.75000000000000000       0.46875000000000000        0.0000000000000000     
  0.78125000000000000       0.46875000000000000        0.0000000000000000     
  0.81250000000000000       0.46875000000000000        0.0000000000000000     
  0.84375000000000000       0.46875000000000000        0.0000000000000000     
  0.87500000000000000       0.46875000000000000        0.0000000000000000     
  0.75000000000000000       0.50000000000000000        0.0000000000000000     
  0.78125000000000000       0.50000000000000000        0.0000000000000000     
  0.81250000000000000       0.50000000000000000        0.0000000000000000     
  0.84375000000000000       0.50000000000000000        0.0000000000000000     
  0.87500000000000000       0.50000000000000000        0.0000000000000000     
  0.87500000000000000       0.37500000000000000        0.0000000000000000     
  0.90625000000000000       0.37500000000000000        0.0000000000000000     
  0.93750000000000000       0.37500000000000000        0.0000000000000000     
  0.96875000000000000       0.37500000000000000        0.0000000000000000     
   1.0000000000000000       0.37500000000000000        0.0000000000000000     
  0.87500000000000000       0.40625000000000000        0.0000000000000000     
  0.90625000000000000       0.40625000000000000        0.0000000000000000     
  0.93750000000000000       0.40625000000000000        0.0000000000000000     
  0.96875000000000000       0.40625000000000000        0.0000000000000000     
   1.0000000000000000       0.40625000000000000        0.0000000000000000     
  0.87500000000000000       0.43750000000000000        0.0000000000000000     
  0.90625000000000000       0.43750000000000000        0.0000000000000000     
  0.93750000000000000       0.43750000000000000        0.0000000000000000     
  0.96875000000000000       0.43750000000000000        0.0000000000000000     
   1.0000000000000000       0.43750000000000000        0.0000000000000000     
  0.87500000000000000       0.46875000000000000        0.0000000000000000     
  0.90625000000000000       0.46875000000000000        0.0000000000000000     
  0.93750000000000000       0.46875000000000000        0.0000000000000000     
  0.96875000000000000       0.46875000000000000        0.0000000000000000     
   1.0000000000000000       0.46875000000000000        0.0000000000000000     
  0.87500000000000000       0.50000000000000000        0.0000000000000000     
  0.90625000000000000       0.50000000000000000        0.0000000000000000     
  0.93750000000000000       0.50000000000000000        0.0000000000000000     
  0.96875000000000000       0.50000000000000000        0.0000000000000000     
   1.0000000000000000       0.50000000000000000        0.0000000000000000     
   1.0000000000000000       0.37500000000000000        0.0000000000000000     
   1.0312500000000000       0.37500000000000000        0.0000000000000000     
   1.0625000000000000       0.37500000000000000        0.0000000000000000     
   1.0937500000000000       0.37500000000000000        0.0000000000000000     
   1.1250000000000000       0.37500000000000000        0.0000000000000000     
   1.0000000000000000       0.40625000000000000        0.0000000000000000     
   1.0312500000000000       0.40625000000000000        0.0000000000000000     
   1.0625000000000000       0.40625000000000000        0.0000000000000000     
   1.0937500000000000       0.40625000000000000        0.0000000000000000     
   1.1250000000000000       0.40625000000000000        0.0000000000000000     
   1.0000000000000000       0.43750000000000000        0.0000000000000000     
   1.0312500000000000       0.43750000000000000        0.0000000000000000     
   1.0625000000000000       0.43750000000000000        0.0000000000000000     
   1.0937500000000000       0.43750000000000000        0.0000000000000000     
   1.1250000000000000       0.43750000000000000        0.0000000000000000     
   1.0000000000000000       0.46875000000000000        0.0000000000000000     
   1.0312500000000000       0.46875000000000000        0.0000000000000000     
   1.0625000000000000       0.46875000000000000        0.0000000000000000     
   1.0937500000000000       0.46875000000000000        0.0000000000000000     
   1.1250000000000000       0.46875000000000000        0.0000000000000000     
   1.0000000000000000       0.50000000000000000        0.0000000000000000     
   1.0312500000000000       0.50000000000000000        0.0000000000000000     
   1.0625000000000000       0.50000000000000000        0.0000000000000000     
   1.0937500000000000       0.50000000000000000        0.0000000000000000     
   1.1250000000000000       0.50000000000000000        0.0000000000000000     
   1.1250000000000000       0.37500000000000000        0.0000000000000000     
   1.1562500000000000       0.37500000000000000        0.0000000000000000     
   1.1875000000000000       0.37500000000000000        0.0000000000000000     
   1.2187500000000000       0.37500000000000000        0.0000000000000000     
   1.2500000000000000       0.37500000000000000        0.0000000000000000     
   1.1250000000000000       0.40625000000000000        0.0000000000000000     
   1.1562500000000000       0.40625000000000000        0.0000000000000000     
   1.1875000000000000       0.40625000000000000        0.0000000000000000     
   1.2187500000000000       0.40625000000000000        0.0000000000000000     
   1.2500000000000000       0.40625000000000000        0.0000000000000000     
   1.1250000000000000       0.43750000000000000        0.0000000000000000     
   1.1562500000000000       0.43750000000000000        0.0000000000000000     
   1.1875000000000000       0.43750000000000000        0.0000000000000000     
   1.2187500000000000       0.43750000000000000        0.0000000000000000     
   1.2500000000000000       0.43750000000000000        0.0000000000000000     
   1.1250000000000000       0.46875000000000000        0.0000000000000000     
   1.1562500000000000       0.46875000000000000        0.0000000000000000     
   1.1875000000000000       0.46875000000000000        0.0000000000000000     
   1.2187500000000000       0.46875000000000000        0.0000000000000000     
   1.2500000000000000       0.46875000000000000        0.0000000000000000     
   1.1250000000000000       0.50000000000000000        0.0000000000000000     
   1.1562500000000000       0.50000000000000000        0.0000000000000000     
   1.1875000000000000       0.50000000000000000        0.0000000000000000     
   1.2187500000000000       0.50000000000000000        0.0000000000000000     
   1.2500000000000000       0.50000000000000000        0.0000000000000000     
   1.2500000000000000       0.37500000000000000        0.0000000000000000     
   1.2812500000000000       0.37500000000000000        0.0000000000000000     
   1.3125000000000000       0.37500000000000000        0.0000000000000000     
   1.3437500000000000       0.37500000000000000        0.0000000000000000     
   1.3750000000000000       0.37500000000000000        0.0000000000000000     
   1.2500000000000000       0.40625000000000000        0.0000000000000000     
   1.2812500000000000       0.40625000000000000        0.0000000000000000     
   1.3125000000000000       0.40625000000000000        0.0000000000000000     
   1.3437500000000000       0.40625000000000000        0.0000000000000000     
   1.3750000000000000       0.40625000000000000        0.0000000000000000     
   1.2500000000000000       0.43750000000000000        0.0000000000000000     
   1.2812500000000000       0.43750000000000000        0.0000000000000000     
   1.3125000000000000       0.43750000000000000        0.0000000000000000     
   1.3437500000000000       0.43750000000000000        0.0000000000000000     
   1.3750000000000000       0.43750000000000000        0.0000000000000000     
   1.2500000000000000       0.46875000000000000        0.0000000000000000     
   1.2812500000000000       0.46875000000000000        0.0000000000000000     
   1.3125000000000000       0.46875000000000000        0.0000000000000000     
   1.3437500000000000       0.46875000000000000        0.0000000000000000     
   1.3750000000000000       0.46875000000000000        0.0000000000000000     
   1.2500000000000000       0.50000000000000000        0.0000000000000000     
   1.2812500000000000       0.50000000000000000        0.0000000000000000     
   1.3125000000000000       0.50000000000000000        0.0000000000000000     
   1.3437500000000000       0.50000000000000000        0.0000000000000000     
   1.3750000000000000       0.50000000000000000        0.0000000000000000     
   1.3750000000000000       0.37500000000000000        0.0000000000000000     
   1.4062500000000000       0.37500000000000000        0.0000000000000000     
   1.4375000000000000       0.37500000000000000        0.0000000000000000     
   1.4687500000000000       0.37500000000000000        0.0000000000000000     
   1.5000000000000000       0.37500000000000000        0.0000000000000000     
   1.3750000000000000       0.40625000000000000        0.0000000000000000     
   1.4062500000000000       0.40625000000000000        0.0000000000000000     
   1.4375000000000000       0.40625000000000000        0.0000000000000000     
   1.4687500000000000       0.40625000000000000        0.0000000000000000     
   1.5000000000000000       0.40625000000000000        0.0000000000000000     
   1.3750000000000000       0.43750000000000000        0.0000000000000000     
   1.4062500000000000       0.43750000000000000        0.0000000000000000     
   1.4375000000000000       0.43750000000000000        0.0000000000000000     
   1.4687500000000000       0.43750000000000000        0.0000000000000000     
   1.5000000000000000       0.43750000000000000        0.0000000000000000     
   1.3750000000000000       0.46875000000000000        0.0000000000000000     
   1.4062500000000000       0.46875000000000000        0.0000000000000000     
   1.4375000000000000       0.46875000000000000        0.0000000000000000     
   1.4687500000000000       0.46875000000000000        0.0000000000000000     
   1.5000000000000000       0.46875000000000000        0.0000000000000000     
   1.3750000000000000       0.50000000000000000        0.0000000000000000     
   1.4062500000000000       0.50000000000000000        0.0000000000000000     
   1.4375000000000000       0.50000000000000000        0.0000000000000000     
   1.4687500000000000       0.50000000000000000        0.0000000000000000     
   1.5000000000000000       0.50000000000000000        0.0000000000000000     
  0.50000000000000000       0.50000000000000000        0.0000000000000000     
  0.53125000000000000       0.50000000000000000        0.0000000000000000     
  0.56250000000000000       0.50000000000000000        0.0000000000000000     
  0.59375000000000000       0.50000000000000000        0.0000000000000000     
  0.62500000000000000       0.50000000000000000        0.0000000000000000     
  0.50000000000000000       0.53125000000000000        0.0000000000000000     
  0.53125000000000000       0.53125000000000000        0.0000000000000000     
  0.56250000000000000       0.53125000000000000        0.0000000000000000     
  0.59375000000000000       0.53125000000000000        0.0000000000000000     
  0.62500000000000000       0.53125000000000000        0.0000000000000000     
  0.50000000000000000       0.56250000000000000        0.0000000000000000     
  0.53125000000000000       0.56250000000000000        0.0000000000000000     
  0.56250000000000000       0.56250000000000000        0.0000000000000000     
  0.59375000000000000       0.56250000000000000        0.0000000000000000     
  0.62500000000000000       0.56250000000000000        0.0000000000000000     
  0.50000000000000000       0.59375000000000000        0.0000000000000000     
  0.53125000000000000       0.59375000000000000        0.0000000000000000     
  0.56250000000000000       0.59375000000000000        0.0000000000000000     
  0.59375000000000000       0.59375000000000000        0.0000000000000000     
  0.62500000000000000       0.59375000000000000        0.0000000000000000     
  0.50000000000000000       0.62500000000000000        0.0000000000000000     
  0.53125000000000000       0.62500000000000000        0.0000000000000000     
  0.56250000000000000       0.62500000000000000        0.0000000000000000     
  0.59375000000000000       0.62500000000000000        0.0000000000000000     
  0.62500000000000000       0.62500000000000000        0.0000000000000000     
  0.62500000000000000       0.50000000000000000        0.0000000000000000     
  0.65625000000000000       0.50000000000000000        0.0000000000000000     
  0.68750000000000000       0.50000000000000000        0.0000000000000000     
  0.71875000000000000       0.50000000000000000        0.0000000000000000     
  0.75000000000000000       0.50000000000000000        0.0000000000000000     
  0.62500000000000000       0.53125000000000000        0.0000000000000000     
  0.65625000000000000       0.53125000000000000        0.0000000000000000     
  0.68750000000000000       0.53125000000000000        0.0000000000000000     
  0.71875000000000000       0.53125000000000000        0.0000000000000000     
  0.75000000000000000       0.53125000000000000        0.0000000000000000     
  0.62500000000000000       0.56250000000000000        0.0000000000000000     
  0.65625000000000000       0.56250000000000000        0.0000000000000000     
  0.68750000000000000       0.56250000000000000        0.0000000000000000     
  0.71875000000000000       0.56250000000000000        0.0000000000000000     
  0.75000000000000000       0.56250000000000000        0.0000000000000000     
  0.62500000000000000       0.59375000000000000        0.0000000000000000     
  0.65625000000000000       0.59375000000000000        0.0000000000000000     
  0.68750000000000000       0.59375000000000000        0.0000000000000000     
  0.71875000000000000       0.59375000000000000        0.0000000000000000     
  0.75000000000000000       0.59375000000000000        0.0000000000000000     
  0.62500000000000000       0.62500000000000000        0.0000000000000000     
  0.65625000000000000       0.62500000000000000        0.0000000000000000     
  0.68750000000000000       0.62500000000000000        0.0000000000000000     
  0.71875000000000000       0.62500000000000000        0.0000000000000000     
  0.75000000000000000       0.62500000000000000        0.0000000000000000     
  0.75000000000000000       0.50000000000000000        0.0000000000000000     
  0.78125000000000000       0.50000000000000000        0.0000000000000000     
  0.81250000000000000       0.50000000000000000        0.0000000000000000     
  0.84375000000000000       0.50000000000000000        0.0000000000000000     
  0.87500000000000000       0.50000000000000000        0.0000000000000000     
  0.75000000000000000       0.53125000000000000        0.0000000000000000     
  0.78125000000000000       0.53125000000000000        0.0000000000000000     
  0.81250000000000000       0.53125000000000000        0.0000000000000000     
  0.84375000000000000       0.53125000000000000        0.0000000000000000     
  0.87500000000000000       0.53125000000000000        0.0000000000000000     
  0.75000000000000000       0.56250000000000000        0.0000000000000000     
  0.78125000000000000       0.56250000000000000        0.0000000000000000     
  0.81250000000000000       0.56250000000000000        0.0000000000000000     
  0.84375000000000000       0.56250000000000000        0.0000000000000000     
  0.87500000000000000       0.56250000000000000        0.0000000000000000     
  0.75000000000000000       0.59375000000000000        0.0000000000000000     
  0.78125000000000000       0.59375000000000000        0.0000000000000000     
  0.81250000000000000       0.59375000000000000        0.0000000000000000     
  0.84375000000000000       0.59375000000000000        0.0000000000000000     
  0.87500000000000000       0.59375000000000000        0.0000000000000000     
  0.75000000000000000       0.62500000000000000        0.0000000000000000     
  0.78125000000000000       0.62500000000000000        0.0000000000000000     
  0.81250000000000000       0.62500000000000000        0.0000000000000000     
  0.84375000000000000       0.62500000000000000        0.0000000000000000     
  0.87500000000000000       0.62500000000000000        0.0000000000000000     
  0.87500000000000000       0.50000000000000000        0.0000000000000000     
  0.90625000000000000       0.50000000000000000        0.0000000000000000     
  0.93750000000000000       0.50000000000000000        0.0000000000000000     
  0.96875000000000000       0.50000000000000000        0.0000000000000000     
   1.0000000000000000       0.50000000000000000        0.0000000000000000     
  0.87500000000000000       0.53125000000000000        0.0000000000000000     
  0.90625000000000000       0.53125000000000000        0.0000000000000000     
  0.93750000000000000       0.53125000000000000        0.0000000000000000     
  0.96875000000000000       0.53125000000000000        0.0000000000000000     
   1.0000000000000000       0.53125000000000000        0.0000000000000000     
  0.87500000000000000       0.56250000000000000        0.0000000000000000     
  0.90625000000000000       0.56250000000000000        0.0000000000000000     
  0.93750000000000000       0.56250000000000000        0.0000000000000000     
  0.96875000000000000       0.56250000000000000        0.0000000000000000     
   1.0000000000000000       0.56250000000000000        0.0000000000000000     
  0.87500000000000000       0.59375000000000000        0.0000000000000000     
  0.90625000000000000       0.59375000000000000        0.0000000000000000     
  0.93750000000000000       0.59375000000000000        0.0000000000000000     
  0.96875000000000000       0.59375000000000000        0.0000000000000000     
   1.0000000000000000       0.59375000000000000        0.0000000000000000     
  0.87500000000000000       0.62500000000000000        0.0000000000000000     
  0.90625000000000000       0.62500000000000000        0.0000000000000000     
  0.93750000000000000       0.62500000000000000        0.0000000000000000     
  0.96875000000000000       0.62500000000000000        0.0000000000000000     
   1.0000000000000000       0.62500000000000000        0.0000000000000000     
   1.0000000000000000       0.50000000000000000        0.0000000000000000     
   1.0312500000000000       0.50000000000000000        0.0000000000000000     
   1.0625000000000000       0.50000000000000000        0.0000000000000000     
   1.0937500000000000       0.50000000000000000        0.0000000000000000     
   1.1250000000000000       0.50000000000000000        0.0000000000000000     
   1.0000000000000000       0.53125000000000000        0.0000000000000000     
   1.0312500000000000       0.53125000000000000        0.0000000000000000     
   1.0625000000000000       0.53125000000000000        0.0000000000000000     
   1.0937500000000000       0.53125000000000000        0.0000000000000000     
   1.1250000000000000       0.53125000000000000        0.0000000000000000     
   1.0000000000000000       0.56250000000000000        0.0000000000000000     
   1.0312500000000000       0.56250000000000000        0.0000000000000000     
   1.0625000000000000       0.56250000000000000        0.0000000000000000     
   1.0937500000000000       0.56250000000000000        0.0000000000000000     
   1.1250000000000000       0.56250000000000000        0.0000000000000000     
   1.0000000000000000       0.59375000000000000        0.0000000000000000     
   1.0312500000000000       0.59375000000000000        0.0000000000000000     
   1.0625000000000000       0.59375000000000000        0.0000000000000000     
   1.0937500000000000       0.59375000000000000        0.0000000000000000     
   1.1250000000000000       0.59375000000000000        0.0000000000000000     
   1.0000000000000000       0.62500000000000000        0.0000000000000000     
   1.0312500000000000       0.62500000000000000        0.0000000000000000     
   1.0625000000000000       0.62500000000000000        0.0000000000000000     
   1.0937500000000000       0.62500000000000000        0.0000000000000000     
   1.1250000000000000       0.62500000000000000        0.0000000000000000     
   1.1250000000000000       0.50000000000000000        0.0000000000000000     
   1.1562500000000000       0.50000000000000000        0.0000000000000000     
   1.1875000000000000       0.50000000000000000        0.0000000000000000     
   1.2187500000000000       0.50000000000000000        0.0000000000000000     
   1.2500000000000000       0.50000000000000000        0.0000000000000000     
   1.1250000000000000       0.53125000000000000        0.0000000000000000     
   1.1562500000000000       0.53125000000000000        0.0000000000000000     
   1.1875000000000000       0.53125000000000000        0.0000000000000000     
   1.2187500000000000       0.53125000000000000        0.0000000000000000     
   1.2500000000000000       0.53125000000000000        0.0000000000000000     
   1.1250000000000000       0.56250000000000000        0.0000000000000000     
   1.1562500000000000       0.56250000000000000        0.0000000000000000     
   1.1875000000000000       0.56250000000000000        0.0000000000000000     
   1.2187500000000000       0.56250000000000000        0.0000000000000000     
   1.2500000000000000       0.56250000000000000        0.0000000000000000     
   1.1250000000000000       0.59375000000000000        0.0000000000000000     
   1.1562500000000000       0.59375000000000000        0.0000000000000000     
   1.1875000000000000       0.59375000000000000        0.0000000000000000     
   1.2187500000000000       0.59375000000000000        0.0000000000000000     
   1.2500000000000000       0.59375000000000000        0.0000000000000000     
   1.1250000000000000       0.62500000000000000        0.0000000000000000     
   1.1562500000000000       0.62500000000000000        0.0000000000000000     
   1.1875000000000000       0.62500000000000000        0.0000000000000000     
   1.2187500000000000       0.62500000000000000        0.0000000000000000     
   1.2500000000000000       0.62500000000000000        0.0000000000000000     
   1.2500000000000000       0.50000000000000000        0.0000000000000000     
   1.2812500000000000       0.50000000000000000        0.0000000000000000     
   1.3125000000000000       0.50000000000000000        0.0000000000000000     
   1.3437500000000000       0.50000000000000000        0.0000000000000000     
   1.3750000000000000       0.50000000000000000        0.0000000000000000     
   1.2500000000000000       0.53125000000000000        0.0000000000000000     
   1.2812500000000000       0.53125000000000000        0.0000000000000000     
   1.3125000000000000       0.53125000000000000        0.0000000000000000     
   1.3437500000000000       0.53125000000000000        0.0000000000000000     
   1.3750000000000000       0.53125000000000000        0.0000000000000000     
   1.2500000000000000       0.56250000000000000        0.0000000000000000     
   1.2812500000000000       0.56250000000000000        0.0000000000000000     
   1.3125000000000000       0.56250000000000000        0.0000000000000000     
   1.3437500000000000       0.56250000000000000        0.0000000000000000     
   1.3750000000000000       0.56250000000000000        0.0000000000000000     
   1.2500000000000000       0.59375000000000000        0.0000000000000000     
   1.2812500000000000       0.59375000000000000        0.0000000000000000     
   1.3125000000000000       0.59375000000000000        0.0000000000000000     
   1.3437500000000000       0.59375000000000000        0.0000000000000000     
   1.3750000000000000       0.59375000000000000        0.0000000000000000     
   1.2500000000000000       0.62500000000000000        0.0000000000000000     
   1.2812500000000000       0.62500000000000000        0.0000000000000000     
   1.3125000000000000       0.62500000000000000        0.0000000000000000     
   1.3437500000000000       0.62500000000000000        0.0000000000000000     
   1.3750000000000000       0.62500000000000000        0.0000000000000000     
   1.3750000000000000       0.50000000000000000        0.0000000000000000     
   1.4062500000000000       0.50000000000000000        0.0000000000000000     
   1.4375000000000000       0.50000000000000000        0.0000000000000000     
   1.4687500000000000       0.50000000000000000        0.0000000000000000     
   1.5000000000000000       0.50000000000000000        0.0000000000000000     
   1.3750000000000000       0.53125000000000000        0.0000000000000000     
   1.4062500000000000       0.53125000000000000        0.0000000000000000     
   1.4375000000000000       0.53125000000000000        0.0000000000000000     
   1.4687500000000000       0.53125000000000000        0.0000000000000000     
   1.5000000000000000       0.53125000000000000        0.0000000000000000     
   1.3750000000000000       0.56250000000000000        0.0000000000000000     
   1.4062500000000000       0.56250000000000000        0.0000000000000000     
   1.4375000000000000       0.56250000000000000        0.0000000000000000     
   1.4687500000000000       0.56250000000000000        0.0000000000000000     
   1.5000000000000000       0.56250000000000000        0.0000000000000000     
   1.3750000000000000       0.59375000000000000        0.0000000000000000     
   1.4062500000000000       0.59375000000000000        0.0000000000000000     
   1.4375000000000000       0.59375000000000000        0.0000000000000000     
   1.4687500000000000       0.59375000000000000        0.0000000000000000     
   1.5000000000000000       0.59375000000000000        0.0000000000000000     
   1.3750000000000000       0.62500000000000000        0.0000000000000000     
   1.4062500000000000       0.62500000000000000        0.0000000000000000     
   1.4375000000000000       0.62500000000000000        0.0000000000000000     
   1.4687500000000000       0.62500000000000000        0.0000000000000000     
   1.5000000000000000       0.62500000000000000        0.0000000000000000     
  0.50000000000000000       0.62500000000000000        0.0000000000000000     
  0.53125000000000000       0.62500000000000000        0.0000000000000000     
  0.56250000000000000       0.62500000000000000        0.0000000000000000     
  0.59375000000000000       0.62500000000000000        0.0000000000000000     
  0.62500000000000000       0.62500000000000000        0.0000000000000000     
  0.50000000000000000       0.65625000000000000        0.0000000000000000     
  0.53125000000000000       0.65625000000000000        0.0000000000000000     
  0.56250000000000000       0.65625000000000000        0.0000000000000000     
  0.59375000000000000       0.65625000000000000        0.0000000000000000     
  0.62500000000000000       0.65625000000000000        0.0000000000000000     
  0.50000000000000000       0.68750000000000000        0.0000000000000000     
  0.53125000000000000       0.68750000000000000        0.0000000000000000     
  0.56250000000000000       0.68750000000000000        0.0000000000000000     
  0.59375000000000000       0.68750000000000000        0.0000000000000000     
  0.62500000000000000       0.68750000000000000        0.0000000000000000     
  0.50000000000000000       0.71875000000000000        0.0000000000000000     
  0.53125000000000000       0.71875000000000000        0.0000000000000000     
  0.56250000000000000       0.71875000000000000        0.0000000000000000     
  0.59375000000000000       0.71875000000000000        0.0000000000000000     
  0.62500000000000000       0.71875000000000000        0.0000000000000000     
  0.50000000000000000       0.75000000000000000        0.0000000000000000     
  0.53125000000000000       0.75000000000000000        0.0000000000000000     
  0.56250000000000000       0.75000000000000000        0.0000000000000000     
  0.59375000000000000       0.75000000000000000        0.0000000000000000     
  0.62500000000000000       0.75000000000000000        0.0000000000000000     
  0.62500000000000000       0.62500000000000000        0.0000000000000000     
  0.65625000000000000       0.62500000000000000        0.0000000000000000     
  0.68750000000000000       0.62500000000000000        0.0000000000000000     
  0.71875000000000000       0.62500000000000000        0.0000000000000000     
  0.75000000000000000       0.62500000000000000        0.0000000000000000     
  0.62500000000000000       0.65625000000000000        0.0000000000000000     
  0.65625000000000000       0.65625000000000000        0.0000000000000000     
  0.68750000000000000       0.65625000000000000        0.0000000000000000     
  0.71875000000000000       0.65625000000000000        0.0000000000000000     
  0.75000000000000000       0.65625000000000000        0.0000000000000000     
  0.62500000000000000       0.68750000000000000        0.0000000000000000     
  0.65625000000000000       0.68750000000000000        0.0000000000000000     
  0.68750000000000000       0.68750000000000000        0.0000000000000000     
  0.71875000000000000       0.68750000000000000        0.0000000000000000     
  0.75000000000000000       0.68750000000000000        0.0000000000000000     
  0.62500000000000000       0.71875000000000000        0.0000000000000000     
  0.65625000000000000       0.71875000000000000        0.0000000000000000     
  0.68750000000000000       0.71875000000000000        0.0000000000000000     
  0.71875000000000000       0.71875000000000000        0.0000000000000000     
  0.75000000000000000       0.71875000000000000        0.0000000000000000     
  0.62500000000000000       0.75000000000000000        0.0000000000000000     
  0.65625000000000000       0.75000000000000000        0.0000000000000000     
  0.68750000000000000       0.75000000000000000        0.0000000000000000     
  0.71875000000000000       0.75000000000000000        0.0000000000000000     
  0.75000000000000000       0.75000000000000000        0.0000000000000000     
  0.75000000000000000       0.62500000000000000        0.0000000000000000     
  0.78125000000000000       0.62500000000000000        0.0000000000000000     
  0.81250000000000000       0.62500000000000000        0.0000000000000000     
  0.84375000000000000       0.62500000000000000        0.0000000000000000     
  0.87500000000000000       0.62500000000000000        0.0000000000000000     
  0.75000000000000000       0.65625000000000000        0.0000000000000000     
  0.78125000000000000       0.65625000000000000        0.0000000000000000     
  0.81250000000000000       0.65625000000000000        0.0000000000000000     
  0.84375000000000000       0.65625000000000000        0.0000000000000000     
  0.87500000000000000       0.65625000000000000        0.0000000000000000     
  0.75000000000000000       0.68750000000000000        0.0000000000000000     
  0.78125000000000000       0.68750000000000000        0.0000000000000000     
  0.81250000000000000       0.68750000000000000        0.0000000000000000     
  0.84375000000000000       0.68750000000000000        0.0000000000000000     
  0.87500000000000000       0.68750000000000000        0.0000000000000000     
  0.75000000000000000       0.71875000000000000        0.0000000000000000     
  0.78125000000000000       0.71875000000000000        0.0000000000000000     
  0.81250000000000000       0.71875000000000000        0.0000000000000000     
  0.84375000000000000       0.71875000000000000        0.0000000000000000     
  0.87500000000000000       0.71875000000000000        0.0000000000000000     
  0.75000000000000000       0.75000000000000000        0.0000000000000000     
  0.78125000000000000       0.75000000000000000        0.0000000000000000     
  0.81250000000000000       0.75000000000000000        0.0000000000000000     
  0.84375000000000000       0.75000000000000000        0.0000000000000000     
  0.87500000000000000       0.75000000000000000        0.0000000000000000     
  0.87500000000000000       0.62500000000000000        0.0000000000000000     
  0.90625000000000000       0.62500000000000000        0.0000000000000000     
  0.93750000000000000       0.62500000000000000        0.0000000000000000     
  0.96875000000000000       0.62500000000000000        0.0000000000000000     
   1.0000000000000000       0.62500000000000000        0.0000000000000000     
  0.87500000000000000       0.65625000000000000        0.0000000000000000     
  0.90625000000000000       0.65625000000000000        0.0000000000000000     
  0.93750000000000000       0.65625000000000000        0.0000000000000000     
  0.96875000000000000       0.65625000000000000        0.0000000000000000     
   1.0000000000000000       0.65625000000000000        0.0000000000000000     
  0.87500000000000000       0.68750000000000000        0.0000000000000000     
  0.90625000000000000       0.68750000000000000        0.0000000000000000     
  0.93750000000000000       0.68750000000000000        0.0000000000000000     
  0.96875000000000000       0.68750000000000000        0.0000000000000000     
   1.0000000000000000       0.68750000000000000        0.0000000000000000     
  0.87500000000000000       0.71875000000000000        0.0000000000000000     
  0.90625000000000000       0.71875000000000000        0.0000000000000000     
  0.93750000000000000       0.71875000000000000        0.0000000000000000     
  0.96875000000000000       0.71875000000000000        0.0000000000000000     
   1.0000000000000000       0.71875000000000000        0.0000000000000000     
  0.87500000000000000       0.75000000000000000        0.0000000000000000     
  0.90625000000000000       0.75000000000000000        0.0000000000000000     
  0.93750000000000000       0.75000000000000000        0.0000000000000000     
  0.96875000000000000       0.75000000000000000        0.0000000000000000     
   1.0000000000000000       0.75000000000000000        0.0000000000000000     
   1.0000000000000000       0.62500000000000000        0.0000000000000000     
   1.0312500000000000       0.62500000000000000        0.0000000000000000     
   1.0625000000000000       0.62500000000000000        0.0000000000000000     
   1.0937500000000000       0.62500000000000000        0.0000000000000000     
   1.1250000000000000       0.62500000000000000        0.0000000000000000     
   1.0000000000000000       0.65625000000000000        0.0000000000000000     
   1.0312500000000000       0.65625000000000000        0.0000000000000000     
   1.0625000000000000       0.65625000000000000        0.0000000000000000     
   1.0937500000000000       0.65625000000000000        0.0000000000000000     
   1.1250000000000000       0.65625000000000000        0.0000000000000000     
   1.0000000000000000       0.68750000000000000        0.0000000000000000     
   1.0312500000000000       0.68750000000000000        0.0000000000000000     
   1.0625000000000000       0.68750000000000000        0.0000000000000000     
   1.0937500000000000       0.68750000000000000        0.0000000000000000     
   1.1250000000000000       0.68750000000000000        0.0000000000000000     
   1.0000000000000000       0.71875000000000000        0.0000000000000000     
   1.0312500000000000       0.71875000000000000        0.0000000000000000     
   1.0625000000000000       0.71875000000000000        0.0000000000000000     
   1.0937500000000000       0.71875000000000000        0.0000000000000000     
   1.1250000000000000       0.71875000000000000        0.0000000000000000     
   1.0000000000000000       0.75000000000000000        0.0000000000000000     
   1.0312500000000000       0.75000000000000000        0.0000000000000000     
   1.0625000000000000       0.75000000000000000        0.0000000000000000     
   1.0937500000000000       0.75000000000000000        0.0000000000000000     
   1.1250000000000000       0.75000000000000000        0.0000000000000000     
   1.1250000000000000       0.62500000000000000        0.0000000000000000     
   1.1562500000000000       0.62500000000000000        0.0000000000000000     
   1.1875000000000000       0.62500000000000000        0.0000000000000000     
   1.2187500000000000       0.62500000000000000        0.0000000000000000     
   1.2500000000000000       0.62500000000000000        0.0000000000000000     
   1.1250000000000000       0.65625000000000000        0.0000000000000000     
   1.1562500000000000       0.65625000000000000        0.0000000000000000     
   1.1875000000000000       0.65625000000000000        0.0000000000000000     
   1.2187500000000000       0.65625000000000000        0.0000000000000000     
   1.2500000000000000       0.65625000000000000        0.0000000000000000     
   1.1250000000000000       0.68750000000000000        0.0000000000000000     
   1.1562500000000000       0.68750000000000000        0.0000000000000000     
   1.1875000000000000       0.68750000000000000        0.0000000000000000     
   1.2187500000000000       0.68750000000000000        0.0000000000000000     
   1.2500000000000000       0.68750000000000000        0.0000000000000000     
   1.1250000000000000       0.71875000000000000        0.0000000000000000     
   1.1562500000000000       0.71875000000000000        0.0000000000000000     
   1.1875000000000000       0.71875000000000000        0.0000000000000000     
   1.2187500000000000       0.71875000000000000        0.0000000000000000     
   1.2500000000000000       0.71875000000000000        0.0000000000000000     
   1.1250000000000000       0.75000000000000000        0.0000000000000000     
   1.1562500000000000       0.75000000000000000        0.0000000000000000     
   1.1875000000000000       0.75000000000000000        0.0000000000000000     
   1.2187500000000000       0.75000000000000000        0.0000000000000000     
   1.2500000000000000       0.75000000000000000        0.0000000000000000     
   1.2500000000000000       0.62500000000000000        0.0000000000000000     
   1.2812500000000000       0.62500000000000000        0.0000000000000000     
   1.3125000000000000       0.62500000000000000        0.0000000000000000     
   1.3437500000000000       0.62500000000000000        0.0000000000000000     
   1.3750000000000000       0.62500000000000000        0.0000000000000000     
   1.2500000000000000       0.65625000000000000        0.0000000000000000     
   1.2812500000000000       0.65625000000000000        0.0000000000000000     
   1.3125000000000000       0.65625000000000000        0.0000000000000000     
   1.3437500000000000       0.65625000000000000        0.0000000000000000     
   1.3750000000000000       0.65625000000000000        0.0000000000000000     
   1.2500000000000000       0.68750000000000000        0.0000000000000000     
   1.2812500000000000       0.68750000000000000        0.0000000000000000     
   1.3125000000000000       0.68750000000000000        0.0000000000000000     
   1.3437500000000000       0.68750000000000000        0.0000000000000000     
   1.3750000000000000       0.68750000000000000        0.0000000000000000     
   1.2500000000000000       0.71875000000000000        0.0000000000000000     
   1.2812500000000000       0.71875000000000000        0.0000000000000000     
   1.3125000000000000       0.71875000000000000        0.0000000000000000     
   1.3437500000000000       0.71875000000000000        0.0000000000000000     
   1.3750000000000000       0.71875000000000000        0.0000000000000000     
   1.2500000000000000       0.75000000000000000        0.0000000000000000     
   1.2812500000000000       0.75000000000000000        0.0000000000000000     
   1.3125000000000000       0.75000000000000000        0.0000000000000000     
   1.3437500000000000       0.75000000000000000        0.0000000000000000     
   1.3750000000000000       0.75000000000000000        0.0000000000000000     
   1.3750000000000000       0.62500000000000000        0.0000000000000000     
   1.4062500000000000       0.62500000000000000        0.0000000000000000     
   1.4375000000000000       0.62500000000000000        0.0000000000000000     
   1.4687500000000000       0.62500000000000000        0.0000000000000000     
   1.5000000000000000       0.62500000000000000        0.0000000000000000     
   1.3750000000000000       0.65625000000000000        0.0000000000000000     
   1.4062500000000000       0.65625000000000000        0.0000000000000000     
   1.4375000000000000       0.65625000000000000        0.0000000000000000     
   1.4687500000000000       0.65625000000000000        0.0000000000000000     
   1.5000000000000000       0.65625000000000000        0.0000000000000000     
   1.3750000000000000       0.68750000000000000        0.0000000000000000     
   1.4062500000000000       0.68750000000000000        0.0000000000000000     
   1.4375000000000000       0.68750000000000000        0.0000000000000000     
   1.4687500000000000       0.68750000000000000        0.0000000000000000     
   1.5000000000000000       0.68750000000000000        0.0000000000000000     
   1.3750000000000000       0.71875000000000000        0.0000000000000000     
   1.4062500000000000       0.71875000000000000        0.0000000000000000     
   1.4375000000000000       0.71875000000000000        0.0000000000000000     
   1.4687500000000000       0.71875000000000000        0.0000000000000000     
   1.5000000000000000       0.71875000000000000        0.0000000000000000     
   1.3750000000000000       0.75000000000000000        0.0000000000000000     
   1.4062500000000000       0.75000000000000000        0.0000000000000000     
   1.4375000000000000       0.75000000000000000        0.0000000000000000     
   1.4687500000000000       0.75000000000000000        0.0000000000000000     
   1.5000000000000000       0.75000000000000000        0.0000000000000000     
  0.50000000000000000       0.75000000000000000        0.0000000000000000     
  0.53125000000000000       0.75000000000000000        0.0000000000000000     
  0.56250000000000000       0.75000000000000000        0.0000000000000000     
  0.59375000000000000       0.75000000000000000        0.0000000000000000     
  0.62500000000000000       0.75000000000000000        0.0000000000000000     
  0.50000000000000000       0.78125000000000000        0.0000000000000000     
  0.53125000000000000       0.78125000000000000        0.0000000000000000     
  0.56250000000000000       0.78125000000000000        0.0000000000000000     
  0.59375000000000000       0.78125000000000000        0.0000000000000000     
  0.62500000000000000       0.78125000000000000        0.0000000000000000     
  0.50000000000000000       0.81250000000000000        0.0000000000000000     
  0.53125000000000000       0.81250000000000000        0.0000000000000000     
  0.56250000000000000       0.81250000000000000        0.0000000000000000     
  0.59375000000000000       0.81250000000000000        0.0000000000000000     
  0.62500000000000000       0.81250000000000000        0.0000000000000000     
  0.50000000000000000       0.84375000000000000        0.0000000000000000     
  0.53125000000000000       0.84375000000000000        0.0000000000000000     
  0.56250000000000000       0.84375000000000000        0.0000000000000000     
  0.59375000000000000       0.84375000000000000        0.0000000000000000     
  0.62500000000000000       0.84375000000000000        0.0000000000000000     
  0.50000000000000000       0.87500000000000000        0.0000000000000000     
  0.53125000000000000       0.87500000000000000        0.0000000000000000     
  0.56250000000000000       0.87500000000000000        0.0000000000000000     
  0.59375000000000000       0.87500000000000000        0.0000000000000000     
  0.62500000000000000       0.87500000000000000        0.0000000000000000     
  0.62500000000000000       0.75000000000000000        0.0000000000000000     
  0.65625000000000000       0.75000000000000000        0.0000000000000000     
  0.68750000000000000       0.75000000000000000        0.0000000000000000     
  0.71875000000000000       0.75000000000000000        0.0000000000000000     
  0.75000000000000000       0.75000000000000000        0.0000000000000000     
  0.62500000000000000       0.78125000000000000        0.0000000000000000     
  0.65625000000000000       0.78125000000000000        0.0000000000000000     
  0.68750000000000000       0.78125000000000000        0.0000000000000000     
  0.71875000000000000       0.78125000000000000        0.0000000000000000     
  0.75000000000000000       0.78125000000000000        0.0000000000000000     
  0.62500000000000000       0.81250000000000000        0.0000000000000000     
  0.65625000000000000       0.81250000000000000        0.0000000000000000     
  0.68750000000000000       0.81250000000000000        0.0000000000000000     
  0.71875000000000000       0.81250000000000000        0.0000000000000000     
  0.75000000000000000       0.81250000000000000        0.0000000000000000     
  0.62500000000000000       0.84375000000000000        0.0000000000000000     
  0.65625000000000000       0.84375000000000000        0.0000000000000000     
  0.68750000000000000       0.84375000000000000        0.0000000000000000     
  0.71875000000000000       0.84375000000000000        0.0000000000000000     
  0.75000000000000000       0.84375000000000000        0.0000000000000000     
  0.62500000000000000       0.87500000000000000        0.0000000000000000     
  0.65625000000000000       0.87500000000000000        0.0000000000000000     
  0.68750000000000000       0.87500000000000000        0.0000000000000000     
  0.71875000000000000       0.87500000000000000        0.0000000000000000     
  0.75000000000000000       0.87500000000000000        0.0000000000000000     
  0.75000000000000000       0.75000000000000000        0.0000000000000000     
  0.78125000000000000       0.75000000000000000        0.0000000000000000     
  0.81250000000000000       0.75000000000000000        0.0000000000000000     
  0.84375000000000000       0.75000000000000000        0.0000000000000000     
  0.87500000000000000       0.75000000000000000        0.0000000000000000     
  0.75000000000000000       0.78125000000000000        0.0000000000000000     
  0.78125000000000000       0.78125000000000000        0.0000000000000000     
  0.81250000000000000       0.78125000000000000        0.0000000000000000     
  0.84375000000000000       0.78125000000000000        0.0000000000000000     
  0.87500000000000000       0.78125000000000000        0.0000000000000000     
  0.75000000000000000       0.81250000000000000        0.0000000000000000     
  0.78125000000000000       0.81250000000000000        0.0000000000000000     
  0.81250000000000000       0.81250000000000000        0.0000000000000000     
  0.84375000000000000       0.81250000000000000        0.0000000000000000     
  0.87500000000000000       0.81250000000000000        0.0000000000000000     
  0.75000000000000000       0.84375000000000000        0.0000000000000000     
  0.78125000000000000       0.84375000000000000        0.0000000000000000     
  0.81250000000000000       0.84375000000000000        0.0000000000000000     
  0.84375000000000000       0.84375000000000000        0.0000000000000000     
  0.87500000000000000       0.84375000000000000        0.0000000000000000     
  0.75000000000000000       0.87500000000000000        0.0000000000000000     
  0.78125000000000000       0.87500000000000000        0.0000000000000000     
  0.81250000000000000       0.87500000000000000        0.0000000000000000     
  0.84375000000000000       0.87500000000000000        0.0000000000000000     
  0.87500000000000000       0.87500000000000000        0.0000000000000000     
  0.87500000000000000       0.75000000000000000        0.0000000000000000     
  0.90625000000000000       0.75000000000000000        0.0000000000000000     
  0.93750000000000000       0.75000000000000000        0.0000000000000000     
  0.96875000000000000       0.75000000000000000        0.0000000000000000     
   1.0000000000000000       0.75000000000000000        0.0000000000000000     
  0.87500000000000000       0.78125000000000000        0.0000000000000000     
  0.90625000000000000       0.78125000000000000        0.0000000000000000     
  0.93750000000000000       0.78125000000000000        0.0000000000000000     
  0.96875000000000000       0.78125000000000000        0.0000000000000000     
   1.0000000000000000       0.78125000000000000        0.0000000000000000     
  0.87500000000000000       0.81250000000000000        0.0000000000000000     
  0.90625000000000000       0.81250000000000000        0.0000000000000000     
  0.93750000000000000       0.81250000000000000        0.0000000000000000     
  0.96875000000000000       0.81250000000000000        0.0000000000000000     
   1.0000000000000000       0.81250000000000000        0.0000000000000000     
  0.87500000000000000       0.84375000000000000        0.0000000000000000     
  0.90625000000000000       0.84375000000000000        0.0000000000000000     
  0.93750000000000000       0.84375000000000000        0.0000000000000000     
  0.96875000000000000       0.84375000000000000        0.0000000000000000     
   1.0000000000000000       0.84375000000000000        0.0000000000000000     
  0.87500000000000000       0.87500000000000000        0.0000000000000000     
  0.90625000000000000       0.87500000000000000        0.0000000000000000     
  0.93750000000000000       0.87500000000000000        0.0000000000000000     
  0.96875000000000000       0.87500000000000000        0.0000000000000000     
   1.0000000000000000       0.87500000000000000        0.0000000000000000     
   1.0000000000000000       0.75000000000000000        0.0000000000000000     
   1.0312500000000000       0.75000000000000000        0.0000000000000000     
   1.0625000000000000       0.75000000000000000        0.0000000000000000     
   1.0937500000000000       0.75000000000000000        0.0000000000000000     
   1.1250000000000000       0.75000000000000000        0.0000000000000000     
   1.0000000000000000       0.78125000000000000        0.0000000000000000     
   1.0312500000000000       0.78125000000000000        0.0000000000000000     
   1.0625000000000000       0.78125000000000000        0.0000000000000000     
   1.0937500000000000       0.78125000000000000        0.0000000000000000     
   1.1250000000000000       0.78125000000000000        0.0000000000000000     
   1.0000000000000000       0.81250000000000000        0.0000000000000000     
   1.0312500000000000       0.81250000000000000        0.0000000000000000     
   1.0625000000000000       0.81250000000000000        0.0000000000000000     
   1.0937500000000000       0.81250000000000000        0.0000000000000000     
   1.1250000000000000       0.81250000000000000        0.0000000000000000     
   1.0000000000000000       0.84375000000000000        0.0000000000000000     
   1.0312500000000000       0.84375000000000000        0.0000000000000000     
   1.0625000000000000       0.84375000000000000        0.0000000000000000     
   1.0937500000000000       0.84375000000000000        0.0000000000000000     
   1.1250000000000000       0.84375000000000000        0.0000000000000000     
   1.0000000000000000       0.87500000000000000        0.0000000000000000     
   1.0312500000000000       0.87500000000000000        0.0000000000000000     
   1.0625000000000000       0.87500000000000000        0.0000000000000000     
   1.0937500000000000       0.87500000000000000        0.0000000000000000     
   1.1250000000000000       0.87500000000000000        0.0000000000000000     
   1.1250000000000000       0.75000000000000000        0.0000000000000000     
   1.1562500000000000       0.75000000000000000        0.0000000000000000     
   1.1875000000000000       0.75000000000000000        0.0000000000000000     
   1.2187500000000000       0.75000000000000000        0.0000000000000000     
   1.2500000000000000       0.75000000000000000        0.0000000000000000     
   1.1250000000000000       0.78125000000000000        0.0000000000000000     
   1.1562500000000000       0.78125000000000000        0.0000000000000000     
   1.1875000000000000       0.78125000000000000        0.0000000000000000     
   1.2187500000000000       0.78125000000000000        0.0000000000000000     
   1.2500000000000000       0.78125000000000000        0.0000000000000000     
   1.1250000000000000       0.81250000000000000        0.0000000000000000     
   1.1562500000000000       0.81250000000000000        0.0000000000000000     
   1.1875000000000000       0.81250000000000000        0.0000000000000000     
   1.2187500000000000       0.81250000000000000        0.0000000000000000     
   1.2500000000000000       0.81250000000000000        0.0000000000000000     
   1.1250000000000000       0.84375000000000000        0.0000000000000000     
   1.1562500000000000       0.84375000000000000        0.0000000000000000     
   1.1875000000000000       0.84375000000000000        0.0000000000000000     
   1.2187500000000000       0.84375000000000000        0.0000000000000000     
   1.2500000000000000       0.84375000000000000        0.0000000000000000     
   1.1250000000000000       0.87500000000000000        0.0000000000000000     
   1.1562500000000000       0.87500000000000000        0.0000000000000000     
   1.1875000000000000       0.87500000000000000        0.0000000000000000     
   1.2187500000000000       0.87500000000000000        0.0000000000000000     
   1.2500000000000000       0.87500000000000000        0.0000000000000000     
   1.2500000000000000       0.75000000000000000        0.0000000000000000     
   1.2812500000000000       0.75000000000000000        0.0000000000000000     
   1.3125000000000000       0.75000000000000000        0.0000000000000000     
   1.3437500000000000       0.75000000000000000        0.0000000000000000     
   1.3750000000000000       0.75000000000000000        0.0000000000000000     
   1.2500000000000000       0.78125000000000000        0.0000000000000000     
   1.2812500000000000       0.78125000000000000        0.0000000000000000     
   1.3125000000000000       0.78125000000000000        0.0000000000000000     
   1.3437500000000000       0.78125000000000000        0.0000000000000000     
   1.3750000000000000       0.78125000000000000        0.0000000000000000     
   1.2500000000000000       0.81250000000000000        0.0000000000000000     
   1.2812500000000000       0.81250000000000000        0.0000000000000000     
   1.3125000000000000       0.81250000000000000        0.0000000000000000     
   1.3437500000000000       0.81250000000000000        0.0000000000000000     
   1.3750000000000000       0.81250000000000000        0.0000000000000000     
   1.2500000000000000       0.84375000000000000        0.0000000000000000     
   1.2812500000000000       0.84375000000000000        0.0000000000000000     
   1.3125000000000000       0.84375000000000000        0.0000000000000000     
   1.3437500000000000       0.84375000000000000        0.0000000000000000     
   1.3750000000000000       0.84375000000000000        0.0000000000000000     
   1.2500000000000000       0.87500000000000000        0.0000000000000000     
   1.2812500000000000       0.87500000000000000        0.0000000000000000     
   1.3125000000000000       0.87500000000000000        0.0000000000000000     
   1.3437500000000000       0.87500000000000000        0.0000000000000000     
   1.3750000000000000       0.87500000000000000        0.0000000000000000     
   1.3750000000000000       0.75000000000000000        0.0000000000000000     
   1.4062500000000000       0.75000000000000000        0.0000000000000000     
   1.4375000000000000       0.75000000000000000        0.0000000000000000     
   1.4687500000000000       0.75000000000000000        0.0000000000000000     
   1.5000000000000000       0.75000000000000000        0.0000000000000000     
   1.3750000000000000       0.78125000000000000        0.0000000000000000     
   1.4062500000000000       0.78125000000000000        0.0000000000000000     
   1.4375000000000000       0.78125000000000000        0.0000000000000000     
   1.4687500000000000       0.78125000000000000        0.0000000000000000     
   1.5000000000000000       0.78125000000000000        0.0000000000000000     
   1.3750000000000000       0.81250000000000000        0.0000000000000000     
   1.4062500000000000       0.81250000000000000        0.0000000000000000     
   1.4375000000000000       0.81250000000000000        0.0000000000000000     
   1.4687500000000000       0.81250000000000000        0.0000000000000000     
   1.5000000000000000       0.81250000000000000        0.0000000000000000     
   1.3750000000000000       0.84375000000000000        0.0000000000000000     
   1.4062500000000000       0.84375000000000000        0.0000000000000000     
   1.4375000000000000       0.84375000000000000        0.0000000000000000     
   1.4687500000000000       0.84375000000000000        0.0000000000000000     
   1.5000000000000000       0.84375000000000000        0.0000000000000000     
   1.3750000000000000       0.87500000000000000        0.0000000000000000     
   1.4062500000000000       0.87500000000000000        0.0000000000000000     
   1.4375000000000000       0.87500000000000000        0.0000000000000000     
   1.4687500000000000       0.87500000000000000        0.0000000000000000     
   1.5000000000000000       0.87500000000000000        0.0000000000000000     
  0.50000000000000000       0.87500000000000000        0.0000000000000000     
  0.53125000000000000       0.87500000000000000        0.0000000000000000     
  0.56250000000000000       0.87500000000000000        0.0000000000000000     
  0.59375000000000000       0.87500000000000000        0.0000000000000000     
  0.62500000000000000       0.87500000000000000        0.0000000000000000     
  0.50000000000000000       0.90625000000000000        0.0000000000000000     
  0.53125000000000000       0.90625000000000000        0.0000000000000000     
  0.56250000000000000       0.90625000000000000        0.0000000000000000     
  0.59375000000000000       0.90625000000000000        0.0000000000000000     
  0.62500000000000000       0.90625000000000000        0.0000000000000000     
  0.50000000000000000       0.93750000000000000        0.0000000000000000     
  0.53125000000000000       0.93750000000000000        0.0000000000000000     
  0.56250000000000000       0.93750000000000000        0.0000000000000000     
  0.59375000000000000       0.93750000000000000        0.0000000000000000     
  0.62500000000000000       0.93750000000000000        0.0000000000000000     
  0.50000000000000000       0.96875000000000000        0.0000000000000000     
  0.53125000000000000       0.96875000000000000        0.0000000000000000     
  0.56250000000000000       0.96875000000000000        0.0000000000000000     
  0.59375000000000000       0.96875000000000000        0.0000000000000000     
  0.62500000000000000       0.96875000000000000        0.0000000000000000     
  0.50000000000000000        1.0000000000000000        0.0000000000000000     
  0.53125000000000000        1.0000000000000000        0.0000000000000000     
  0.56250000000000000        1.0000000000000000        0.0000000000000000     
  0.59375000000000000        1.0000000000000000        0.0000000000000000     
  0.62500000000000000        1.0000000000000000        0.0000000000000000     
  0.62500000000000000       0.87500000000000000        0.0000000000000000     
  0.65625000000000000       0.87500000000000000        0.0000000000000000     
  0.68750000000000000       0.87500000000000000        0.0000000000000000     
  0.71875000000000000       0.87500000000000000        0.0000000000000000     
  0.75000000000000000       0.87500000000000000        0.0000000000000000     
  0.62500000000000000       0.90625000000000000        0.0000000000000000     
  0.65625000000000000       0.90625000000000000        0.0000000000000000     
  0.68750000000000000       0.90625000000000000        0.0000000000000000     
  0.71875000000000000       0.90625000000000000        0.0000000000000000     
  0.75000000000000000       0.90625000000000000        0.0000000000000000     
  0.62500000000000000       0.93750000000000000        0.0000000000000000     
  0.65625000000000000       0.93750000000000000        0.0000000000000000     
  0.68750000000000000       0.93750000000000000        0.0000000000000000     
  0.71875000000000000       0.93750000000000000        0.0000000000000000     
  0.75000000000000000       0.93750000000000000        0.0000000000000000     
  0.62500000000000000       0.96875000000000000        0.0000000000000000     
  0.65625000000000000       0.96875000000000000        0.0000000000000000     
  0.68750000000000000       0.96875000000000000        0.0000000000000000     
  0.71875000000000000       0.96875000000000000        0.0000000000000000     
  0.75000000000000000       0.96875000000000000        0.0000000000000000     
  0.62500000000000000        1.0000000000000000        0.0000000000000000     
  0.65625000000000000        1.0000000000000000        0.0000000000000000     
  0.68750000000000000        1.0000000000000000        0.0000000000000000     
  0.71875000000000000        1.0000000000000000        0.0000000000000000     
  0.75000000000000000        1.0000000000000000        0.0000000000000000     
  0.75000000000000000       0.87500000000000000        0.0000000000000000     
  0.78125000000000000       0.87500000000000000        0.0000000000000000     
  0.81250000000000000       0.87500000000000000        0.0000000000000000     
  0.84375000000000000       0.87500000000000000        0.0000000000000000     
  0.87500000000000000       0.87500000000000000        0.0000000000000000     
  0.75000000000000000       0.90625000000000000        0.0000000000000000     
  0.78125000000000000       0.90625000000000000        0.0000000000000000     
  0.81250000000000000       0.90625000000000000        0.0000000000000000     
  0.84375000000000000       0.90625000000000000        0.0000000000000000     
  0.87500000000000000       0.90625000000000000        0.0000000000000000     
  0.75000000000000000       0.93750000000000000        0.0000000000000000     
  0.78125000000000000       0.93750000000000000        0.0000000000000000     
  0.81250000000000000       0.93750000000000000        0.0000000000000000     
  0.84375000000000000       0.93750000000000000        0.0000000000000000     
  0.87500000000000000       0.93750000000000000        0.0000000000000000     
  0.75000000000000000       0.96875000000000000        0.0000000000000000     
  0.78125000000000000       0.96875000000000000        0.0000000000000000     
  0.81250000000000000       0.96875000000000000        0.0000000000000000     
  0.84375000000000000       0.96875000000000000        0.0000000000000000     
  0.87500000000000000       0.96875000000000000        0.0000000000000000     
  0.75000000000000000        1.0000000000000000        0.0000000000000000     
  0.78125000000000000        1.0000000000000000        0.0000000000000000     
  0.81250000000000000        1.0000000000000000        0.0000000000000000     
  0.84375000000000000        1.0000000000000000        0.0000000000000000     
  0.87500000000000000        1.0000000000000000        0.0000000000000000     
  0.87500000000000000       0.87500000000000000        0.0000000000000000     
  0.90625000000000000       0.87500000000000000        0.0000000000000000     
  0.93750000000000000       0.87500000000000000        0.0000000000000000     
  0.96875000000000000       0.87500000000000000        0.0000000000000000     
   1.0000000000000000       0.87500000000000000        0.0000000000000000     
  0.87500000000000000       0.90625000000000000        0.0000000000000000     
  0.90625000000000000       0.90625000000000000        0.0000000000000000     
  0.93750000000000000       0.90625000000000000        0.0000000000000000     
  0.96875000000000000       0.90625000000000000        0.0000000000000000     
   1.0000000000000000       0.90625000000000000        0.0000000000000000     
  0.87500000000000000       0.93750000000000000        0.0000000000000000     
  0.90625000000000000       0.93750000000000000        0.0000000000000000     
  0.93750000000000000       0.93750000000000000        0.0000000000000000     
  0.96875000000000000       0.93750000000000000        0.0000000000000000     
   1.0000000000000000       0.93750000000000000        0.0000000000000000     
  0.87500000000000000       0.96875000000000000        0.0000000000000000     
  0.90625000000000000       0.96875000000000000        0.0000000000000000     
  0.93750000000000000       0.96875000000000000        0.0000000000000000     
  0.96875000000000000       0.96875000000000000        0.0000000000000000     
   1.0000000000000000       0.96875000000000000        0.0000000000000000     
  0.87500000000000000        1.0000000000000000        0.0000000000000000     
  0.90625000000000000        1.0000000000000000        0.0000000000000000     
  0.93750000000000000        1.0000000000000000        0.0000000000000000     
  0.96875000000000000        1.0000000000000000        0.0000000000000000     
   1.0000000000000000        1.0000000000000000        0.0000000000000000     
   1.0000000000000000       0.87500000000000000        0.0000000000000000     
   1.0312500000000000       0.87500000000000000        0.0000000000000000     
   1.0625000000000000       0.87500000000000000        0.0000000000000000     
   1.0937500000000000       0.87500000000000000        0.0000000000000000     
   1.1250000000000000       0.87500000000000000        0.0000000000000000     
   1.0000000000000000       0.90625000000000000        0.0000000000000000     
   1.0312500000000000       0.90625000000000000        0.0000000000000000     
   1.0625000000000000       0.90625000000000000        0.0000000000000000     
   1.0937500000000000       0.90625000000000000        0.0000000000000000     
   1.1250000000000000       0.90625000000000000        0.0000000000000000     
   1.0000000000000000       0.93750000000000000        0.0000000000000000     
   1.0312500000000000       0.93750000000000000        0.0000000000000000     
   1.0625000000000000       0.93750000000000000        0.0000000000000000     
   1.0937500000000000       0.93750000000000000        0.0000000000000000     
   1.1250000000000000       0.93750000000000000        0.0000000000000000     
   1.0000000000000000       0.96875000000000000        0.0000000000000000     
   1.0312500000000000       0.96875000000000000        0.0000000000000000     
   1.0625000000000000       0.96875000000000000        0.0000000000000000     
   1.0937500000000000       0.96875000000000000        0.0000000000000000     
   1.1250000000000000       0.96875000000000000        0.0000000000000000     
   1.0000000000000000        1.0000000000000000        0.0000000000000000     
   1.0312500000000000        1.0000000000000000        0.0000000000000000     
   1.0625000000000000        1.0000000000000000        0.0000000000000000     
   1.0937500000000000        1.0000000000000000        0.0000000000000000     
   1.1250000000000000        1.0000000000000000        0.0000000000000000     
   1.1250000000000000       0.87500000000000000        0.0000000000000000     
   1.1562500000000000       0.87500000000000000        0.0000000000000000     
   1.1875000000000000       0.87500000000000000        0.0000000000000000     
   1.2187500000000000       0.87500000000000000        0.0000000000000000     
   1.2500000000000000       0.87500000000000000        0.0000000000000000     
   1.1250000000000000       0.90625000000000000        0.0000000000000000     
   1.1562500000000000       0.90625000000000000        0.0000000000000000     
   1.1875000000000000       0.90625000000000000        0.0000000000000000     
   1.2187500000000000       0.90625000000000000        0.0000000000000000     
   1.2500000000000000       0.90625000000000000        0.0000000000000000     
   1.1250000000000000       0.93750000000000000        0.0000000000000000     
   1.1562500000000000       0.93750000000000000        0.0000000000000000     
   1.1875000000000000       0.93750000000000000        0.0000000000000000     
   1.2187500000000000       0.93750000000000000        0.0000000000000000     
   1.2500000000000000       0.93750000000000000        0.0000000000000000     
   1.1250000000000000       0.96875000000000000        0.0000000000000000     
   1.1562500000000000       0.96875000000000000        0.0000000000000000     
   1.1875000000000000       0.96875000000000000        0.0000000000000000     
   1.2187500000000000       0.96875000000000000        0.0000000000000000     
   1.2500000000000000       0.96875000000000000        0.0000000000000000     
   1.1250000000000000        1.0000000000000000        0.0000000000000000     
   1.1562500000000000        1.0000000000000000        0.0000000000000000     
   1.1875000000000000        1.0000000000000000        0.0000000000000000     
   1.2187500000000000        1.0000000000000000        0.0000000000000000     
   1.2500000000000000        1.0000000000000000        0.0000000000000000     
   1.2500000000000000       0.87500000000000000        0.0000000000000000     
   1.2812500000000000       0.87500000000000000        0.0000000000000000     
   1.3125000000000000       0.87500000000000000        0.0000000000000000     
   1.3437500000000000       0.87500000000000000        0.0000000000000000     
   1.3750000000000000       0.87500000000000000        0.0000000000000000     
   1.2500000000000000       0.90625000000000000        0.0000000000000000     
   1.2812500000000000       0.90625000000000000        0.0000000000000000     
   1.3125000000000000       0.90625000000000000        0.0000000000000000     
   1.3437500000000000       0.90625000000000000        0.0000000000000000     
   1.3750000000000000       0.90625000000000000        0.0000000000000000     
   1.2500000000000000       0.93750000000000000        0.0000000000000000     
   1.2812500000000000       0.93750000000000000        0.0000000000000000     
   1.3125000000000000       0.93750000000000000        0.0000000000000000     
   1.3437500000000000       0.93750000000000000        0.0000000000000000     
   1.3750000000000000       0.93750000000000000        0.0000000000000000     
   1.2500000000000000       0.96875000000000000        0.0000000000000000     
   1.2812500000000000       0.96875000000000000        0.0000000000000000     
   1.3125000000000000       0.96875000000000000        0.0000000000000000     
   1.3437500000000000       0.96875000000000000        0.0000000000000000     
   1.3750000000000000       0.96875000000000000        0.0000000000000000     
   1.2500000000000000        1.0000000000000000        0.0000000000000000     
   1.2812500000000000        1.0000000000000000        0.0000000000000000     
   1.3125000000000000        1.0000000000000000        0.0000000000000000     
   1.3437500000000000        1.0000000000000000        0.0000000000000000     
   1.3750000000000000        1.0000000000000000        0.0000000000000000     
   1.3750000000000000       0.87500000000000000        0.0000000000000000     
   1.4062500000000000       0.87500000000000000        0.0000000000000000     
   1.4375000000000000       0.87500000000000000        0.0000000000000000     
   1.4687500000000000       0.87500000000000000        0.0000000000000000     
   1.5000000000000000       0.87500000000000000        0.0000000000000000     
   1.3750000000000000       0.90625000000000000        0.0000000000000000     
   1.4062500000000000       0.90625000000000000        0.0000000000000000     
   1.4375000000000000       0.90625000000000000        0.0000000000000000     
   1.4687500000000000       0.90625000000000000        0.0000000000000000     
   1.5000000000000000       0.90625000000000000        0.0000000000000000     
   1.3750000000000000       0.93750000000000000        0.0000000000000000     
   1.4062500000000000       0.93750000000000000        0.0000000000000000     
   1.4375000000000000       0.93750000000000000        0.0000000000000000     
   1.4687500000000000       0.93750000000000000        0.0000000000000000     
   1.5000000000000000       0.93750000000000000        0.0000000000000000     
   1.3750000000000000       0.96875000000000000        0.0000000000000000     
   1.4062500000000000       0.96875000000000000        0.0000000000000000     
   1.4375000000000000       0.96875000000000000        0.0000000000000000     
   1.4687500000000000       0.96875000000000000        0.0000000000000000     
   1.5000000000000000       0.96875000000000000        0.0000000000000000     
   1.3750000000000000        1.0000000000000000        0.0000000000000000     
   1.4062500000000000        1.0000000000000000        0.0000000000000000     
   1.4375000000000000        1.0000000000000000        0.0000000000000000     
   1.4687500000000000        1.0000000000000000        0.0000000000000000     
   1.5000000000000000        1.0000000000000000        0.0000000000000000     
 </DataArray>
 </Points>
 <Cells>
 <DataArray  type="Int32"  Name="connectivity"  format="ascii">
           0           1           6           5
           1           2           7           6
           2           3           8           7
           3           4           9           8
           5           6          11          10
           6           7          12          11
           7           8          13          12
           8           9          14          13
          10          11          16          15
          11          12          17          16
          12          13          18          17
          13          14          19          18
          15          16          21          20
          16          17          22          21
          17          18          23          22
          18          19          24          23
          25          26          31          30
          26          27          32          31
          27          28          33          32
          28          29          34          33
          30          31          36          35
          31          32          37          36
          32          33          38          37
          33          34          39          38
          35          36          41          40
          36          37          42          41
          37          38          43          42
          38          39          44          43
          40          41          46          45
          41          42          47          46
          42          43          48          47
          43          44          49          48
          50          51          56          55
          51          52          57          56
          52          53          58          57
          53          54          59          58
          55          56          61          60
          56          57          62          61
          57          58          63          62
          58          59          64          63
          60          61          66          65
          61          62          67          66
          62          63          68          67
          63          64          69          68
          65          66          71          70
          66          67          72          71
          67          68          73          72
          68          69          74          73
          75          76          81          80
          76          77          82          81
          77          78          83          82
          78          79          84          83
          80          81          86          85
          81          82          87          86
          82          83          88          87
          83          84          89          88
          85          86          91          90
          86          87          92          91
          87          88          93          92
          88          89          94          93
          90          91          96          95
          91          92          97          96
          92          93          98          97
          93          94          99          98
         100         101         106         105
         101         102         107         106
         102         103         108         107
         103         104         109         108
         105         106         111         110
         106         107         112         111
         107         108         113         112
         108         109         114         113
         110         111         116         115
         111         112         117         116
         112         113         118         117
         113         114         119         118
         115         116         121         120
         116         117         122         121
         117         118         123         122
         118         119         124         123
         125         126         131         130
         126         127         132         131
         127         128         133         132
         128         129         134         133
         130         131         136         135
         131         132         137         136
         132         133         138         137
         133         134         139         138
         135         136         141         140
         136         137         142         141
         137         138         143         142
         138         139         144         143
         140         141         146         145
         141         142         147         146
         142         143         148         147
         143         144         149         148
         150         151         156         155
         151         152         157         156
         152         153         158         157
         153         154         159         158
         155         156         161         160
         156         157         162         161
         157         158         163         162
         158         159         164         163
         160         161         166         165
         161         162         167         166
         162         163         168         167
         163         164         169         168
         165         166         171         170
         166         167         172         171
         167         168         173         172
         168         169         174         173
         175         176         181         180
         176         177         182         181
         177         178         183         182
         178         179         184         183
         180         181         186         185
         181         182         187         186
         182         183         188         187
         183         184         189         188
         185         186         191         190
         186         187         192         191
         187         188         193         192
         188         189         194         193
         190         191         196         195
         191         192         197         196
         192         193         198         197
         193         194         199         198
         200         201         206         205
         201         202         207         206
         202         203         208         207
         203         204         209         208
         205         206         211         210
         206         207         212         211
         207         208         213         212
         208         209         214         213
         210         211         216         215
         211         212         217         216
         212         213         218         217
         213         214         219         218
         215         216         221         220
         216         217         222         221
         217         218         223         222
         218         219         224         223
         225         226         231         230
         226         227         232         231
         227         228         233         232
         228         229         234         233
         230         231         236         235
         231         232         237         236
         232         233         238         237
         233         234         239         238
         235         236         241         240
         236         237         242         241
         237         238         243         242
         238         239         244         243
         240         241         246         245
         241         242         247         246
         242         243         248         247
         243         244         249         248
         250         251         256         255
         251         252         257         256
         252         253         258         257
         253         254         259         258
         255         256         261         260
         256         257         262         261
         257         258         263         262
         258         259         264         263
         260         261         266         265
         261         262         267         266
         262         263         268         267
         263         264         269         268
         265         266         271         270
         266         267         272         271
         267         268         273         272
         268         269         274         273
         275         276         281         280
         276         277         282         281
         277         278         283         282
         278         279         284         283
         280         281         286         285
         281         282         287         286
         282         283         288         287
         283         284         289         288
         285         286         291         290
         286         287         292         291
         287         288         293         292
         288         289         294         293
         290         291         296         295
         291         292         297         296
         292         293         298         297
         293         294         299         298
         300         301         306         305
         301         302         307         306
         302         303         308         307
         303         304         309         308
         305         306         311         310
         306         307         312         311
         307         308         313         312
         308         309         314         313
         310         311         316         315
         311         312         317         316
         312         313         318         317
         313         314         319         318
         315         316         321         320
         316         317         322         321
         317         318         323         322
         318         319         324         323
         325         326         331         330
         326         327         332         331
         327         328         333         332
         328         329         334         333
         330         331         336         335
         331         332         337         336
         332         333         338         337
         333         334         339         338
         335         336         341         340
         336         337         342         341
         337         338         343         342
         338         339         344         343
         340         341         346         345
         341         342         347         346
         342         343         348         347
         343         344         349         348
         350         351         356         355
         351         352         357         356
         352         353         358         357
         353         354         359         358
         355         356         361         360
         356         357         362         361
         357         358         363         362
         358         359         364         363
         360         361         366         365
         361         362         367         366
         362         363         368         367
         363         364         369         368
         365         366         371         370
         366         367         372         371
         367         368         373         372
         368         369         374         373
         375         376         381         380
         376         377         382         381
         377         378         383         382
         378         379         384         383
         380         381         386         385
         381         382         387         386
         382         383         388         387
         383         384         389         388
         385         386         391         390
         386         387         392         391
         387         388         393         392
         388         389         394         393
         390         391         396         395
         391         392         397         396
         392         393         398         397
         393         394         399         398
         400         401         406         405
         401         402         407         406
         402         403         408         407
         403         404         409         408
         405         406         411         410
         406         407         412         411
         407         408         413         412
         408         409         414         413
         410         411         416         415
         411         412         417         416
         412         413         418         417
         413         414         419         418
         415         416         421         420
         416         417         422         421
         417         418         423         422
         418         419         424         423
         425         426         431         430
         426         427         432         431
         427         428         433         432
         428         429         434         433
         430         431         436         435
         431         432         437         436
         432         433         438         437
         433         434         439         438
         435         436         441         440
         436         437         442         441
         437         438         443         442
         438         439         444         443
         440         441         446         445
         441         442         447         446
         442         443         448         447
         443         444         449         448
         450         451         456         455
         451         452         457         456
         452         453         458         457
         453         454         459         458
         455         456         461         460
         456         457         462         461
         457         458         463         462
         458         459         464         463
         460         461         466         465
         461         462         467         466
         462         463         468         467
         463         464         469         468
         465         466         471         470
         466         467         472         471
         467         468         473         472
         468         469         474         473
         475         476         481         480
         476         477         482         481
         477         478         483         482
         478         479         484         483
         480         481         486         485
         481         482         487         486
         482         483         488         487
         483         484         489         488
         485         486         491         490
         486         487         492         491
         487         488         493         492
         488         489         494         493
         490         491         496         495
         491         492         497         496
         492         493         498         497
         493         494         499         498
         500         501         506         505
         501         502         507         506
         502         503         508         507
         503         504         509         508
         505         506         511         510
         506         507         512         511
         507         508         513         512
         508         509         514         513
         510         511         516         515
         511         512         517         516
         512         513         518         517
         513         514         519         518
         515         516         521         520
         516         517         522         521
         517         518         523         522
         518         519         524         523
         525         526         531         530
         526         527         532         531
         527         528         533         532
         528         529         534         533
         530         531         536         535
         531         532         537         536
         532         533         538         537
         533         534         539         538
         535         536         541         540
         536         537         542         541
         537         538         543         542
         538         539         544         543
         540         541         546         545
         541         542         547         546
         542         543         548         547
         543         544         549         548
         550         551         556         555
         551         552         557         556
         552         553         558         557
         553         554         559         558
         555         556         561         560
         556         557         562         561
         557         558         563         562
         558         559         564         563
         560         561         566         565
         561         562         567         566
         562         563         568         567
         563         564         569         568
         565         566         571         570
         566         567         572         571
         567         568         573         572
         568         569         574         573
         575         576         581         580
         576         577         582         581
         577         578         583         582
         578         579         584         583
         580         581         586         585
         581         582         587         586
         582         583         588         587
         583         584         589         588
         585         586         591         590
         586         587         592         591
         587         588         593         592
         588         589         594         593
         590         591         596         595
         591         592         597         596
         592         593         598         597
         593         594         599         598
         600         601         606         605
         601         602         607         606
         602         603         608         607
         603         604         609         608
         605         606         611         610
         606         607         612         611
         607         608         613         612
         608         609         614         613
         610         611         616         615
         611         612         617         616
         612         613         618         617
         613         614         619         618
         615         616         621         620
         616         617         622         621
         617         618         623         622
         618         619         624         623
         625         626         631         630
         626         627         632         631
         627         628         633         632
         628         629         634         633
         630         631         636         635
         631         632         637         636
         632         633         638         637
         633         634         639         638
         635         636         641         640
         636         637         642         641
         637         638         643         642
         638         639         644         643
         640         641         646         645
         641         642         647         646
         642         643         648         647
         643         644         649         648
         650         651         656         655
         651         652         657         656
         652         653         658         657
         653         654         659         658
         655         656         661         660
         656         657         662         661
         657         658         663         662
         658         659         664         663
         660         661         666         665
         661         662         667         666
         662         663         668         667
         663         664         669         668
         665         666         671         670
         666         667         672         671
         667         668         673         672
         668         669         674         673
         675         676         681         680
         676         677         682         681
         677         678         683         682
         678         679         684         683
         680         681         686         685
         681         682         687         686
         682         683         688         687
         683         684         689         688
         685         686         691         690
         686         687         692         691
         687         688         693         692
         688         689         694         693
         690         691         696         695
         691         692         697         696
         692         693         698         697
         693         694         699         698
         700         701         706         705
         701         702         707         706
         702         703         708         707
         703         704         709         708
         705         706         711         710
         706         707         712         711
         707         708         713         712
         708         709         714         713
         710         711         716         715
         711         712         717         716
         712         713         718         717
         713         714         719         718
         715         716         721         720
         716         717         722         721
         717         718         723         722
         718         719         724         723
         725         726         731         730
         726         727         732         731
         727         728         733         732
         728         729         734         733
         730         731         736         735
         731         732         737         736
         732         733         738         737
         733         734         739         738
         735         736         741         740
         736         737         742         741
         737         738         743         742
         738         739         744         743
         740         741         746         745
         741         742         747         746
         742         743         748         747
         743         744         749         748
         750         751         756         755
         751         752         757         756
         752         753         758         757
         753         754         759         758
         755         756         761         760
         756         757         762         761
         757         758         763         762
         758         759         764         763
         760         761         766         765
         761         762         767         766
         762         763         768         767
         763         764         769         768
         765         766         771         770
         766         767         772         771
         767         768         773         772
         768         769         774         773
         775         776         781         780
         776         777         782         781
         777         778         783         782
         778         779         784         783
         780         781         786         785
         781         782         787         786
         782         783         788         787
         783         784         789         788
         785         786         791         790
         786         787         792         791
         787         788         793         792
         788         789         794         793
         790         791         796         795
         791         792         797         796
         792         793         798         797
         793         794         799         798
         800         801         806         805
         801         802         807         806
         802         803         808         807
         803         804         809         808
         805         806         811         810
         806         807         812         811
         807         808         813         812
         808         809         814         813
         810         811         816         815
         811         812         817         816
         812         813         818         817
         813         814         819         818
         815         816         821         820
         816         817         822         821
         817         818         823         822
         818         819         824         823
         825         826         831         830
         826         827         832         831
         827         828         833         832
         828         829         834         833
         830         831         836         835
         831         832         837         836
         832         833         838         837
         833         834         839         838
         835         836         841         840
         836         837         842         841
         837         838         843         842
         838         839         844         843
         840         841         846         845
         841         842         847         846
         842         843         848         847
         843         844         849         848
         850         851         856         855
         851         852         857         856
         852         853         858         857
         853         854         859         858
         855         856         861         860
         856         857         862         861
         857         858         863         862
         858         859         864         863
         860         861         866         865
         861         862         867         866
         862         863         868         867
         863         864         869         868
         865         866         871         870
         866         867         872         871
         867         868         873         872
         868         869         874         873
         875         876         881         880
         876         877         882         881
         877         878         883         882
         878         879         884         883
         880         881         886         885
         881         882         887         886
         882         883         888         887
         883         884         889         888
         885         886         891         890
         886         887         892         891
         887         888         893         892
         888         889         894         893
         890         891         896         895
         891         892         897         896
         892         893         898         897
         893         894         899         898
         900         901         906         905
         901         902         907         906
         902         903         908         907
         903         904         909         908
         905         906         911         910
         906         907         912         911
         907         908         913         912
         908         909         914         913
         910         911         916         915
         911         912         917         916
         912         913         918         917
         913         914         919         918
         915         916         921         920
         916         917         922         921
         917         918         923         922
         918         919         924         923
         925         926         931         930
         926         927         932         931
         927         928         933         932
         928         929         934         933
         930         931         936         935
         931         932         937         936
         932         933         938         937
         933         934         939         938
         935         936         941         940
         936         937         942         941
         937         938         943         942
         938         939         944         943
         940         941         946         945
         941         942         947         946
         942         943         948         947
         943         944         949         948
         950         951         956         955
         951         952         957         956
         952         953         958         957
         953         954         959         958
         955         956         961         960
         956         957         962         961
         957         958         963         962
         958         959         964         963
         960         961         966         965
         961         962         967         966
         962         963         968         967
         963         964         969         968
         965         966         971         970
         966         967         972         971
         967         968         973         972
         968         969         974         973
         975         976         981         980
         976         977         982         981
         977         978         983         982
         978         979         984         983
         980         981         986         985
         981         982         987         986
         982         983         988         987
         983         984         989         988
         985         986         991         990
         986         987         992         991
         987         988         993         992
         988         989         994         993
         990         991         996         995
         991         992         997         996
         992         993         998         997
         993         994         999         998
        1000        1001        1006        1005
        1001        1002        1007        1006
        1002        1003        1008        1007
        1003        1004        1009        1008
        1005        1006        1011        1010
        1006        1007        1012        1011
        1007        1008        1013        1012
        1008        1009        1014        1013
        1010        1011        1016        1015
        1011        1012        1017        1016
        1012        1013        1018        1017
        1013        1014        1019        1018
        1015        1016        1021        1020
        1016        1017        1022        1021
        1017        1018        1023        1022
        1018        1019        1024        1023
        1025        1026        1031        1030
        1026        1027        1032        1031
        1027        1028        1033        1032
        1028        1029        1034        1033
        1030        1031        1036        1035
        1031        1032        1037        1036
        1032        1033        1038        1037
        1033        1034        1039        1038
        1035        1036        1041        1040
        1036        1037        1042        1041
        1037        1038        1043        1042
        1038        1039        1044        1043
        1040        1041        1046        1045
        1041        1042        1047        1046
        1042        1043        1048        1047
        1043        1044        1049        1048
        1050        1051        1056        1055
        1051        1052        1057        1056
        1052        1053        1058        1057
        1053        1054        1059        1058
        1055        1056        1061        1060
        1056        1057        1062        1061
        1057        1058        1063        1062
        1058        1059        1064        1063
        1060        1061        1066        1065
        1061        1062        1067        1066
        1062        1063        1068        1067
        1063        1064        1069        1068
        1065        1066        1071        1070
        1066        1067        1072        1071
        1067        1068        1073        1072
        1068        1069        1074        1073
        1075        1076        1081        1080
        1076        1077        1082        1081
        1077        1078        1083        1082
        1078        1079        1084        1083
        1080        1081        1086        1085
        1081        1082        1087        1086
        1082        1083        1088        1087
        1083        1084        1089        1088
        1085        1086        1091        1090
        1086        1087        1092        1091
        1087        1088        1093        1092
        1088        1089        1094        1093
        1090        1091        1096        1095
        1091        1092        1097        1096
        1092        1093        1098        1097
        1093        1094        1099        1098
        1100        1101        1106        1105
        1101        1102        1107        1106
        1102        1103        1108        1107
        1103        1104        1109        1108
        1105        1106        1111        1110
        1106        1107        1112        1111
        1107        1108        1113        1112
        1108        1109        1114        1113
        1110        1111        1116        1115
        1111        1112        1117        1116
        1112        1113        1118        1117
        1113        1114        1119        1118
        1115        1116        1121        1120
        1116        1117        1122        1121
        1117        1118        1123        1122
        1118        1119        1124        1123
        1125        1126        1131        1130
        1126        1127        1132        1131
        1127        1128        1133        1132
        1128        1129        1134        1133
        1130        1131        1136        1135
        1131        1132        1137        1136
        1132        1133        1138        1137
        1133        1134        1139        1138
        1135        1136        1141        1140
        1136        1137        1142        1141
        1137        1138        1143        1142
        1138        1139        1144        1143
        1140        1141        1146        1145
        1141        1142        1147        1146
        1142        1143        1148        1147
        1143        1144        1149        1148
        1150        1151        1156        1155
        1151        1152        1157        1156
        1152        1153        1158        1157
        1153        1154        1159        1158
        1155        1156        1161        1160
        1156        1157        1162        1161
        1157        1158        1163        1162
        1158        1159        1164        1163
        1160        1161        1166        1165
        1161        1162        1167        1166
        1162        1163        1168        1167
        1163        1164        1169        1168
        1165        1166        1171        1170
        1166        1167        1172        1171
        1167        1168        1173        1172
        1168        1169        1174        1173
        1175        1176        1181        1180
        1176        1177        1182        1181
        1177        1178        1183        1182
        1178        1179        1184        1183
        1180        1181        1186        1185
        1181        1182        1187        1186
        1182        1183        1188        1187
        1183        1184        1189        1188
        1185        1186        1191        1190
        1186        1187        1192        1191
        1187        1188        1193        1192
        1188        1189        1194        1193
        1190        1191        1196        1195
        1191        1192        1197        1196
        1192        1193        1198        1197
        1193        1194        1199        1198
        1200        1201        1206        1205
        1201        1202        1207        1206
        1202        1203        1208        1207
        1203        1204        1209        1208
        1205        1206        1211        1210
        1206        1207        1212        1211
        1207        1208        1213        1212
        1208        1209        1214        1213
        1210        1211        1216        1215
        1211        1212        1217        1216
        1212        1213        1218        1217
        1213        1214        1219        1218
        1215        1216        1221        1220
        1216        1217        1222        1221
        1217        1218        1223        1222
        1218        1219        1224        1223
        1225        1226        1231        1230
        1226        1227        1232        1231
        1227        1228        1233        1232
        1228        1229        1234        1233
        1230        1231        1236        1235
        1231        1232        1237        1236
        1232        1233        1238        1237
        1233        1234        1239        1238
        1235        1236        1241        1240
        1236        1237        1242        1241
        1237        1238        1243        1242
        1238        1239        1244        1243
        1240        1241        1246        1245
        1241        1242        1247        1246
        1242        1243        1248        1247
        1243        1244        1249        1248
        1250        1251        1256        1255
        1251        1252        1257        1256
        1252        1253        1258        1257
        1253        1254        1259        1258
        1255        1256        1261        1260
        1256        1257        1262        1261
        1257        1258        1263        1262
        1258        1259        1264        1263
        1260        1261        1266        1265
        1261        1262        1267        1266
        1262        1263        1268        1267
        1263        1264        1269        1268
        1265        1266        1271        1270
        1266        1267        1272        1271
        1267        1268        1273        1272
        1268        1269        1274        1273
        1275        1276        1281        1280
        1276        1277        1282        1281
        1277        1278        1283        1282
        1278        1279        1284        1283
        1280        1281        1286        1285
        1281        1282        1287        1286
        1282        1283        1288        1287
        1283        1284        1289        1288
        1285        1286        1291        1290
        1286        1287        1292        1291
        1287        1288        1293        1292
        1288        1289        1294        1293
        1290        1291        1296        1295
        1291        1292        1297        1296
        1292        1293        1298        1297
        1293        1294        1299        1298
        1300        1301        1306        1305
        1301        1302        1307        1306
        1302        1303        1308        1307
        1303        1304        1309        1308
        1305        1306        1311        1310
        1306        1307        1312        1311
        1307        1308        1313        1312
        1308        1309        1314        1313
        1310        1311        1316        1315
        1311        1312        1317        1316
        1312        1313        1318        1317
        1313        1314        1319        1318
        1315        1316        1321        1320
        1316        1317        1322        1321
        1317        1318        1323        1322
        1318        1319        1324        1323
        1325        1326        1331        1330
        1326        1327        1332        1331
        1327        1328        1333        1332
        1328        1329        1334        1333
        1330        1331        1336        1335
        1331        1332        1337        1336
        1332        1333        1338        1337
        1333        1334        1339        1338
        1335        1336        1341        1340
        1336        1337        1342        1341
        1337        1338        1343        1342
        1338        1339        1344        1343
        1340        1341        1346        1345
        1341        1342        1347        1346
        1342        1343        1348        1347
        1343        1344        1349        1348
        1350        1351        1356        1355
        1351        1352        1357        1356
        1352        1353        1358        1357
        1353        1354        1359        1358
        1355        1356        1361        1360
        1356        1357        1362        1361
        1357        1358        1363        1362
        1358        1359        1364        1363
        1360        1361        1366        1365
        1361        1362        1367        1366
        1362        1363        1368        1367
        1363        1364        1369        1368
        1365        1366        1371        1370
        1366        1367        1372        1371
        1367        1368        1373        1372
        1368        1369        1374        1373
        1375        1376        1381        1380
        1376        1377        1382        1381
        1377        1378        1383        1382
        1378        1379        1384        1383
        1380        1381        1386        1385
        1381        1382        1387        1386
        1382        1383        1388        1387
        1383        1384        1389        1388
        1385        1386        1391        1390
        1386        1387        1392        1391
        1387        1388        1393        1392
        1388        1389        1394        1393
        1390        1391        1396        1395
        1391        1392        1397        1396
        1392        1393        1398        1397
        1393        1394        1399        1398
        1400        1401        1406        1405
        1401        1402        1407        1406
        1402        1403        1408        1407
        1403        1404        1409        1408
        1405        1406        1411        1410
        1406        1407        1412        1411
        1407        1408        1413        1412
        1408        1409        1414        1413
        1410        1411        1416        1415
        1411        1412        1417        1416
        1412        1413        1418        1417
        1413        1414        1419        1418
        1415        1416        1421        1420
        1416        1417        1422        1421
        1417        1418        1423        1422
        1418        1419        1424        1423
        1425        1426        1431        1430
        1426        1427        1432        1431
        1427        1428        1433        1432
        1428        1429        1434        1433
        1430        1431        1436        1435
        1431        1432        1437        1436
        1432        1433        1438        1437
        1433        1434        1439        1438
        1435        1436        1441        1440
        1436        1437        1442        1441
        1437        1438        1443        1442
        1438        1439        1444        1443
        1440        1441        1446        1445
        1441        1442        1447        1446
        1442        1443        1448        1447
        1443        1444        1449        1448
        1450        1451        1456        1455
        1451        1452        1457        1456
        1452        1453        1458        1457
        1453        1454        1459        1458
        1455        1456        1461        1460
        1456        1457        1462        1461
        1457        1458        1463        1462
        1458        1459        1464        1463
        1460        1461        1466        1465
        1461        1462        1467        1466
        1462        1463        1468        1467
        1463        1464        1469        1468
        1465        1466        1471        1470
        1466        1467        1472        1471
        1467        1468        1473        1472
        1468        1469        1474        1473
        1475        1476        1481        1480
        1476        1477        1482        1481
        1477        1478        1483        1482
        1478        1479        1484        1483
        1480        1481        1486        1485
        1481        1482        1487        1486
        1482        1483        1488        1487
        1483        1484        1489        1488
        1485        1486        1491        1490
        1486        1487        1492        1491
        1487        1488        1493        1492
        1488        1489        1494        1493
        1490        1491        1496        1495
        1491        1492        1497        1496
        1492        1493        1498        1497
        1493        1494        1499        1498
        1500        1501        1506        1505
        1501        1502        1507        1506
        1502        1503        1508        1507
        1503        1504        1509        1508
        1505        1506        1511        1510
        1506        1507        1512        1511
        1507        1508        1513        1512
        1508        1509        1514        1513
        1510        1511        1516        1515
        1511        1512        1517        1516
        1512        1513        1518        1517
        1513        1514        1519        1518
        1515        1516        1521        1520
        1516        1517        1522        1521
        1517        1518        1523        1522
        1518        1519        1524        1523
        1525        1526        1531        1530
        1526        1527        1532        1531
        1527        1528        1533        1532
        1528        1529        1534        1533
        1530        1531        1536        1535
        1531        1532        1537        1536
        1532        1533        1538        1537
        1533        1534        1539        1538
        1535        1536        1541        1540
        1536        1537        1542        1541
        1537        1538        1543        1542
        1538        1539        1544        1543
        1540        1541        1546        1545
        1541        1542        1547        1546
        1542        1543        1548        1547
        1543        1544        1549        1548
        1550        1551        1556        1555
        1551        1552        1557        1556
        1552        1553        1558        1557
        1553        1554        1559        1558
        1555        1556        1561        1560
        1556        1557        1562        1561
        1557        1558        1563        1562
        1558        1559        1564        1563
        1560        1561        1566        1565
        1561        1562        1567        1566
        1562        1563        1568        1567
        1563        1564        1569        1568
        1565        1566        1571        1570
        1566        1567        1572        1571
        1567        1568        1573        1572
        1568        1569        1574        1573
        1575        1576        1581        1580
        1576        1577        1582        1581
        1577        1578        1583        1582
        1578        1579        1584        1583
        1580        1581        1586        1585
        1581        1582        1587        1586
        1582        1583        1588        1587
        1583        1584        1589        1588
        1585        1586        1591        1590
        1586        1587        1592        1591
        1587        1588        1593        1592
        1588        1589        1594        1593
        1590        1591        1596        1595
        1591        1592        1597        1596
        1592        1593        1598        1597
        1593        1594        1599        1598
 </DataArray>
 <DataArray  type="Int32"  Name="offsets"  format="ascii"> 
           4
           8
          12
          16
          20
          24
          28
          32
          36
          40
          44
          48
          52
          56
          60
          64
          68
          72
          76
          80
          84
          88
          92
          96
         100
         104
         108
         112
         116
         120
         124
         128
         132
         136
         140
         144
         148
         152
         156
         160
         164
         168
         172
         176
         180
         184
         188
         192
         196
         200
         204
         208
         212
         216
         220
         224
         228
         232
         236
         240
         244
         248
         252
         256
         260
         264
         268
         272
         276
         280
         284
         288
         292
         296
         300
         304
         308
         312
         316
         320
         324
         328
         332
         336
         340
         344
         348
         352
         356
         360
         364
         368
         372
         376
         380
         384
         388
         392
         396
         400
         404
         408
         412
         416
         420
         424
         428
         432
         436
         440
         444
         448
         452
         456
         460
         464
         468
         472
         476
         480
         484
         488
         492
         496
         500
         504
         508
         512
         516
         520
         524
         528
         532
         536
         540
         544
         548
         552
         556
         560
         564
         568
         572
         576
         580
         584
         588
         592
         596
         600
         604
         608
         612
         616
         620
         624
         628
         632
         636
         640
         644
         648
         652
         656
         660
         664
         668
         672
         676
         680
         684
         688
         692
         696
         700
         704
         708
         712
         716
         720
         724
         728
         732
         736
         740
         744
         748
         752
         756
         760
         764
         768
         772
         776
         780
         784
         788
         792
         796
         800
         804
         808
         812
         816
         820
         824
         828
         832
         836
         840
         844
         848
         852
         856
         860
         864
         868
         872
         876
         880
         884
         888
         892
         896
         900
         904
         908
         912
         916
         920
         924
         928
         932
         936
         940
         944
         948
         952
         956
         960
         964
         968
         972
         976
         980
         984
         988
         992
         996
        1000
        1004
        1008
        1012
        1016
        1020
        1024
        1028
        1032
        1036
        1040
        1044
        1048
        1052
        1056
        1060
        1064
        1068
        1072
        1076
        1080
        1084
        1088
        1092
        1096
        1100
        1104
        1108
        1112
        1116
        1120
        1124
        1128
        1132
        1136
        1140
        1144
        1148
        1152
        1156
        1160
        1164
        1168
        1172
        1176
        1180
        1184
        1188
        1192
        1196
        1200
        1204
        1208
        1212
        1216
        1220
        1224
        1228
        1232
        1236
        1240
        1244
        1248
        1252
        1256
        1260
        1264
        1268
        1272
        1276
        1280
        1284
        1288
        1292
        1296
        1300
        1304
        1308
        1312
        1316
        1320
        1324
        1328
        1332
        1336
        1340
        1344
        1348
        1352
        1356
        1360
        1364
        1368
        1372
        1376
        1380
        1384
        1388
        1392
        1396
        1400
        1404
        1408
        1412
        1416
        1420
        1424
        1428
        1432
        1436
        1440
        1444
        1448
        1452
        1456
        1460
        1464
        1468
        1472
        1476
        1480
        1484
        1488
        1492
        1496
        1500
        1504
        1508
        1512
        1516
        1520
        1524
        1528
        1532
        1536
        1540
        1544
        1548
        1552
        1556
        1560
        1564
        1568
        1572
        1576
        1580
        1584
        1588
        1592
        1596
        1600
        1604
        1608
        1612
        1616
        1620
        1624
        1628
        1632
        1636
        1640
        1644
        1648
        1652
        1656
        1660
        1664
        1668
        1672
        1676
        1680
        1684
        1688
        1692
        1696
        1700
        1704
        1708
        1712
        1716
        1720
        1724
        1728
        1732
        1736
        1740
        1744
        1748
        1752
        1756
        1760
        1764
        1768
        1772
        1776
        1780
        1784
        1788
        1792
        1796
        1800
        1804
        1808
        1812
        1816
        1820
        1824
        1828
        1832
        1836
        1840
        1844
        1848
        1852
        1856
        1860
        1864
        1868
        1872
        1876
        1880
        1884
        1888
        1892
        1896
        1900
        1904
        1908
        1912
        1916
        1920
        1924
        1928
        1932
        1936
        1940
        1944
        1948
        1952
        1956
        1960
        1964
        1968
        1972
        1976
        1980
        1984
        1988
        1992
        1996
        2000
        2004
        2008
        2012
        2016
        2020
        2024
        2028
        2032
        2036
        2040
        2044
        2048
        2052
        2056
        2060
        2064
        2068
        2072
        2076
        2080
        2084
        2088
        2092
        2096
        2100
        2104
        2108
        2112
        2116
        2120
        2124
        2128
        2132
        2136
        2140
        2144
        2148
        2152
        2156
        2160
        2164
        2168
        2172
        2176
        2180
        2184
        2188
        2192
        2196
        2200
        2204
        2208
        2212
        2216
        2220
        2224
        2228
        2232
        2236
        2240
        2244
        2248
        2252
        2256
        2260
        2264
        2268
        2272
        2276
        2280
        2284
        2288
        2292
        2296
        2300
        2304
        2308
        2312
        2316
        2320
        2324
        2328
        2332
        2336
        2340
        2344
        2348
        2352
        2356
        2360
        2364
        2368
        2372
        2376
        2380
        2384
        2388
        2392
        2396
        2400
        2404
        2408
        2412
        2416
        2420
        2424
        2428
        2432
        2436
        2440
        2444
        2448
        2452
        2456
        2460
        2464
        2468
        2472
        2476
        2480
        2484
        2488
        2492
        2496
        2500
        2504
        2508
        2512
        2516
        2520
        2524
        2528
        2532
        2536
        2540
        2544
        2548
        2552
        2556
        2560
        2564
        2568
        2572
        2576
        2580
        2584
        2588
        2592
        2596
        2600
        2604
        2608
        2612
        2616
        2620
        2624
        2628
        2632
        2636
        2640
        2644
        2648
        2652
        2656
        2660
        2664
        2668
        2672
        2676
        2680
        2684
        2688
        2692
        2696
        2700
        2704
        2708
        2712
        2716
        2720
        2724
        2728
        2732
        2736
        2740
        2744
        2748
        2752
        2756
        2760
        2764
        2768
        2772
        2776
        2780
        2784
        2788
        2792
        2796
        2800
        2804
        2808
        2812
        2816
        2820
        2824
        2828
        2832
        2836
        2840
        2844
        2848
        2852
        2856
        2860
        2864
        2868
        2872
        2876
        2880
        2884
        2888
        2892
        2896
        2900
        2904
        2908
        2912
        2916
        2920
        2924
        2928
        2932
        2936
        2940
        2944
        2948
        2952
        2956
        2960
        2964
        2968
        2972
        2976
        2980
        2984
        2988
        2992
        2996
        3000
        3004
        3008
        3012
        3016
        3020
        3024
        3028
        3032
        3036
        3040
        3044
        3048
        3052
        3056
        3060
        3064
        3068
        3072
        3076
        3080
        3084
        3088
        3092
        3096
        3100
        3104
        3108
        3112
        3116
        3120
        3124
        3128
        3132
        3136
        3140
        3144
        3148
        3152
        3156
        3160
        3164
        3168
        3172
        3176
        3180
        3184
        3188
        3192
        3196
        3200
        3204
        3208
        3212
        3216
        3220
        3224
        3228
        3232
        3236
        3240
        3244
        3248
        3252
        3256
        3260
        3264
        3268
        3272
        3276
        3280
        3284
        3288
        3292
        3296
        3300
        3304
        3308
        3312
        3316
        3320
        3324
        3328
        3332
        3336
        3340
        3344
        3348
        3352
        3356
        3360
        3364
        3368
        3372
        3376
        3380
        3384
        3388
        3392
        3396
        3400
        3404
        3408
        3412
        3416
        3420
        3424
        3428
        3432
        3436
        3440
        3444
        3448
        3452
        3456
        3460
        3464
        3468
        3472
        3476
        3480
        3484
        3488
        3492
        3496
        3500
        3504
        3508
        3512
        3516
        3520
        3524
        3528
        3532
        3536
        3540
        3544
        3548
        3552
        3556
        3560
        3564
        3568
        3572
        3576
        3580
        3584
        3588
        3592
        3596
        3600
        3604
        3608
        3612
        3616
        3620
        3624
        3628
        3632
        3636
        3640
        3644
        3648
        3652
        3656
        3660
        3664
        3668
        3672
        3676
        3680
        3684
        3688
        3692
        3696
        3700
        3704
        3708
        3712
        3716
        3720
        3724
        3728
        3732
        3736
        3740
        3744
        3748
        3752
        3756
        3760
        3764
        3768
        3772
        3776
        3780
        3784
        3788
        3792
        3796
        3800
        3804
        3808
        3812
        3816
        3820
        3824
        3828
        3832
        3836
        3840
        3844
        3848
        3852
        3856
        3860
        3864
        3868
        3872
        3876
        3880
        3884
        3888
        3892
        3896
        3900
        3904
        3908
        3912
        3916
        3920
        3924
        3928
        3932
        3936
        3940
        3944
        3948
        3952
        3956
        3960
        3964
        3968
        3972
        3976
        3980
        3984
        3988
        3992
        3996
        4000
        4004
        4008
        4012
        4016
        4020
        4024
        4028
        4032
        4036
        4040
        4044
        4048
        4052
        4056
        4060
        4064
        4068
        4072
        4076
        4080
        4084
        4088
        4092
        4096
 </DataArray>
 <DataArray  type="UInt8"  Name="types"  format="ascii">
 9
 9
 9
 9
 9
 9
 9
 9
 9
 9
 9
 9
 9
 9
 9
 9
 9
 9
 9
 9
 9
 9
 9
 9
 9
 9
 9
 9
 9
 9
 9
 9
 9
 9
 9
 9
 9
 9
 9
 9
 9
 9
 9
 9
 9
 9
 9
 9
 9
 9
 9
 9
 9
 9
 9
 9
 9
 9
 9
 9
 9
 9
 9
 9
 9
 9
 9
 9
 9
 9
 9
 9
 9
 9
 9
 9
 9
 9
 9
 9
 9
 9
 9
 9
 9
 9
 9
 9
 9
 9
 9
 9
 9
 9
 9
 9
 9
 9
 9
 9
 9
 9
 9
 9
 9
 9
 9
 9
 9
 9
 9
 9
 9
 9
 9
 9
 9
 9
 9
 9
 9
 9
 9
 9
 9
 9
 9
 9
 9
 9
 9
 9
 9
 9
 9
 9
 9
 9
 9
 9
 9
 9
 9
 9
 9
 9
 9
 9
 9
 9
 9
 9
 9
 9
 9
 9
 9
 9
 9
 9
 9
 9
 9
 9
 9
 9
 9
 9
 9
 9
 9
 9
 9
 9
 9
 9
 9
 9
 9
 9
 9
 9
 9
 9
 9
 9
 9
 9
 9
 9
 9
 9
 9
 9
 9
 9
 9
 9
 9
 9
 9
 9
 9
 9
 9
 9
 9
 9
 9
 9
 9
 9
 9
 9
 9
 9
 9
 9
 9
 9
 9
 9
 9
 9
 9
 9
 9
 9
 9
 9
 9
 9
 9
 9
 9
 9
 9
 9
 9
 9
 9
 9
 9
 9
 9
 9
 9
 9
 9
 9
 9
 9
 9
 9
 9
 9
 9
 9
 9
 9
 9
 9
 9
 9
 9
 9
 9
 9
 9
 9
 9
 9
 9
 9
 9
 9
 9
 9
 9
 9
 9
 9
 9
 9
 9
 9
 9
 9
 9
 9
 9
 9
 9
 9
 9
 9
 9
 9
 9
 9
 9
 9
 9
 9
 9
 9
 9
 9
 9
 9
 9
 9
 9
 9
 9
 9
 9
 9
 9
 9
 9
 9
 9
 9
 9
 9
 9
 9
 9
 9
 9
 9
 9
 9
 9
 9
 9
 9
 9
 9
 9
 9
 9
 9
 9
 9
 9
 9
 9
 9
 9
 9
 9
 9
 9
 9
 9
 9
 9
 9
 9
 9
 9
 9
 9
 9
 9
 9
 9
 9
 9
 9
 9
 9
 9
 9
 9
 9
 9
 9
 9
 9
 9
 9
 9
 9
 9
 9
 9
 9
 9
 9
 9
 9
 9
 9
 9
 9
 9
 9
 9
 9
 9
 9
 9
 9
 9
 9
 9
 9
 9
 9
 9
 9
 9
 9
 9
 9
 9
 9
 9
 9
 9
 9
 9
 9
 9
 9
 9
 9
 9
 9
 9
 9
 9
 9
 9
 9
 9
 9
 9
 9
 9
 9
 9
 9
 9
 9
 9
 9
 9
 9
 9
 9
 9
 9
 9
 9
 9
 9
 9
 9
 9
 9
 9
 9
 9
 9
 9
 9
 9
 9
 9
 9
 9
 9
 9
 9
 9
 9
 9
 9
 9
 9
 9
 9
 9
 9
 9
 9
 9
 9
 9
 9
 9
 9
 9
 9
 9
 9
 9
 9
 9
 9
 9
 9
 9
 9
 9
 9
 9
 9
 9
 9
 9
 9
 9
 9
 9
 9
 9
 9
 9
 9
 9
 9
 9
 9
 9
 9
 9
 9
 9
 9
 9
 9
 9
 9
 9
 9
 9
 9
 9
 9
 9
 9
 9
 9
 9
 9
 9
 9
 9
 9
 9
 9
 9
 9
 9
 9
 9
 9
 9
 9
 9
 9
 9
 9
 9
 9
 9
 9
 9
 9
 9
 9
 9
 9
 9
 9
 9
 9
 9
 9
 9
 9
 9
 9
 9
 9
 9
 9
 9
 9
 9
 9
 9
 9
 9
 9
 9
 9
 9
 9
 9
 9
 9
 9
 9
 9
 9
 9
 9
 9
 9
 9
 9
 9
 9
 9
 9
 9
 9
 9
 9
 9
 9
 9
 9
 9
 9
 9
 9
 9
 9
 9
 9
 9
 9
 9
 9
 9
 9
 9
 9
 9
 9
 9
 9
 9
 9
 9
 9
 9
 9
 9
 9
 9
 9
 9
 9
 9
 9
 9
 9
 9
 9
 9
 9
 9
 9
 9
 9
 9
 9
 9
 9
 9
 9
 9
 9
 9
 9
 9
 9
 9
 9
 9
 9
 9
 9
 9
 9
 9
 9
 9
 9
 9
 9
 9
 9
 9
 9
 9
 9
 9
 9
 9
 9
 9
 9
 9
 9
 9
 9
 9
 9
 9
 9
 9
 9
 9
 9
 9
 9
 9
 9
 9
 9
 9
 9
 9
 9
 9
 9
 9
 9
 9
 9
 9
 9
 9
 9
 9
 9
 9
 9
 9
 9
 9
 9
 9
 9
 9
 9
 9
 9
 9
 9
 9
 9
 9
 9
 9
 9
 9
 9
 9
 9
 9
 9
 9
 9
 9
 9
 9
 9
 9
 9
 9
 9
 9
 9
 9
 9
 9
 9
 9
 9
 9
 9
 9
 9
 9
 9
 9
 9
 9
 9
 9
 9
 9
 9
 9
 9
 9
 9
 9
 9
 9
 9
 9
 9
 9
 9
 9
 9
 9
 9
 9
 9
 9
 9
 9
 9
 9
 9
 9
 9
 9
 9
 9
 9
 9
 9
 9
 9
 9
 9
 9
 9
 9
 9
 9
 9
 9
 9
 9
 9
 9
 9
 9
 9
 9
 9
 9
 9
 9
 9
 9
 9
 9
 9
 9
 9
 9
 9
 9
 9
 9
 9
 9
 9
 9
 9
 9
 9
 9
 9
 9
 9
 9
 9
 9
 9
 9
 9
 9
 9
 9
 9
 9
 9
 9
 9
 9
 9
 9
 9
 9
 9
 9
 9
 9
 9
 9
 9
 9
 9
 9
 9
 9
 9
 9
 9
 9
 9
 9
 9
 9
 9
 9
 9
 9
 9
 9
 9
 9
 9
 9
 9
 9
 9
 9
 9
 9
 9
 9
 9
 9
 9
 9
 9
 9
 9
 9
 9
 9
 9
 9
 9
 9
 9
 9
 9
 9
 9
 9
 9
 9
 9
 9
 9
 9
 9
 9
 9
 9
 9
 9
 9
 9
 9
 9
 9
 9
 9
 9
 9
 9
 9
 9
 9
 9
 9
 9
 9
 9
 9
 9
 9
 9
 9
 9
 9
 9
 9
 9
 9
 9
 9
 9
 9
 9
 9
 9
 9
 9
 9
 9
 9
 9
 9
 9
 9
 9
 9
 9
 9
 9
 9
 9
 9
 9
 </DataArray>
 </Cells> 
 <PointData>
 <DataArray  type="Float64" Name="disp" NumberOfComponents="3" format="ascii">
   6.7007709241843197E-002   6.2480202283585008E-002   0.0000000000000000     
   7.0562614443922575E-002   6.8220544231651345E-002   0.0000000000000000     
   7.3673067509672160E-002   7.4004910905819787E-002   0.0000000000000000     
   7.6339068439091939E-002   7.9833302306090342E-002   0.0000000000000000     
   7.8560617232181912E-002   8.5705718432463010E-002   0.0000000000000000     
   5.9557235110508394E-002   6.1501586522478717E-002   0.0000000000000000     
   6.3766515528349416E-002   6.7349106592009794E-002   0.0000000000000000     
   6.7302130535885504E-002   7.3208880329042506E-002   0.0000000000000000     
   7.0164080133116646E-002   7.9080907733576788E-002   0.0000000000000000     
   7.2352364320042856E-002   8.4965188805612685E-002   0.0000000000000000     
   5.3205620422467001E-002   6.0583988265037240E-002   0.0000000000000000     
   5.7702361451961309E-002   6.6530588787817674E-002   0.0000000000000000     
   6.1404400605082773E-002   7.2460194029772731E-002   0.0000000000000000     
   6.4311737881831407E-002   7.8372803990902448E-002   0.0000000000000000     
   6.6424373282207197E-002   8.4268418671206810E-002   0.0000000000000000     
   4.7952865177718997E-002   5.9727407511260565E-002   0.0000000000000000     
   5.2370152214758228E-002   6.5764990819074914E-002   0.0000000000000000     
   5.5979877717263968E-002   7.1758852008010479E-002   0.0000000000000000     
   5.8782041685236201E-002   7.7708991078067322E-002   0.0000000000000000     
   6.0776644118674929E-002   8.3615408029245400E-002   0.0000000000000000     
   4.3798969376264388E-002   5.8931844261148725E-002   0.0000000000000000     
   4.7769887816740186E-002   6.5052312685781516E-002   0.0000000000000000     
   5.1028561872429073E-002   7.1104854263755748E-002   0.0000000000000000     
   5.3574991543331028E-002   7.7089468995071381E-002   0.0000000000000000     
   5.5409176829446079E-002   8.3006156879728440E-002   0.0000000000000000     
   7.8560617232181912E-002   8.5705718432463010E-002   0.0000000000000000     
   8.0611866466489046E-002   9.1697866167624736E-002   0.0000000000000000     
   8.2766968719560324E-002   9.7885452394262440E-002   0.0000000000000000     
   8.5025923991395760E-002  0.10426847711237616        0.0000000000000000     
   8.7388732281995340E-002  0.11084694032196588        0.0000000000000000     
   7.2352364320042856E-002   8.4965188805612685E-002   0.0000000000000000     
   7.4259071223545636E-002   9.0957875449063058E-002   0.0000000000000000     
   7.6276288970506548E-002   9.7155119567840731E-002   0.0000000000000000     
   7.8404017560925576E-002  0.10355692116194576        0.0000000000000000     
   8.0642256994802694E-002  0.11016328023137813        0.0000000000000000     
   6.6424373282207197E-002   8.4268418671206810E-002   0.0000000000000000     
   6.8195195195573516E-002   9.0262019339913832E-002   0.0000000000000000     
   7.0077092011293696E-002   9.6468587266251543E-002   0.0000000000000000     
   7.2070063729367764E-002  0.10288812245021993        0.0000000000000000     
   7.4174110349795722E-002  0.10952062489181898        0.0000000000000000     
   6.0776644118674929E-002   8.3615408029245400E-002   0.0000000000000000     
   6.2420238382572650E-002   8.9610297840177142E-002   0.0000000000000000     
   6.4169377841921796E-002   9.5825855489494863E-002   0.0000000000000000     
   6.6024062496722380E-002  0.10226208097719866        0.0000000000000000     
   6.7984292346974423E-002  0.10891897430328844        0.0000000000000000     
   5.5409176829446079E-002   8.3006156879728440E-002   0.0000000000000000     
   5.6934200784543060E-002   8.9002710949852903E-002   0.0000000000000000     
   5.8553146462390834E-002   9.5226924237570731E-002   0.0000000000000000     
   6.0266013862989409E-002  0.10167879674288191        0.0000000000000000     
   6.2072802986338778E-002  0.10835832846578650        0.0000000000000000     
   8.7388732281995340E-002  0.11084694032196588        0.0000000000000000     
   8.9753329923789232E-002  0.11759542059036758        0.0000000000000000     
   9.2017653249207590E-002  0.12448849648491726        0.0000000000000000     
   9.4181702258250427E-002  0.13152616800561498        0.0000000000000000     
   9.6245476950917758E-002  0.13870843515246067        0.0000000000000000     
   8.0642256994802694E-002  0.11016328023137813        0.0000000000000000     
   8.2888229626269835E-002  0.11694330759995471        0.0000000000000000     
   8.5039157809458851E-002  0.12386611409149234        0.0000000000000000     
   8.7095041544369770E-002  0.13093169970599108        0.0000000000000000     
   8.9055880831002548E-002  0.13814006444345089        0.0000000000000000     
   7.4174110349795722E-002  0.10952062489181898        0.0000000000000000     
   7.6288922873692780E-002  0.11633043629691496        0.0000000000000000     
   7.8314192302174179E-002  0.12328189837137415        0.0000000000000000     
   8.0249918635239920E-002  0.13037501111519653        0.0000000000000000     
   8.2096101872889973E-002  0.13760977452838208        0.0000000000000000     
   6.7984292346974423E-002  0.10891897430328844        0.0000000000000000     
   6.9955409666058094E-002  0.11575680668124842        0.0000000000000000     
   7.1842756727353574E-002  0.12273584932456270        0.0000000000000000     
   7.3646333530860905E-002  0.12985610223323132        0.0000000000000000     
   7.5366140076580032E-002  0.13711756540725425        0.0000000000000000     
   6.2072802986338778E-002  0.10835832846578650        0.0000000000000000     
   6.3887690003365721E-002  0.11522241875295498        0.0000000000000000     
   6.5624851084997021E-002  0.12222796695105798        0.0000000000000000     
   6.7284286231232712E-002  0.12937497306009546        0.0000000000000000     
   6.8865995442072725E-002  0.13666343708006742        0.0000000000000000     
   9.6245476950917758E-002  0.13870843515246067        0.0000000000000000     
   9.8196940535064212E-002  0.14600883382405502        0.0000000000000000     
  0.10002405621854447       0.15340089991899869        0.0000000000000000     
  0.10172682400135853       0.16088463343729167        0.0000000000000000     
  0.10330524388350638       0.16846003437893398        0.0000000000000000     
   8.9055880831002548E-002  0.13814006444345089        0.0000000000000000     
   9.0908908072106789E-002  0.14546610561571888        0.0000000000000000     
   9.2641355670432052E-002  0.15288472053464225        0.0000000000000000     
   9.4253223625978336E-002  0.16039590920022090        0.0000000000000000     
   9.5744511938745641E-002  0.16799967161245491        0.0000000000000000     
   8.2096101872889973E-002  0.13760977452838208        0.0000000000000000     
   8.3839760938767480E-002  0.14496172510959845        0.0000000000000000     
   8.5467914756515481E-002  0.15240639935751321        0.0000000000000000     
   8.6980563326134019E-002  0.15994379727212638        0.0000000000000000     
   8.8377706647623067E-002  0.16757391885343792        0.0000000000000000     
   7.5366140076580032E-002  0.13711756540725425        0.0000000000000000     
   7.6989499135046227E-002  0.14449569230569362        0.0000000000000000     
   7.8503733476794776E-002  0.15196593638761155        0.0000000000000000     
   7.9908843101825569E-002  0.15952829765300805        0.0000000000000000     
   8.1204828010138702E-002  0.16718277610188301        0.0000000000000000     
   6.8865995442072725E-002  0.13666343708006742        0.0000000000000000     
   7.0358122660943129E-002  0.14406800720400448        0.0000000000000000     
   7.1748811831269882E-002  0.15156333162493729        0.0000000000000000     
   7.3038062953053012E-002  0.15914941034286589        0.0000000000000000     
   7.4225876026292492E-002  0.16682624335779020        0.0000000000000000     
  0.10330524388350638       0.16846003437893398        0.0000000000000000     
  0.10478926295594912       0.17613062527016443        0.0000000000000000     
  0.10620882830964784       0.18389992863722185        0.0000000000000000     
  0.10756393994460253       0.19176794448010628        0.0000000000000000     
  0.10885459786081320       0.19973467279881774        0.0000000000000000     
   9.5744511938745641E-002  0.16799967161245491        0.0000000000000000     
   9.7142432779641921E-002  0.17569839293660613        0.0000000000000000     
   9.8474198319575143E-002  0.18349445833793648        0.0000000000000000     
   9.9739808558545306E-002  0.19138786781644593        0.0000000000000000     
  0.10093926349655238       0.19937862137213452        0.0000000000000000     
   8.8377706647623067E-002  0.16757391885343792        0.0000000000000000     
   8.9683937006765357E-002  0.17529865878466677        0.0000000000000000     
   9.0923846689343585E-002  0.18311991174903178        0.0000000000000000     
   9.2097435695357693E-002  0.19103767774653302        0.0000000000000000     
   9.3204704024807794E-002  0.19905195677717044        0.0000000000000000     
   8.1204828010138702E-002  0.16718277610188301        0.0000000000000000     
   8.2413775637319456E-002  0.17493142281434634        0.0000000000000000     
   8.3557773418953138E-002  0.18277628887050787        0.0000000000000000     
   8.4636821355039776E-002  0.19071737427036756        0.0000000000000000     
   8.5650919445579385E-002  0.19875467901392543        0.0000000000000000     
   7.4225876026292492E-002  0.16682624335779020        0.0000000000000000     
   7.5331948671304147E-002  0.17459668502564490        0.0000000000000000     
   7.6375978508403816E-002  0.18246358970236470        0.0000000000000000     
   7.7357965537591500E-002  0.19042695738794954        0.0000000000000000     
   7.8277909758867170E-002  0.19848678808239947        0.0000000000000000     
  0.10885459786081320       0.19973467279881774        0.0000000000000000     
  0.11007296989878461       0.20778898311406005        0.0000000000000000     
  0.11121122389902152       0.21591974494653718        0.0000000000000000     
  0.11226935986152395       0.22412695829624910        0.0000000000000000     
  0.11324737778629186       0.23241062316319583        0.0000000000000000     
  0.10093926349655238       0.19937862137213452        0.0000000000000000     
  0.10206687162255625       0.20745502001803812        0.0000000000000000     
  0.10311694142551668       0.21560536476719255        0.0000000000000000     
  0.10408947290543370       0.22382965561959783        0.0000000000000000     
  0.10498446606230732       0.23212789257525396        0.0000000000000000     
   9.3204704024807794E-002  0.19905195677717044        0.0000000000000000     
   9.4240733937827573E-002  0.20715078967345632        0.0000000000000000     
   9.5200607694550826E-002  0.21532221726790296        0.0000000000000000     
   9.6084325294977582E-002  0.22356623956051030        0.0000000000000000     
   9.6891886739107827E-002  0.23188285655127847        0.0000000000000000     
   8.5650919445579385E-002  0.19875467901392543        0.0000000000000000     
   8.6594556844598561E-002  0.20687629208031463        0.0000000000000000     
   8.7462222706123943E-002  0.21507030244866829        0.0000000000000000     
   8.8253917030155532E-002  0.22333671011898656        0.0000000000000000     
   8.8969639816693355E-002  0.23167551509126930        0.0000000000000000     
   7.8277909758867170E-002  0.19848678808239947        0.0000000000000000     
   7.9128340342869238E-002  0.20663152723861303        0.0000000000000000     
   7.9901786460236046E-002  0.21484962030948868        0.0000000000000000     
   8.0598248110967594E-002  0.22314106729502650        0.0000000000000000     
   8.1217725295063936E-002  0.23150586819522645        0.0000000000000000     
  0.11324737778629186       0.23241062316319583        0.0000000000000000     
  0.11417685005431576       0.24079108697588447        0.0000000000000000     
  0.11508934904658606       0.24928869716282220        0.0000000000000000     
  0.11598487476310279       0.25790345372400902        0.0000000000000000     
  0.11686342720386593       0.26663535665944493        0.0000000000000000     
  0.10498446606230732       0.23212789257525396        0.0000000000000000     
  0.10580984592522734       0.24052600764091278        0.0000000000000000     
  0.10657353752328355       0.24904993282332602        0.0000000000000000     
  0.10727554085647600       0.25769966812249367        0.0000000000000000     
  0.10791585592480465       0.26647521353841586        0.0000000000000000     
   9.6891886739107827E-002  0.23188285655127847        0.0000000000000000     
   9.7616682712003133E-002  0.24030009044192885        0.0000000000000000     
   9.8252103898725074E-002  0.24884596343418303        0.0000000000000000     
   9.8798150299273635E-002  0.25752047552804103        0.0000000000000000     
   9.9254821913648858E-002  0.26632362672350274        0.0000000000000000     
   8.8969639816693355E-002  0.23167551509126930        0.0000000000000000     
   8.9597360414643112E-002  0.24011333537893279        0.0000000000000000     
   9.0125048172910574E-002  0.24867678899539333        0.0000000000000000     
   9.0552703091495712E-002  0.25736587594065086        0.0000000000000000     
   9.0880325170398513E-002  0.26618059621470552        0.0000000000000000     
   8.1217725295063936E-002  0.23150586819522645        0.0000000000000000     
   8.1751879033147304E-002  0.23996574245192456        0.0000000000000000     
   8.2192370345840066E-002  0.24854240950695689        0.0000000000000000     
   8.2539199233142166E-002  0.25723586936032339        0.0000000000000000     
   8.2792365695053674E-002  0.26604612201202421        0.0000000000000000     
  0.11686342720386593       0.26663535665944493        0.0000000000000000     
  0.11766390922686662       0.27564725962184555        0.0000000000000000     
  0.11832522369009595       0.28510201626392634        0.0000000000000000     
  0.11884737059355394       0.29499962658568751        0.0000000000000000     
  0.11923034993724058       0.30534009058712897        0.0000000000000000     
  0.10791585592480465       0.26647521353841586        0.0000000000000000     
  0.10847458096790913       0.27550783142692509        0.0000000000000000     
  0.10893181422542908       0.28492878414385392        0.0000000000000000     
  0.10928755569736449       0.29473807168920219        0.0000000000000000     
  0.10954180538371534       0.30493569406297016        0.0000000000000000     
   9.9254821913648858E-002  0.26632362672350274        0.0000000000000000     
   9.9632547408083319E-002  0.27535340270964664        0.0000000000000000     
   9.9941755448809649E-002  0.28470778917555090        0.0000000000000000     
  0.10018244603582788       0.29438678612121572        0.0000000000000000     
  0.10035461916913799       0.30439039354664099        0.0000000000000000     
   9.0880325170398513E-002  0.26618059621470552        0.0000000000000000     
   9.1137808547389135E-002  0.27518397347001006        0.0000000000000000     
   9.1355047360237696E-002  0.28443903135901766        0.0000000000000000     
   9.1532041608944126E-002  0.29394576988172816        0.0000000000000000     
   9.1668791293508495E-002  0.30370418903814156        0.0000000000000000     
   8.2792365695053674E-002  0.26604612201202421        0.0000000000000000     
   8.2990364385826632E-002  0.27499954370801560        0.0000000000000000     
   8.3171689959713135E-002  0.28412251069425393        0.0000000000000000     
   8.3336342416713213E-002  0.29341502297073929        0.0000000000000000     
   8.3484321756826838E-002  0.30287708053747164        0.0000000000000000     
   4.3798969376264388E-002   5.8931844261148725E-002   0.0000000000000000     
   4.7769887816740186E-002   6.5052312685781516E-002   0.0000000000000000     
   5.1028561872429073E-002   7.1104854263755748E-002   0.0000000000000000     
   5.3574991543331028E-002   7.7089468995071381E-002   0.0000000000000000     
   5.5409176829446079E-002   8.3006156879728440E-002   0.0000000000000000     
   4.0129690669896911E-002   5.8192456465634576E-002   0.0000000000000000     
   4.3528051339961682E-002   6.4396231825875824E-002   0.0000000000000000     
   4.6346258775802285E-002   7.0506845995048542E-002   0.0000000000000000     
   4.8584312977418734E-002   7.6524298973152785E-002   0.0000000000000000     
   5.0242213944811008E-002   8.2448590760188512E-002   0.0000000000000000     
   3.6330786710410283E-002   5.7504402075651016E-002   0.0000000000000000     
   3.9271125866477186E-002   6.3800425677296047E-002   0.0000000000000000     
   4.1728774132607803E-002   6.9973472399928918E-002   0.0000000000000000     
   4.3703731508802100E-002   7.6023542243549611E-002   0.0000000000000000     
   4.5195997995060112E-002   8.1950635208158137E-002   0.0000000000000000     
   3.2402257497804496E-002   5.6867681091198052E-002   0.0000000000000000     
   3.4999111396286732E-002   6.3264894240042224E-002   0.0000000000000000     
   3.7176107942845614E-002   6.9504733478396821E-002   0.0000000000000000     
   3.8933247137481169E-002   7.5587198806261871E-002   0.0000000000000000     
   4.0270528980193392E-002   8.1512290223637360E-002   0.0000000000000000     
   2.8344103032079564E-002   5.6282293512275677E-002   0.0000000000000000     
   3.0712007929390286E-002   6.2789637514114330E-002   0.0000000000000000     
   3.2688260206515739E-002   6.9100629230452293E-002   0.0000000000000000     
   3.4272859863455921E-002   7.5215268661289567E-002   0.0000000000000000     
   3.5465806900210839E-002   8.1133555806626151E-002   0.0000000000000000     
   5.5409176829446079E-002   8.3006156879728440E-002   0.0000000000000000     
   5.6934200784543060E-002   8.9002710949852903E-002   0.0000000000000000     
   5.8553146462390834E-002   9.5226924237570731E-002   0.0000000000000000     
   6.0266013862989409E-002  0.10167879674288191        0.0000000000000000     
   6.2072802986338778E-002  0.10835832846578650        0.0000000000000000     
   5.0242213944811008E-002   8.2448590760188512E-002   0.0000000000000000     
   5.1650348727421060E-002   8.8443844521375339E-002   0.0000000000000000     
   5.3139104374690854E-002   9.4674183421932803E-002   0.0000000000000000     
   5.4708480886620378E-002  0.10113960746186100        0.0000000000000000     
   5.6358478263209631E-002  0.10784011664115985        0.0000000000000000     
   4.5195997995060112E-002   8.1950635208158137E-002   0.0000000000000000     
   4.6481948537142978E-002   8.7938284407178546E-002   0.0000000000000000     
   4.7837958080811878E-002   9.4170022954034857E-002   0.0000000000000000     
   4.9264026626066826E-002  0.10064585084872708        0.0000000000000000     
   5.0760154172907808E-002  0.10736576809125523        0.0000000000000000     
   4.0270528980193392E-002   8.1512290223637360E-002   0.0000000000000000     
   4.1429000213708787E-002   8.7486030607262594E-002   0.0000000000000000     
   4.2649707580753912E-002   9.3714442833876879E-002   0.0000000000000000     
   4.3932651081328739E-002  0.10019752690348023        0.0000000000000000     
   4.5277830715433308E-002  0.10693528281607263        0.0000000000000000     
   3.5465806900210839E-002   8.1133555806626151E-002   0.0000000000000000     
   3.6491503757118515E-002   8.7087083121627440E-002   0.0000000000000000     
   3.7574352874516950E-002   9.3307443061458856E-002   0.0000000000000000     
   3.8714354252406158E-002   9.9794635626120412E-002   0.0000000000000000     
   3.9911507890786131E-002  0.10654866081561204        0.0000000000000000     
   6.2072802986338778E-002  0.10835832846578650        0.0000000000000000     
   6.3887690003365721E-002  0.11522241875295498        0.0000000000000000     
   6.5624851084997021E-002  0.12222796695105798        0.0000000000000000     
   6.7284286231232712E-002  0.12937497306009546        0.0000000000000000     
   6.8865995442072725E-002  0.13666343708006742        0.0000000000000000     
   5.6358478263209631E-002  0.10784011664115985        0.0000000000000000     
   5.8012979806586644E-002  0.11472917183351637        0.0000000000000000     
   5.9595868818879426E-002  0.12176023391261755        0.0000000000000000     
   6.1107145300087991E-002  0.12893330287846336        0.0000000000000000     
   6.2546809250212346E-002  0.13624837873105383        0.0000000000000000     
   5.0760154172907808E-002  0.10736576809125523        0.0000000000000000     
   5.2258494996691766E-002  0.11427896524441421        0.0000000000000000     
   5.3691203372775644E-002  0.12133463287099898        0.0000000000000000     
   5.5058279301159453E-002  0.12853277097100954        0.0000000000000000     
   5.6359722781843168E-002  0.13587337954444584        0.0000000000000000     
   4.5277830715433308E-002  0.10693528281607263        0.0000000000000000     
   4.6624235573681116E-002  0.11387179898564850        0.0000000000000000     
   4.7910854746685702E-002  0.12095116382620227        0.0000000000000000     
   4.9137688234447065E-002  0.12817337733773387        0.0000000000000000     
   5.0304736036965197E-002  0.13553843952024344        0.0000000000000000     
   3.9911507890786131E-002  0.10654866081561204        0.0000000000000000     
   4.1110201537554673E-002  0.11350767305721925        0.0000000000000000     
   4.2254822940609567E-002  0.12060982677822742        0.0000000000000000     
   4.3345372099950825E-002  0.12785512197863652        0.0000000000000000     
   4.4381849015578449E-002  0.13524355865844662        0.0000000000000000     
   6.8865995442072725E-002  0.13666343708006742        0.0000000000000000     
   7.0358122660943129E-002  0.14406800720400448        0.0000000000000000     
   7.1748811831269882E-002  0.15156333162493729        0.0000000000000000     
   7.3038062953053012E-002  0.15914941034286589        0.0000000000000000     
   7.4225876026292492E-002  0.16682624335779020        0.0000000000000000     
   6.2546809250212346E-002  0.13624837873105383        0.0000000000000000     
   6.3904053654542936E-002  0.14367892172388805        0.0000000000000000     
   6.5168071498370242E-002  0.15119839211046501        0.0000000000000000     
   6.6338862781694263E-002  0.15880678989078478        0.0000000000000000     
   6.7416427504514972E-002  0.16650411506484730        0.0000000000000000     
   5.6359722781843168E-002  0.13587337954444584        0.0000000000000000     
   5.7585714253930526E-002  0.14332868778470129        0.0000000000000000     
   5.8726434156525231E-002  0.15087092488516915        0.0000000000000000     
   5.9781882489627292E-002  0.15850009084584948        0.0000000000000000     
   6.0752059253236707E-002  0.16621618566674221        0.0000000000000000     
   5.0304736036965197E-002  0.13553843952024344        0.0000000000000000     
   5.1403104459105869E-002  0.14301730538644428        0.0000000000000000     
   5.2423899805734850E-002  0.15058092994904976        0.0000000000000000     
   5.3367122076852097E-002  0.15822931320806000        0.0000000000000000     
   5.4232771272457653E-002  0.16596245516347485        0.0000000000000000     
   4.4381849015578449E-002  0.13524355865844662        0.0000000000000000     
   4.5356224270069002E-002  0.14274477452911696        0.0000000000000000     
   4.6260468445999091E-002  0.15032840730210684        0.0000000000000000     
   4.7094581543368701E-002  0.15799445697741629        0.0000000000000000     
   4.7858563562177825E-002  0.16574292355504530        0.0000000000000000     
   7.4225876026292492E-002  0.16682624335779020        0.0000000000000000     
   7.5331948671304147E-002  0.17459668502564490        0.0000000000000000     
   7.6375978508403816E-002  0.18246358970236470        0.0000000000000000     
   7.7357965537591500E-002  0.19042695738794954        0.0000000000000000     
   7.8277909758867170E-002  0.19848678808239947        0.0000000000000000     
   6.7416427504514972E-002  0.16650411506484730        0.0000000000000000     
   6.8418220466593460E-002  0.17429447145159491        0.0000000000000000     
   6.9361696467690775E-002  0.18218196286996977        0.0000000000000000     
   7.0246855507806877E-002  0.19016658931997191        0.0000000000000000     
   7.1073697586941792E-002  0.19824835080160136        0.0000000000000000     
   6.0752059253236707E-002  0.16621618566674221        0.0000000000000000     
   6.1652355381061348E-002  0.17402480812522877        0.0000000000000000     
   6.2498161806809081E-002  0.18193155699869054        0.0000000000000000     
   6.3289478530479920E-002  0.18993643228712756        0.0000000000000000     
   6.4026305552073864E-002  0.19803943399053980        0.0000000000000000     
   5.4232771272457653E-002  0.16596245516347485        0.0000000000000000     
   5.5034353414707783E-002  0.17378769504654654        0.0000000000000000     
   5.5785374525758775E-002  0.18171237208852709        0.0000000000000000     
   5.6485834605610630E-002  0.18973648628941650        0.0000000000000000     
   5.7135733654263374E-002  0.19786003764921478        0.0000000000000000     
   4.7858563562177825E-002  0.16574292355504530        0.0000000000000000     
   4.8564214567532779E-002  0.17358313221554822        0.0000000000000000     
   4.9223334624539837E-002  0.18152440813947937        0.0000000000000000     
   4.9835923733199020E-002  0.18956675132683878        0.0000000000000000     
   5.0401981893510306E-002  0.19771016177762635        0.0000000000000000     
   7.8277909758867170E-002  0.19848678808239947        0.0000000000000000     
   7.9128340342869238E-002  0.20663152723861303        0.0000000000000000     
   7.9901786460236046E-002  0.21484962030948868        0.0000000000000000     
   8.0598248110967594E-002  0.22314106729502650        0.0000000000000000     
   8.1217725295063936E-002  0.23150586819522645        0.0000000000000000     
   7.1073697586941792E-002  0.19824835080160136        0.0000000000000000     
   7.1832704348800971E-002  0.20641578135242331        0.0000000000000000     
   7.2514357437089880E-002  0.21465741501000291        0.0000000000000000     
   7.3118656851808489E-002  0.22297325177434024        0.0000000000000000     
   7.3645602592956799E-002  0.23136329164543520        0.0000000000000000     
   6.4026305552073864E-002  0.19803943399053980        0.0000000000000000     
   6.4698268778555196E-002  0.20622834062581724        0.0000000000000000     
   6.5294994116888189E-002  0.21449093070984993        0.0000000000000000     
   6.5816481567072899E-002  0.22282720424263777        0.0000000000000000     
   6.6262731129109270E-002  0.23123716122418084        0.0000000000000000     
   5.7135733654263374E-002  0.19786003764921478        0.0000000000000000     
   5.7725033632131856E-002  0.20606920505879486        0.0000000000000000     
   5.8243696499631015E-002  0.21435016740902965        0.0000000000000000     
   5.8691722256760830E-002  0.22270292469991915        0.0000000000000000     
   5.9069110903521314E-002  0.23112747693146335        0.0000000000000000     
   5.0401981893510306E-002  0.19771016177762635        0.0000000000000000     
   5.0912998909530986E-002  0.20593837465135617        0.0000000000000000     
   5.1360464585318316E-002  0.21423512510754220        0.0000000000000000     
   5.1744378920872310E-002  0.22260041314618434        0.0000000000000000     
   5.2064741916192939E-002  0.23103423876728277        0.0000000000000000     
   8.1217725295063936E-002  0.23150586819522645        0.0000000000000000     
   8.1751879033147304E-002  0.23996574245192456        0.0000000000000000     
   8.2192370345840066E-002  0.24854240950695689        0.0000000000000000     
   8.2539199233142166E-002  0.25723586936032339        0.0000000000000000     
   8.2792365695053674E-002  0.26604612201202421        0.0000000000000000     
   7.3645602592956799E-002  0.23136329164543520        0.0000000000000000     
   7.4094182662508959E-002  0.23984250462072532        0.0000000000000000     
   7.4463385062439047E-002  0.24842586069764805        0.0000000000000000     
   7.4753209792747063E-002  0.25711335987620332        0.0000000000000000     
   7.4963656853433050E-002  0.26590500215639123        0.0000000000000000     
   6.6262731129109270E-002  0.23123716122418084        0.0000000000000000     
   6.6638215397721301E-002  0.23972881484515624        0.0000000000000000     
   6.6947406967633016E-002  0.24831017829624105        0.0000000000000000     
   6.7190305838844375E-002  0.25698125157743534        0.0000000000000000     
   6.7366912011355404E-002  0.26574203468873908        0.0000000000000000     
   5.9069110903521314E-002  0.23112747693146335        0.0000000000000000     
   5.9383977238784393E-002  0.23962467312521732        0.0000000000000000     
   5.9644436061421988E-002  0.24819536230273606        0.0000000000000000     
   5.9850487371434107E-002  0.25683954446401963        0.0000000000000000     
   6.0002131168820735E-002  0.26555721960906786        0.0000000000000000     
   5.2064741916192939E-002  0.23103423876728277        0.0000000000000000     
   5.2331468185698185E-002  0.23953007946090854        0.0000000000000000     
   5.2554472343805947E-002  0.24808141271713291        0.0000000000000000     
   5.2733754390516231E-002  0.25668823853595585        0.0000000000000000     
   5.2869314325829045E-002  0.26535055691737741        0.0000000000000000     
   8.2792365695053674E-002  0.26604612201202421        0.0000000000000000     
   8.2990364385826632E-002  0.27499954370801560        0.0000000000000000     
   8.3171689959713135E-002  0.28412251069425393        0.0000000000000000     
   8.3336342416713213E-002  0.29341502297073929        0.0000000000000000     
   8.3484321756826838E-002  0.30287708053747164        0.0000000000000000     
   7.4963656853433050E-002  0.26590500215639123        0.0000000000000000     
   7.5135084146386519E-002  0.27479429715680959        0.0000000000000000     
   7.5307849573497038E-002  0.28377475449605616        0.0000000000000000     
   7.5481953134764607E-002  0.29284637417413106        0.0000000000000000     
   7.5657394830189240E-002  0.30200915619103419        0.0000000000000000     
   6.7366912011355404E-002  0.26574203468873908        0.0000000000000000     
   6.7516837052059575E-002  0.27456241754953881        0.0000000000000000     
   6.7679692527850374E-002  0.28341229007922075        0.0000000000000000     
   6.7855478438727801E-002  0.29229165227778503        0.0000000000000000     
   6.8044194784691869E-002  0.30120050414523175        0.0000000000000000     
   6.0002131168820735E-002  0.26555721960906786        0.0000000000000000     
   6.0135623102845780E-002  0.27430390488620315        0.0000000000000000     
   6.0287218822773145E-002  0.28303511744374771        0.0000000000000000     
   6.0456918328602782E-002  0.29175085728170136        0.0000000000000000     
   6.0644721620334741E-002  0.30045112440006444        0.0000000000000000     
   5.2869314325829045E-002  0.26535055691737741        0.0000000000000000     
   5.2991442298745160E-002  0.27401875916680268        0.0000000000000000     
   5.3130428458265329E-002  0.28264323658963691        0.0000000000000000     
   5.3286272804389558E-002  0.29122398918587999        0.0000000000000000     
   5.3458975337117839E-002  0.29976101695553214        0.0000000000000000     
   2.8344103032079564E-002   5.6282293512275677E-002   0.0000000000000000     
   3.0712007929390286E-002   6.2789637514114330E-002   0.0000000000000000     
   3.2688260206515739E-002   6.9100629230452293E-002   0.0000000000000000     
   3.4272859863455921E-002   7.5215268661289567E-002   0.0000000000000000     
   3.5465806900210839E-002   8.1133555806626151E-002   0.0000000000000000     
   2.4326123966470298E-002   5.5759658062164069E-002   0.0000000000000000     
   2.6496083932721390E-002   6.2372209459223359E-002   0.0000000000000000     
   2.8293306187362900E-002   6.8750641027105083E-002   0.0000000000000000     
   2.9717790730394843E-002   7.4894952765809195E-002   0.0000000000000000     
   3.0769537561817193E-002   8.0805144675335727E-002   0.0000000000000000     
   2.0518120954211516E-002   5.5311193464143371E-002   0.0000000000000000     
   2.2437607873213566E-002   6.2010164035080279E-002   0.0000000000000000     
   2.4019321149131856E-002   6.8444250239364915E-002   0.0000000000000000     
   2.5263260781966390E-002   7.4613452076997266E-002   0.0000000000000000     
   2.6169426771717165E-002   8.0517769547977389E-002   0.0000000000000000     
   1.6920093995303226E-002   5.4936899718213604E-002   0.0000000000000000     
   1.8536579750866807E-002   6.1703501241685083E-002   0.0000000000000000     
   1.9866305091822592E-002   6.8181456867231816E-002   0.0000000000000000     
   2.0909270018170570E-002   7.4370766594853810E-002   0.0000000000000000     
   2.1665474529910758E-002   8.0271430424551093E-002   0.0000000000000000     
   1.3532043089745422E-002   5.4636776824374761E-002   0.0000000000000000     
   1.4792999565681121E-002   6.1452221079037764E-002   0.0000000000000000     
   1.5834258015435112E-002   6.7962260910705771E-002   0.0000000000000000     
   1.6655818439007396E-002   7.4166896319378797E-002   0.0000000000000000     
   1.7257680836397969E-002   8.0066127305056828E-002   0.0000000000000000     
   3.5465806900210839E-002   8.1133555806626151E-002   0.0000000000000000     
   3.6491503757118515E-002   8.7087083121627440E-002   0.0000000000000000     
   3.7574352874516950E-002   9.3307443061458856E-002   0.0000000000000000     
   3.8714354252406158E-002   9.9794635626120412E-002   0.0000000000000000     
   3.9911507890786131E-002  0.10654866081561204        0.0000000000000000     
   3.0769537561817193E-002   8.0805144675335727E-002   0.0000000000000000     
   3.1661272956997034E-002   8.6737616700384809E-002   0.0000000000000000     
   3.2605723191301422E-002   9.2948768785656541E-002   0.0000000000000000     
   3.3602888264730353E-002   9.9438600931150922E-002   0.0000000000000000     
   3.4652768177283827E-002  0.10620711313686795        0.0000000000000000     
   2.6169426771717165E-002   8.0517769547977389E-002   0.0000000000000000     
   2.6930121602969266E-002   8.6433806093646454E-002   0.0000000000000000     
   2.7737647760307765E-002   9.2638165155345731E-002   0.0000000000000000     
   2.8592005243732656E-002   9.9130846733075165E-002   0.0000000000000000     
   2.9493194053243951E-002  0.10591185082683481        0.0000000000000000     
   2.1665474529910758E-002   8.0271430424551093E-002   0.0000000000000000     
   2.2298049695035210E-002   8.6175651301412345E-002   0.0000000000000000     
   2.2970126581535980E-002   9.2375632170526356E-002   0.0000000000000000     
   2.3681705189413076E-002   9.8871373031893098E-002   0.0000000000000000     
   2.4432785518666504E-002  0.10566287388551260        0.0000000000000000     
   1.7257680836397969E-002   8.0066127305056828E-002   0.0000000000000000     
   1.7765057233194853E-002   8.5963152323682512E-002   0.0000000000000000     
   1.8303159654986068E-002   9.2161169831198486E-002   0.0000000000000000     
   1.8871988101771604E-002   9.8660179827604763E-002   0.0000000000000000     
   1.9471542573551479E-002  0.10546018231290134        0.0000000000000000     
   3.9911507890786131E-002  0.10654866081561204        0.0000000000000000     
   4.1110201537554673E-002  0.11350767305721925        0.0000000000000000     
   4.2254822940609567E-002  0.12060982677822742        0.0000000000000000     
   4.3345372099950825E-002  0.12785512197863652        0.0000000000000000     
   4.4381849015578449E-002  0.13524355865844662        0.0000000000000000     
   3.4652768177283827E-002  0.10620711313686795        0.0000000000000000     
   3.5704894495967615E-002  0.11318669509451273        0.0000000000000000     
   3.6708798787787475E-002  0.12030973649579030        0.0000000000000000     
   3.7664481052743413E-002  0.12757623734070067        0.0000000000000000     
   3.8571941290835417E-002  0.13498619762924385        0.0000000000000000     
   2.9493194053243951E-002  0.10591185082683481        0.0000000000000000     
   3.0396816056575113E-002  0.11290897273291518        0.0000000000000000     
   3.1258473121459615E-002  0.12005000774760677        0.0000000000000000     
   3.2078165247897451E-002  0.12733495587090965        0.0000000000000000     
   3.2855892435888628E-002  0.13476381710282373        0.0000000000000000     
   2.4432785518666504E-002  0.10566287388551260        0.0000000000000000     
   2.5185966219377170E-002  0.11267450597242659        0.0000000000000000     
   2.5903845941625987E-002  0.11983064053367688        0.0000000000000000     
   2.6586424685412956E-002  0.12713127756926340        0.0000000000000000     
   2.7233702450738084E-002  0.13457641707918622        0.0000000000000000     
   1.9471542573551479E-002  0.10546018231290134        0.0000000000000000     
   2.0072344984373776E-002  0.11248329481304702        0.0000000000000000     
   2.0644917248286591E-002  0.11965163485400056        0.0000000000000000     
   2.1189259365289922E-002  0.12696520243576195        0.0000000000000000     
   2.1705371335383767E-002  0.13442399755833129        0.0000000000000000     
   4.4381849015578449E-002  0.13524355865844662        0.0000000000000000     
   4.5356224270069002E-002  0.14274477452911696        0.0000000000000000     
   4.6260468445999091E-002  0.15032840730210684        0.0000000000000000     
   4.7094581543368701E-002  0.15799445697741629        0.0000000000000000     
   4.7858563562177825E-002  0.16574292355504530        0.0000000000000000     
   3.8571941290835417E-002  0.13498619762924385        0.0000000000000000     
   3.9424004574275251E-002  0.14250795891720269        0.0000000000000000     
   4.0213495975274641E-002  0.15010986276036004        0.0000000000000000     
   4.0940415493833600E-002  0.15779190915871585        0.0000000000000000     
   4.1604763129952128E-002  0.16555409811227015        0.0000000000000000     
   3.2855892435888628E-002  0.13476381710282373        0.0000000000000000     
   3.3585376259179942E-002  0.14230372225518489        0.0000000000000000     
   3.4260338291518179E-002  0.14992180213982900        0.0000000000000000     
   3.4880778532903348E-002  0.15761805675675600        0.0000000000000000     
   3.5446696983335441E-002  0.16539248610596591        0.0000000000000000     
   2.7233702450738084E-002  0.13457641707918622        0.0000000000000000     
   2.7840339324783085E-002  0.14213206454306357        0.0000000000000000     
   2.8400995394729702E-002  0.14976422544051374        0.0000000000000000     
   2.8915670660577927E-002  0.15747289977153681        0.0000000000000000     
   2.9384365122327772E-002  0.16525808753613269        0.0000000000000000     
   2.1705371335383767E-002  0.13442399755833129        0.0000000000000000     
   2.2188893771084683E-002  0.14199298578083863        0.0000000000000000     
   2.2635467284909207E-002  0.14963713266241430        0.0000000000000000     
   2.3045091876857358E-002  0.15735643820305820        0.0000000000000000     
   2.3417767546929119E-002  0.16515090240277036        0.0000000000000000     
   4.7858563562177825E-002  0.16574292355504530        0.0000000000000000     
   4.8564214567532779E-002  0.17358313221554822        0.0000000000000000     
   4.9223334624539837E-002  0.18152440813947937        0.0000000000000000     
   4.9835923733199020E-002  0.18956675132683878        0.0000000000000000     
   5.0401981893510306E-002  0.19771016177762635        0.0000000000000000     
   4.1604763129952128E-002  0.16555409811227015        0.0000000000000000     
   4.2216742032016592E-002  0.17340768868680015        0.0000000000000000     
   4.2786555348413378E-002  0.18136393994808306        0.0000000000000000     
   4.3314203079142473E-002  0.18942285189611896        0.0000000000000000     
   4.3799685224203876E-002  0.19758442453090777        0.0000000000000000     
   3.5446696983335441E-002  0.16539248610596591        0.0000000000000000     
   3.5966739000639472E-002  0.17325793351486860        0.0000000000000000     
   3.6449549942640450E-002  0.18122724231087389        0.0000000000000000     
   3.6895129809338373E-002  0.18930041249398180        0.0000000000000000     
   3.7303478600733235E-002  0.19747744406419235        0.0000000000000000     
   2.9384365122327772E-002  0.16525808753613269        0.0000000000000000     
   2.9814205473401419E-002  0.17313386669975361        0.0000000000000000     
   3.0212318407221071E-002  0.18111431522785185        0.0000000000000000     
   3.0578703923786726E-002  0.18919943312042731        0.0000000000000000     
   3.0913362023098384E-002  0.19738922037748008        0.0000000000000000     
   2.3417767546929119E-002  0.16515090240277036        0.0000000000000000     
   2.3759141450302432E-002  0.17303548824145515        0.0000000000000000     
   2.4074860742155240E-002  0.18102515869901686        0.0000000000000000     
   2.4364925422487541E-002  0.18911991377545548        0.0000000000000000     
   2.4629335491299333E-002  0.19731975347077099        0.0000000000000000     
   5.0401981893510306E-002  0.19771016177762635        0.0000000000000000     
   5.0912998909530986E-002  0.20593837465135617        0.0000000000000000     
   5.1360464585318316E-002  0.21423512510754220        0.0000000000000000     
   5.1744378920872310E-002  0.22260041314618434        0.0000000000000000     
   5.2064741916192939E-002  0.23103423876728277        0.0000000000000000     
   4.3799685224203876E-002  0.19758442453090777        0.0000000000000000     
   4.4236462620017507E-002  0.20582964631796424        0.0000000000000000     
   4.4617996103003287E-002  0.21413950572280302        0.0000000000000000     
   4.4944285673161208E-002  0.22251400274542416        0.0000000000000000     
   4.5215331330491264E-002  0.23095313738582768        0.0000000000000000     
   3.7303478600733235E-002  0.19747744406419235        0.0000000000000000     
   3.7669722772856372E-002  0.20573681697308210        0.0000000000000000     
   3.7988988781739112E-002  0.21405701117222775        0.0000000000000000     
   3.8261276627381442E-002  0.22243802666162921        0.0000000000000000     
   3.8486586309783362E-002  0.23087986344128655        0.0000000000000000     
   3.0913362023098384E-002  0.19738922037748008        0.0000000000000000     
   3.1212779368047568E-002  0.20565988661670989        0.0000000000000000     
   3.1473442621525766E-002  0.21398764145581636        0.0000000000000000     
   3.1695351783532992E-002  0.22237248489479960        0.0000000000000000     
   3.1878506854069240E-002  0.23081441693365956        0.0000000000000000     
   2.4629335491299333E-002  0.19731975347077099        0.0000000000000000     
   2.4865632405591087E-002  0.20559885524884747        0.0000000000000000     
   2.5071357622363268E-002  0.21393139657356891        0.0000000000000000     
   2.5246511141615875E-002  0.22231737744493527        0.0000000000000000     
   2.5391092963348912E-002  0.23075679786294662        0.0000000000000000     
   5.2064741916192939E-002  0.23103423876728277        0.0000000000000000     
   5.2331468185698185E-002  0.23953007946090854        0.0000000000000000     
   5.2554472343805947E-002  0.24808141271713291        0.0000000000000000     
   5.2733754390516231E-002  0.25668823853595585        0.0000000000000000     
   5.2869314325829045E-002  0.26535055691737741        0.0000000000000000     
   4.5215331330491264E-002  0.23095313738582768        0.0000000000000000     
   4.5441533905702963E-002  0.23944362063970800        0.0000000000000000     
   4.5633294229505808E-002  0.24797216350275975        0.0000000000000000     
   4.5790612301899784E-002  0.25653876597498293        0.0000000000000000     
   4.5913488122884913E-002  0.26514342805637747        0.0000000000000000     
   3.8486586309783362E-002  0.23087986344128655        0.0000000000000000     
   3.8675020066038998E-002  0.23936388344909376        0.0000000000000000     
   3.8836680133242478E-002  0.24787144862294466        0.0000000000000000     
   3.8971566511393788E-002  0.25640255896283931        0.0000000000000000     
   3.9079679200492927E-002  0.26495721446877779        0.0000000000000000     
   3.1878506854069240E-002  0.23081441693365956        0.0000000000000000     
   3.2031926666706310E-002  0.23929086788906576        0.0000000000000000     
   3.2164630055015964E-002  0.24777926807768760        0.0000000000000000     
   3.2276617018998234E-002  0.25627961749952510        0.0000000000000000     
   3.2367887558653080E-002  0.26479191615457837        0.0000000000000000     
   2.5391092963348912E-002  0.23075679786294662        0.0000000000000000     
   2.5512253707704876E-002  0.23922457395962402        0.0000000000000000     
   2.5617143994826275E-002  0.24769562186698857        0.0000000000000000     
   2.5705763824713110E-002  0.25616994158504031        0.0000000000000000     
   2.5778113197365372E-002  0.26464753311377920        0.0000000000000000     
   5.2869314325829045E-002  0.26535055691737741        0.0000000000000000     
   5.2991442298745160E-002  0.27401875916680268        0.0000000000000000     
   5.3130428458265329E-002  0.28264323658963691        0.0000000000000000     
   5.3286272804389558E-002  0.29122398918587999        0.0000000000000000     
   5.3458975337117839E-002  0.29976101695553214        0.0000000000000000     
   4.5913488122884913E-002  0.26514342805637747        0.0000000000000000     
   4.6025613552676800E-002  0.27373578151157663        0.0000000000000000     
   4.6150680451491066E-002  0.28226545810521364        0.0000000000000000     
   4.6288688819327711E-002  0.29073245783728857        0.0000000000000000     
   4.6439638656186728E-002  0.29913678070780131        0.0000000000000000     
   3.9079679200492927E-002  0.26495721446877779        0.0000000000000000     
   3.9179455777559852E-002  0.27348377304076432        0.0000000000000000     
   3.9289333819614490E-002  0.28193059257880321        0.0000000000000000     
   3.9409313326656863E-002  0.29029767308289456        0.0000000000000000     
   3.9539394298686970E-002  0.29858501455303815        0.0000000000000000     
   3.2367887558653080E-002  0.26479191615457837        0.0000000000000000     
   3.2452968973394287E-002  0.27326273375436572        0.0000000000000000     
   3.2546388562635593E-002  0.28163864001040562        0.0000000000000000     
   3.2648146326377026E-002  0.28991963492269801        0.0000000000000000     
   3.2758242264618549E-002  0.29810571849124284        0.0000000000000000     
   2.5778113197365372E-002  0.26464753311377920        0.0000000000000000     
   2.5846153140180118E-002  0.27307266365238081        0.0000000000000000     
   2.5921844680554387E-002  0.28138960040002070        0.0000000000000000     
   2.6005187818488176E-002  0.28959834335669882        0.0000000000000000     
   2.6096182553981488E-002  0.29769889252241521        0.0000000000000000     
   1.3532043089745422E-002   5.4636776824374761E-002   0.0000000000000000     
   1.4792999565681121E-002   6.1452221079037764E-002   0.0000000000000000     
   1.5834258015435112E-002   6.7962260910705771E-002   0.0000000000000000     
   1.6655818439007396E-002   7.4166896319378797E-002   0.0000000000000000     
   1.7257680836397969E-002   8.0066127305056828E-002   0.0000000000000000     
   1.0223993239905842E-002   5.4406619037192419E-002   0.0000000000000000     
   1.1119794933365939E-002   6.1256580838723283E-002   0.0000000000000000     
   1.1865944953133967E-002   6.7789538322192866E-002   0.0000000000000000     
   1.2462443299209930E-002   7.4005491487601133E-002   0.0000000000000000     
   1.2909289971593825E-002   7.9904440334948118E-002   0.0000000000000000     
   6.8659694481522319E-003   5.4242220611232163E-002   0.0000000000000000     
   7.4298934696306928E-003   6.1116837812326602E-002   0.0000000000000000     
   7.9041309380836998E-003   6.7666165054099128E-002   0.0000000000000000     
   8.2886818535112539E-003   7.3890202336549762E-002   0.0000000000000000     
   8.5835462159133506E-003   7.9788949659678476E-002   0.0000000000000000     
   3.4579717144845850E-003   5.4143581546493985E-002   0.0000000000000000     
   3.7232951744753827E-003   6.1032991999847706E-002   0.0000000000000000     
   3.9488159702843082E-003   6.7592141106424586E-002   0.0000000000000000     
   4.1345341019113644E-003   7.3821028866224644E-002   0.0000000000000000     
   4.2804495693565476E-003   7.9719655279247889E-002   0.0000000000000000     
   3.8902903901766317E-011   5.4110701842977893E-002   0.0000000000000000     
   4.7900006877599210E-011   6.1005043401286596E-002   0.0000000000000000     
   4.9735792741201212E-011   6.7567466479169239E-002   0.0000000000000000     
   4.4410261709412757E-011   7.3797971076625821E-002   0.0000000000000000     
   3.1923414866436017E-011   7.9696557193656342E-002   0.0000000000000000     
   1.7257680836397969E-002   8.0066127305056828E-002   0.0000000000000000     
   1.7765057233194853E-002   8.5963152323682512E-002   0.0000000000000000     
   1.8303159654986068E-002   9.2161169831198486E-002   0.0000000000000000     
   1.8871988101771604E-002   9.8660179827604763E-002   0.0000000000000000     
   1.9471542573551479E-002  0.10546018231290134        0.0000000000000000     
   1.2909289971593825E-002   7.9904440334948118E-002   0.0000000000000000     
   1.3292151603175557E-002   8.5797190145275731E-002   0.0000000000000000     
   1.3696694826845031E-002   9.1994546199625923E-002   0.0000000000000000     
   1.4122919642602245E-002   9.8496508497998694E-002   0.0000000000000000     
   1.4570826050447201E-002  0.10530307704039406        0.0000000000000000     
   8.5835462159133506E-003   7.9788949659678476E-002   0.0000000000000000     
   8.8403401907046677E-003   8.5678645751010862E-002   0.0000000000000000     
   9.1106799432998774E-003   9.1875529338072554E-002   0.0000000000000000     
   9.3945654736989799E-003   9.8379600420863508E-002   0.0000000000000000     
   9.6919967819019733E-003  0.10519085899938375        0.0000000000000000     
   4.2804495693565476E-003   7.9719655279247889E-002   0.0000000000000000     
   4.4096229957821878E-003   8.5607519140887892E-002   0.0000000000000000     
   4.5451150043506099E-003   9.1804119246538335E-002   0.0000000000000000     
   4.6869255950618138E-003   9.8309455596199177E-002   0.0000000000000000     
   4.8350547679157987E-003  0.10512352818987047        0.0000000000000000     
   3.1923414866436017E-011   7.9696557193656342E-002   0.0000000000000000     
   1.8408114008799936E-011   8.5583810314906833E-002   0.0000000000000000     
   9.9972252698421471E-012   9.1780315925023295E-002   0.0000000000000000     
   6.6907482158817810E-012   9.8286074024005715E-002   0.0000000000000000     
   8.4886815458762310E-012  0.10510108461185413        0.0000000000000000     
   1.9471542573551479E-002  0.10546018231290134        0.0000000000000000     
   2.0072344984373776E-002  0.11248329481304702        0.0000000000000000     
   2.0644917248286591E-002  0.11965163485400056        0.0000000000000000     
   2.1189259365289922E-002  0.12696520243576195        0.0000000000000000     
   2.1705371335383767E-002  0.13442399755833129        0.0000000000000000     
   1.4570826050447201E-002  0.10530307704039406        0.0000000000000000     
   1.5019068223174670E-002  0.11233490937664978        0.0000000000000000     
   1.5446300333579428E-002  0.11951266305660363        0.0000000000000000     
   1.5852522381661474E-002  0.12683633808025560        0.0000000000000000     
   1.6237734367420806E-002  0.13430593444760575        0.0000000000000000     
   9.6919967819019733E-003  0.10519085899938375        0.0000000000000000     
   9.9892518073895747E-003  0.11222891978510821        0.0000000000000000     
   1.0272608489642494E-002  0.11941339748951181        0.0000000000000000     
   1.0542066828660736E-002  0.12674429211259455        0.0000000000000000     
   1.0797626824444297E-002  0.13422160365435643        0.0000000000000000     
   4.8350547679157987E-003  0.10512352818987047        0.0000000000000000     
   4.9828957370184864E-003  0.11216532603842237        0.0000000000000000     
   5.1238417164757881E-003  0.11935383815272516        0.0000000000000000     
   5.2578927062877090E-003  0.12668906453277878        0.0000000000000000     
   5.3850487064542466E-003  0.13417100517858330        0.0000000000000000     
   8.4886815458762310E-012  0.10510108461185413        0.0000000000000000     
   1.2061409596780814E-011  0.11214412813659221        0.0000000000000000     
   1.4079313344524114E-011  0.11933398504624361        0.0000000000000000     
   1.4542396177237918E-011  0.12667065534080835        0.0000000000000000     
   1.3450653351537722E-011  0.13415413902028639        0.0000000000000000     
   2.1705371335383767E-002  0.13442399755833129        0.0000000000000000     
   2.2188893771084683E-002  0.14199298578083863        0.0000000000000000     
   2.2635467284909207E-002  0.14963713266241430        0.0000000000000000     
   2.3045091876857358E-002  0.15735643820305820        0.0000000000000000     
   2.3417767546929119E-002  0.16515090240277036        0.0000000000000000     
   1.6237734367420806E-002  0.13430593444760575        0.0000000000000000     
   1.6598600513607183E-002  0.14188554515463306        0.0000000000000000     
   1.6931785042970382E-002  0.14953926319731664        0.0000000000000000     
   1.7237287955510397E-002  0.15726708857565636        0.0000000000000000     
   1.7515109251227224E-002  0.16506902128965237        0.0000000000000000     
   1.0797626824444297E-002  0.13422160365435643        0.0000000000000000     
   1.1037020467873060E-002  0.14180880185056974        0.0000000000000000     
   1.1257979749826903E-002  0.14946935643700673        0.0000000000000000     
   1.1460504670305830E-002  0.15720326741366747        0.0000000000000000     
   1.1644595229309837E-002  0.16501053478055194        0.0000000000000000     
   5.3850487064542466E-003  0.13417100517858330        0.0000000000000000     
   5.5041536338822994E-003  0.14176275586864862        0.0000000000000000     
   5.6140514054787713E-003  0.14942741238148469        0.0000000000000000     
   5.7147420212436562E-003  0.15716497471709151        0.0000000000000000     
   5.8062254811769602E-003  0.16497544287546909        0.0000000000000000     
   1.3450653351537722E-011  0.13415413902028639        0.0000000000000000     
   1.1634909398774984E-011  0.14174740720886975        0.0000000000000000     
   9.9259836461307316E-012  0.14941343103075044        0.0000000000000000     
   8.3238765272858339E-012  0.15715221048592845        0.0000000000000000     
   6.8285880422402911E-012  0.16496374557440380        0.0000000000000000     
   2.3417767546929119E-002  0.16515090240277036        0.0000000000000000     
   2.3759141450302432E-002  0.17303548824145515        0.0000000000000000     
   2.4074860742155240E-002  0.18102515869901686        0.0000000000000000     
   2.4364925422487541E-002  0.18911991377545548        0.0000000000000000     
   2.4629335491299333E-002  0.19731975347077099        0.0000000000000000     
   1.7515109251227224E-002  0.16506902128965237        0.0000000000000000     
   1.7769448156735014E-002  0.17296064574658179        0.0000000000000000     
   1.8004503898647915E-002  0.18095754635372183        0.0000000000000000     
   1.8220276476965933E-002  0.18905972311107255        0.0000000000000000     
   1.8416765891689058E-002  0.19726717601863386        0.0000000000000000     
   1.1644595229309837E-002  0.16501053478055194        0.0000000000000000     
   1.1813026818091668E-002  0.17290718682174200        0.0000000000000000     
   1.1968574827904064E-002  0.18090925182131959        0.0000000000000000     
   1.2111239258747023E-002  0.18901672977928474        0.0000000000000000     
   1.2241020110620547E-002  0.19722962069563740        0.0000000000000000     
   5.8062254811769602E-003  0.16497544287546909        0.0000000000000000     
   5.8898774343723948E-003  0.17287511146693582        0.0000000000000000     
   5.9670735299236811E-003  0.18088027510181018        0.0000000000000000     
   6.0378137678308158E-003  0.18899093378009210        0.0000000000000000     
   6.1020981480938031E-003  0.19720708750178165        0.0000000000000000     
   6.8285880422402911E-012  0.16496374557440380        0.0000000000000000     
   5.5771938716614455E-012  0.17286441968216326        0.0000000000000000     
   4.7067674193920772E-012  0.18087061619519354        0.0000000000000000     
   4.2173114772527803E-012  0.18898233511349466        0.0000000000000000     
   4.1088226571117659E-012  0.19719957643706665        0.0000000000000000     
   2.4629335491299333E-002  0.19731975347077099        0.0000000000000000     
   2.4865632405591087E-002  0.20559885524884747        0.0000000000000000     
   2.5071357622363268E-002  0.21393139657356891        0.0000000000000000     
   2.5246511141615875E-002  0.22231737744493527        0.0000000000000000     
   2.5391092963348912E-002  0.23075679786294662        0.0000000000000000     
   1.8416765891689058E-002  0.19726717601863386        0.0000000000000000     
   1.8592343824539816E-002  0.20555240860945434        0.0000000000000000     
   1.8745381957240733E-002  0.21388792441658258        0.0000000000000000     
   1.8875880289791796E-002  0.22227372344001856        0.0000000000000000     
   1.8983838822193011E-002  0.23070980567976224        0.0000000000000000     
   1.2241020110620547E-002  0.19722962069563740        0.0000000000000000     
   1.2356975563946632E-002  0.20551923243848993        0.0000000000000000     
   1.2458163799147267E-002  0.21385687287595470        0.0000000000000000     
   1.2544584816222460E-002  0.22224254200803173        0.0000000000000000     
   1.2616238615172207E-002  0.23067623983472099        0.0000000000000000     
   6.1020981480938031E-003  0.19720708750178165        0.0000000000000000     
   6.1595276238115291E-003  0.20549932673595428        0.0000000000000000     
   6.2097031480828867E-003  0.21383824195168530        0.0000000000000000     
   6.2526247209078716E-003  0.22222383314897481        0.0000000000000000     
   6.2882923422864900E-003  0.23065610032782280        0.0000000000000000     
   4.1088226571117659E-012  0.19719957643706665        0.0000000000000000     
   4.1345104423440304E-012  0.20549269150184726        0.0000000000000000     
   4.0475798710956634E-012  0.21383203164377435        0.0000000000000000     
   3.8480305910009588E-012  0.22221759686284784        0.0000000000000000     
   3.5358638759974692E-012  0.23064938715906777        0.0000000000000000     
   2.5391092963348912E-002  0.23075679786294662        0.0000000000000000     
   2.5512253707704876E-002  0.23922457395962402        0.0000000000000000     
   2.5617143994826275E-002  0.24769562186698857        0.0000000000000000     
   2.5705763824713110E-002  0.25616994158504031        0.0000000000000000     
   2.5778113197365372E-002  0.26464753311377920        0.0000000000000000     
   1.8983838822193011E-002  0.23070980567976224        0.0000000000000000     
   1.9074265797046661E-002  0.23916950748477711        0.0000000000000000     
   1.9152169456955009E-002  0.24762616520402655        0.0000000000000000     
   1.9217549801918064E-002  0.25607977883751065        0.0000000000000000     
   1.9270406831935823E-002  0.26453034838522932        0.0000000000000000     
   1.2616238615172207E-002  0.23067623983472099        0.0000000000000000     
   1.2676227542743609E-002  0.23913017428853356        0.0000000000000000     
   1.2727653945683782E-002  0.24757655330198056        0.0000000000000000     
   1.2770517823992720E-002  0.25601537687506198        0.0000000000000000     
   1.2804819177670424E-002  0.26444664500777787        0.0000000000000000     
   6.2882923422864900E-003  0.23065610032782280        0.0000000000000000     
   6.3181389447957322E-003  0.23910657437089339        0.0000000000000000     
   6.3435974610125965E-003  0.24754678616085052        0.0000000000000000     
   6.3646678909370803E-003  0.25597673569769436        0.0000000000000000     
   6.3813502345691862E-003  0.26439642298142479        0.0000000000000000     
   3.5358638759974692E-012  0.23064938715906777        0.0000000000000000     
   3.2030218321404957E-012  0.23909870773185654        0.0000000000000000     
   2.9414492759907707E-012  0.24753686378063652        0.0000000000000000     
   2.7511417894244411E-012  0.25596385530540766        0.0000000000000000     
   2.6321037363552513E-012  0.26437968230617009        0.0000000000000000     
   2.5778113197365372E-002  0.26464753311377920        0.0000000000000000     
   2.5846153140180118E-002  0.27307266365238081        0.0000000000000000     
   2.5921844680554387E-002  0.28138960040002070        0.0000000000000000     
   2.6005187818488176E-002  0.28959834335669882        0.0000000000000000     
   2.6096182553981488E-002  0.29769889252241521        0.0000000000000000     
   1.9270406831935823E-002  0.26453034838522932        0.0000000000000000     
   1.9320533308273598E-002  0.27291990133136890        0.0000000000000000     
   1.9377721992196721E-002  0.28119046516011564        0.0000000000000000     
   1.9441972883705187E-002  0.28934203987146956        0.0000000000000000     
   1.9513285982798986E-002  0.29737462546543070        0.0000000000000000     
   1.2804819177670424E-002  0.26444664500777787        0.0000000000000000     
   1.2837634508030982E-002  0.27281078538788939        0.0000000000000000     
   1.2876040316388473E-002  0.28104822570315763        0.0000000000000000     
   1.2920036602742905E-002  0.28915896595358259        0.0000000000000000     
   1.2969623367094271E-002  0.29714300613916439        0.0000000000000000     
   6.3813502345691862E-003  0.26439642298142479        0.0000000000000000     
   6.3974567394522565E-003  0.27274531582194211        0.0000000000000000     
   6.4167996531296397E-003  0.28096288202914643        0.0000000000000000     
   6.4393789756013314E-003  0.28904912160303792        0.0000000000000000     
   6.4651947068673343E-003  0.29700403454361640        0.0000000000000000     
   2.6321037363552513E-012  0.26437968230617009        0.0000000000000000     
   2.5374296847707756E-012  0.27272349263352713        0.0000000000000000     
   2.4202187563077127E-012  0.28093443413808228        0.0000000000000000     
   2.2804694872931297E-012  0.28901250681983548        0.0000000000000000     
   2.1181814982562663E-012  0.29695771067878679        0.0000000000000000     
   3.8902903901766317E-011   5.4110701842977893E-002   0.0000000000000000     
   4.7900006877599210E-011   6.1005043401286596E-002   0.0000000000000000     
   4.9735792741201212E-011   6.7567466479169239E-002   0.0000000000000000     
   4.4410261709412757E-011   7.3797971076625821E-002   0.0000000000000000     
   3.1923414866436017E-011   7.9696557193656342E-002   0.0000000000000000     
  -3.4579716717941227E-003   5.4143581499316855E-002   0.0000000000000000     
  -3.7232951023959361E-003   6.1032992009228092E-002   0.0000000000000000     
  -3.9488158855160707E-003   6.7592141160542005E-002   0.0000000000000000     
  -4.1345340211545257E-003   7.3821028953258608E-002   0.0000000000000000     
  -4.2804495093113036E-003   7.9719655387377908E-002   0.0000000000000000     
  -6.8659695108078053E-003   5.4242220514143860E-002   0.0000000000000000     
  -7.4298934687129529E-003   6.1116837816257000E-002   0.0000000000000000     
  -7.9041308974255094E-003   6.7666165138751816E-002   0.0000000000000000     
  -8.2886817969454810E-003   7.3890202481628350E-002   0.0000000000000000     
  -8.5835461672728597E-003   7.9788949844886575E-002   0.0000000000000000     
  -1.0223993478138146E-002   5.4406618887458916E-002   0.0000000000000000     
  -1.1119795051051044E-002   6.1256580822373306E-002   0.0000000000000000     
  -1.1865944985992529E-002   6.7789538413798672E-002   0.0000000000000000     
  -1.2462443282962600E-002   7.4005491661735034E-002   0.0000000000000000     
  -1.2909289941961260E-002   7.9904440566182372E-002   0.0000000000000000     
  -1.3532043573785143E-002   5.4636776619262001E-002   0.0000000000000000     
  -1.4792999849410203E-002   6.1452221027577018E-002   0.0000000000000000     
  -1.5834258151217119E-002   6.7962260985682574E-002   0.0000000000000000     
  -1.6655818479205879E-002   7.4166896493578660E-002   0.0000000000000000     
  -1.7257680833376497E-002   8.0066127551265284E-002   0.0000000000000000     
   3.1923414866436017E-011   7.9696557193656342E-002   0.0000000000000000     
   1.8408114008799936E-011   8.5583810314906833E-002   0.0000000000000000     
   9.9972252698421471E-012   9.1780315925023295E-002   0.0000000000000000     
   6.6907482158817810E-012   9.8286074024005715E-002   0.0000000000000000     
   8.4886815458762310E-012  0.10510108461185413        0.0000000000000000     
  -4.2804495093113036E-003   7.9719655387377908E-002   0.0000000000000000     
  -4.4096229602079776E-003   8.5607519257784759E-002   0.0000000000000000     
  -4.5451149840661283E-003   9.1804119359364084E-002   0.0000000000000000     
  -4.6869255808857559E-003   9.8309455692115841E-002   0.0000000000000000     
  -4.8350547506668621E-003  0.10512352825604006        0.0000000000000000     
  -8.5835461672728597E-003   7.9788949844886575E-002   0.0000000000000000     
  -8.8403401588565151E-003   8.5678645954238825E-002   0.0000000000000000     
  -9.1106799221453080E-003   9.1875529535397377E-002   0.0000000000000000     
  -9.3945654571392402E-003   9.8379600588362273E-002   0.0000000000000000     
  -9.6919967638383099E-003  0.10519085911313347        0.0000000000000000     
  -1.2909289941961260E-002   7.9904440566182372E-002   0.0000000000000000     
  -1.3292151577537499E-002   8.5797190404268975E-002   0.0000000000000000     
  -1.3696694804240314E-002   9.1994546453123188E-002   0.0000000000000000     
  -1.4122919622069702E-002   9.8496508712744985E-002   0.0000000000000000     
  -1.4570826031025663E-002  0.10530307718313434        0.0000000000000000     
  -1.7257680833376497E-002   8.0066127551265284E-002   0.0000000000000000     
  -1.7765057216250931E-002   8.5963152607875265E-002   0.0000000000000000     
  -1.8303159630351142E-002   9.2161170112541504E-002   0.0000000000000000     
  -1.8871988075677144E-002   9.8660180065263975E-002   0.0000000000000000     
  -1.9471542552228924E-002  0.10546018246604266        0.0000000000000000     
   8.4886815458762310E-012  0.10510108461185413        0.0000000000000000     
   1.2061409596780814E-011  0.11214412813659221        0.0000000000000000     
   1.4079313344524114E-011  0.11933398504624361        0.0000000000000000     
   1.4542396177237918E-011  0.12667065534080835        0.0000000000000000     
   1.3450653351537722E-011  0.13415413902028639        0.0000000000000000     
  -4.8350547506668621E-003  0.10512352825604006        0.0000000000000000     
  -4.9828957134880640E-003  0.11216532607327445        0.0000000000000000     
  -5.1238416894279805E-003  0.11935383816595671        0.0000000000000000     
  -5.2578926784866168E-003  0.12668906453408682        0.0000000000000000     
  -5.3850486806639669E-003  0.13417100517766481        0.0000000000000000     
  -9.6919967638383099E-003  0.10519085911313347        0.0000000000000000     
  -9.9892517856363400E-003  0.11222891984212575        0.0000000000000000     
  -1.0272608465927147E-002  0.11941339750775391        0.0000000000000000     
  -1.0542066804710735E-002  0.12674429211001792        0.0000000000000000     
  -1.0797626801987099E-002  0.13422160364891780        0.0000000000000000     
  -1.4570826031025663E-002  0.10530307718313434        0.0000000000000000     
  -1.5019068204383418E-002  0.11233490944314613        0.0000000000000000     
  -1.5446300315418183E-002  0.11951266307163520        0.0000000000000000     
  -1.5852522364129956E-002  0.12683633806860159        0.0000000000000000     
  -1.6237734350518743E-002  0.13430593443404526        0.0000000000000000     
  -1.9471542552228924E-002  0.10546018246604266        0.0000000000000000     
  -2.0072344969729296E-002  0.11248329487633557        0.0000000000000000     
  -2.0644917237901086E-002  0.11965163485760064        0.0000000000000000     
  -2.1189259356744292E-002  0.12696520240983789        0.0000000000000000     
  -2.1705371326258906E-002  0.13442399753304729        0.0000000000000000     
   1.3450653351537722E-011  0.13415413902028639        0.0000000000000000     
   1.1634909398774984E-011  0.14174740720886975        0.0000000000000000     
   9.9259836461307316E-012  0.14941343103075044        0.0000000000000000     
   8.3238765272858339E-012  0.15715221048592845        0.0000000000000000     
   6.8285880422402911E-012  0.16496374557440380        0.0000000000000000     
  -5.3850486806639669E-003  0.13417100517766481        0.0000000000000000     
  -5.5041536114151480E-003  0.14176275586984460        0.0000000000000000     
  -5.6140513861952686E-003  0.14942741238378004        0.0000000000000000     
  -5.7147420050043295E-003  0.15716497471947116        0.0000000000000000     
  -5.8062254678423299E-003  0.16497544287691798        0.0000000000000000     
  -1.0797626801987099E-002  0.13422160364891780        0.0000000000000000     
  -1.1037020447813904E-002  0.14180880185018460        0.0000000000000000     
  -1.1257979732248796E-002  0.14946935643954951        0.0000000000000000     
  -1.1460504655291776E-002  0.15720326741701243        0.0000000000000000     
  -1.1644595216942851E-002  0.16501053478257346        0.0000000000000000     
  -1.6237734350518743E-002  0.13430593443404526        0.0000000000000000     
  -1.6598600497561358E-002  0.14188554514988985        0.0000000000000000     
  -1.6931785028234596E-002  0.14953926319805882        0.0000000000000000     
  -1.7237287942538471E-002  0.15726708857855232        0.0000000000000000     
  -1.7515109240472969E-002  0.16506902129137027        0.0000000000000000     
  -2.1705371326258906E-002  0.13442399753304729        0.0000000000000000     
  -2.2188893760657514E-002  0.14199298576896024        0.0000000000000000     
  -2.2635467274152676E-002  0.14963713265930806        0.0000000000000000     
  -2.3045091866744402E-002  0.15735643820409076        0.0000000000000000     
  -2.3417767538432693E-002  0.16515090240330835        0.0000000000000000     
   6.8285880422402911E-012  0.16496374557440380        0.0000000000000000     
   5.5771938716614455E-012  0.17286441968216326        0.0000000000000000     
   4.7067674193920772E-012  0.18087061619519354        0.0000000000000000     
   4.2173114772527803E-012  0.18898233511349466        0.0000000000000000     
   4.1088226571117659E-012  0.19719957643706665        0.0000000000000000     
  -5.8062254678423299E-003  0.16497544287691798        0.0000000000000000     
  -5.8898774234945649E-003  0.17287511146719667        0.0000000000000000     
  -5.9670735207463209E-003  0.18088027510138333        0.0000000000000000     
  -6.0378137595976039E-003  0.18899093377947801        0.0000000000000000     
  -6.1020981400484097E-003  0.19720708750148072        0.0000000000000000     
  -1.1644595216942851E-002  0.16501053478257346        0.0000000000000000     
  -1.1813026808043504E-002  0.17290718682180845        0.0000000000000000     
  -1.1968574819435232E-002  0.18090925182029324        0.0000000000000000     
  -1.2111239251118030E-002  0.18901672977802786        0.0000000000000000     
  -1.2241020103091910E-002  0.19722962069501232        0.0000000000000000     
  -1.7515109240472969E-002  0.16506902129137027        0.0000000000000000     
  -1.7769448148069626E-002  0.17296064574599856        0.0000000000000000     
  -1.8004503891359967E-002  0.18095754635192321        0.0000000000000000     
  -1.8220276470343980E-002  0.18905972310914415        0.0000000000000000     
  -1.8416765885021676E-002  0.19726717601766144        0.0000000000000000     
  -2.3417767538432693E-002  0.16515090240330835        0.0000000000000000     
  -2.3759141443572933E-002  0.17303548823976711        0.0000000000000000     
  -2.4074860736520515E-002  0.18102515869627331        0.0000000000000000     
  -2.4364925417275439E-002  0.18911991377282697        0.0000000000000000     
  -2.4629335485837716E-002  0.19731975346942809        0.0000000000000000     
   4.1088226571117659E-012  0.19719957643706665        0.0000000000000000     
   4.1345104423440304E-012  0.20549269150184726        0.0000000000000000     
   4.0475798710956634E-012  0.21383203164377435        0.0000000000000000     
   3.8480305910009588E-012  0.22221759686284784        0.0000000000000000     
   3.5358638759974692E-012  0.23064938715906777        0.0000000000000000     
  -6.1020981400484097E-003  0.19720708750148072        0.0000000000000000     
  -6.1595276156906987E-003  0.20549932673613241        0.0000000000000000     
  -6.2097031401164345E-003  0.21383824195217394        0.0000000000000000     
  -6.2526247133256130E-003  0.22222383314960539        0.0000000000000000     
  -6.2882923353182350E-003  0.23065610032842682        0.0000000000000000     
  -1.2241020103091910E-002  0.19722962069501232        0.0000000000000000     
  -1.2356975556270369E-002  0.20551923243877301        0.0000000000000000     
  -1.2458163791566937E-002  0.21385687287683636        0.0000000000000000     
  -1.2544584808981607E-002  0.22224254200920229        0.0000000000000000     
  -1.2616238608514374E-002  0.23067623983587088        0.0000000000000000     
  -1.8416765885021676E-002  0.19726717601766144        0.0000000000000000     
  -1.8592343817604509E-002  0.20555240860976917        0.0000000000000000     
  -1.8745381950303931E-002  0.21388792441776150        0.0000000000000000     
  -1.8875880283119949E-002  0.22227372344163845        0.0000000000000000     
  -1.8983838816052555E-002  0.23070980568140004        0.0000000000000000     
  -2.4629335485837716E-002  0.19731975346942809        0.0000000000000000     
  -2.4865632399693111E-002  0.20559885524912086        0.0000000000000000     
  -2.5071357616327419E-002  0.21393139657494945        0.0000000000000000     
  -2.5246511135740640E-002  0.22231737744691391        0.0000000000000000     
  -2.5391092957932772E-002  0.23075679786501421        0.0000000000000000     
   3.5358638759974692E-012  0.23064938715906777        0.0000000000000000     
   3.2030218321404957E-012  0.23909870773185654        0.0000000000000000     
   2.9414492759907707E-012  0.24753686378063652        0.0000000000000000     
   2.7511417894244411E-012  0.25596385530540766        0.0000000000000000     
   2.6321037363552513E-012  0.26437968230617009        0.0000000000000000     
  -6.2882923353182350E-003  0.23065610032842682        0.0000000000000000     
  -6.3181389384861517E-003  0.23910657437141314        0.0000000000000000     
  -6.3435974552212056E-003  0.24754678616133946        0.0000000000000000     
  -6.3646678855234038E-003  0.25597673569820573        0.0000000000000000     
  -6.3813502293927392E-003  0.26439642298201205        0.0000000000000000     
  -1.2616238608514374E-002  0.23067623983587088        0.0000000000000000     
  -1.2676227536723421E-002  0.23913017428955319        0.0000000000000000     
  -1.2727653940166915E-002  0.24757655330296030        0.0000000000000000     
  -1.2770517818844864E-002  0.25601537687609222        0.0000000000000000     
  -1.2804819172757258E-002  0.26444664500894888        0.0000000000000000     
  -1.8983838816052555E-002  0.23070980568140004        0.0000000000000000     
  -1.9074265791508786E-002  0.23916950748627672        0.0000000000000000     
  -1.9152169451895681E-002  0.24762616520549907        0.0000000000000000     
  -1.9217549797213237E-002  0.25607977883906707        0.0000000000000000     
  -1.9270406827461461E-002  0.26453034838698064        0.0000000000000000     
  -2.5391092957932772E-002  0.23075679786501421        0.0000000000000000     
  -2.5512253702842248E-002  0.23922457396158370        0.0000000000000000     
  -2.5617143990407501E-002  0.24769562186895572        0.0000000000000000     
  -2.5705763820628530E-002  0.25616994158713019        0.0000000000000000     
  -2.5778113193505335E-002  0.26464753311610723        0.0000000000000000     
   2.6321037363552513E-012  0.26437968230617009        0.0000000000000000     
   2.5374296847707756E-012  0.27272349263352713        0.0000000000000000     
   2.4202187563077127E-012  0.28093443413808228        0.0000000000000000     
   2.2804694872931297E-012  0.28901250681983548        0.0000000000000000     
   2.1181814982562663E-012  0.29695771067878679        0.0000000000000000     
  -6.3813502293927392E-003  0.26439642298201205        0.0000000000000000     
  -6.3974567344647652E-003  0.27274531582263467        0.0000000000000000     
  -6.4167996483750333E-003  0.28096288202994985        0.0000000000000000     
  -6.4393789711235461E-003  0.28904912160395752        0.0000000000000000     
  -6.4651947027102993E-003  0.29700403454465790        0.0000000000000000     
  -1.2804819172757258E-002  0.26444664500894888        0.0000000000000000     
  -1.2837634503305601E-002  0.27281078538925468        0.0000000000000000     
  -1.2876040311891370E-002  0.28104822570473376        0.0000000000000000     
  -1.2920036598514576E-002  0.28915896595538632        0.0000000000000000     
  -1.2969623363175219E-002  0.29714300614121214        0.0000000000000000     
  -1.9270406827461461E-002  0.26453034838698064        0.0000000000000000     
  -1.9320533303985064E-002  0.27291990133338728        0.0000000000000000     
  -1.9377721988128788E-002  0.28119046516243434        0.0000000000000000     
  -1.9441972879892626E-002  0.28934203987412177        0.0000000000000000     
  -1.9513285979276578E-002  0.29737462546844962        0.0000000000000000     
  -2.5778113193505335E-002  0.26464753311610723        0.0000000000000000     
  -2.5846153136503174E-002  0.27307266365503235        0.0000000000000000     
  -2.5921844677087285E-002  0.28138960040305128        0.0000000000000000     
  -2.6005187815257687E-002  0.28959834336016388        0.0000000000000000     
  -2.6096182551014376E-002  0.29769889252637027        0.0000000000000000     
  -1.3532043573785143E-002   5.4636776619262001E-002   0.0000000000000000     
  -1.4792999849410203E-002   6.1452221027577018E-002   0.0000000000000000     
  -1.5834258151217119E-002   6.7962260985682574E-002   0.0000000000000000     
  -1.6655818479205879E-002   7.4166896493578660E-002   0.0000000000000000     
  -1.7257680833376497E-002   8.0066127551265284E-002   0.0000000000000000     
  -1.6920094650766836E-002   5.4936899466518314E-002   0.0000000000000000     
  -1.8536580151907345E-002   6.1703501153738169E-002   0.0000000000000000     
  -1.9866305300926153E-002   6.8181456915976477E-002   0.0000000000000000     
  -2.0909270097823264E-002   7.4370766753233272E-002   0.0000000000000000     
  -2.1665474542598685E-002   8.0271430665508514E-002   0.0000000000000000     
  -2.0518121562101269E-002   5.5311193186193056E-002   0.0000000000000000     
  -2.2437608246659361E-002   6.2010163922726735E-002   0.0000000000000000     
  -2.4019321342946504E-002   6.8444250266253323E-002   0.0000000000000000     
  -2.5263260850962695E-002   7.4613452216772860E-002   0.0000000000000000     
  -2.6169426770707931E-002   8.0517769774285333E-002   0.0000000000000000     
  -2.4326124307788438E-002   5.5759657778286210E-002   0.0000000000000000     
  -2.6496084133666251E-002   6.2372209334542725E-002   0.0000000000000000     
  -2.8293306277278159E-002   6.8750641036513141E-002   0.0000000000000000     
  -2.9717790738624152E-002   7.4894952884197480E-002   0.0000000000000000     
  -3.0769537517704244E-002   8.0805144877595672E-002   0.0000000000000000     
  -2.8344102887828342E-002   5.6282293242797793E-002   0.0000000000000000     
  -3.0712007812928030E-002   6.2789637389186151E-002   0.0000000000000000     
  -3.2688260103921132E-002   6.9100629226755916E-002   0.0000000000000000     
  -3.4272859760807663E-002   7.5215268755507061E-002   0.0000000000000000     
  -3.5465806783587614E-002   8.1133555975439614E-002   0.0000000000000000     
  -1.7257680833376497E-002   8.0066127551265284E-002   0.0000000000000000     
  -1.7765057216250931E-002   8.5963152607875265E-002   0.0000000000000000     
  -1.8303159630351142E-002   9.2161170112541504E-002   0.0000000000000000     
  -1.8871988075677144E-002   9.8660180065263975E-002   0.0000000000000000     
  -1.9471542552228924E-002  0.10546018246604266        0.0000000000000000     
  -2.1665474542598685E-002   8.0271430665508514E-002   0.0000000000000000     
  -2.2298049678501054E-002   8.6175651588437277E-002   0.0000000000000000     
  -2.2970126548779016E-002   9.2375632457654538E-002   0.0000000000000000     
  -2.3681705153432563E-002   9.8871373273160326E-002   0.0000000000000000     
  -2.4432785492461709E-002  0.10566287403495461        0.0000000000000000     
  -2.6169426770707931E-002   8.0517769774285333E-002   0.0000000000000000     
  -2.6930121567792117E-002   8.6433806369334593E-002   0.0000000000000000     
  -2.7737647707825133E-002   9.2638165432464489E-002   0.0000000000000000     
  -2.8592005190806971E-002   9.9130846963675065E-002   0.0000000000000000     
  -2.9493194016737639E-002  0.10591185096296632        0.0000000000000000     
  -3.0769537517704244E-002   8.0805144877595672E-002   0.0000000000000000     
  -3.1661272884124125E-002   8.6737616950567212E-002   0.0000000000000000     
  -3.2605723107489500E-002   9.2948769036971385E-002   0.0000000000000000     
  -3.3602888187800363E-002   9.9438601136808233E-002   0.0000000000000000     
  -3.4652768125056729E-002  0.10620711325007776        0.0000000000000000     
  -3.5465806783587614E-002   8.1133555975439614E-002   0.0000000000000000     
  -3.6491503627497077E-002   8.7087083332135135E-002   0.0000000000000000     
  -3.7574352747772120E-002   9.3307443271175197E-002   0.0000000000000000     
  -3.8714354144412745E-002   9.9794635792559816E-002   0.0000000000000000     
  -3.9911507817418958E-002  0.10654866089628896        0.0000000000000000     
  -1.9471542552228924E-002  0.10546018246604266        0.0000000000000000     
  -2.0072344969729296E-002  0.11248329487633557        0.0000000000000000     
  -2.0644917237901086E-002  0.11965163485760064        0.0000000000000000     
  -2.1189259356744292E-002  0.12696520240983789        0.0000000000000000     
  -2.1705371326258906E-002  0.13442399753304729        0.0000000000000000     
  -2.4432785492461709E-002  0.10566287403495461        0.0000000000000000     
  -2.5185966206900338E-002  0.11267450602405334        0.0000000000000000     
  -2.5903845937782364E-002  0.11983064052147241        0.0000000000000000     
  -2.6586424685107777E-002  0.12713127752721182        0.0000000000000000     
  -2.7233702448876591E-002  0.13457641704127160        0.0000000000000000     
  -2.9493194016737639E-002  0.10591185096296632        0.0000000000000000     
  -3.0396816041122897E-002  0.11290897276865873        0.0000000000000000     
  -3.1258473119468513E-002  0.12005000771907279        0.0000000000000000     
  -3.2078165251774475E-002  0.12733495581420851        0.0000000000000000     
  -3.2855892438040796E-002  0.13476381705406593        0.0000000000000000     
  -3.4652768125056729E-002  0.10620711325007776        0.0000000000000000     
  -3.5704894472396977E-002  0.11318669511015168        0.0000000000000000     
  -3.6708798782959545E-002  0.12030973645040176        0.0000000000000000     
  -3.7664481056744387E-002  0.12757623727082795        0.0000000000000000     
  -3.8571941293751542E-002  0.13498619757143029        0.0000000000000000     
  -3.9911507817418958E-002  0.10654866089628896        0.0000000000000000     
  -4.1110201500722574E-002  0.11350767304853228        0.0000000000000000     
  -4.2254822928255428E-002  0.12060982671545933        0.0000000000000000     
  -4.3345372100017508E-002  0.12785512189707013        0.0000000000000000     
  -4.4381849016008820E-002  0.13524355859336470        0.0000000000000000     
  -2.1705371326258906E-002  0.13442399753304729        0.0000000000000000     
  -2.2188893760657514E-002  0.14199298576896024        0.0000000000000000     
  -2.2635467274152676E-002  0.14963713265930806        0.0000000000000000     
  -2.3045091866744402E-002  0.15735643820409076        0.0000000000000000     
  -2.3417767538432693E-002  0.16515090240330835        0.0000000000000000     
  -2.7233702448876591E-002  0.13457641704127160        0.0000000000000000     
  -2.7840339319553979E-002  0.14213206452332017        0.0000000000000000     
  -2.8400995387605148E-002  0.14976422543302609        0.0000000000000000     
  -2.8915670653030086E-002  0.15747289977038931        0.0000000000000000     
  -2.9384365115828801E-002  0.16525808753540983        0.0000000000000000     
  -3.2855892438040796E-002  0.13476381705406593        0.0000000000000000     
  -3.3585376256702375E-002  0.14230372222889404        0.0000000000000000     
  -3.4260338286194111E-002  0.14992180212894188        0.0000000000000000     
  -3.4880778526516026E-002  0.15761805675420940        0.0000000000000000     
  -3.5446696977668085E-002  0.16539248610469670        0.0000000000000000     
  -3.8571941293751542E-002  0.13498619757143029        0.0000000000000000     
  -3.9424004572102704E-002  0.14250795888568177        0.0000000000000000     
  -4.0213495969919591E-002  0.15010986274705540        0.0000000000000000     
  -4.0940415487202217E-002  0.15779190915555116        0.0000000000000000     
  -4.1604763123950547E-002  0.16555409811116906        0.0000000000000000     
  -4.4381849016008820E-002  0.13524355859336470        0.0000000000000000     
  -4.5356224265754967E-002  0.14274477449368342        0.0000000000000000     
  -4.6260468438781586E-002  0.15032840728736671        0.0000000000000000     
  -4.7094581535088657E-002  0.15799445697441447        0.0000000000000000     
  -4.7858563554676194E-002  0.16574292355482684        0.0000000000000000     
  -2.3417767538432693E-002  0.16515090240330835        0.0000000000000000     
  -2.3759141443572933E-002  0.17303548823976711        0.0000000000000000     
  -2.4074860736520515E-002  0.18102515869627331        0.0000000000000000     
  -2.4364925417275439E-002  0.18911991377282697        0.0000000000000000     
  -2.4629335485837716E-002  0.19731975346942809        0.0000000000000000     
  -2.9384365115828801E-002  0.16525808753540983        0.0000000000000000     
  -2.9814205468380924E-002  0.17313386669707898        0.0000000000000000     
  -3.0212318403066096E-002  0.18111431522438809        0.0000000000000000     
  -3.0578703919884299E-002  0.18919943311733717        0.0000000000000000     
  -3.0913362018835551E-002  0.19738922037592621        0.0000000000000000     
  -3.5446696977668085E-002  0.16539248610469670        0.0000000000000000     
  -3.5966738996321114E-002  0.17325793351189916        0.0000000000000000     
  -3.6449549939145891E-002  0.18122724230731213        0.0000000000000000     
  -3.6895129806142436E-002  0.18930041249093568        0.0000000000000000     
  -3.7303478597310723E-002  0.19747744406276971        0.0000000000000000     
  -4.1604763123950547E-002  0.16555409811116906        0.0000000000000000     
  -4.2216742027393499E-002  0.17340768868422762        0.0000000000000000     
  -4.2786555344759926E-002  0.18136393994504543        0.0000000000000000     
  -4.3314203076049836E-002  0.18942285189362248        0.0000000000000000     
  -4.3799685221263228E-002  0.19758442452995870        0.0000000000000000     
  -4.7858563554676194E-002  0.16574292355482684        0.0000000000000000     
  -4.8564214561598075E-002  0.17358313221406443        0.0000000000000000     
  -4.9223334619908181E-002  0.18152440813758802        0.0000000000000000     
  -4.9835923729606511E-002  0.18956675132539758        0.0000000000000000     
  -5.0401981890693073E-002  0.19771016177749312        0.0000000000000000     
  -2.4629335485837716E-002  0.19731975346942809        0.0000000000000000     
  -2.4865632399693111E-002  0.20559885524912086        0.0000000000000000     
  -2.5071357616327419E-002  0.21393139657494945        0.0000000000000000     
  -2.5246511135740640E-002  0.22231737744691391        0.0000000000000000     
  -2.5391092957932772E-002  0.23075679786501421        0.0000000000000000     
  -3.0913362018835551E-002  0.19738922037592621        0.0000000000000000     
  -3.1212779363268234E-002  0.20565988661699527        0.0000000000000000     
  -3.1473442616530733E-002  0.21398764145738455        0.0000000000000000     
  -3.1695351778623065E-002  0.22237248489709399        0.0000000000000000     
  -3.1878506849545206E-002  0.23081441693612365        0.0000000000000000     
  -3.7303478597310723E-002  0.19747744406276971        0.0000000000000000     
  -3.7669722769061935E-002  0.20573681697355975        0.0000000000000000     
  -3.7988988777807202E-002  0.21405701117405126        0.0000000000000000     
  -3.8261276623546579E-002  0.22243802666424420        0.0000000000000000     
  -3.8486586306280018E-002  0.23087986344413849        0.0000000000000000     
  -4.3799685221263228E-002  0.19758442452995870        0.0000000000000000     
  -4.4236462617074201E-002  0.20582964631881434        0.0000000000000000     
  -4.4617996100156862E-002  0.21413950572494955        0.0000000000000000     
  -4.4944285670511196E-002  0.22251400274836436        0.0000000000000000     
  -4.5215331328137216E-002  0.23095313738905882        0.0000000000000000     
  -5.0401981890693073E-002  0.19771016177749312        0.0000000000000000     
  -5.0912998907305058E-002  0.20593837465275897        0.0000000000000000     
  -5.1360464583579679E-002  0.21423512511007947        0.0000000000000000     
  -5.1744378919516922E-002  0.22260041314945464        0.0000000000000000     
  -5.2064741915116806E-002  0.23103423877088447        0.0000000000000000     
  -2.5391092957932772E-002  0.23075679786501421        0.0000000000000000     
  -2.5512253702842248E-002  0.23922457396158370        0.0000000000000000     
  -2.5617143990407501E-002  0.24769562186895572        0.0000000000000000     
  -2.5705763820628530E-002  0.25616994158713019        0.0000000000000000     
  -2.5778113193505335E-002  0.26464753311610723        0.0000000000000000     
  -3.1878506849545206E-002  0.23081441693612365        0.0000000000000000     
  -3.2031926662672947E-002  0.23929086789147505        0.0000000000000000     
  -3.2164630051382065E-002  0.24777926808014974        0.0000000000000000     
  -3.2276617015672547E-002  0.25627961750214767        0.0000000000000000     
  -3.2367887555544400E-002  0.26479191615746889        0.0000000000000000     
  -3.8486586306280018E-002  0.23087986344413849        0.0000000000000000     
  -3.8675020062950011E-002  0.23936388345195148        0.0000000000000000     
  -3.8836680130499034E-002  0.24787144862590041        0.0000000000000000     
  -3.8971566508927080E-002  0.25640255896598513        0.0000000000000000     
  -3.9079679198234171E-002  0.26495721447220577        0.0000000000000000     
  -4.5215331328137216E-002  0.23095313738905882        0.0000000000000000     
  -4.5441533903673455E-002  0.23944362064301311        0.0000000000000000     
  -4.5633294227758435E-002  0.24797216350620774        0.0000000000000000     
  -4.5790612300392171E-002  0.25653876597864261        0.0000000000000000     
  -4.5913488121574642E-002  0.26514342806031782        0.0000000000000000     
  -5.2064741915116806E-002  0.23103423877088447        0.0000000000000000     
  -5.2331468184843258E-002  0.23953007946465990        0.0000000000000000     
  -5.2554472343160241E-002  0.24808141272107181        0.0000000000000000     
  -5.2733754390067777E-002  0.25668823854012018        0.0000000000000000     
  -5.2869314325565825E-002  0.26535055692180509        0.0000000000000000     
  -2.5778113193505335E-002  0.26464753311610723        0.0000000000000000     
  -2.5846153136503174E-002  0.27307266365503235        0.0000000000000000     
  -2.5921844677087285E-002  0.28138960040305128        0.0000000000000000     
  -2.6005187815257687E-002  0.28959834336016388        0.0000000000000000     
  -2.6096182551014376E-002  0.29769889252637027        0.0000000000000000     
  -3.2367887555544400E-002  0.26479191615746889        0.0000000000000000     
  -3.2452968970465700E-002  0.27326273375761845        0.0000000000000000     
  -3.2546388559904479E-002  0.28163864001410144        0.0000000000000000     
  -3.2648146323860761E-002  0.28991963492691775        0.0000000000000000     
  -3.2758242262334536E-002  0.29810571849606748        0.0000000000000000     
  -3.9079679198234171E-002  0.26495721447220577        0.0000000000000000     
  -3.9179455775478426E-002  0.27348377304457400        0.0000000000000000     
  -3.9289333817717979E-002  0.28193059258310155        0.0000000000000000     
  -3.9409313324952844E-002  0.29029767308778842        0.0000000000000000     
  -3.9539394297183006E-002  0.29858501455863462        0.0000000000000000     
  -4.5913488121574642E-002  0.26514342806031782        0.0000000000000000     
  -4.6025613551541361E-002  0.27373578151589895        0.0000000000000000     
  -4.6150680450527781E-002  0.28226545811005166        0.0000000000000000     
  -4.6288688818533923E-002  0.29073245784277590        0.0000000000000000     
  -4.6439638655559765E-002  0.29913678071407185        0.0000000000000000     
  -5.2869314325565825E-002  0.26535055692180509        0.0000000000000000     
  -5.2991442298654504E-002  0.27401875917159330        0.0000000000000000     
  -5.3130428458333885E-002  0.28264323659495172        0.0000000000000000     
  -5.3286272804603990E-002  0.29122398919188025        0.0000000000000000     
  -5.3458975337464826E-002  0.29976101696237889        0.0000000000000000     
  -2.8344102887828342E-002   5.6282293242797793E-002   0.0000000000000000     
  -3.0712007812928030E-002   6.2789637389186151E-002   0.0000000000000000     
  -3.2688260103921132E-002   6.9100629226755916E-002   0.0000000000000000     
  -3.4272859760807663E-002   7.5215268755507061E-002   0.0000000000000000     
  -3.5465806783587614E-002   8.1133555975439614E-002   0.0000000000000000     
  -3.2402256902233556E-002   5.6867680849984545E-002   0.0000000000000000     
  -3.4999110984795759E-002   6.3264894124993309E-002   0.0000000000000000     
  -3.7176107661996735E-002   6.9504733468140109E-002   0.0000000000000000     
  -3.8933246933836513E-002   7.5587198879424972E-002   0.0000000000000000     
  -4.0270528800315050E-002   8.1512290358847883E-002   0.0000000000000000     
  -3.6330785951016666E-002   5.7504401870103229E-002   0.0000000000000000     
  -3.9271125349620531E-002   6.3800425580300482E-002   0.0000000000000000     
  -4.1728773790626304E-002   6.9973472391824235E-002   0.0000000000000000     
  -4.3703731274033979E-002   7.6023542304674466E-002   0.0000000000000000     
  -4.5195997799843561E-002   8.1950635318851273E-002   0.0000000000000000     
  -4.0129690034177656E-002   5.8192456303153853E-002   0.0000000000000000     
  -4.3528050907402346E-002   6.4396231755107683E-002   0.0000000000000000     
  -4.6346258489809833E-002   7.0506845997808251E-002   0.0000000000000000     
  -4.8584312781400088E-002   7.6524299031255627E-002   0.0000000000000000     
  -5.0242213782173126E-002   8.2448590855449769E-002   0.0000000000000000     
  -4.3798969151716535E-002   5.8931844149136409E-002   0.0000000000000000     
  -4.7769887658141205E-002   6.5052312649414884E-002   0.0000000000000000     
  -5.1028561759547293E-002   7.1104854286092214E-002   0.0000000000000000     
  -5.3574991455934827E-002   7.7089469059168358E-002   0.0000000000000000     
  -5.5409176747303765E-002   8.3006156968643358E-002   0.0000000000000000     
  -3.5465806783587614E-002   8.1133555975439614E-002   0.0000000000000000     
  -3.6491503627497077E-002   8.7087083332135135E-002   0.0000000000000000     
  -3.7574352747772120E-002   9.3307443271175197E-002   0.0000000000000000     
  -3.8714354144412745E-002   9.9794635792559816E-002   0.0000000000000000     
  -3.9911507817418958E-002  0.10654866089628896        0.0000000000000000     
  -4.0270528800315050E-002   8.1512290358847883E-002   0.0000000000000000     
  -4.1429000037371780E-002   8.7486030775455095E-002   0.0000000000000000     
  -4.2649707420946072E-002   9.3714442998292943E-002   0.0000000000000000     
  -4.3932650951037940E-002  0.10019752702736137        0.0000000000000000     
  -4.5277830627647377E-002  0.10693528286266044        0.0000000000000000     
  -4.5195997799843561E-002   8.1950635318851273E-002   0.0000000000000000     
  -4.6481948353209047E-002   8.7938284541943842E-002   0.0000000000000000     
  -4.7837957919284448E-002   9.4170023081541626E-002   0.0000000000000000     
  -4.9264026498069782E-002  0.10064585093764455        0.0000000000000000     
  -5.0760154089565038E-002  0.10736576811025264        0.0000000000000000     
  -5.0242213782173126E-002   8.2448590855449769E-002   0.0000000000000000     
  -5.1650348575008879E-002   8.8443844631601362E-002   0.0000000000000000     
  -5.3139104242787255E-002   9.4674183520921246E-002   0.0000000000000000     
  -5.4708480785508273E-002  0.10113960752340929        0.0000000000000000     
  -5.6358478203171906E-002  0.10784011663906563        0.0000000000000000     
  -5.5409176747303765E-002   8.3006156968643358E-002   0.0000000000000000     
  -5.6934200702771283E-002   8.9002711044427710E-002   0.0000000000000000     
  -5.8553146391454501E-002   9.5226924316431788E-002   0.0000000000000000     
  -6.0266013813353406E-002  0.10167879678465570        0.0000000000000000     
  -6.2072802968468024E-002  0.10835832844909939        0.0000000000000000     
  -3.9911507817418958E-002  0.10654866089628896        0.0000000000000000     
  -4.1110201500722574E-002  0.11350767304853228        0.0000000000000000     
  -4.2254822928255428E-002  0.12060982671545933        0.0000000000000000     
  -4.3345372100017508E-002  0.12785512189707013        0.0000000000000000     
  -4.4381849016008820E-002  0.13524355859336470        0.0000000000000000     
  -4.5277830627647377E-002  0.10693528286266044        0.0000000000000000     
  -4.6624235528075902E-002  0.11387179895312910        0.0000000000000000     
  -4.7910854729624988E-002  0.12095116374770647        0.0000000000000000     
  -4.9137688232294661E-002  0.12817337724639252        0.0000000000000000     
  -5.0304736036084909E-002  0.13553843944918723        0.0000000000000000     
  -5.0760154089565038E-002  0.10736576811025264        0.0000000000000000     
  -5.2258494956433130E-002  0.11427896519327087        0.0000000000000000     
  -5.3691203361337009E-002  0.12133463278060415        0.0000000000000000     
  -5.5058279304276668E-002  0.12853277087225251        0.0000000000000000     
  -5.6359722785252114E-002  0.13587337946821595        0.0000000000000000     
  -5.6358478203171906E-002  0.10784011663906563        0.0000000000000000     
  -5.8012979785794283E-002  0.11472917176895751        0.0000000000000000     
  -5.9595868823391497E-002  0.12176023381415234        0.0000000000000000     
  -6.1107145315963542E-002  0.12893330277465012        0.0000000000000000     
  -6.2546809263510431E-002  0.13624837865045084        0.0000000000000000     
  -6.2072802968468024E-002  0.10835832844909939        0.0000000000000000     
  -6.3887690016159362E-002  0.11522241868018909        0.0000000000000000     
  -6.5624851115788432E-002  0.12222796684835109        0.0000000000000000     
  -6.7284286267355262E-002  0.12937497295358535        0.0000000000000000     
  -6.8865995470859837E-002  0.13666343699589190        0.0000000000000000     
  -4.4381849016008820E-002  0.13524355859336470        0.0000000000000000     
  -4.5356224265754967E-002  0.14274477449368342        0.0000000000000000     
  -4.6260468438781586E-002  0.15032840728736671        0.0000000000000000     
  -4.7094581535088657E-002  0.15799445697441447        0.0000000000000000     
  -4.7858563554676194E-002  0.16574292355482684        0.0000000000000000     
  -5.0304736036084909E-002  0.13553843944918723        0.0000000000000000     
  -5.1403104453589914E-002  0.14301730534749735        0.0000000000000000     
  -5.2423899797403840E-002  0.15058092993272956        0.0000000000000000     
  -5.3367122067526709E-002  0.15822931320488393        0.0000000000000000     
  -5.4232771263958500E-002  0.16596245516396038        0.0000000000000000     
  -5.6359722785252114E-002  0.13587337946821595        0.0000000000000000     
  -5.7585714251538293E-002  0.14332868774172192        0.0000000000000000     
  -5.8726434150410151E-002  0.15087092486599793        0.0000000000000000     
  -5.9781882481867714E-002  0.15850009084104399        0.0000000000000000     
  -6.0752059245910976E-002  0.16621618566686006        0.0000000000000000     
  -6.2546809263510431E-002  0.13624837865045084        0.0000000000000000     
  -6.3904053659600085E-002  0.14367892167635715        0.0000000000000000     
  -6.5168071497800517E-002  0.15119839208717181        0.0000000000000000     
  -6.6338862778111671E-002  0.15880678988289471        0.0000000000000000     
  -6.7416427500533602E-002  0.16650411506352586        0.0000000000000000     
  -6.8865995470859837E-002  0.13666343699589190        0.0000000000000000     
  -7.0358122677775331E-002  0.14406800715140303        0.0000000000000000     
  -7.1748811839574933E-002  0.15156333159625104        0.0000000000000000     
  -7.3038062956258601E-002  0.15914941033043598        0.0000000000000000     
  -7.4225876027826390E-002  0.16682624335395779        0.0000000000000000     
  -4.7858563554676194E-002  0.16574292355482684        0.0000000000000000     
  -4.8564214561598075E-002  0.17358313221406443        0.0000000000000000     
  -4.9223334619908181E-002  0.18152440813758802        0.0000000000000000     
  -4.9835923729606511E-002  0.18956675132539758        0.0000000000000000     
  -5.0401981890693073E-002  0.19771016177749312        0.0000000000000000     
  -5.4232771263958500E-002  0.16596245516396038        0.0000000000000000     
  -5.5034353407889536E-002  0.17378769504624977        0.0000000000000000     
  -5.5785374520510127E-002  0.18171237208804297        0.0000000000000000     
  -5.6485834601820287E-002  0.18973648628934001        0.0000000000000000     
  -5.7135733651820016E-002  0.19786003765014076        0.0000000000000000     
  -6.0752059245910976E-002  0.16621618566686006        0.0000000000000000     
  -6.1652355375222588E-002  0.17402480812562399        0.0000000000000000     
  -6.2498161802485283E-002  0.18193155699951355        0.0000000000000000     
  -6.3289478527699020E-002  0.18993643228852877        0.0000000000000000     
  -6.4026305550863818E-002  0.19803943399266963        0.0000000000000000     
  -6.7416427500533602E-002  0.16650411506352586        0.0000000000000000     
  -6.8418220463597232E-002  0.17429447145218699        0.0000000000000000     
  -6.9361696465833622E-002  0.18218196287199964        0.0000000000000000     
  -7.0246855507242689E-002  0.19016658932296387        0.0000000000000000     
  -7.1073697587824503E-002  0.19824835080507958        0.0000000000000000     
  -7.4225876027826390E-002  0.16682624335395779        0.0000000000000000     
  -7.5331948673013488E-002  0.17459668502593884        0.0000000000000000     
  -7.6375978510555123E-002  0.18246358970550131        0.0000000000000000     
  -7.7357965540451309E-002  0.19042695739264526        0.0000000000000000     
  -7.8277909762702033E-002  0.19848678808737069        0.0000000000000000     
  -5.0401981890693073E-002  0.19771016177749312        0.0000000000000000     
  -5.0912998907305058E-002  0.20593837465275897        0.0000000000000000     
  -5.1360464583579679E-002  0.21423512511007947        0.0000000000000000     
  -5.1744378919516922E-002  0.22260041314945464        0.0000000000000000     
  -5.2064741915116806E-002  0.23103423877088447        0.0000000000000000     
  -5.7135733651820016E-002  0.19786003765014076        0.0000000000000000     
  -5.7725033630829314E-002  0.20606920506088450        0.0000000000000000     
  -5.8243696499168239E-002  0.21435016741201021        0.0000000000000000     
  -5.8691722256836776E-002  0.22270292470351793        0.0000000000000000     
  -5.9069110903834918E-002  0.23112747693540758        0.0000000000000000     
  -6.4026305550863818E-002  0.19803943399266963        0.0000000000000000     
  -6.4698268778721812E-002  0.20622834062868181        0.0000000000000000     
  -6.5294994118015121E-002  0.21449093071331093        0.0000000000000000     
  -6.5816481568743757E-002  0.22282720424655705        0.0000000000000000     
  -6.6262731130907720E-002  0.23123716122842006        0.0000000000000000     
  -7.1073697587824503E-002  0.19824835080507958        0.0000000000000000     
  -7.1832704350982546E-002  0.20641578135615091        0.0000000000000000     
  -7.2514357440120317E-002  0.21465741501398169        0.0000000000000000     
  -7.3118656855237885E-002  0.22297325177857205        0.0000000000000000     
  -7.3645602596335194E-002  0.23136329164992198        0.0000000000000000     
  -7.8277909762702033E-002  0.19848678808737069        0.0000000000000000     
  -7.9128340347611487E-002  0.20663152724329176        0.0000000000000000     
  -7.9901786465483862E-002  0.21484962031402249        0.0000000000000000     
  -8.0598248116319146E-002  0.22314106729956301        0.0000000000000000     
  -8.1217725300117352E-002  0.23150586819991320        0.0000000000000000     
  -5.2064741915116806E-002  0.23103423877088447        0.0000000000000000     
  -5.2331468184843258E-002  0.23953007946465990        0.0000000000000000     
  -5.2554472343160241E-002  0.24808141272107181        0.0000000000000000     
  -5.2733754390067777E-002  0.25668823854012018        0.0000000000000000     
  -5.2869314325565825E-002  0.26535055692180509        0.0000000000000000     
  -5.9069110903834918E-002  0.23112747693540758        0.0000000000000000     
  -5.9383977239195911E-002  0.23962467312937574        0.0000000000000000     
  -5.9644436061952966E-002  0.24819536230711872        0.0000000000000000     
  -5.9850487372106111E-002  0.25683954446863677        0.0000000000000000     
  -6.0002131169655325E-002  0.26555721961392953        0.0000000000000000     
  -6.6262731130907720E-002  0.23123716122842006        0.0000000000000000     
  -6.6638215399467862E-002  0.23972881484964456        0.0000000000000000     
  -6.6947406969385101E-002  0.24831017830097490        0.0000000000000000     
  -6.7190305840659381E-002  0.25698125158241109        0.0000000000000000     
  -6.7366912013290745E-002  0.26574203469395319        0.0000000000000000     
  -7.3645602596335194E-002  0.23136329164992198        0.0000000000000000     
  -7.4094182665659147E-002  0.23984250462546630        0.0000000000000000     
  -7.4463385065456605E-002  0.24842586070264014        0.0000000000000000     
  -7.4753209795727596E-002  0.25711335988144335        0.0000000000000000     
  -7.4963656856472119E-002  0.26590500216187607        0.0000000000000000     
  -8.1217725300117352E-002  0.23150586819991320        0.0000000000000000     
  -8.1751879037769731E-002  0.23996574245684102        0.0000000000000000     
  -8.2192370350167521E-002  0.24854240951211448        0.0000000000000000     
  -8.2539199237310762E-002  0.25723586936573350        0.0000000000000000     
  -8.2792365699199399E-002  0.26604612201769806        0.0000000000000000     
  -5.2869314325565825E-002  0.26535055692180509        0.0000000000000000     
  -5.2991442298654504E-002  0.27401875917159330        0.0000000000000000     
  -5.3130428458333885E-002  0.28264323659495172        0.0000000000000000     
  -5.3286272804603990E-002  0.29122398919188025        0.0000000000000000     
  -5.3458975337464826E-002  0.29976101696237889        0.0000000000000000     
  -6.0002131169655325E-002  0.26555721961392953        0.0000000000000000     
  -6.0135623103843051E-002  0.27430390489140533        0.0000000000000000     
  -6.0287218823911776E-002  0.28303511744947218        0.0000000000000000     
  -6.0456918329861477E-002  0.29175085728812994        0.0000000000000000     
  -6.0644721621692169E-002  0.30045112440737892        0.0000000000000000     
  -6.7366912013290745E-002  0.26574203469395319        0.0000000000000000     
  -6.7516837054132237E-002  0.27456241755508332        0.0000000000000000     
  -6.7679692530036917E-002  0.28341229008528362        0.0000000000000000     
  -6.7855478441004771E-002  0.29229165228455400        0.0000000000000000     
  -6.8044194787035800E-002  0.30120050415289479        0.0000000000000000     
  -7.4963656856472119E-002  0.26590500216187607        0.0000000000000000     
  -7.5135084149522038E-002  0.27479429716262727        0.0000000000000000     
  -7.5307849576709288E-002  0.28377475450238598        0.0000000000000000     
  -7.5481953138033839E-002  0.29284637418115245        0.0000000000000000     
  -7.5657394833495734E-002  0.30200915619892643        0.0000000000000000     
  -8.2792365699199399E-002  0.26604612201769806        0.0000000000000000     
  -8.2990364390012450E-002  0.27499954371403712        0.0000000000000000     
  -8.3171689963928902E-002  0.28412251070077943        0.0000000000000000     
  -8.3336342420948700E-002  0.29341502297792504        0.0000000000000000     
  -8.3484321761071928E-002  0.30287708054547391        0.0000000000000000     
  -4.3798969151716535E-002   5.8931844149136409E-002   0.0000000000000000     
  -4.7769887658141205E-002   6.5052312649414884E-002   0.0000000000000000     
  -5.1028561759547293E-002   7.1104854286092214E-002   0.0000000000000000     
  -5.3574991455934827E-002   7.7089469059168358E-002   0.0000000000000000     
  -5.5409176747303765E-002   8.3006156968643358E-002   0.0000000000000000     
  -4.7952865410574100E-002   5.9727407454573667E-002   0.0000000000000000     
  -5.2370152364411560E-002   6.5764990817094901E-002   0.0000000000000000     
  -5.5979877801910841E-002   7.1758852047564506E-002   0.0000000000000000     
  -5.8782041723071984E-002   7.7708991145982481E-002   0.0000000000000000     
  -6.0776644127894984E-002   8.3615408112348827E-002   0.0000000000000000     
  -5.3205620917691168E-002   6.0583988265988389E-002   0.0000000000000000     
  -5.7702361788787855E-002   6.6530588812020508E-002   0.0000000000000000     
  -6.1404400818972589E-002   7.2460194073113618E-002   0.0000000000000000     
  -6.4311738008245398E-002   7.8372804049267733E-002   0.0000000000000000     
  -6.6424373356606253E-002   8.4268418740482839E-002   0.0000000000000000     
  -5.9557235673067734E-002   6.1501586583380584E-002   0.0000000000000000     
  -6.3766515931270112E-002   6.7349106634191691E-002   0.0000000000000000     
  -6.7302130810732524E-002   7.3208880362739537E-002   0.0000000000000000     
  -7.0164080311455032E-002   7.9080907769024100E-002   0.0000000000000000     
  -7.2352364433437566E-002   8.4965188853045409E-002   0.0000000000000000     
  -6.7007709676703803E-002   6.2480202406750257E-002   0.0000000000000000     
  -7.0562614791858297E-002   6.8220544283608478E-002   0.0000000000000000     
  -7.3673067777190654E-002   7.4004910916442262E-002   0.0000000000000000     
  -7.6339068632700888E-002   7.9833302305251611E-002   0.0000000000000000     
  -7.8560617358388957E-002   8.5705718450036522E-002   0.0000000000000000     
  -5.5409176747303765E-002   8.3006156968643358E-002   0.0000000000000000     
  -5.6934200702771283E-002   8.9002711044427710E-002   0.0000000000000000     
  -5.8553146391454501E-002   9.5226924316431788E-002   0.0000000000000000     
  -6.0266013813353406E-002  0.10167879678465570        0.0000000000000000     
  -6.2072802968468024E-002  0.10835832844909939        0.0000000000000000     
  -6.0776644127894984E-002   8.3615408112348827E-002   0.0000000000000000     
  -6.2420238378105987E-002   8.9610297922893337E-002   0.0000000000000000     
  -6.4169377835431182E-002   9.5825855553845832E-002   0.0000000000000000     
  -6.6024062499870584E-002  0.10226208100520623        0.0000000000000000     
  -6.7984292371424171E-002  0.10891897427697467        0.0000000000000000     
  -6.6424373356606253E-002   8.4268418740482839E-002   0.0000000000000000     
  -6.8195195242622714E-002   9.0262019409468888E-002   0.0000000000000000     
  -7.0077092044862344E-002   9.6468587318935803E-002   0.0000000000000000     
  -7.2070063763325184E-002  0.10288812246888360        0.0000000000000000     
  -7.4174110398011167E-002  0.10952062485931223        0.0000000000000000     
  -7.2352364433437566E-002   8.4965188853045409E-002   0.0000000000000000     
  -7.4259071296321477E-002   9.0957875504154323E-002   0.0000000000000000     
  -7.6276289019748020E-002   9.7155119611701757E-002   0.0000000000000000     
  -7.8404017603717208E-002  0.10355692117568768        0.0000000000000000     
  -8.0642257048228985E-002  0.11016328019611211        0.0000000000000000     
  -7.8560617358388957E-002   8.5705718450036522E-002   0.0000000000000000     
  -8.0611866539202270E-002   9.1697866206949655E-002   0.0000000000000000     
  -8.2766968760088155E-002   9.7885452432143666E-002   0.0000000000000000     
  -8.5025924021046639E-002  0.10426847712561854        0.0000000000000000     
  -8.7388732322077695E-002  0.11084694028737431        0.0000000000000000     
  -6.2072802968468024E-002  0.10835832844909939        0.0000000000000000     
  -6.3887690016159362E-002  0.11522241868018909        0.0000000000000000     
  -6.5624851115788432E-002  0.12222796684835109        0.0000000000000000     
  -6.7284286267355262E-002  0.12937497295358535        0.0000000000000000     
  -6.8865995470859837E-002  0.13666343699589190        0.0000000000000000     
  -6.7984292371424171E-002  0.10891897427697467        0.0000000000000000     
  -6.9955409712170610E-002  0.11575680660363410        0.0000000000000000     
  -7.1842756784188597E-002  0.12273584921966771        0.0000000000000000     
  -7.3646333587478130E-002  0.12985610212507540        0.0000000000000000     
  -7.5366140122039182E-002  0.13711756531985722        0.0000000000000000     
  -7.4174110398011167E-002  0.10952062485931223        0.0000000000000000     
  -7.6288922938470352E-002  0.11633043621596111        0.0000000000000000     
  -7.8314192374252758E-002  0.12328189826456949        0.0000000000000000     
  -8.0249918705358400E-002  0.13037501100513740        0.0000000000000000     
  -8.2096101931787277E-002  0.13760977443766484        0.0000000000000000     
  -8.0642257048228985E-002  0.11016328019611211        0.0000000000000000     
  -8.2888229695058546E-002  0.11694330751717007        0.0000000000000000     
  -8.5039157885980918E-002  0.12386611398305647        0.0000000000000000     
  -8.7095041620996086E-002  0.13093169959377141        0.0000000000000000     
  -8.9055880900104106E-002  0.13814006434931478        0.0000000000000000     
  -8.7388732322077695E-002  0.11084694028737431        0.0000000000000000     
  -8.9753329981935207E-002  0.11759542050726100        0.0000000000000000     
  -9.2017653319373047E-002  0.12448849637512870        0.0000000000000000     
  -9.4181702334391215E-002  0.13152616789097735        0.0000000000000000     
  -9.6245477026989698E-002  0.13870843505480701        0.0000000000000000     
  -6.8865995470859837E-002  0.13666343699589190        0.0000000000000000     
  -7.0358122677775331E-002  0.14406800715140303        0.0000000000000000     
  -7.1748811839574933E-002  0.15156333159625104        0.0000000000000000     
  -7.3038062956258601E-002  0.15914941033043598        0.0000000000000000     
  -7.4225876027826390E-002  0.16682624335395779        0.0000000000000000     
  -7.5366140122039182E-002  0.13711756531985722        0.0000000000000000     
  -7.6989499165768541E-002  0.14449569224790304        0.0000000000000000     
  -7.8503733496562950E-002  0.15196593635310282        0.0000000000000000     
  -7.9908843114422423E-002  0.15952829763545645        0.0000000000000000     
  -8.1204828019346947E-002  0.16718277609496407        0.0000000000000000     
  -8.2096101931787277E-002  0.13760977443766484        0.0000000000000000     
  -8.3839760983284245E-002  0.14496172504690072        0.0000000000000000     
  -8.5467914789594146E-002  0.15240639931759400        0.0000000000000000     
  -8.6980563350717049E-002  0.15994379724974464        0.0000000000000000     
  -8.8377706666652886E-002  0.16757391884335271        0.0000000000000000     
  -8.9055880900104106E-002  0.13814006434931478        0.0000000000000000     
  -9.0908908130322444E-002  0.14546610554839606        0.0000000000000000     
  -9.2641355718668578E-002  0.15288472048972468        0.0000000000000000     
  -9.4253223665142494E-002  0.16039590917330065        0.0000000000000000     
  -9.5744511969744234E-002  0.16799967159912388        0.0000000000000000     
  -9.6245477026989698E-002  0.13870843505480701        0.0000000000000000     
  -9.8196940606883137E-002  0.14600883375238904        0.0000000000000000     
 -0.10002405628378616       0.15340089986949479        0.0000000000000000     
 -0.10172682405769877       0.16088463340612424        0.0000000000000000     
 -0.10330524392862095       0.16846003436227747        0.0000000000000000     
  -7.4225876027826390E-002  0.16682624335395779        0.0000000000000000     
  -7.5331948673013488E-002  0.17459668502593884        0.0000000000000000     
  -7.6375978510555123E-002  0.18246358970550131        0.0000000000000000     
  -7.7357965540451309E-002  0.19042695739264526        0.0000000000000000     
  -7.8277909762702033E-002  0.19848678808737069        0.0000000000000000     
  -8.1204828019346947E-002  0.16718277609496407        0.0000000000000000     
  -8.2413775645270818E-002  0.17493142281385160        0.0000000000000000     
  -8.3557773426128273E-002  0.18277628887434530        0.0000000000000000     
  -8.4636821361919315E-002  0.19071737427644508        0.0000000000000000     
  -8.5650919452643970E-002  0.19875467902015104        0.0000000000000000     
  -8.8377706666652886E-002  0.16757391884335271        0.0000000000000000     
  -8.9683937022168703E-002  0.17529865878289752        0.0000000000000000     
  -9.0923846702031463E-002  0.18311991175285847        0.0000000000000000     
  -9.2097435706241154E-002  0.19103767775323549        0.0000000000000000     
  -9.3204704034797817E-002  0.19905195678402871        0.0000000000000000     
  -9.5744511969744234E-002  0.16799967159912388        0.0000000000000000     
  -9.7142432803707171E-002  0.17569839293307657        0.0000000000000000     
  -9.8474198338264707E-002  0.18349445834104072        0.0000000000000000     
  -9.9739808573416855E-002  0.19138786782301645        0.0000000000000000     
 -0.10093926350916359       0.19937862137900370        0.0000000000000000     
 -0.10330524392862095       0.16846003436227747        0.0000000000000000     
 -0.10478926298988622       0.17613062526438869        0.0000000000000000     
 -0.10620882833482803       0.18389992863889218        0.0000000000000000     
 -0.10756393996344638       0.19176794448578793        0.0000000000000000     
 -0.10885459787574131       0.19973467280507601        0.0000000000000000     
  -7.8277909762702033E-002  0.19848678808737069        0.0000000000000000     
  -7.9128340347611487E-002  0.20663152724329176        0.0000000000000000     
  -7.9901786465483862E-002  0.21484962031402249        0.0000000000000000     
  -8.0598248116319146E-002  0.22314106729956301        0.0000000000000000     
  -8.1217725300117352E-002  0.23150586819991320        0.0000000000000000     
  -8.5650919452643970E-002  0.19875467902015104        0.0000000000000000     
  -8.6594556851950999E-002  0.20687629208577804        0.0000000000000000     
  -8.7462222713489163E-002  0.21507030245364100        0.0000000000000000     
  -8.8253917037258503E-002  0.22333671012374004        0.0000000000000000     
  -8.8969639823258978E-002  0.23167551509607495        0.0000000000000000     
  -9.3204704034797817E-002  0.19905195678402871        0.0000000000000000     
  -9.4240733947343364E-002  0.20715078967928335        0.0000000000000000     
  -9.5200607703519721E-002  0.21532221727304490        0.0000000000000000     
  -9.6084325303326876E-002  0.22356623956531324        0.0000000000000000     
  -9.6891886746764855E-002  0.23188285655608842        0.0000000000000000     
 -0.10093926350916359       0.19937862137900370        0.0000000000000000     
 -0.10206687163378859       0.20745502002380783        0.0000000000000000     
 -0.10311694143557551       0.21560536477223413        0.0000000000000000     
 -0.10408947291452429       0.22382965562428275        0.0000000000000000     
 -0.10498446607063497       0.23212789257995356        0.0000000000000000     
 -0.10885459787574131       0.19973467280507601        0.0000000000000000     
 -0.11007296991128672       0.20778898311935134        0.0000000000000000     
 -0.11121122390965651       0.21591974495120883        0.0000000000000000     
 -0.11226935987085072       0.22412695830064852        0.0000000000000000     
 -0.11324737779486935       0.23241062316767042        0.0000000000000000     
  -8.1217725300117352E-002  0.23150586819991320        0.0000000000000000     
  -8.1751879037769731E-002  0.23996574245684102        0.0000000000000000     
  -8.2192370350167521E-002  0.24854240951211448        0.0000000000000000     
  -8.2539199237310762E-002  0.25723586936573350        0.0000000000000000     
  -8.2792365699199399E-002  0.26604612201769806        0.0000000000000000     
  -8.8969639823258978E-002  0.23167551509607495        0.0000000000000000     
  -8.9597360420615835E-002  0.24011333538394120        0.0000000000000000     
  -9.0125048178454320E-002  0.24867678900063406        0.0000000000000000     
  -9.0552703096774406E-002  0.25736587594615351        0.0000000000000000     
  -9.0880325175576121E-002  0.26618059622049950        0.0000000000000000     
  -9.6891886746764855E-002  0.23188285655608842        0.0000000000000000     
  -9.7616682719013692E-002  0.24030009044693937        0.0000000000000000     
  -9.8252103905253463E-002  0.24884596343943505        0.0000000000000000     
  -9.8798150305484153E-002  0.25752047553357538        0.0000000000000000     
  -9.9254821919705749E-002  0.26632362672936044        0.0000000000000000     
 -0.10498446607063497       0.23212789257995356        0.0000000000000000     
 -0.10580984593296326       0.24052600764583545        0.0000000000000000     
 -0.10657353753056492       0.24904993282851734        0.0000000000000000     
 -0.10727554086343993       0.25769966812799910        0.0000000000000000     
 -0.10791585593158830       0.26647521354428089        0.0000000000000000     
 -0.11324737779486935       0.23241062316767042        0.0000000000000000     
 -0.11417685006246461       0.24079108698062951        0.0000000000000000     
 -0.11508934905438875       0.24928869716788099        0.0000000000000000     
 -0.11598487477064180       0.25790345372942475        0.0000000000000000     
 -0.11686342721122374       0.26663535666526084        0.0000000000000000     
  -8.2792365699199399E-002  0.26604612201769806        0.0000000000000000     
  -8.2990364390012450E-002  0.27499954371403712        0.0000000000000000     
  -8.3171689963928902E-002  0.28412251070077943        0.0000000000000000     
  -8.3336342420948700E-002  0.29341502297792504        0.0000000000000000     
  -8.3484321761071928E-002  0.30287708054547391        0.0000000000000000     
  -9.0880325175576121E-002  0.26618059622049950        0.0000000000000000     
  -9.1137808552549202E-002  0.27518397347617413        0.0000000000000000     
  -9.1355047365383454E-002  0.28443903136567922        0.0000000000000000     
  -9.1532041614078866E-002  0.29394576988901489        0.0000000000000000     
  -9.1668791298635421E-002  0.30370418904618107        0.0000000000000000     
  -9.9254821919705749E-002  0.26632362672936044        0.0000000000000000     
  -9.9632547414078010E-002  0.27535340271589914        0.0000000000000000     
  -9.9941755454760695E-002  0.28470778918230066        0.0000000000000000     
 -0.10018244604175376       0.29438678612856478        0.0000000000000000     
 -0.10035461917505722       0.30439039355469172        0.0000000000000000     
 -0.10791585593158830       0.26647521354428089        0.0000000000000000     
 -0.10847458097459886       0.27550783143321245        0.0000000000000000     
 -0.10893181423206058       0.28492878415064388        0.0000000000000000     
 -0.10928755570397342       0.29473807169657495        0.0000000000000000     
 -0.10954180539033735       0.30493569407100590        0.0000000000000000     
 -0.11686342721122374       0.26663535666526084        0.0000000000000000     
 -0.11766390923411177       0.27564725962811393        0.0000000000000000     
 -0.11832522369728314       0.28510201627070875        0.0000000000000000     
 -0.11884737060073779       0.29499962659304524        0.0000000000000000     
 -0.11923034994447577       0.30534009059512351        0.0000000000000000     
 </DataArray>
 <DataArray  type="Float64" Name="stress" NumberOfComponents="3" format="ascii">
   7330589361.9959669        261657743.75648904       -1684854844.0365958     
   6463247191.2888470        215010847.24349689       -1033637186.9895034     
   5574996781.5568132        98669820.647433758       -591626922.87441945     
   4665838132.7998495       -87365336.031696081       -358824051.69134063     
   3735771245.0179629       -343094622.79392171       -335228573.44026387     
   8991678636.0502930        877138133.00923085       -782511636.11654437     
   7635596088.5032148        668321600.47063041       -425708006.91599667     
   6260201714.5879002        395132313.37119651       -198227358.65442321     
   4865495514.3043222        57570271.710911751       -100069691.33182134     
   3451477487.6525002       -344364524.51019859       -131235004.94817440     
   9764497827.1606388        1226137497.3787756        112920514.55881384     
   8147916079.8965902        923623681.95146275        177172597.34558648     
   6513618918.9209614        562058487.48555231        191986111.18642917     
   4861606344.2337465        141441913.98102450        157361056.08134013     
   3191878355.8349552       -338226038.56210685        73297432.030327275     
   9649046935.3270340        1308655836.8651335        1001441607.9894630     
   8000207165.4689693        980917091.68600082        775004625.79524350     
   6335248394.5560007        599448342.99050117        579013486.64813864     
   4654170622.5881138        164249590.77861381        413468190.54814124     
   2956973849.5653219       -324679164.94963491        278368737.49525297     
   8645325960.5494671        1124693151.4683058        1883051644.1754036     
   7192469345.2203636        840201829.67424083        1367788078.4329793     
   5725090141.4930182        507301879.88603425        962854767.73070633     
   4243188349.3674302        125993302.10368562        668251712.06858015     
   2746763968.8436041       -303723903.67279828        483978911.44660181     
   3735771245.0179629       -343094622.79392171       -335228573.44026387     
   3955112095.0340238       -276617776.16423941       -300840272.88320071     
   4180449411.8019576       -190152707.02830458       -259285419.02661908     
   4411783195.3217363       -83699415.386229515       -210564011.87054646     
   4649113445.5933905        42742098.762106895       -154676051.41496947     
   3451477487.6525002       -344364524.51019859       -131235004.94817440     
   3685103052.8180318       -272882038.75704193       -83719572.438460782     
   3924276183.5358086       -182907667.82972431       -33537598.295600392     
   4168996879.8058419       -74441411.728222370        19310917.480387870     
   4419265141.6281204        52516729.547426462        74825974.889512017     
   3191878355.8349552       -338226038.56210685        73297432.030327275     
   3426931459.9603214       -265595066.54238486        133416278.42648506     
   3667083228.4383354       -175968546.68052101        191701654.78941274     
   3912333661.2689838       -69346478.976544380        248153561.11911067     
   4162682758.4522729        54271136.569583178        302771997.41557276     
   2956973849.5653219       -324679164.94963491        278368737.49525297     
   3180597316.4609113       -254756859.52023554        350567279.71164423     
   3408870546.5095339       -169335343.58071995        416432340.22842723     
   3641793539.7111783       -68414617.131130457        475963919.04561371     
   3879366296.0658565        48005319.828564167        529162016.16319549     
   2746763968.8436041       -303723903.67279828        483978911.44660181     
   2946100622.3197951       -240367417.69058466        567733431.41700459     
   3149638137.7493978       -163008058.53032315        640654458.02143455     
   3357376515.1324191       -71645826.192000389        702741991.25989890     
   3569315754.4688582        33719279.324373960        753996031.13238847     
   4649113445.5933905        42742098.762106895       -154676051.41496947     
   4458071912.1785393        47692612.182601213       -130869406.90328127     
   4265662835.7776504        48084648.982977867       -103300946.47906369     
   4071886216.3907065        43918209.163158178       -71970670.142319247     
   3876742054.0177212        35193292.723219633       -36878577.893037714     
   4419265141.6281204        52516729.547426462        74825974.889512017     
   4238142094.0171003        57057706.490641356        88034514.468102813     
   4056087016.1269321        58491915.836685419        105205351.01648094     
   3873099907.9576192        56819357.585583687        126338484.53465821     
   3689180769.5091519        52040031.737300396        151433915.02262089     
   4162682758.4522729        54271136.569583178        302771997.41557276     
   3992050999.6658292        58574417.941700459        305890530.21910721     
   3820922723.3071461        61222640.739685774        313171841.04970127     
   3649297929.3762093        62215804.963491917        324615929.90735239     
   3477176617.8730273        61553910.613151550        340222796.79205418     
   3879366296.0658565        48005319.828564167        529162016.16319549     
   3719798629.1247406        52242746.535830021        522698640.34973150     
   3560169957.3182840        56276823.691950321        520598523.62058818     
   3400480280.6464739        60107551.296899676        522861665.97576362     
   3240729599.1093206        63734929.350709319        529488067.41525149     
   3569315754.4688582        33719279.324373960        753996031.13238847     
   3421384982.3938260        38062692.273013353        738458844.85997427     
   3273828718.1603479        43654464.693499088        727485398.72914600     
   3126646961.7684221        50494596.585827231        721075692.73989165     
   2979839713.2180500        58583087.950001597        719229726.89222705     
   3876742054.0177212        35193292.723219633       -36878577.893037714     
   3630528033.7164145        10306455.982555151       -37840795.936583407     
   3385127075.3535609       -11870174.296611071       -36502566.344872080     
   3140539178.9291596       -31336598.114261746       -32863889.117904369     
   2896764344.4432006       -48092815.470441580       -26924764.255655307     
   3689180769.5091519        52040031.737300396        151433915.02262089     
   3451086303.3943224        30101525.139997959        143068244.26878387     
   3213326120.8888645        9277297.2406067848        137967552.91311952     
   2975900221.9927902       -10432651.960854530        136131840.95561820     
   2738808606.7060928       -29028322.464379311        137561108.39630875     
   3477176617.8730273        61553910.613151550        340222796.79205418     
   3249957510.9815435        43390475.670197964        323895098.61067295     
   3022593909.3703828        24745391.661641359        311796911.59038347     
   2795085813.0395412        5618658.5874887705        303928235.73117542     
   2567433221.9890056       -13989723.552311063        300289071.03306973     
   3240729599.1093206        63734929.350709319        529488067.41525149     
   3027141656.4781098        50173307.573246717        504639767.08908862     
   2812930440.7981296        34534108.966581464        484985509.68692809     
   2598095952.0694060        16817333.530759454        470525295.20877635     
   2382638190.2919259       -2977018.7342405319        461259123.65462071     
   2979839713.2180500        58583087.950001597        719229726.89222705     
   2782638739.8839793        50450020.849046469        685302249.70403564     
   2584335715.1721020        38643449.155390382        657533347.20276189     
   2384930639.0823946        23163372.868984222        635923019.38840675     
   2184423511.6148734        4009791.9898447990        620471266.26096225     
   2896764344.4432006       -48092815.470441580       -26924764.255655307     
   2779248075.4505057       -27309912.150974751       -15544799.171866104     
   2660695591.3508029       -9981059.1882333755       -5988601.8626412824     
   2541106892.1440797        3893743.4177833796        1743827.6720204405     
   2420481977.8303308        14314495.667059064        7652489.4321203455     
   2738808606.7060928       -29028322.464379311        137561108.39630875     
   2616365470.0802155       -13778185.053688526        143800902.01765364     
   2493226246.0972500       -848338.83330535889        149351357.36696905     
   2369390934.7572050        9761216.1968209743        154212474.44427419     
   2244859536.0600576        18050480.036627412        158384253.24957034     
   2567433221.9890056       -13989723.552311063        300289071.03306973     
   2443304444.8800731       -3299983.9053477049        301785508.90021014     
   2318819708.1639862        6203223.7177628279        303727037.99787194     
   2193979011.8407302        14519899.316978574        306113658.32606858     
   2068782355.9103184        21650042.892336130        308945369.88480204     
   2382638190.2919259       -2977018.7342405319        461259123.65462071     
   2260064999.8500838        4124691.2940537930        458409021.47580582     
   2137475977.5509868        11173628.464870214        457138440.03007764     
   2014871123.3946731        18169792.778261423        457447379.31740737     
   1892250437.3811216        25113184.234217525        459335839.33782643     
   2184423511.6148734        4009791.9898447990        620471266.26096225     
   2066647134.9902201        8495840.5444530249        613671439.74446034     
   1949195054.2582736        14062875.408076763        609585563.46356308     
   1832067269.4190192        20710896.580678701        608213637.41829419     
   1715263780.4724565        28439904.062251568        609555661.60864151     
   2420481977.8303308        14314495.667059064        7652489.4321203455     
   2265313429.6226544        9841443.1422266960       -2615998.6105641546     
   2108193812.1663959       -1135173.5445330143       -10537295.025085764     
   1949123125.4616103       -18615354.393062234       -16111399.811412459     
   1788101369.5082335       -42599099.403551579       -19338312.969532710     
   2244859536.0600576        18050480.036627412        158384253.24957034     
   2095352858.1448843        15940154.463885188        145664283.36035660     
   1944625560.5667238        9761096.6811805964        134407162.00209770     
   1792677643.3255568       -486693.31153905392        124612889.17479812     
   1639509106.4214001       -14803215.514235139        116281464.87842135     
   2068782355.9103184        21650042.892336130        308945369.88480204     
   1922410853.7241192        21144435.902661920        294626109.33224368     
   1775549181.4604788        19004928.654865623        280885354.21338463     
   1628197339.1194150        15231521.148983538        267723104.52825254     
   1480355326.7009127        9824213.3849785924        255139360.27680835     
   1892250437.3811216        25113184.234217525        459335839.33782643     
   1746487416.3603377        25454287.458525181        444269479.30507940     
   1600964674.8476920        26596322.376609743        428897281.60879588     
   1455682212.8431768        28539288.988464296        413219246.24896848     
   1310640030.3467922        31283187.294092298        397235373.22562599     
   1715263780.4724565        28439904.062251568        609555661.60864151     
   1567582546.0535636        28869709.131497443        594594393.27886033     
   1420872040.7283607        32535277.846399009        578442944.18830359     
   1275132264.4968450        39436610.206919014        561101314.33697307     
   1130363217.3590322        49573706.213114142        542569503.72486305     
   1788101369.5082335       -42599099.403551579       -19338312.969532710     
   1762997821.7298989       -17648627.175090790       -10993910.553089505     
   1745224741.9604392        31736738.416287303       -41957242.052080244     
   1734782130.1997871        105556997.37035143       -112228307.46655874     
   1731669986.4480069        203812149.68733358       -221807106.79648656     
   1639509106.4214001       -14803215.514235139        116281464.87842135     
   1520990770.0637028       -15059441.578294098        133614611.35732615     
   1406109692.4732208       -3191471.7516474724        124214892.45044330     
   1294865873.6499333        20800693.965647936        88082308.157822773     
   1187259313.5938497        56917055.573634028        25216858.479409482     
   1480355326.7009127        9824213.3849785924        255139360.27680835     
   1304350397.5629971       -4860252.2318603992        277152506.70289648     
   1128289517.9506385       -19731219.430163085        285007656.27291948     
   952172687.86383235       -34788688.209969282        278704808.98686171     
   775999907.30260372       -50032658.571178913        258243964.84473816     
   1310640030.3467922        31283187.294092298        397235373.22562599     
   1113076704.2277772        12948940.864197373        419619775.48365062     
   911764218.39268517       -17882504.619304180        440421049.41530526     
   706702572.84151495       -61211149.156391770        459639195.02057302     
   497891767.57424843       -117036992.74713111        477274212.29947644     
   1130363217.3590322        49573706.213114142        542569503.72486305     
   947169690.05807042        38368137.709942341        561016417.69957542     
   756533793.79937041        2354672.6809763908        590455071.87760556     
   558455528.58294034       -58466688.873757124        630885466.25896251     
   352934894.40879762       -144095946.95419869        682307600.84364235     
   1731669986.4480069        203812149.68733358       -221807106.79648656     
   1458608941.6986160        184281049.72600234       -95738441.562520653     
   1153952649.6136489        59432458.646062076        59888251.000918590     
   817701110.19301796       -170733623.55275178        245072970.89383885     
   449854323.43675929       -506217196.87031364        459815718.11623758     
   1187259313.5938497        56917055.573634028        25216858.479409482     
   978779316.35841393        11531159.196551800        155892475.07249436     
   732877295.41208613       -158594816.21682596        312654284.67353714     
   449553250.75489807       -453460870.66644299        495502287.28255308     
   128807182.38679832       -873067004.15238833        704436482.89952695     
   775999907.30260372       -50032658.571178913        258243964.84473816     
   622181430.94819808       -124249209.35391620        386728627.02580291     
   425114154.50764227       -342628427.09048843        537827647.89331651     
   184798077.98094377       -705170311.78087890        711541027.44727683     
  -98766798.631901860       -1211874863.4250848        907868765.68768477     
   497891767.57424843       -117036992.74713111        477274212.29947644     
   388815285.46795744       -223060055.92543834        596770014.29739928     
   230663226.90027225       -492668373.97506034        735408340.66024733     
   23435591.871167660       -925861946.89605081        893189191.38802052     
  -232867619.61932608       -1522640774.6883719        1070112566.4807264     
   352934894.40879762       -144095946.95419869        682307600.84364235     
   278680879.91770500       -284901380.51793736        786016636.88727248     
   149524512.58996767       -608714656.87050259        905396362.97432423     
  -34534207.574435234       -1115535776.0119615        1040446779.1047812     
  -273495280.57551116       -1805364737.9423141        1191167885.2786365     
   8645325960.5494671        1124693151.4683058        1883051644.1754036     
   7192469345.2203636        840201829.67424083        1367788078.4329793     
   5725090141.4930182        507301879.88603425        962854767.73070633     
   4243188349.3674302        125993302.10368562        668251712.06858015     
   2746763968.8436041       -303723903.67279828        483978911.44660181     
   7330435430.7211113        828786131.13853645        1858164644.5650020     
   6161936179.3685045        646769325.66449237        1408847106.1480532     
   4976014500.1941061        406677760.78446841        1044287781.2144126     
   3772670393.1979084        108511436.49846482        764486669.76407230     
   2551903858.3799248       -247729647.19351351        569443771.79703701     
   6293735303.4611015        616336231.57927084        1841572028.3851571     
   5336530440.2082901        514875049.66223598        1454817371.2995477     
   4359003309.7101288        345672976.92738187        1127248886.1403947     
   3361153911.9666238        108730013.37471187        858866572.90769756     
   2342982246.9777794       -195953840.99577355        649670431.60146189     
   5535225578.7694407        487343452.79051089        1833273795.6358783     
   4716252127.7397146        444519001.66747224        1505698873.8874569     
   3874056570.0411034        324287528.31478190        1211738082.5086491     
   3008638905.6735883        126649032.73243368        951391421.49945331     
   2119999134.6371775       -148396485.07956624        724658890.85986912     
   5054906256.6461191        441807794.77225113        1833269946.3171637     
   4301101241.9627895        435701181.68020523        1561491613.9117858     
   3521174281.1870127        342521414.94666171        1297755370.3191774     
   2715125374.3187871        162268494.57162833        1042061215.5393393     
   1882954521.3581121       -105057579.44490492        794409149.57226539     
   2746763968.8436041       -303723903.67279828        483978911.44660181     
   2946100622.3197951       -240367417.69058466        567733431.41700459     
   3149638137.7493978       -163008058.53032315        640654458.02143455     
   3357376515.1324191       -71645826.192000389        702741991.25989890     
   3569315754.4688582        33719279.324373960        753996031.13238847     
   2551903858.3799248       -247729647.19351351        569443771.79703701     
   2719186778.4554367       -206093447.43074429        654771845.29632914     
   2891669563.9263873       -147124363.01650977        731289067.90401649     
   3069352214.7927809       -70822393.950799704        798995439.62010622     
   3252234731.0546131        22812459.766374230        857890960.44458485     
   2342982246.9777794       -195953840.99577355        649670431.60146189     
   2483990412.1508117       -174304233.90297902        737737562.64533603     
   2631197446.1613007       -131991730.68531215        819016485.27197599     
   2784603349.0092611       -69016331.342753172        893507199.48138046     
   2944208120.6946802        14621964.124673128        961209705.27354681     
   2119999134.6371775       -148396485.07956624        724658890.85986912     
   2240511523.4059172       -144999777.10729361        816630583.46402264     
   2368221784.4541407       -117610161.53673697        903836710.12530351     
   2503129917.7818556       -66227638.367879152        986277270.84371924     
   2645235923.3890600        9147792.3992699385        1063952265.6192683     
   1882954521.3581121       -105057579.44490492        794409149.57226539     
   1988750112.2207513       -118180077.04369640        891450907.75238693     
   2102742578.8049014       -103979655.57079113        985749742.46401024     
   2224931921.1105647       -62456315.026168823        1077305653.7071331     
   2355318139.1377373        6389944.5901461840        1166118641.4817502     
   3569315754.4688582        33719279.324373960        753996031.13238847     
   3421384982.3938260        38062692.273013353        738458844.85997427     
   3273828718.1603479        43654464.693499088        727485398.72914600     
   3126646961.7684221        50494596.585827231        721075692.73989165     
   2979839713.2180500        58583087.950001597        719229726.89222705     
   3252234731.0546131        22812459.766374230        857890960.44458485     
   3116681673.6079769        29289133.883246660        845878990.07399857     
   2981449075.4992447        36834005.793141484        838332307.46792090     
   2846536936.7284126        45447075.496035695        835250912.62635767     
   2711945257.2954841        55128342.991946340        836634805.54930520     
   2944208120.6946802        14621964.124673128        961209705.27354681     
   2820751485.3705258        23147511.658008456        952659894.21719003     
   2697561260.8806276        32561095.305519819        948476918.54827619     
   2574637447.2249842        42862715.067218423        948660778.26680827     
   2451980044.4035940        54052370.943092346        953211473.37279129     
   2645235923.3890600        9147792.3992699385        1063952265.6192683     
   2533594417.6814775        19637825.597281575        1058801557.2895503     
   2422165274.3045039        30835733.230651021        1057919231.9702129     
   2310948493.2581387        42741515.299374342        1061305289.6612513     
   2199944074.5423732        55355171.803439975        1068959730.3626680     
   2355318139.1377373        6389944.5901461840        1166118641.4817502     
   2255210470.5408292        18760075.701085925        1164303979.2910883     
   2155261115.7708712        31657919.568527818        1166659247.7337306     
   2055470074.8278744        45083476.192512631        1173184446.8096850     
   1955837347.7118297        59036745.572994351        1183879576.5189438     
   2979839713.2180500        58583087.950001597        719229726.89222705     
   2782638739.8839793        50450020.849046469        685302249.70403564     
   2584335715.1721020        38643449.155390382        657533347.20276189     
   2384930639.0823946        23163372.868984222        635923019.38840675     
   2184423511.6148734        4009791.9898447990        620471266.26096225     
   2711945257.2954841        55128342.991946340        836634805.54930520     
   2531305236.7827044        49644928.503728986        804038759.03947365     
   2349454528.5846548        40125888.397957444        777411874.02538180     
   2166393132.7013392        26571222.674629688        756754150.50705159     
   1982121049.1327612        8980931.3337544203        742065588.48445976     
   2451980044.4035940        54052370.943092346        953211473.37279129     
   2287359796.1659050        51056254.903744459        921820115.18261385     
   2121420223.9355063        43662392.222020507        896208505.29702413     
   1954161327.7123923        31870782.897917390        876376643.71601880     
   1785583107.4965630        15681426.931428075        862324530.43959308     
   2199944074.5423732        55355171.803439975        1068959730.3626680     
   2050802418.0335879        54684000.049099684        1038646318.1334659     
   1900232801.2246459        49252960.627563477        1013923241.0176905     
   1748235224.1155429        39062053.538829565        994790499.01532614     
   1594809686.7062731        24111278.782872677        981248092.12638307     
   1955837347.7118297        59036745.572994351        1183879576.5189438     
   1821633102.3857629        60528163.939812541        1154517367.8920350     
   1685892260.4520831        56897593.614598334        1130556081.1873746     
   1548614821.9108028        48145034.597380161        1111995716.4049656     
   1409800786.7619081        34270486.888107955        1098836273.5448043     
   2184423511.6148734        4009791.9898447990        620471266.26096225     
   2066647134.9902201        8495840.5444530249        613671439.74446034     
   1949195054.2582736        14062875.408076763        609585563.46356308     
   1832067269.4190192        20710896.580678701        608213637.41829419     
   1715263780.4724565        28439904.062251568        609555661.60864151     
   1982121049.1327612        8980931.3337544203        742065588.48445976     
   1871162260.8009949        12346853.840807438        737817051.64786851     
   1760729913.0843024        17467578.398108244        736357353.88884294     
   1650824005.9827011        24343105.005714953        737686495.20739865     
   1541444539.4961758        32973433.663569868        741804475.60352981     
   1785583107.4965630        15681426.931428075        862324530.43959308     
   1681655875.5775409        17991413.826853454        860863118.79236948     
   1578457228.9959893        22730018.513843715        862265435.06467128     
   1475987167.7519009        29897240.992386639        866531479.25649607     
   1374245691.8452821        39493081.262480855        873661251.36785662     
   1594809686.7062731        24111278.782872677        981248092.12638307     
   1498127979.3198743        25429520.502652287        982809641.17796755     
   1402377001.9933205        29850195.755265832        987309806.99103725     
   1307556754.7266219        37373304.540718019        994748589.56559169     
   1213667237.5197783        47998846.859030545        1005125988.9016252     
   1409800786.7619081        34270486.888107955        1098836273.5448043     
   1320578572.0279899        34661173.868189037        1103656618.8046577     
   1232489232.0763078        38828110.122389793        1111490469.6679473     
   1145532766.9068704        46771295.650733829        1122337826.1346741     
   1059709176.5196606        58490730.453175962        1136198688.2048421     
   1715263780.4724565        28439904.062251568        609555661.60864151     
   1567582546.0535636        28869709.131497443        594594393.27886033     
   1420872040.7283607        32535277.846399009        578442944.18830359     
   1275132264.4968450        39436610.206919014        561101314.33697307     
   1130363217.3590322        49573706.213114142        542569503.72486305     
   1541444539.4961758        32973433.663569868        741804475.60352981     
   1392215067.7549191        30605372.042544305        730704976.27846444     
   1243089888.1222343        28584950.783436358        720250367.47166193     
   1094069000.5981307        26912169.886256933        710440649.18309724     
   945152405.18260396        25587029.351006508        701275821.41279280     
   1374245691.8452821        39493081.262480855        873661251.36785662     
   1228711043.5788789        35900071.190375805        865412677.89820921     
   1082414250.4359360        29766578.196467876        859644066.22584224     
   935355312.41643763        21092602.280707777        856355416.35074341     
   787534229.52040446        9878143.4431674778        855546728.27292168     
   1213667237.5197783        47998846.859030545        1005125988.9016252     
   1077070473.5254388        44753806.574982285        998717498.13809538     
   938845127.66943848        36080160.085410178        996624040.45085597     
   798991199.95176947        21977907.390266120        998845615.83991218     
   657508690.37243605        2447048.4895810783        1005382224.3052787     
   1059709176.5196606        58490730.453175962        1136198688.2048421     
   937293357.59459960        57166578.196382374        1130619436.9981089     
   812382519.82275844        47525696.450312644        1131190290.1466975     
   684976663.20412219        29568085.214927822        1137911247.6506100     
   555075787.73870957        3293744.4902938902        1150782309.5098431     
   1130363217.3590322        49573706.213114142        542569503.72486305     
   947169690.05807042        38368137.709942341        561016417.69957542     
   756533793.79937041        2354672.6809763908        590455071.87760556     
   558455528.58294034       -58466688.873757124        630885466.25896251     
   352934894.40879762       -144095946.95419869        682307600.84364235     
   945152405.18260396        25587029.351006508        701275821.41279280     
   787731890.05898106        8869064.5200995207        719595846.19821858     
   621740061.91477871       -36419943.712736189        748021616.22313237     
   447176920.74998724       -110279995.34753257        786553131.48754191     
   264042466.56461734       -212711090.38426566        835190391.99144208     
   787534229.52040446        9878143.4431674778        855546728.27292168     
   653355312.39175320       -13111641.970154911        872422762.46240163     
   509476138.17966396       -68435617.661607265        898518546.92754054     
   355896706.88413310       -156093783.63119876        933834081.66833675     
   192617018.50516582       -276086139.87890738        978369366.68479264     
   657508690.37243605        2447048.4895810783        1005382224.3052787     
   544039957.05638421       -27573981.760859966        1019497166.4921373     
   419742022.59404314       -93692349.165602773        1041945863.9908296     
   284614886.98538411       -195908053.72472990        1072728316.8013424     
   138658550.23044586       -334221095.43813288        1111844524.9236915     
   555075787.73870957        3293744.4902938902        1150782309.5098431     
   459785824.05286890       -34517954.852018893        1160819058.2874246     
   352537715.15788716       -112190138.22480702        1178303567.4129996     
   233331461.05374557       -229722805.62811989        1203235836.8865795     
   102167061.74045599       -387115957.06192613        1235615866.7081542     
   352934894.40879762       -144095946.95419869        682307600.84364235     
   278680879.91770500       -284901380.51793736        786016636.88727248     
   149524512.58996767       -608714656.87050259        905396362.97432423     
  -34534207.574435234       -1115535776.0119615        1040446779.1047812     
  -273495280.57551116       -1805364737.9423141        1191167885.2786365     
   264042466.56461734       -212711090.38426566        835190391.99144208     
   224761184.19793475       -352212756.87832820        884760002.17768943     
   141154606.27848154       -639465408.54828990        945260154.63090026     
   13222732.806259930       -1074469045.3941603        1016690849.3511143     
  -159034436.21874392       -1657223667.4159465        1099052086.3382890     
   192617018.50516582       -276086139.87890738        978369366.68479264     
   174765188.90166491       -418347023.11168885        986139451.17818308     
   123165121.02928433       -673102033.90738893        1000099930.1621221     
   37816814.888029277       -1040351172.2660360        1020250803.6366112     
  -81279729.522118568       -1520094438.1876082        1046592071.6016759     
   138658550.23044586       -334221095.43813288        1111844524.9236915     
   128692894.02890804       -483304179.21797234        1090154983.8887670     
   95556056.842376500       -709624532.94780838        1069915689.5679660     
   39248038.670857549       -1013182156.6275879        1051126641.9612976     
  -40231160.485646665       -1393977050.2573295        1033787841.0687312     
   102167061.74045599       -387115957.06192613        1235615866.7081542     
   86544299.579661071       -547084225.19721615        1196806600.3094473     
   58327413.717766017       -749032905.66951227        1154707432.8484316     
   17516404.154767036       -992961998.47881866        1109318364.3251314     
  -35888729.109325826       -1278871503.6250825        1060639394.7395300     
   5054906256.6461191        441807794.77225113        1833269946.3171637     
   4301101241.9627895        435701181.68020523        1561491613.9117858     
   3521174281.1870127        342521414.94666171        1297755370.3191774     
   2715125374.3187871        162268494.57162833        1042061215.5393393     
   1882954521.3581121       -105057579.44490492        794409149.57226539     
   4664257719.2144880        467021269.55733263        2079965739.8503881     
   3938468758.3462548        433246087.63118219        1741507535.5437360     
   3190990523.4432344        327173325.58908165        1422943107.3976462     
   2421823014.5054331        148802983.43104529        1124272455.4121099     
   1630966231.5328436       -101864938.84295201        845495579.58713269     
   4145849647.0182462        453906883.91303241        2310201429.1787086     
   3481938703.8159308        402621722.30802524        1910234803.7047224     
   2800771158.6364985        293814554.11261916        1542013641.7390881     
   2102347011.4799449        127485379.32681727        1205537943.2817996     
   1386666262.3462729       -96365802.049391508        900807708.33286130     
   3499682040.0573654        402464637.83933890        2523977014.3021274     
   2931511078.3718066        343828085.71072817        2067673418.3947430     
   2350516186.7667947        242445100.51726878        1654966973.3435092     
   1756697365.2423253        98315682.258945286        1285857679.1484082     
   1150054613.7984002       -88560169.064222395        960345535.80945158     
   2725754898.3318648        312694531.33626103        2721292495.2206287     
   2287185882.0138922        256865177.83929259        2213823379.6138020     
   1840225607.8341286        173064964.80301893        1761803102.2109044     
   1384874075.7925758        61293892.227446795        1365231663.0119357     
   921131285.88922584       -78448039.887443841        1024109062.0169005     
   1882954521.3581121       -105057579.44490492        794409149.57226539     
   1988750112.2207513       -118180077.04369640        891450907.75238693     
   2102742578.8049014       -103979655.57079113        985749742.46401024     
   2224931921.1105647       -62456315.026168823        1077305653.7071331     
   2355318139.1377373        6389944.5901461840        1166118641.4817502     
   1630966231.5328436       -101864938.84295201        845495579.58713269     
   1730323538.7322345       -108048885.24207151        953443183.81719112     
   1836482042.2674713       -91562177.188375950        1057579981.4979421     
   1949441742.1385567       -52404814.681849718        1157905972.6293852     
   2069202638.3454869        9423202.2774863243        1254421157.2115202     
   1386666262.3462729       -96365802.049391508        900807708.33286130     
   1476534191.3658283       -96526525.603820145        1018032865.9962467     
   1571807637.3355639       -78668859.324307859        1130379334.0295150     
   1672486600.2554824       -42792803.210860848        1237847112.4326725     
   1778571080.1255846        11101642.736536145        1340436201.2057190     
   1150054613.7984002       -88560169.064222395        960345535.80945158     
   1227382070.1215324       -83612998.128930509        1085219954.2895505     
   1308719364.0091829       -65299701.978583157        1204147800.0587273     
   1394066495.4613497       -33620280.613180935        1317129073.1169930     
   1483423464.4780366        11425265.967288017        1424163773.4643385     
   921131285.88922584       -78448039.887443841        1024109062.0169005     
   982867174.99934733       -69308302.817414403        1155004448.6971045     
   1047217222.2883264       -51454705.151196122        1278885379.5855899     
   1114181427.7561531       -24887246.888820708        1395751854.6823504     
   1183759791.4028349        10394071.969743669        1505603873.9873886     
   2355318139.1377373        6389944.5901461840        1166118641.4817502     
   2255210470.5408292        18760075.701085925        1164303979.2910883     
   2155261115.7708712        31657919.568527818        1166659247.7337306     
   2055470074.8278744        45083476.192512631        1173184446.8096850     
   1955837347.7118297        59036745.572994351        1183879576.5189438     
   2069202638.3454869        9423202.2774863243        1254421157.2115202     
   1979520541.4109051        19103851.091344118        1251410908.7788730     
   1890082652.4022222        29598526.324857831        1252871049.9832613     
   1800888971.3194280        40907227.978003383        1258801580.8246877     
   1711939498.1625264        53029956.050793231        1269202501.3031549     
   1778571080.1255846        11101642.736536145        1340436201.2057190     
   1700173009.1497049        18350345.542235017        1336330576.3131788     
   1622105040.1986558        26699388.430703640        1336995800.0614069     
   1544367173.2724388        36148771.401948154        1342431872.4503992     
   1466959408.3710532        46698494.455959737        1352638793.4801614     
   1483423464.4780366        11425265.967288017        1424163773.4643385     
   1417167873.7572224        16499559.053733528        1419062981.8940032     
   1351328279.1601815        22960505.886081636        1419033497.9681661     
   1285904680.6869094        30808106.464332402        1424075321.6868217     
   1220897078.3374043        40042360.788467467        1434188453.0499766     
   1183759791.4028349        10394071.969743669        1505603873.9873886     
   1130505135.2334588        13551491.625849247        1499608125.5213485     
   1077752369.2867901        18381878.690975308        1498984143.7035348     
   1025501493.5628328        24885233.165145159        1503731928.5339501     
   973752508.06157959        33061555.048322618        1513851480.0125897     
   1955837347.7118297        59036745.572994351        1183879576.5189438     
   1821633102.3857629        60528163.939812541        1154517367.8920350     
   1685892260.4520831        56897593.614598334        1130556081.1873746     
   1548614821.9108028        48145034.597380161        1111995716.4049656     
   1409800786.7619081        34270486.888107955        1098836273.5448043     
   1711939498.1625264        53029956.050793231        1269202501.3031549     
   1592164222.1639895        54239083.674445748        1237963244.3915427     
   1471046369.2747304        50972954.995701432        1212487416.7503607     
   1348585939.4947512        43231570.014550030        1192775018.3795998     
   1224782932.8240528        31014928.731004477        1178826049.2792678     
   1466959408.3710532        46698494.455959737        1352638793.4801614     
   1362648836.9805412        47936051.920578241        1319748844.6202264     
   1257189708.4162011        45345085.472438753        1292984832.3788867     
   1150582022.6780295        38925595.111525774        1272346756.7561519     
   1042825779.7660263        28677580.837842941        1257834617.7520235     
   1220897078.3374043        40042360.788467467        1434188453.0499766     
   1133086946.8354225        41619068.678215504        1399874168.5780773     
   1044322277.8765001        40013985.044827640        1372048328.0729625     
   954603071.46063507        35227109.888296306        1350710931.5346148     
   863929327.58783150        27258443.208637625        1335861978.9630549     
   973752508.06157959        33061555.048322618        1513851480.0125897     
   903478551.72862649        35288133.947339475        1478339216.2651036     
   832444077.65563118        34979653.712877810        1449677903.8325741     
   760649085.84257233        32136114.344872504        1427867542.7149966     
   688093576.28946495        26757515.843374133        1412908132.9123707     
   1409800786.7619081        34270486.888107955        1098836273.5448043     
   1320578572.0279899        34661173.868189037        1103656618.8046577     
   1232489232.0763078        38828110.122389793        1111490469.6679473     
   1145532766.9068704        46771295.650733829        1122337826.1346741     
   1059709176.5196606        58490730.453175962        1136198688.2048421     
   1224782932.8240528        31014928.731004477        1178826049.2792678     
   1143805828.4912763        30950995.894936919        1186104468.5241740     
   1063713018.2444673        33834710.012093127        1196816687.0471725     
   984504502.08360982        39666071.082422435        1210962704.8482578     
   906180280.00871837        48445079.105969131        1228542521.9274364     
   1042825779.7660263        28677580.837842941        1257834617.7520235     
   971294624.90483940        28519279.906776309        1267281100.1696527     
   900399183.43334067        30480023.607998073        1280581675.5400290     
   830139455.35151827        34559811.941475272        1297736343.8631506     
   760515440.65938210        40758644.907243997        1318745105.1390252     
   863929327.58783150        27258443.208637625        1335861978.9630549     
   803044961.26867568        27366025.903696746        1347186513.7410872     
   742547727.64292979        28764050.910113990        1362785435.1465218     
   682437626.71058881        31452518.227883220        1382658743.1793599     
   622714658.47165132        35431427.857000560        1406806437.8396039     
   688093576.28946495        26757515.843374133        1412908132.9123707     
   639056837.58278632        27491233.885689437        1425820709.2384827     
   590158650.87324274        28686791.918463737        1443427965.8666561     
   541399016.16081738        30344189.941627771        1465729902.7968872     
   492777933.44552577        32463427.955232039        1492726520.0291681     
   1059709176.5196606        58490730.453175962        1136198688.2048421     
   937293357.59459960        57166578.196382374        1130619436.9981089     
   812382519.82275844        47525696.450312644        1131190290.1466975     
   684976663.20412219        29568085.214927822        1137911247.6506100     
   555075787.73870957        3293744.4902938902        1150782309.5098431     
   906180280.00871837        48445079.105969131        1228542521.9274364     
   799483332.20276356        46349628.517758161        1222820328.0814664     
   690344305.10702205        36113913.630258203        1223217461.1251898     
   578763198.72150612        17737934.443514138        1229733921.0586126     
   464740013.04621977       -8778309.0424732566        1242369707.8817506     
   760515440.65938210        40758644.907243997        1318745105.1390252     
   669449428.35646462        37865515.302765101        1312941731.4703195     
   575994276.32077730        27008586.589057058        1313226907.2256908     
   480149984.55232680        8187858.7661312521        1319600632.4051509     
   381916553.05110610       -18596668.166024178        1332062907.0086861     
   622714658.47165132        35431427.857000560        1406806437.8396039     
   547191646.05571997        31714238.551459968        1400983647.1646752     
   469332433.46402216        20209715.326703236        1401218628.4482059     
   389137020.69657916        917858.18279130757        1407511381.6902006     
   306605407.75336075       -26161332.880362958        1419861906.8906615     
   492777933.44552577        32463427.955232039        1492726520.0291681     
   432709985.30051637        27895798.263803825        1486946075.1645293     
   370358776.53675556        15717299.843195915        1487192624.7927313     
   305724307.15425271       -4072067.3065505922        1493466168.9137743     
   238806577.15299052       -31472303.185489193        1505766707.5276568     
   555075787.73870957        3293744.4902938902        1150782309.5098431     
   459785824.05286890       -34517954.852018893        1160819058.2874246     
   352537715.15788716       -112190138.22480702        1178303567.4129996     
   233331461.05374557       -229722805.62811989        1203235836.8865795     
   102167061.74045599       -387115957.06192613        1235615866.7081542     
   464740013.04621977       -8778309.0424732566        1242369707.8817506     
   388329595.22119898       -43049292.775864527        1241567260.5315456     
   301808352.99201775       -111023024.52311558        1247022692.2011485     
   205176286.35867357       -212699504.28425133        1258736002.8905599     
   98433395.321169540       -348078732.05924499        1276707192.5997643     
   381916553.05110610       -18596668.166024178        1332062907.0086861     
   320986020.14920384       -50346834.571822673        1322576471.1365261     
   251791983.64813682       -109642012.97484669        1318158032.9559784     
   174334443.54789880       -196482203.37510663        1318807592.4670458     
   88613399.848491892       -310867405.77258790        1324525149.6697283     
   306605407.75336075       -26161332.880362958        1419861906.8906615     
   257755098.83689350       -56410580.239874572        1403846690.1023574     
   202488607.12625167       -108047103.57996285        1391709589.6774893     
   140805932.62142447       -181070902.90067193        1383450605.6160405     
   72707075.322433144       -275481978.20192188        1379069737.9180121     
   238806577.15299052       -31472303.185489193        1505766707.5276568     
   198636831.28426647       -61240529.780014813        1485377917.4290564     
   153898223.42635348       -106238296.33849791        1467677362.3656812     
   104590753.57924989       -166465602.86095107        1452665042.3375423     
   50714421.742977947       -241922449.34730142        1440340957.3446248     
   102167061.74045599       -387115957.06192613        1235615866.7081542     
   86544299.579661071       -547084225.19721615        1196806600.3094473     
   58327413.717766017       -749032905.66951227        1154707432.8484316     
   17516404.154767036       -992961998.47881866        1109318364.3251314     
  -35888729.109325826       -1278871503.6250825        1060639394.7395300     
   98433395.321169540       -348078732.05924499        1276707192.5997643     
   80910583.695452690       -489313505.88818455        1222169917.9018724     
   51989869.082173824       -668541289.67565024        1165137853.6840932     
   11671251.481320858       -885762083.42172146        1105610999.9464364     
  -40045269.107100964       -1140975887.1263361        1043589356.6889104     
   88613399.848491892       -310867405.77258790        1324525149.6697283     
   71462286.021930635       -432687161.11591375        1255655457.5050735     
   44109489.921327531       -588512524.03937769        1185086087.3629768     
   6555011.5466812253       -778343494.54298234        1112817039.2434294     
  -41201149.102002323       -1002180072.6267135        1038848313.1464087     
   72707075.322433144       -275481978.20192188        1379069737.9180121     
   58199406.559085876       -377205190.88044304        1297263219.1190665     
   34686276.235224426       -508946608.76067573        1214552133.8850920     
   2167684.3508611023       -670706231.84259713        1130936482.2160859     
  -39356369.094025761       -862484060.12623465        1046416264.1120486     
   50714421.742977947       -241922449.34730142        1440340957.3446248     
   41121945.306909621       -322867595.18180513        1346993202.7438376     
   23720228.023871124       -429843543.83954543        1253535993.2504447     
  -1490730.1061560214       -562850295.32057703        1159969328.8644369     
  -34510929.083167940       -721887849.62489140        1066293209.5858361     
   2725754898.3318648        312694531.33626103        2721292495.2206287     
   2287185882.0138922        256865177.83929259        2213823379.6138020     
   1840225607.8341286        173064964.80301893        1761803102.2109044     
   1384874075.7925758        61293892.227446795        1365231663.0119357     
   921131285.88922584       -78448039.887443841        1024109062.0169005     
   1923046888.7941744        198140102.02135146        2714161580.1340961     
   1626025564.7100942        165839733.37031138        2222700254.3815451     
   1322710796.1621070        112561216.50625491        1779243164.8713000     
   1013102583.1502187        38304551.429188848        1383790311.6033640     
   697200925.67442560       -56930261.860891342        1036341694.5777383     
   1201185071.2328935        107839530.29936981        2698524124.0946002     
   1024441148.0637829        92687059.098575234        2225518037.1605258     
   843501593.82865584        63549151.011060715        1793071584.5071385     
   658366408.52751374        20425806.036828190        1401184766.1344380     
   469035592.16035622       -36682975.824121267        1049857582.0424261     
   560169445.64801824        41792816.170307249        2674380127.1021352     
   482432632.07495940        37407155.024083346        2222276727.9507408     
   402598000.83377260        26028768.317435846        1803288361.1184139     
   320665551.92445809        7657656.0503598452        1417415026.6051555     
   236635285.34701815       -17706181.777130932        1064656724.4109590     
   12.039552413631030       -40.365832425699274        2641729589.1567087     
   16.743625808179772        21.146841741074248        2212976326.7521996     
   17.177460186857573        68.425383079387061        1809893494.7051344     
   13.341055892796543        101.46979689634922        1432481093.0155189     
   5.2344120796041338        120.28007898287345        1080739121.6833434     
   921131285.88922584       -78448039.887443841        1024109062.0169005     
   982867174.99934733       -69308302.817414403        1155004448.6971045     
   1047217222.2883264       -51454705.151196122        1278885379.5855899     
   1114181427.7561531       -24887246.888820708        1395751854.6823504     
   1183759791.4028349        10394071.969743669        1505603873.9873886     
   697200925.67442560       -56930261.860891342        1036341694.5777383     
   740627217.70519125       -50938144.453217506        1168758949.7308164     
   786014127.28500235       -38410635.215392560        1294832728.9981947     
   833361654.41384745       -19347734.147452354        1414563032.3798747     
   882669799.09173799        6250558.7506361604        1527949859.8758535     
   469035592.16035622       -36682975.824121267        1049857582.0424261     
   496069372.55754745       -33263352.445060194        1183034241.6002619     
   524410229.87396759       -25486806.001902163        1310538405.1784203     
   554058164.10961437       -13353336.494655609        1432370072.7769017     
   585013175.26449156        3137056.0766921043        1548529244.3957055     
   236635285.34701815       -17706181.777130932        1064656724.4109590     
   249193639.55641362       -16283926.792951554        1197830324.3054407     
   262405530.05522355       -12683217.510724589        1326002408.1262653     
   276270956.84345108       -6904053.9304379076        1449172975.8734379     
   290789919.92109662        1053563.9479059875        1567342027.5469530     
   5.2344120796041338        120.28007898287345        1080739121.6833434     
   18.701790253790453        132.50310686117916        1213147197.8463521     
   27.828770057589317        130.25814017152669        1341224737.8417280     
   32.615358079137337        113.54520087437146        1464971741.6694739     
   33.061546632275139        82.364263349182124        1584388209.3295884     
   1183759791.4028349        10394071.969743669        1505603873.9873886     
   1130505135.2334588        13551491.625849247        1499608125.5213485     
   1077752369.2867901        18381878.690975308        1498984143.7035348     
   1025501493.5628328        24885233.165145159        1503731928.5339501     
   973752508.06157959        33061555.048322618        1513851480.0125897     
   882669799.09173799        6250558.7506361604        1527949859.8758535     
   843071762.37424624        8721501.8910275400        1523628125.2524381     
   803850144.14788175        12447173.335172445        1524598133.5243402     
   765004944.41264045        17427573.083065778        1530859884.6915534     
   726536163.16852498        23662701.134706318        1542413378.7540743     
   585013175.26449156        3137056.0766921043        1548529244.3957055     
   558843118.70484543        4852930.9131520092        1545735139.9280751     
   532924008.90474117        7405294.9480861425        1548152754.6028423     
   507255845.86418390        10794148.181510359        1555782088.4200072     
   481838629.58316725        15019490.613402426        1568623141.3795726     
   290789919.92109662        1053563.9479059875        1567342027.5469530     
   277819204.22525603        1945778.6922219247        1565929169.5482571     
   264973963.55737633        3256243.5297394544        1569648006.9390464     
   252254197.91746151        4984958.4604735821        1578498539.7193179     
   239659907.30550617        7131923.4844058454        1592480767.8890784     
   33.061546632275139        82.364263349182124        1584388209.3295884     
   18.935474525357492        45.228224233572213        1584210214.1129804     
   8.1057832607206386        19.080122646677076        1589083890.5329461     
  0.57247295274195398        3.9199565411417461        1599009238.5894854     
  -3.6644582057410413      -0.25227837218522919        1613986258.2825911     
   973752508.06157959        33061555.048322618        1513851480.0125897     
   903478551.72862649        35288133.947339475        1478339216.2651036     
   832444077.65563118        34979653.712877810        1449677903.8325741     
   760649085.84257233        32136114.344872504        1427867542.7149966     
   688093576.28946495        26757515.843374133        1412908132.9123707     
   726536163.16852498        23662701.134706318        1542413378.7540743     
   673894150.12104535        25351671.978160292        1506998934.0920284     
   620681748.69199300        25139348.216369897        1478420634.8089874     
   566898958.88136137        23025729.849317938        1456678480.9049449     
   512545780.68916208        19010816.877037346        1441772472.3799083     
   481838629.58316725        15019490.613402426        1568623141.3795726     
   446786257.14701378        16158162.599034235        1533528333.3878562     
   411353625.68776464        16029304.507682487        1505254864.8391900     
   375540735.20542252        14632916.339351922        1483802735.7335780     
   339347585.69998479        11968998.094038218        1469171946.0710206     
   239659907.30550617        7131923.4844058454        1592480767.8890784     
   222154872.80653638        7707605.8099769577        1557927414.1525791     
   204459708.64295051        7649522.5868272185        1530180593.9231880     
   186574414.81475016        6957673.8149624243        1509240307.2008967     
   168498991.32193267        5632059.4943733215        1495106553.9857106     
  -3.6644582057410413      -0.25227837218522919        1613986258.2825911     
  -2.9003871648714106        1.6109858410643350        1580196176.3862102     
  -2.4424519641229616        2.4537979477993517        1553197822.0609803     
  -2.2906533126354001        2.2761541964420187        1532991195.3069024     
  -2.4449920110503309        1.0780533059657684        1519576296.1239836     
   688093576.28946495        26757515.843374133        1412908132.9123707     
   639056837.58278632        27491233.885689437        1425820709.2384827     
   590158650.87324274        28686791.918463737        1443427965.8666561     
   541399016.16081738        30344189.941627771        1465729902.7968872     
   492777933.44552577        32463427.955232039        1492726520.0291681     
   512545780.68916208        19010816.877037346        1441772472.3799083     
   475679178.73239297        19534390.695090115        1455659236.3785977     
   438916490.81854463        20404344.656213596        1474261458.5499921     
   402257716.94761163        21620678.760385543        1497579138.8940904     
   365702857.11959624        23183393.007620141        1525612277.4108934     
   339347585.69998479        11968998.094038218        1469171946.0710206     
   314710485.83782506        12300237.291226774        1483992486.7957110     
   290142662.06437552        12862396.784115508        1503549263.5637527     
   265644114.37963623        13655476.572705746        1527842276.3751435     
   241214842.78360516        14679476.656986453        1556871525.2298794     
   168498991.32193267        5632059.4943733215        1495106553.9857106     
   156150758.89908952        5788773.6741222665        1510820460.4898274     
   143837164.61073676        6060948.3021732047        1531291380.9079359     
   131558208.45689292        6448583.3785856068        1556519315.2400439     
   119313890.43754813        6951678.9033279978        1586504263.4861448     
  -2.4449920110503309        1.0780533059657684        1519576296.1239836     
  -2.0838233153671406      -0.15625207172087974        1536143157.4609435     
  -1.5423642216885045      -0.78958945608937459        1557487810.5825438     
 -0.82060903402129459      -0.82194090133004261        1583610255.4887865     
   8.1430649768964067E-002 -0.25334194449237724        1614510492.1796770     
   492777933.44552577        32463427.955232039        1492726520.0291681     
   432709985.30051637        27895798.263803825        1486946075.1645293     
   370358776.53675556        15717299.843195915        1487192624.7927313     
   305724307.15425271       -4072067.3065505922        1493466168.9137743     
   238806577.15299052       -31472303.185489193        1505766707.5276568     
   365702857.11959624        23183393.007620141        1525612277.4108934     
   321472586.31498504        20003877.951267660        1518310728.4815810     
   275529870.03188550        11116211.299959615        1516844679.6362588     
   227874708.27029601       -3479606.9463207573        1521214130.8749115     
   178507101.03022426       -23783576.787539028        1531419082.1975596     
   241214842.78360516        14679476.656986453        1556871525.2298794     
   212275122.43694788        12723938.170986384        1548714823.2328718     
   182193771.75206330        6962965.2242242917        1546202126.9109917     
   150970790.72895524       -2603442.1832794994        1549333436.2642431     
   118606179.36761531       -15975284.051558308        1558108751.2926226     
   119313890.43754813        6951678.9033279978        1586504263.4861448     
   105117593.66640252        6055978.9229426458        1578158359.4184060     
   90350481.697291970        3257561.6160075851        1575264966.6169417     
   75012554.530216187       -1443573.0174777023        1577824085.0817535     
   59103812.165171765       -8047424.9775263034        1585835714.8128412     
   8.1430649768964067E-002 -0.25334194449237724        1614510492.1796770     
   3.3540020577721291E-003  0.20715796294485384        1606641337.0381777     
 -0.13242648735831231       0.47531173136577642        1604033198.7541034     
 -0.32591006358863384       0.55112083623849006        1606686077.3274493     
 -0.57710228537347363       0.43456987093098060        1614599972.7582111     
   238806577.15299052       -31472303.185489193        1505766707.5276568     
   198636831.28426647       -61240529.780014813        1485377917.4290564     
   153898223.42635348       -106238296.33849791        1467677362.3656812     
   104590753.57924989       -166465602.86095107        1452665042.3375423     
   50714421.742977947       -241922449.34730142        1440340957.3446248     
   178507101.03022426       -23783576.787539028        1531419082.1975596     
   147703630.87633494       -46312594.983937278        1506584624.9734368     
   113473514.23542993       -80263768.137061402        1484596173.6336219     
   75816751.107504934       -125637096.24691395        1465453728.1781158     
   34733341.492562599       -182432579.31349373        1449157288.6069112     
   118606179.36761531       -15975284.051558308        1558108751.2926226     
   97619758.783075944       -31129861.693461314        1530161211.6955013     
   74348907.213681340       -53899209.284878246        1505217448.8317695     
   48793624.659429774       -84283326.825822353        1483277462.7014167     
   20953911.120327249       -122282214.31626537        1464341253.3044567     
   59103812.165171765       -8047424.9775263034        1585835714.8128412     
   48385215.004487239       -15692329.908582598        1556107677.5952492     
   36524402.361116186       -27144619.781927172        1529541187.9601207     
   23521374.235043585       -42404294.597607516        1506136245.9074528     
   9376130.6262942776       -61471354.355546333        1485892851.4372497     
 -0.57710228537347363       0.43456987093098060        1614599972.7582111     
 -0.45942965549155557       0.37069765755183998        1584424022.6726744     
 -0.32227855915081238       0.37175505348089788        1557567391.0186784     
 -0.16565743740130054       0.43771288105054601        1534030077.7962215     
   1.0438902489670582E-002  0.56858602075688747        1513812083.0052998     
   50714421.742977947       -241922449.34730142        1440340957.3446248     
   41121945.306909621       -322867595.18180513        1346993202.7438376     
   23720228.023871124       -429843543.83954543        1253535993.2504447     
  -1490730.1061560214       -562850295.32057703        1159969328.8644369     
  -34510929.083167940       -721887849.62489140        1066293209.5858361     
   34733341.492562599       -182432579.31349373        1449157288.6069112     
   30331443.601012498       -242303700.83151129        1348282391.1645045     
   20072615.074452609       -321697924.46622396        1246646464.9605234     
   3956855.9128680825       -420615250.21768540        1144249509.9949675     
  -18015833.883745968       -539055678.08591616        1041091526.2678617     
   20953911.120327249       -122282214.31626537        1464341253.3044567     
   19880952.147687905       -161637803.40546232        1358216908.2677119     
   14903372.751992777       -214008793.90484318        1250679960.6004372     
   6021172.9332382530       -279395185.81442028        1141730410.3026273     
  -6765647.3085852116       -357796979.13423264        1031368257.3742748     
   9376130.6262942776       -61471354.355546333        1485892851.4372497     
   9770470.9469505325       -80869902.903615579        1376796754.0534573     
   8212501.0565065965       -106776152.15534949        1265636480.1701841     
   4702220.9549641162       -139190102.11074656        1152412029.7873976     
  -760369.35768113285       -178111752.76981950        1037123402.9051204     
   1.0438902489670582E-002  0.56858602075688747        1513812083.0052998     
  -1.2259424244995265E-003  0.67394615529318214        1404021928.5217576     
  -1.2016761212470251E-002  0.78221971025014170        1291516023.6697485     
  -2.1949154947788152E-002  0.89335537593866776        1176294368.4492919     
  -3.1033417593937074E-002   1.0073167574789761        1058356962.8603508     
   12.039552413631030       -40.365832425699274        2641729589.1567087     
   16.743625808179772        21.146841741074248        2212976326.7521996     
   17.177460186857573        68.425383079387061        1809893494.7051344     
   13.341055892796543        101.46979689634922        1432481093.0155189     
   5.2344120796041338        120.28007898287345        1080739121.6833434     
  -560169396.74955320       -41792894.705527484        2674380121.3695021     
  -482432586.44131583       -37407137.560817242        2222276730.3183475     
  -402597964.88842177       -26028676.267250687        1803288368.0747898     
  -320665532.09087455       -7657510.8248417825        1417415034.6388280     
  -236635288.04867381        17706358.766414970        1064656730.0104595     
  -1201184944.4152272       -107839590.70819640        2698524102.4617300     
  -1024441047.2166762       -92687053.545599341        2225518034.1979737     
  -843501523.25857925       -63549093.851174146        1793071593.1919639     
  -658366372.54093230       -20425711.624920398        1401184779.4437015     
  -469035595.06373554        36683093.133164883        1049857592.9531859     
  -1923046630.9574656       -198140128.37383384        2714161532.4334025     
  -1626025365.5824580       -165839726.80750835        2222700238.3910809     
  -1322710657.9330063       -112561184.32637501        1779243170.0566607     
  -1013102508.0091128       -38304500.930431664        1383790327.4301407     
  -697200915.81077635        56930323.380321026        1036341710.5115175     
  -2725754456.3762717       -312694507.70243990        2721292411.2845030     
  -2287185541.5386591       -256865157.34654474        2213823342.8976669     
  -1840225368.9117079       -173064947.69285822        1761803098.6688819     
  -1384873938.4954214       -61293878.741387129        1365231678.5981452     
  -921131250.28979731        78448049.507876515        1024109082.6854584     
   5.2344120796041338        120.28007898287345        1080739121.6833434     
   18.701790253790453        132.50310686117916        1213147197.8463521     
   27.828770057589317        130.25814017152669        1341224737.8417280     
   32.615358079137337        113.54520087437146        1464971741.6694739     
   33.061546632275139        82.364263349182124        1584388209.3295884     
  -236635288.04867381        17706358.766414970        1064656730.0104595     
  -249193617.18353781        16284128.603652224        1197830324.2048776     
  -262405490.17904279        12683418.905418605        1326002400.8080788     
  -276270907.03519070        6904229.6717101783        1449172959.8200612     
  -290789867.75197303       -1053439.0974471271        1567342001.2408268     
  -469035595.06373554        36683093.133164883        1049857592.9531859     
  -496069356.58252132        33263493.650097638        1183034242.4053962     
  -524410201.48219091        25486949.564083129        1310538392.8428025     
  -554058129.76274037        13353460.875135899        1432370044.2654052     
  -585013141.42417598       -3136972.4167643189        1548529196.6731997     
  -697200915.81077635        56930323.380321026        1036341710.5115175     
  -740627199.49515867        50938227.642448545        1168758952.4479058     
  -786014106.08066761        38410722.234155804        1294832713.9459000     
  -833361635.56730127        19347807.155446649        1414562995.0055041     
  -882669787.95506322       -6250517.5936909318        1527949795.6267140     
  -921131250.28979731        78448049.507876515        1024109082.6854584     
  -982867145.92145193        69308330.580701053        1155004454.3324025     
  -1047217203.9744767        51454736.915622830        1278885364.1173685     
  -1114181424.4488673        24887268.512659252        1395751812.0403564     
  -1183759807.3446310       -10394074.628215015        1505603798.1013682     
   33.061546632275139        82.364263349182124        1584388209.3295884     
   18.935474525357492        45.228224233572213        1584210214.1129804     
   8.1057832607206386        19.080122646677076        1589083890.5329461     
  0.57247295274195398        3.9199565411417461        1599009238.5894854     
  -3.6644582057410413      -0.25227837218522919        1613986258.2825911     
  -290789867.75197303       -1053439.0974471271        1567342001.2408268     
  -277819175.84287453       -1945715.4406653196        1565929149.1269712     
  -264973953.27873409       -3256222.9337442368        1569647992.9129527     
  -252254200.05954707       -4984961.5766678154        1578498532.5987644     
  -239659916.18531823       -7131931.3694513440        1592480768.1844063     
  -585013141.42417598       -3136972.4167643189        1548529196.6731997     
  -558843102.72773719       -4852895.7415139973        1545735102.9138777     
  -532924006.01759249       -7405292.3539092243        1548152729.3176455     
  -507255851.29373717       -10794162.253936380        1555782075.8845065     
  -481838638.55617577       -15019505.441611916        1568623142.6144562     
  -882669787.95506322       -6250517.5936909318        1527949795.6267140     
  -843071761.71911335       -8721495.6743175089        1523628075.4736967     
  -803850150.11079443       -12447189.180379361        1524598099.7470264     
  -765004953.13010120       -17427598.111860514        1530859868.4467094     
  -726536170.77703798       -23662722.468776375        1542413381.5727434     
  -1183759807.3446310       -10394074.628215015        1505603798.1013682     
  -1130505152.8170004       -13551515.239067614        1499608066.8064246     
  -1077752385.5583389       -18381913.413153112        1498984104.2010951     
  -1025501505.5686358       -24885269.150434315        1503731910.2853756     
  -973752512.84790158       -33061582.450941265        1513851485.0592630     
  -3.6644582057410413      -0.25227837218522919        1613986258.2825911     
  -2.9003871648714106        1.6109858410643350        1580196176.3862102     
  -2.4424519641229616        2.4537979477993517        1553197822.0609803     
  -2.2906533126354001        2.2761541964420187        1532991195.3069024     
  -2.4449920110503309        1.0780533059657684        1519576296.1239836     
  -239659916.18531823       -7131931.3694513440        1592480768.1844063     
  -222154879.79271379       -7707608.2755519375        1557927414.1537473     
  -204459714.40822574       -7649521.8753728420        1530180593.5206678     
  -186574420.03186405       -6957672.1689465865        1509240306.2851555     
  -168498996.66361228       -5632059.1562228873        1495106552.4472172     
  -481838638.55617577       -15019505.441611916        1568623142.6144562     
  -446786264.17384094       -16158170.408716545        1533528333.9638793     
  -411353631.50160676       -16029307.742825374        1505254864.5372965     
  -375540740.53947490       -14632917.443940654        1483802734.3347044     
  -339347591.28744060       -11968999.512048200        1469171943.3561018     
  -726536170.77703798       -23662722.468776375        1542413381.5727434     
  -673894156.04377723       -25351684.788537234        1506998935.8166039     
  -620681753.72259271       -25139355.148552954        1478420635.1108727     
  -566898963.81349885       -23025733.548868716        1456678479.4555538     
  -512545786.31648159       -19010819.989443928        1441772468.8506460     
  -973752512.84790158       -33061582.450941265        1513851485.0592630     
  -903478555.40251327       -35288151.414984465        1478339219.7119131     
  -832444081.07118940       -34979664.092573702        1449677905.2413921     
  -760649089.85393369       -32136120.483725846        1427867541.6476977     
  -688093581.75073647       -26757520.588403881        1412908128.9308376     
  -2.4449920110503309        1.0780533059657684        1519576296.1239836     
  -2.0838233153671406      -0.15625207172087974        1536143157.4609435     
  -1.5423642216885045      -0.78958945608937459        1557487810.5825438     
 -0.82060903402129459      -0.82194090133004261        1583610255.4887865     
   8.1430649768964067E-002 -0.25334194449237724        1614510492.1796770     
  -168498996.66361228       -5632059.1562228873        1495106552.4472172     
  -156150763.26375771       -5788774.9197545648        1510820459.3887939     
  -143837167.72550392       -6060950.2219526470        1531291380.2360759     
  -131558210.04883794       -6448585.0627791360        1556519314.9890649     
  -119313890.23377076       -6951679.4422664419        1586504263.6477673     
  -339347591.28744060       -11968999.512048200        1469171943.3561018     
  -314710490.21728355       -12300239.415322840        1483992484.8534248     
  -290142665.05061448       -12862398.996886298        1503549262.3775210     
  -265644115.78742605       -13655478.256721586        1527842275.9283905     
  -241214842.42771852       -14679477.194824830        1556871525.5060341     
  -512545786.31648159       -19010819.989443928        1441772468.8506460     
  -475679182.94440889       -19534393.642983437        1455659233.8548429     
  -438916493.51770341       -20404347.114413872        1474261457.0068824     
  -402257718.03637236       -21620680.403756604        1497579138.3067577     
  -365702856.50041175       -23183393.511005208        1525612277.7544763     
  -688093581.75073647       -26757520.588403881        1412908128.9308376     
  -639056841.44512546       -27491237.602708131        1425820706.3930447     
  -590158653.12677586       -28686794.574551493        1443427964.1241574     
  -541399016.79568684       -30344191.503930837        1465729902.1241760     
  -492777932.45184594       -32463428.390801206        1492726520.3930976     
   8.1430649768964067E-002 -0.25334194449237724        1614510492.1796770     
   3.3540020577721291E-003  0.20715796294485384        1606641337.0381777     
 -0.13242648735831231       0.47531173136577642        1604033198.7541034     
 -0.32591006358863384       0.55112083623849006        1606686077.3274493     
 -0.57710228537347363       0.43456987093098060        1614599972.7582111     
  -119313890.23377076       -6951679.4422664419        1586504263.6477673     
  -105117593.66009051       -6055978.6492897607        1578158359.4910817     
  -90350481.986432925       -3257560.8563868888        1575264966.5939147     
  -75012555.212789834        1443573.9364658594        1577824084.9562600     
  -59103813.339169145        8047425.7292457111        1585835714.5781219     
  -241214842.42771852       -14679477.194824830        1556871525.5060341     
  -212275122.33915812       -12723938.010436073        1548714823.3514640     
  -182193771.99293125       -6962964.6338255852        1546202126.8585057     
  -150970791.38903707        2603442.9350075051        1549333436.0271540     
  -118606180.52748172        15975284.696047843        1558108750.8574073     
  -365702856.50041175       -23183393.511005208        1525612277.7544763     
  -321472586.03384489       -20003877.876265630        1518310728.6193202     
  -275529870.15192538       -11116210.857013434        1516844679.5478687     
  -227874708.85465649        3479607.5467340797        1521214130.5401118     
  -178507102.14203849        23783577.334980048        1531419081.5960619     
  -492777932.45184594       -32463428.390801206        1492726520.3930976     
  -432709984.74415183       -27895798.246781230        1486946075.2946560     
  -370358776.46341467       -15717299.525954843        1487192624.6620102     
  -305724307.60964322        4072067.7716541886        1493466168.4951560     
  -238806578.18284142        31472303.646031737        1505766706.7940974     
 -0.57710228537347363       0.43456987093098060        1614599972.7582111     
 -0.45942965549155557       0.37069765755183998        1584424022.6726744     
 -0.32227855915081238       0.37175505348089788        1557567391.0186784     
 -0.16565743740130054       0.43771288105054601        1534030077.7962215     
   1.0438902489670582E-002  0.56858602075688747        1513812083.0052998     
  -59103813.339169145        8047425.7292457111        1585835714.5781219     
  -48385215.923314750        15692330.611793008        1556107677.4102862     
  -36524402.996168941        27144620.531975217        1529541187.8218837     
  -23521374.557733029        42404295.489791960        1506136245.8129044     
  -9376130.6080115810        61471355.485228553        1485892851.3833532     
  -118606180.52748172        15975284.696047843        1558108750.8574073     
  -97619759.676621765        31129862.366061784        1530161211.3477302     
  -74348907.822657719        53899210.046422526        1505217448.5653663     
  -48793624.965589948        84283327.737129986        1483277462.5103176     
  -20953911.105416283        122282215.43819147        1464341253.1825850     
  -178507102.14203849        23783577.334980048        1531419081.5960619     
  -147703631.71935332        46312595.633499846        1506584624.4849944     
  -113473514.80174328        80263768.915104121        1484596173.2491250     
  -75816751.389221400        125637097.17974566        1465453727.8884578     
  -34733341.481772855        182432580.42747882        1449157288.4030039     
  -238806578.18284142        31472303.646031737        1505766706.7940974     
  -198636832.05150485        61240530.414118603        1485377916.8220854     
  -153898223.93344322        106238297.13795644        1467677361.8731649     
  -104590753.82863277        166465603.81762439        1452665041.9473288     
  -50714421.737096578        241922450.45304272        1440340957.0445902     
   1.0438902489670582E-002  0.56858602075688747        1513812083.0052998     
  -1.2259424244995265E-003  0.67394615529318214        1404021928.5217576     
  -1.2016761212470251E-002  0.78221971025014170        1291516023.6697485     
  -2.1949154947788152E-002  0.89335537593866776        1176294368.4492919     
  -3.1033417593937074E-002   1.0073167574789761        1058356962.8603508     
  -9376130.6080115810        61471355.485228553        1485892851.3833532     
  -9770470.9598635510        80869904.210471526        1376796754.0042114     
  -8212501.0953746736        106776153.65684617        1265636480.1272557     
  -4702221.0145265833        139190103.82442462        1152412029.7524974     
   760369.28266618401        178111754.71314919        1037123402.8799291     
  -20953911.105416283        122282215.43819147        1464341253.1825850     
  -19880952.167032003        161637804.67238435        1358216908.1592422     
  -14903372.796801299        214008795.34606534        1250679960.5087476     
  -6021172.9947319031        279395187.45920879        1141730410.2311063     
   6765647.2391752601        357796981.01181114        1031368257.3263005     
  -34733341.481772855        182432580.42747882        1449157288.4030039     
  -30331443.622702941        242303702.05977976        1348282390.9868693     
  -20072615.116304293        321697925.84984159        1246646464.8142433     
  -3956855.9625672698        420615251.79770231        1144249509.8851113     
   18015833.838499010        539055679.90331745        1041091526.1994927     
  -50714421.737096578        241922450.45304272        1440340957.0445902     
  -41121945.326896936        322867596.37259161        1346993202.4870789     
  -23720228.053873688        429843545.16821629        1253535993.0437267     
   1490730.0819739103        562850296.83992672        1159969328.7145228     
   34510929.080636650        721887851.38768125        1066293209.4994847     
  -2725754456.3762717       -312694507.70243990        2721292411.2845030     
  -2287185541.5386591       -256865157.34654474        2213823342.8976669     
  -1840225368.9117079       -173064947.69285822        1761803098.6688819     
  -1384873938.4954214       -61293878.741387129        1365231678.5981452     
  -921131250.28979731        78448049.507876515        1024109082.6854584     
  -3499681460.3851156       -402464533.86172557        2523977099.4849563     
  -2931510626.7580519       -343828008.68369722        2067673496.2002490     
  -2350515862.9394631       -242445049.53391385        1654967042.8673415     
  -1756697168.9293423       -98315656.412364900        1285857739.4862421     
  -1150054544.7276974        88560170.680937827        960345586.05694103     
  -4145849104.7280111       -453906752.12122321        2310201677.1887374     
  -3481938278.6150627       -402621630.01213515        1910234990.1420450     
  -2800770849.9083962       -293814499.25731790        1542013778.8409119     
  -2102346818.6080105       -127485359.85677016        1205538043.2853308     
  -1386666184.7139041        96365788.189510465        900807783.47530806     
  -4664257389.4049625       -467021162.48093927        2079966144.3958349     
  -3938468497.1096945       -433246021.33185959        1741507824.7230515     
  -3190990329.8185101       -327173296.86307693        1422943306.5895762     
  -2421822887.5314198       -148802989.07459581        1124272589.9954116     
  -1630966170.2484193        101864902.03358877        845495674.94055402     
  -5054906314.4159708       -441807764.94087243        1833270501.1062591     
  -4301101282.2419395       -435701182.64286792        1561491999.9432721     
  -3521174302.6698103       -342521442.35119426        1297755626.1133485     
  -2715125375.6995788       -162268544.06584895        1042061379.6164863     
  -1882954501.3312423        105057512.21317482        794409260.45268571     
  -921131250.28979731        78448049.507876515        1024109082.6854584     
  -982867145.92145193        69308330.580701053        1155004454.3324025     
  -1047217203.9744767        51454736.915622830        1278885364.1173685     
  -1114181424.4488673        24887268.512659252        1395751812.0403564     
  -1183759807.3446310       -10394074.628215015        1505603798.1013682     
  -1150054544.7276974        88560170.680937827        960345586.05694103     
  -1227382024.8712461        83613003.539559841        1085219978.0694747     
  -1308719344.8312373        65299703.676708281        1204147793.4458067     
  -1394066504.6076751        33620271.092361629        1317129032.1859362     
  -1483423504.2005610       -11425294.213470638        1424163694.2898645     
  -1386666184.7139041        96365788.189510465        900807783.47530806     
  -1476534148.7242718        96526503.027451694        1018032905.5591760     
  -1571807629.9461627        78668827.160320699        1130379336.2326162     
  -1672486628.3795695        42792760.588131309        1237847075.4956350     
  -1778571144.0244989       -11101696.689126968        1340436123.3482244     
  -1630966170.2484193        101864902.03358877        845495674.94055402     
  -1730323517.4805307        108048829.04437387        953443236.80150259     
  -1836482059.3192427        91562107.366492033        1057579992.4778025     
  -1949441795.7645421        52404736.999979138        1157905941.9694555     
  -2069202726.8164406       -9423282.0551869869        1254421085.2764559     
  -1882954501.3312423        105057512.21317482        794409260.45268571     
  -1988750131.1400228        118179981.59031963        891450971.79646027     
  -2102742632.9504745        103979544.29523003        985749762.18136108     
  -2224932006.7625971        62456200.327903986        1077305631.6073925     
  -2355318252.5763865       -6390050.3116447926        1166118580.0745506     
  -1183759807.3446310       -10394074.628215015        1505603798.1013682     
  -1130505152.8170004       -13551515.239067614        1499608066.8064246     
  -1077752385.5583389       -18381913.413153112        1498984104.2010951     
  -1025501505.5686358       -24885269.150434315        1503731910.2853756     
  -973752512.84790158       -33061582.450941265        1513851485.0592630     
  -1483423504.2005610       -11425294.213470638        1424163694.2898645     
  -1417167906.0645785       -16499595.189152360        1419062922.5073953     
  -1351328302.1705117       -22960543.637897193        1419033460.2797780     
  -1285904692.5183587       -30808139.559685707        1424075307.6070156     
  -1220897077.1081281       -40042382.954544425        1434188464.4891040     
  -1778571144.0244989       -11101696.689126968        1340436123.3482244     
  -1700173056.9508920       -18350394.430844545        1336330519.6097834     
  -1622105071.0921590       -26699429.555476487        1336995766.2914364     
  -1544367186.4482956       -36148802.063004434        1342431863.3931861     
  -1466959403.0192997       -46698511.953427851        1352638810.9150312     
  -2069202726.8164406       -9423282.0551869869        1254421085.2764559     
  -1979520605.4759474       -19103912.964164376        1251410858.1135926     
  -1890082692.3232791       -29598571.165891171        1252871022.2360699     
  -1800888987.3584361       -40907256.660372615        1258801577.6438856     
  -1711939490.5814195       -53029969.447597265        1269202524.3370380     
  -2355318252.5763865       -6390050.3116447926        1166118580.0745506     
  -2255210551.6397438       -18760150.789106250        1164303938.0188258     
  -2155261165.8638830       -31657968.469171882        1166659228.1136801     
  -2055470095.2487969       -45083503.351822138        1173184450.3591151     
  -1955837339.7944844       -59036755.437047005        1183879604.7551341     
  -973752512.84790158       -33061582.450941265        1513851485.0592630     
  -903478555.40251327       -35288151.414984465        1478339219.7119131     
  -832444081.07118940       -34979664.092573702        1449677905.2413921     
  -760649089.85393369       -32136120.483725846        1427867541.6476977     
  -688093581.75073647       -26757520.588403881        1412908128.9308376     
  -1220897077.1081281       -40042382.954544425        1434188464.4891040     
  -1133086945.8444839       -41619082.216893792        1399874176.8774023     
  -1044322277.8928846       -40013992.519403100        1372048332.9332952     
  -954603073.25333774       -35227113.862083137        1350710932.6567836     
  -863929331.92583561       -27258446.244911104        1335861976.0478611     
  -1466959403.0192997       -46698511.953427851        1352638810.9150312     
  -1362648832.8209298       -47936061.979148924        1319748857.4746647     
  -1257189706.1325917       -45345090.371642709        1292984840.4926581     
  -1150582022.9542842       -38925597.130903304        1272346759.9690099     
  -1042825783.2860067       -28677582.256933331        1257834615.9037154     
  -1711939490.5814195       -53029969.447597265        1269202524.3370380     
  -1592164216.3318565       -54239090.701743364        1237963261.5036976     
  -1471046365.7903075       -50972957.649274945        1212487427.9194787     
  -1348585938.9567747       -43231570.290189862        1192775023.5843792     
  -1224782935.8312550       -31014928.624485314        1178826048.4984000     
  -1955837339.7944844       -59036755.437047005        1183879604.7551341     
  -1821633096.3772600       -60528168.384684145        1154517388.9645004     
  -1685892256.8660390       -56897594.352327704        1130556095.2137547     
  -1548614821.2608092       -48145033.339943647        1111995723.5028903     
  -1409800789.5615773       -34270485.347552955        1098836273.8319182     
  -688093581.75073647       -26757520.588403881        1412908128.9308376     
  -639056841.44512546       -27491237.602708131        1425820706.3930447     
  -590158653.12677586       -28686794.574551493        1443427964.1241574     
  -541399016.79568684       -30344191.503930837        1465729902.1241760     
  -492777932.45184594       -32463428.390801206        1492726520.3930976     
  -863929331.92583561       -27258446.244911104        1335861976.0478611     
  -803044964.14700222       -27366027.997334868        1347186511.8387985     
  -742547729.08138061       -28764052.127137959        1362785434.2028785     
  -682437626.72898829       -31452518.634365797        1382658743.1400964     
  -622714657.08980167       -35431427.518951118        1406806438.6504560     
  -1042825783.2860067       -28677582.256933331        1257834615.9037154     
  -971294627.16470349       -28519280.486695647        1267281099.1764286     
  -900399184.48257923       -30480023.513715148        1280581675.3265202     
  -830139455.23963487       -34559811.338004023        1297736344.3539841     
  -760515439.43586671       -40758643.959547222        1318745106.2588289     
  -1224782935.8312550       -31014928.624485314        1178826048.4984000     
  -1143805830.4982407       -30950995.070807159        1186104468.4059415     
  -1063713019.3303646       -33834708.734265447        1196816687.4950888     
  -984504502.32762897       -39666069.614856660        1210962705.7658486     
  -906180279.49002957       -48445077.712562650        1228542523.2182202     
  -1409800789.5615773       -34270485.347552955        1098836273.8319182     
  -1320578574.1476107       -34661171.749681890        1103656619.5273247     
  -1232489233.6247358       -38828107.788778007        1111490470.7085776     
  -1145532767.9929695       -46771293.464904845        1122337827.3756781     
  -1059709177.2522956       -58490728.778008997        1136198689.5286241     
  -492777932.45184594       -32463428.390801206        1492726520.3930976     
  -432709984.74415183       -27895798.246781230        1486946075.2946560     
  -370358776.46341467       -15717299.525954843        1487192624.6620102     
  -305724307.60964322        4072067.7716541886        1493466168.4951560     
  -238806578.18284142        31472303.646031737        1505766706.7940974     
  -622714657.08980167       -35431427.518951118        1406806438.6504560     
  -547191645.21863794       -31714238.104210615        1400983647.5407565     
  -469332433.18605357       -20209714.818070710        1401218628.4131460     
  -389137020.99206150       -917857.66056746244        1407511381.2676315     
  -306605408.63665640        26161333.368306980        1419861906.1042097     
  -760515439.43586671       -40758643.959547222        1318745106.2588289     
  -669449427.64037645       -37865514.545812279        1312941731.9909735     
  -575994276.09509885       -27008585.966122657        1313226907.2215121     
  -480149984.80002522       -8187858.2204463184        1319600631.9504406     
  -381916553.75516987        18596668.691172704        1332062906.1777608     
  -906180279.49002957       -48445077.712562650        1228542523.2182202     
  -799483332.00936663       -46349627.571601182        1222820328.6453171     
  -690344305.19053531       -36113912.970071554        1223217461.0871079     
  -578763199.03354466       -17737933.908011734        1229733920.5435853     
  -464740013.53837889        8778309.6146264076        1242369707.0147519     
  -1059709177.2522956       -58490728.778008997        1136198689.5286241     
  -937293358.32560706       -57166577.181551844        1130619437.5037863     
  -812382520.47238004       -47525695.829966277        1131190290.0099313     
  -684976663.69259512       -29568084.723189026        1137911247.0470653     
  -555075787.98628640       -3293743.8613294363        1150782308.6151869     
  -238806578.18284142        31472303.646031737        1505766706.7940974     
  -198636832.05150485        61240530.414118603        1485377916.8220854     
  -153898223.93344322        106238297.13795644        1467677361.8731649     
  -104590753.82863277        166465603.81762439        1452665041.9473288     
  -50714421.737096578        241922450.45304272        1440340957.0445902     
  -306605408.63665640        26161333.368306980        1419861906.1042097     
  -257755099.49171510        56410580.905555949        1403846689.4467514     
  -202488607.55995527        108047104.39886889        1391709589.1376326     
  -140805932.84136444        181070903.84828570        1383450605.1768475     
  -72707075.335947469        275481979.25378627        1379069737.5644054     
  -381916553.75516987        18596668.691172704        1332062906.1777608     
  -320986020.66734898        50346835.276366219        1322576470.4349673     
  -251791983.99261457        109642013.81793632        1318158032.3657589     
  -174334443.73096263        196482204.31590015        1318807591.9701338     
  -88613399.882397309        310867406.77024013        1324525149.2480917     
  -464740013.53837889        8778309.6146264076        1242369707.0147519     
  -388329595.57840377        43049293.526543543        1241567259.7867258     
  -301808353.23141998        111023025.39515364        1247022691.5575299     
  -205176286.49743557        212699505.22043234        1258736002.3271627     
  -98433395.376436815        348078733.00242877        1276707192.0956216     
  -555075787.98628640       -3293743.8613294363        1150782308.6151869     
  -459785824.22487527        34517955.656112522        1160819057.5020349     
  -352537715.27637303        112190139.13052504        1178303566.7129557     
  -233331461.14077964        229722806.56190935        1203235836.2479544     
  -102167061.81808069        387115957.95030940        1235615866.1070247     
  -50714421.737096578        241922450.45304272        1440340957.0445902     
  -41121945.326896936        322867596.37259161        1346993202.4870789     
  -23720228.053873688        429843545.16821629        1253535993.0437267     
   1490730.0819739103        562850296.83992672        1159969328.7145228     
   34510929.080636650        721887851.38768125        1066293209.4994847     
  -72707075.335947469        275481979.25378627        1379069737.5644054     
  -58199406.590870559        377205191.98267829        1297263218.8272984     
  -34686276.268992901        508946609.96757501        1214552133.6622500     
  -2167684.3703106642        670706233.20848429        1130936482.0692534     
   39356369.105167598        862484061.70537674        1046416264.0483042     
  -88613399.882397309        310867406.77024013        1324525149.2480917     
  -71462286.065582305        432687162.12957019        1255655457.1643524     
  -44109489.957999706        588512525.12479496        1185086087.1105688     
  -6555011.5596359074        778343495.75594974        1112817039.0867467     
   41201149.129498243        1002180074.0230120        1038848313.0928593     
  -98433395.376436815        348078733.00242877        1276707192.0956216     
  -80910583.751045465        489313506.81321013        1222169917.4982388     
  -51989869.120902359        668541290.63983905        1165137853.3887062     
  -11671251.486004829        885762084.48231876        1105610999.7670236     
   40045269.153632104        1140975888.3405883        1043589356.6331869     
  -102167061.81808069        387115957.95030940        1235615866.1070247     
  -86544299.647253007        547084226.03364670        1196806599.8289623     
  -58327413.757710099        749032906.51269829        1154707432.4966412     
  -17516404.149435103        992961999.38752925        1109318364.1100650     
   35888729.177565753        1278871504.6581044        1060639394.6692271     
  -5054906314.4159708       -441807764.94087243        1833270501.1062591     
  -4301101282.2419395       -435701182.64286792        1561491999.9432721     
  -3521174302.6698103       -342521442.35119426        1297755626.1133485     
  -2715125375.6995788       -162268544.06584895        1042061379.6164863     
  -1882954501.3312423        105057512.21317482        794409260.45268571     
  -5535226003.2991476       -487343518.77651548        1833274123.8244243     
  -4716252450.9139919       -444519071.80444634        1505699107.0017464     
  -3874056790.7026811       -324287598.74521530        1211738240.3913221     
  -3008639022.6652336       -126649099.59885120        951391523.99315023     
  -2119999146.8016315        148396425.63468599        724658957.80723178     
  -6293735861.6492872       -616336323.45224881        1841572130.6303568     
  -5336530866.5410109       -514875135.05251312        1454817451.9807029     
  -4359003603.1785564       -345673052.47214329        1127248946.4224963     
  -3361154071.5619078       -108730075.71115100        858866613.95573366     
  -2342982271.6910696        195953795.23048282        649670454.58041680     
  -7330435889.4663544       -828786178.96806002        1858164521.5240591     
  -6161936529.1230097       -646769372.38707638        1408847034.8801482     
  -4976014740.0974197       -406677803.53197002        1044287744.2068765     
  -3772670522.3896027       -108511472.40276098        764486649.50424373     
  -2551903875.9995484        247729621.00056517        569443750.77224123     
  -8645326086.7503834       -1124693085.3239591        1883051296.5055275     
  -7192469438.6599722       -840201783.80812907        1367787855.7000794     
  -5725090201.4592810       -507301851.92468596        962854633.74445915     
  -4243188375.1483216       -125993289.67368054        668251630.63866949     
  -2746763959.7270746        303723902.94493723        483978846.38270777     
  -1882954501.3312423        105057512.21317482        794409260.45268571     
  -1988750131.1400228        118179981.59031963        891450971.79646027     
  -2102742632.9504745        103979544.29523003        985749762.18136108     
  -2224932006.7625971        62456200.327903986        1077305631.6073925     
  -2355318252.5763865       -6390050.3116447926        1166118580.0745506     
  -2119999146.8016315        148396425.63468599        724658957.80723178     
  -2240511568.5503988        144999690.85126245        816630614.30145061     
  -2368221859.0483370        117610060.23726475        903836706.60699141     
  -2503130018.2954364        66227533.792731285        986277234.72385550     
  -2645236046.2917061       -9147888.4823780060        1063952198.6520436     
  -2342982271.6910696        195953795.23048282        649670454.58041680     
  -2483990466.0364089        174304162.08950853        737737560.01966679     
  -2631197525.8784132        131991643.95964575        819016458.04043150     
  -2784603451.2170839        69016240.840903163        893507148.64271510     
  -2944208242.0524178       -14622047.266725421        961209631.82651603     
  -2551903875.9995484        247729621.00056517        569443750.77224123     
  -2719186823.5980473        206093395.30506599        654771808.95110703     
  -2891669633.4407082        147124295.46235621        731289016.48168421     
  -3069352305.5275321        70822321.472437978        798995373.36397123     
  -3252234839.8585148       -22812526.664688349        857890879.59797585     
  -2746763959.7270746        303723902.94493723        483978846.38270777     
  -2946100641.2353129        240367390.49794519        567733361.09577250     
  -3149638181.7352171        163008014.74540699        640654381.93074763     
  -3357376581.2267818        71645775.687331915        702741908.88762867     
  -3569315839.7100053       -33719326.676272869        753995941.96641517     
  -2355318252.5763865       -6390050.3116447926        1166118580.0745506     
  -2255210551.6397438       -18760150.789106250        1164303938.0188258     
  -2155261165.8638830       -31657968.469171882        1166659228.1136801     
  -2055470095.2487969       -45083503.351822138        1173184450.3591151     
  -1955837339.7944844       -59036755.437047005        1183879604.7551341     
  -2645236046.2917061       -9147888.4823780060        1063952198.6520436     
  -2533594505.7294374       -19637892.769784093        1058801512.3700285     
  -2422165328.8882480       -30835776.127451658        1057919209.9132886     
  -2310948515.7681355       -42741538.555373549        1061305291.2818213     
  -2199944066.3691006       -55355180.053556681        1068959756.4756279     
  -2944208242.0524178       -14622047.266725421        961209631.82651603     
  -2820751571.3654056       -23147568.214349389        952659844.66453230     
  -2697561312.9597607       -32561130.099881768        948476893.00251341     
  -2574637466.8355031       -42862732.923353553        948660776.84046102     
  -2451980032.9926124       -54052376.684736848        953211496.17837429     
  -3252234839.8585148       -22812526.664688349        857890879.59797585     
  -3116681748.5476303       -29289177.122780800        845878934.90233612     
  -2981449118.0784230       -36834030.386465549        838332277.38135457     
  -2846536948.4508910       -45447086.455736279        835250907.03503406     
  -2711945239.6650348       -55128345.330589294        836634823.86336994     
  -3569315839.7100053       -33719326.676272869        753995941.96641517     
  -3421385037.2761288       -38062719.495107412        738458783.08343911     
  -3273828744.2442226       -43654476.987170577        727485363.04981279     
  -3126646960.6143045       -50494599.152524471        721075681.86553991     
  -2979839686.3863525       -58583085.991110325        719229739.53061604     
  -1955837339.7944844       -59036755.437047005        1183879604.7551341     
  -1821633096.3772600       -60528168.384684145        1154517388.9645004     
  -1685892256.8660390       -56897594.352327704        1130556095.2137547     
  -1548614821.2608092       -48145033.339943647        1111995723.5028903     
  -1409800789.5615773       -34270485.347552955        1098836273.8319182     
  -2199944066.3691006       -55355180.053556681        1068959756.4756279     
  -2050802412.5616372       -54684005.651533365        1038646337.6341026     
  -1900232798.6082723       -49252964.096496940        1013923253.8183391     
  -1748235224.5089831       -39062055.388375282        994790505.02833414     
  -1594809690.2637889       -24111279.527240634        981248091.26409495     
  -2451980032.9926124       -54052376.684736848        953211496.17837429     
  -2287359788.8352733       -51056260.945174813        921820132.34651780     
  -2121420220.4801173       -43662397.879549861        896208516.52629709     
  -1954161327.9271293       -31870787.487822056        876376648.71771526     
  -1785583111.1763232       -15681429.770031810        862324528.92076957     
  -2711945239.6650348       -55128345.330589294        836634823.86336994     
  -2531305225.1981659       -49644934.265589356        804038773.10174537     
  -2349454522.4815707       -40125895.701481938        777411883.33763230     
  -2166393131.5152416       -26571229.638263822        756754154.57103002     
  -1982121052.2991748       -8980936.0759215355        742065586.80194342     
  -2979839686.3863525       -58583085.991110325        719229739.53061604     
  -2782638721.6503129       -50450025.612773538        685302259.89978254     
  -2584335704.6126404       -38643457.562315464        657533354.25233757     
  -2384930635.2733088       -23163381.839665771        635923022.58828533     
  -2184423513.6323395       -4009798.4448919296        620471264.90761912     
  -1409800789.5615773       -34270485.347552955        1098836273.8319182     
  -1320578574.1476107       -34661171.749681890        1103656619.5273247     
  -1232489233.6247358       -38828107.788778007        1111490470.7085776     
  -1145532767.9929695       -46771293.464904845        1122337827.3756781     
  -1059709177.2522956       -58490728.778008997        1136198689.5286241     
  -1594809690.2637889       -24111279.527240634        981248091.26409495     
  -1498127982.1543152       -25429519.549140751        982809640.78452873     
  -1402377004.3285422       -29850193.850051761        987309806.95868528     
  -1307556756.7864821       -37373302.430002630        994748589.78656578     
  -1213667239.5281284       -47998845.288971722        1005125989.2681741     
  -1785583111.1763232       -15681429.770031810        862324528.92076957     
  -1681655878.4631112       -17991413.839240432        860863117.64151442     
  -1578457231.4262142       -22730016.829484999        862265434.18386567     
  -1475987170.0656366       -29897238.740802765        866531478.54782355     
  -1374245694.3813756       -39493079.573162198        873661250.73337889     
  -1982121052.2991748       -8980936.0759215355        742065586.80194342     
  -1871162263.0740044       -12346854.619965911        737817050.09829950     
  -1760729914.9177513       -17467576.727071166        736357352.38413119     
  -1650824007.8304358       -24343102.397291541        737686493.65944731     
  -1541444541.8120403       -32973431.630582809        741804473.92424774     
  -2184423513.6323395       -4009798.4448919296        620471264.90761912     
  -2066647135.9869800       -8495841.8913092613        613671438.15486395     
  -1949195054.8031590       -14062873.542828560        609585561.55946827     
  -1832067270.0808682       -20710893.399462700        608213635.12143719     
  -1715263781.8201144       -28439901.461212873        609555658.84076834     
  -1059709177.2522956       -58490728.778008997        1136198689.5286241     
  -937293358.32560706       -57166577.181551844        1130619437.5037863     
  -812382520.47238004       -47525695.829966277        1131190290.0099313     
  -684976663.69259512       -29568084.723189026        1137911247.0470653     
  -555075787.98628640       -3293743.8613294363        1150782308.6151869     
  -1213667239.5281284       -47998845.288971722        1005125989.2681741     
  -1077070475.1522117       -44753805.659721673        998717498.01328337     
  -938845128.83131206       -36080159.547192812        996624039.95001400     
  -798991200.56541419       -21977906.951336503        998845615.07836461     
  -657508690.35453260       -2447047.8722028732        1005382223.3983378     
  -1374245694.3813756       -39493079.573162198        873661250.73337889     
  -1228711045.5258536       -35900070.202019393        865412677.10329568     
  -1082414251.7068911       -29766577.619408548        859644065.32546401     
  -935355312.92449486       -21092601.825349629        856355415.39989305     
  -787534229.17866087       -9878142.8198243082        855546727.32656777     
  -1541444541.8120403       -32973431.630582809        741804473.92424774     
  -1392215069.4465234       -30605370.808410466        730704974.77382350     
  -1243089889.0991218       -28584950.046622157        720250366.13628364     
  -1094069000.7698359       -26912169.345220625        710440648.01163089     
  -945152404.45867014       -25587028.704218388        701275820.39987338     
  -1715263781.8201144       -28439901.461212873        609555658.84076834     
  -1567582546.9142284       -28869707.478925467        594594391.02485824     
  -1420872041.0080013       -32535276.828830600        578442942.38246989     
  -1275132264.1014535       -39436609.511001289        561101312.91360271     
  -1130363216.1945701       -49573705.525386274        542569502.61825597     
  -555075787.98628640       -3293743.8613294363        1150782308.6151869     
  -459785824.22487527        34517955.656112522        1160819057.5020349     
  -352537715.27637303        112190139.13052504        1178303566.7129557     
  -233331461.14077964        229722806.56190935        1203235836.2479544     
  -102167061.81808069        387115957.95030940        1235615866.1070247     
  -657508690.35453260       -2447047.8722028732        1005382223.3983378     
  -544039957.05247951        27573982.469510436        1019497165.6935102     
  -419742022.61725932        93692349.921779931        1041945863.2748797     
  -284614887.04886717        195908054.48461330        1072728316.1424556     
  -138658550.34731400        334221096.15799189        1111844524.2962282     
  -787534229.17866087       -9878142.8198243082        855546727.32656777     
  -653355312.15846288        13111642.599399626        872422761.63381433     
  -509476138.05902135        68435618.282779634        898518546.18938899     
  -355896706.88033998        156093784.23028192        933834080.99329042     
  -192617018.62242138        276086140.44191885        978369366.04552066     
  -945152404.45867014       -25587028.704218388        701275820.39987338     
  -787731889.54282641       -8869063.9542210996        719595845.32294738     
  -621740061.60166788        36419944.213503540        748021615.45647252     
  -447176920.63519895        110279995.79892457        786553130.80045724     
  -264042466.64341021        212711090.80207804        835190391.35488522     
  -1130363216.1945701       -49573705.525386274        542569502.61825597     
  -947169689.20557976       -38368137.191365361        561016416.76091599     
  -756533793.24519002       -2354672.2860185206        590455071.07614148     
  -558455528.31342125        58466689.190585732        630885465.56395817     
  -352934894.41027415        144095947.23846799        682307600.22435045     
  -102167061.81808069        387115957.95030940        1235615866.1070247     
  -86544299.647253007        547084226.03364670        1196806599.8289623     
  -58327413.757710099        749032906.51269829        1154707432.4966412     
  -17516404.149435103        992961999.38752925        1109318364.1100650     
   35888729.177565753        1278871504.6581044        1060639394.6692271     
  -138658550.34731400        334221096.15799189        1111844524.2962282     
  -128692894.11107066        483304179.91710460        1090154983.4085724     
  -95556056.881414086        709624533.65425181        1069915689.2387762     
  -39248038.658349335        1013182157.3694506        1051126641.7868391     
   40231160.558134258        1393977051.0626621        1033787841.0527484     
  -192617018.62242138        276086140.44191885        978369366.04552066     
  -174765188.97186700        418347023.68148565        986139450.70207024     
  -123165121.05321768        673102034.48136234        1000099929.8485922     
  -37816814.866466224        1040351172.8415811        1020250803.4850847     
   81279729.588373244        1520094438.7621078        1046592071.6115450     
  -264042466.64341021        212711090.80207804        835190391.35488522     
  -224761184.22965321        352212757.32676798        884760001.70945311     
  -141154606.27311352        639465408.99407828        945260154.32610118     
  -13222732.773807585        1074469045.8039458        1016690849.2048256     
   159034436.26830667        1657223667.7564681        1099052086.3456337     
  -352934894.41027415        144095947.23846799        682307600.22435045     
  -278680879.88442397        284901380.85296166        786016636.43072224     
  -149524512.54111937        608714657.19230318        905396362.67129612     
   34534207.619660079        1115535776.2565722        1040446778.9460510     
   273495280.59790945        1805364738.0457294        1191167885.2550144     
  -8645326086.7503834       -1124693085.3239591        1883051296.5055275     
  -7192469438.6599722       -840201783.80812907        1367787855.7000794     
  -5725090201.4592810       -507301851.92468596        962854633.74445915     
  -4243188375.1483216       -125993289.67368054        668251630.63866949     
  -2746763959.7270746        303723902.94493723        483978846.38270777     
  -9649046704.8342381       -1308655659.2723701        1001441387.4902654     
  -8000206989.9481983       -980916980.88306212        775004478.40401220     
  -6335248269.9470901       -599448285.44357061        579013391.80146074     
  -4654170544.8309307       -164249572.95388508        413468127.68261391     
  -2956973814.5997229        324679156.58597064        278368686.04747456     
  -9764497418.3348312       -1226137261.8458023        112920411.51123823     
  -8147915769.1277847       -923623546.32541156        177172519.48308349     
  -6513618698.8009071       -562058427.07223749        191986053.57250944     
  -4861606207.3541994       -141441904.08629990        157361013.77951369     
  -3191878294.7876606        338226022.63241410        73297400.104103431     
  -8991678227.2521477       -877137893.04425454       -782511631.43155825     
  -7635595776.1987448       -668321480.13516641       -425708021.06270462     
  -6260201488.0207443       -395132276.81072521       -198227380.94239998     
  -4865495362.7181253       -57570283.070917606       -100069711.07063079     
  -3451477400.2908921        344364501.08426261       -131235011.44740874     
  -7330589131.5861959       -261657552.86772013       -1684854741.3381231     
  -6463247011.1610813       -215010782.31234694       -1033637143.2333560     
  -5574996637.6065779       -98669834.659012079       -591626911.74325681     
  -4665838010.9226866        87365290.092293024       -358824046.86782724     
  -3735771131.1094112        343094591.94154167       -335228548.60705662     
  -2746763959.7270746        303723902.94493723        483978846.38270777     
  -2946100641.2353129        240367390.49794519        567733361.09577250     
  -3149638181.7352171        163008014.74540699        640654381.93074763     
  -3357376581.2267818        71645775.687331915        702741908.88762867     
  -3569315839.7100053       -33719326.676272869        753995941.96641517     
  -2956973814.5997229        324679156.58597064        278368686.04747456     
  -3180597307.8053885        254756838.09792399        350567225.22297192     
  -3408870562.8273215        169335313.55563331        416432281.44186682     
  -3641793579.6655254        68414582.959111452        475963854.70415419     
  -3879366358.3200030       -48005353.691651583        529161945.00983793     
  -3191878294.7876606        338226022.63241410        73297400.104103431     
  -3426931425.6293516        265595050.32173634        133416243.77998640     
  -3667083221.1119246        175968529.20811963        191701615.42075169     
  -3912333681.2353797        69346459.291555166        248153515.02639881     
  -4162682805.9997196       -54271159.427952528        302771942.59693402     
  -3451477400.2908921        344364501.08426261       -131235011.44740874     
  -3685102994.7072172        272882027.16938162       -83719583.233186111     
  -3924276156.5890346        182907661.70284271       -33537616.132589329     
  -4168996885.9363441        74441404.684670210        19310889.854372274     
  -4419265182.7491512       -52516743.885168552        74825934.727707043     
  -3735771131.1094112        343094591.94154167       -335228548.60705662     
  -3955112015.0389810        276617768.64084387       -300840255.81654364     
  -4180449369.2586412        190152711.03983331       -259285413.21816280     
  -4411783193.7684212        83699419.138432026       -210564020.81193706     
  -4649113488.5682926       -42742107.063283205       -154676078.59784335     
  -3569315839.7100053       -33719326.676272869        753995941.96641517     
  -3421385037.2761288       -38062719.495107412        738458783.08343911     
  -3273828744.2442226       -43654476.987170577        727485363.04981279     
  -3126646960.6143045       -50494599.152524471        721075681.86553991     
  -2979839686.3863525       -58583085.991110325        719229739.53061604     
  -3879366358.3200030       -48005353.691651583        529161945.00983793     
  -3719798665.8807893       -52242765.423102856        522698592.14105892     
  -3560169969.6970367       -56276831.339438438        520598497.09918308     
  -3400480269.7687521       -60107551.440658331        522861659.88420302     
  -3240729566.0959320       -63734925.726754189        529488080.49612361     
  -4162682805.9997196       -54271159.427952528        302771942.59693402     
  -3992051026.4764614       -58574430.948419571        305890494.41328830     
  -3820922730.0621529       -61222646.165400505        313171823.03409159     
  -3649297916.7567954       -62215805.078881025        324615928.45934099     
  -3477176586.5603900       -61553907.688861609        340222810.68903714     
  -4419265182.7491512       -52516743.885168552        74825934.727707043     
  -4238142119.0631313       -57057716.071026802        88034489.900126636     
  -4056087025.3395629       -58491921.465035677        105205340.85454033     
  -3873099901.5784283       -56819360.067172289        126338487.59094740     
  -3689180747.7797346       -52040031.877435446        151433930.10934377     
  -4649113488.5682926       -42742107.063283205       -154676078.59784335     
  -4458071943.6408215       -47692620.790943146       -130869421.39843123     
  -4265662855.5292740       -48084657.238374472       -103300949.43947509     
  -4071886224.2336555       -43918216.405551910       -71970662.720980063     
  -3876742049.7539573       -35193298.292472363       -36878561.242930777     
  -2979839686.3863525       -58583085.991110325        719229739.53061604     
  -2782638721.6503129       -50450025.612773538        685302259.89978254     
  -2584335704.6126404       -38643457.562315464        657533354.25233757     
  -2384930635.2733088       -23163381.839665771        635923022.58828533     
  -2184423513.6323395       -4009798.4448919296        620471264.90761912     
  -3240729566.0959320       -63734925.726754189        529488080.49612361     
  -3027141632.5708523       -50173310.093449593        504639776.39508337     
  -2812930425.2318196       -34534115.080299616        484985515.39722997     
  -2598095944.0788374       -16817340.687306762        470525297.50256473     
  -2382638189.1118922        2977013.0855489969        461259122.71109021     
  -3477176586.5603900       -61553907.688861609        340222810.68903714     
  -3249957486.7611337       -43390477.555058360        323895107.21548438     
  -3022593891.6356087       -24745396.333690047        311796915.96491563     
  -2795085801.1838193       -5618664.0247738361        303928236.93733835     
  -2567433215.4057589        13989719.371709108        300289070.13274252     
  -3689180747.7797346       -52040031.877435446        151433930.10934377     
  -3451086284.2211528       -30101527.997566938        143068252.36098346     
  -3213326103.8239975       -9277301.3224619627        137967555.95539811     
  -2975900206.5882564        10432648.147931218        136131840.89260581     
  -2738808592.5139465        29028320.413552880        137561107.17259577     
  -3876742049.7539573       -35193298.292472363       -36878561.242930777     
  -3630528024.9509125       -10306461.421003819       -37840788.168420367     
  -3385127061.7969847        11870169.953396320       -36502564.631315857     
  -3140539160.2921700        31336595.830758929       -32863890.631637741     
  -2896764320.4364491        48092816.211142182       -26924766.169362962     
  -2184423513.6323395       -4009798.4448919296        620471264.90761912     
  -2066647135.9869800       -8495841.8913092613        613671438.15486395     
  -1949195054.8031590       -14062873.542828560        609585561.55946827     
  -1832067270.0808682       -20710893.399462700        608213635.12143719     
  -1715263781.8201144       -28439901.461212873        609555658.84076834     
  -2382638189.1118922        2977013.0855489969        461259122.71109021     
  -2260064998.3581896       -4124692.8270896673        458409020.39115947     
  -2137475976.2018750       -11173627.397692442        457138438.56634146     
  -2014871122.6429470       -18169790.626247883        457447377.23663479     
  -1892250437.6814036       -25113182.512741089        459335836.40203571     
  -2567433215.4057589        13989719.371709108        300289070.13274252     
  -2443304439.1501484        3299982.7108923197        301785508.08715248     
  -2318819703.6277809       -6203223.0607130527        303727036.87441802     
  -2193979008.8386459       -14519897.943105578        306113656.49454427     
  -2068782354.7827446       -21650041.936278105        308945366.94752729     
  -2738808592.5139465        29028320.413552880        137561107.17259577     
  -2616365458.3628621        13778184.722640991        143800901.24284995     
  -2493226237.0808582        848339.46812796593        149351356.48370427     
  -2369390928.6679521       -9761215.3500323296        154212472.89516759     
  -2244859533.1241255       -18050479.731817126        158384250.47723526     
  -2896764320.4364491        48092816.211142182       -26924766.169362962     
  -2779248055.9963174        27309913.208207369       -15544800.141765906     
  -2660695576.5611343        9981060.1887861490       -5988602.6058045058     
  -2541106882.1308870       -3893742.8470934629        1743826.4385074691     
  -2420481972.7055688       -14314495.899401426        7652486.9911754634     
  -1715263781.8201144       -28439901.461212873        609555658.84076834     
  -1567582546.9142284       -28869707.478925467        594594391.02485824     
  -1420872041.0080013       -32535276.828830600        578442942.38246989     
  -1275132264.1014535       -39436609.511001289        561101312.91360271     
  -1130363216.1945701       -49573705.525386274        542569502.61825597     
  -1892250437.6814036       -25113182.512741089        459335836.40203571     
  -1746487416.3140635       -25454286.342236519        444269477.07991034     
  -1600964674.3920400       -26596321.656126201        428897279.97271454     
  -1455682211.9153163       -28539288.454338610        413219245.08044839     
  -1310640028.8839021       -31283186.736929893        397235372.40311950     
  -2068782354.7827446       -21650041.936278105        308945366.94752729     
  -1922410852.5499265       -21144435.256375909        294626107.26593626     
  -1775549180.2080626       -19004928.212977052        280885352.84068942     
  -1628197337.7571502       -15231520.806087255        267723103.67177692     
  -1480355325.1971827       -9824213.0356814265        255139359.75921020     
  -2244859533.1241255       -18050479.731817126        158384250.47723526     
  -2095352855.6218195       -15940154.221334338        145664281.58293384     
  -1944625558.4560874       -9761096.4994417429        134407160.98638901     
  -1792677641.6269636        486693.43375349045        124612888.68758041     
  -1639509105.1344180        14803215.578372240        116281464.68653719     
  -2420481972.7055688       -14314495.899401426        7652486.9911754634     
  -2265313425.5297236       -9841443.2370694876       -2615999.9690877046     
  -2108193809.1361144        1135173.4844660759       -10537295.590189498     
  -1949123123.5247304        18615354.265251756       -16111399.872125912     
  -1788101368.6955781        42599099.105275154       -19338312.814902555     
  -1130363216.1945701       -49573705.525386274        542569502.61825597     
  -947169689.20557976       -38368137.191365361        561016416.76091599     
  -756533793.24519002       -2354672.2860185206        590455071.07614148     
  -558455528.31342125        58466689.190585732        630885465.56395817     
  -352934894.41027415        144095947.23846799        682307600.22435045     
  -1310640028.8839021       -31283186.736929893        397235372.40311950     
  -1113076703.1200104       -12948940.441601098        419619774.76251370     
  -911764217.63067520        17882504.938517153        440421048.78511339     
  -706702572.41590643        61211149.403419465        459639194.47091025     
  -497891767.47569686        117036992.95313546        477274211.81990880     
  -1480355325.1971827       -9824213.0356814265        255139359.75921020     
  -1304350396.3994675        4860252.4986318350        277152506.21507132     
  -1128289517.1222589        19731219.631248236        285007655.82476193     
  -952172687.36557257        34788688.362118423        278704808.58826548     
  -775999907.12939632        50032658.691296518        258243964.50559726     
  -1639509105.1344180        14803215.578372240        116281464.68653719     
  -1520990769.0439508        15059441.629365265        133614611.11858539     
  -1406109691.7199566        3191471.7921258807        124214892.19507723     
  -1294865873.1624308       -20800693.933349967        88082307.916018918     
  -1187259313.3713677       -56917055.547025621        25216858.281401686     
  -1788101368.6955781        42599099.105275154       -19338312.814902555     
  -1762997821.0534546        17648626.950599313       -10993910.526942473     
  -1745224741.4237552       -31736738.578813314       -41957242.103916347     
  -1734782129.8064687       -105556997.48294562       -112228307.54583330     
  -1731669986.2016063       -203812149.76181459       -221807106.85268006     
  -352934894.41027415        144095947.23846799        682307600.22435045     
  -278680879.88442397        284901380.85296166        786016636.43072224     
  -149524512.54111937        608714657.19230318        905396362.67129612     
   34534207.619660079        1115535776.2565722        1040446778.9460510     
   273495280.59790945        1805364738.0457294        1191167885.2550144     
  -497891767.47569686        117036992.95313546        477274211.81990880     
  -388815285.36129737        223060056.17917567        596770013.94983172     
  -230663226.80259147        492668374.21958399        735408340.43407595     
  -23435591.799592733        925861947.07430077        893189191.27267480     
   232867619.64772445        1522640774.7434008        1070112566.4655898     
  -775999907.12939632        50032658.691296518        258243964.50559726     
  -622181430.79745913        124249209.51763982        386728626.79036564     
  -425114154.39438534        342628427.24775434        537827647.74960291     
  -184798077.92019442        705170311.88161790        711541027.38332462     
   98766798.625170588        1211874863.4193618        907868765.69151497     
  -1187259313.3713677       -56917055.547025621        25216858.281401686     
  -978779316.19292259       -11531159.131738186        155892474.95232448     
  -732877295.31650734        158594816.27679998        312654284.61786330     
  -449553250.74212825        453460870.67855871        495502287.27802116     
  -128807182.46975076        873067004.07361245        704436482.93280804     
  -1731669986.2016063       -203812149.76181459       -221807106.85268006     
  -1458608941.5476875       -184281049.76889336       -95738441.564280778     
  -1153952649.5689449       -59432458.693225801        59888251.038863234     
  -817701110.26540184        170733623.46509349        245072970.95676944     
  -449854323.63704741        506217196.70615041        459815718.18943542     
 </DataArray>
 <DataArray  type="Float64" Name="VM" NumberOfComponents="1" format="ascii">
   7772007927.9830723     
   6605705349.8150434     
   5620525612.6930647     
   4750955146.0719194     
   3961383385.9902229     
   8693082604.5144310     
   7361360574.7485723     
   6081983995.6959143     
   4840071783.1973696     
   3643009478.0246592     
   9214904621.2086525     
   7733704111.7891188     
   6260405926.7206535     
   4800195273.2036657     
   3376118807.7586932     
   9230279581.3583794     
   7675927930.5864716     
   6140262717.2825365     
   4629978868.8334951     
   3168855656.1422029     
   8770456500.8307400     
   7211585205.4387245     
   5736804968.4022989     
   4338846554.1945086     
   3028848815.2200317     
   3961383385.9902229     
   4133400295.1502757     
   4302200122.5459023     
   4469128756.0556526     
   4635638455.8763885     
   3643009478.0246592     
   3831589024.3442860     
   4019272732.1949496     
   4206844572.2935901     
   4395153447.4014692     
   3376118807.7586932     
   3574629459.0949297     
   3772797929.0344167     
   3970794724.6015530     
   4168929386.1323214     
   3168855656.1422029     
   3370470528.5025563     
   3570232878.7665334     
   3767773561.8145924     
   3963028446.5366211     
   3028848815.2200317     
   3226824401.5764999     
   3419286888.7484603     
   3605439102.5057554     
   3785013505.2422342     
   4635638455.8763885     
   4440207548.0333109     
   4245596768.2405677     
   4052023636.3909454     
   3859794332.8427515     
   4395153447.4014692     
   4212663712.0112576     
   4031280117.2686653     
   3851226885.7867055     
   3672815612.3806024     
   4168929386.1323214     
   3998346799.8792109     
   3829295169.6259036     
   3662011562.1551285     
   3496822407.7643695     
   3963028446.5366211     
   3803280196.7155390     
   3645639946.1909232     
   3490363516.7595696     
   3337801019.2826090     
   3785013505.2422342     
   3634977474.3753896     
   3487785538.7110486     
   3343716886.1612992     
   3203151991.8363581     
   3859794332.8427515     
   3625978202.7439308     
   3391667079.4433074     
   3156837378.8503065     
   2921479927.7090111     
   3672815612.3806024     
   3445058110.0649338     
   3217583718.0789528     
   2990440291.5182662     
   2763727089.0422254     
   3496822407.7643695     
   3276860305.0735726     
   3058356249.2753954     
   2841469471.2590222     
   2626470506.4588628     
   3337801019.2826090     
   3127012335.0192909     
   2919291190.8392773     
   2714935452.8219581     
   2514427709.1361027     
   3203151991.8363581     
   3002358556.0709591     
   2806682573.2736535     
   2616559175.1728263     
   2432676889.6412859     
   2921479927.7090111     
   2793132943.3679366     
   2665720315.7143230     
   2539164055.9659839     
   2413392966.9217386     
   2763727089.0422254     
   2635079311.3850594     
   2507032193.3301554     
   2379564037.3196487     
   2252655339.6516118     
   2626470506.4588628     
   2500206760.6009994     
   2374727247.9963231     
   2250114462.1906724     
   2126471645.3464627     
   2514427709.1361027     
   2393534048.0360775     
   2274196935.6707602     
   2156664162.3130441     
   2041247215.7582369     
   2432676889.6412859     
   2320198819.7616668     
   2210640521.2890568     
   2104454121.9500675     
   2002206543.0876725     
   2413392966.9217386     
   2260413317.3959827     
   2108840607.5086172     
   1958695953.6835332     
   1810086906.7357085     
   2252655339.6516118     
   2102620196.5133300     
   1953683195.2250733     
   1805865712.1762614     
   1659229757.7764752     
   2126471645.3464627     
   1978857225.1457539     
   1831906559.9031045     
   1685670677.8731356     
   1540225100.8643761     
   2041247215.7582369     
   1896980952.5249102     
   1753018572.7431889     
   1609512813.5146902     
   1466677454.1920767     
   2002206543.0876725     
   1863738266.0150805     
   1725542277.9064384     
   1587997071.4583426     
   1451649840.8952594     
   1810086906.7357085     
   1771990373.2637744     
   1731100837.5842247     
   1695664620.4922569     
   1683710227.3592961     
   1659229757.7764752     
   1545995981.2842441     
   1424054152.9877818     
   1293619600.1450863     
   1160670751.9590070     
   1540225100.8643761     
   1392168664.1784775     
   1240716397.0059679     
   1083511435.4535251     
   918463008.29531431     
   1466677454.1920767     
   1323985093.5998342     
   1195763565.2853966     
   1086387581.2226276     
   1001617514.9517914     
   1451649840.8952594     
   1344053444.4130533     
   1271408318.3247516     
   1241769459.8284202     
   1262067413.3936007     
   1683710227.3592961     
   1385713935.3971224     
   1130184276.7386417     
   1008749935.5821074     
   1149191124.7535737     
   1160670751.9590070     
   1009833079.7715651     
   985773853.88886774     
   1161097431.3531296     
   1542720603.3930354     
   918463008.29531431     
   963602741.17273569     
   1145228454.9475174     
   1476685991.5808442     
   1957391031.8698292     
   1001617514.9517914     
   1164502307.4162159     
   1425497951.7453012     
   1809096042.0138440     
   2335275409.6880460     
   1262067413.3936007     
   1446269289.3289187     
   1715557226.6731808     
   2110610583.5654376     
   2664024317.2154918     
   8770456500.8307400     
   7211585205.4387245     
   5736804968.4022989     
   4338846554.1945086     
   3028848815.2200317     
   7661927588.6610231     
   6352713375.9692364     
   5116061334.9206285     
   3948260167.2765656     
   2859818901.7377486     
   6803387386.3017073     
   5687309366.6612577     
   4628788196.1105289     
   3627213103.2114792     
   2693194218.2519875     
   6185575828.7005863     
   5210139622.3417807     
   4273417370.3318624     
   3376735664.1715903     
   2531088657.4565101     
   5796258318.3620739     
   4912237850.5760994     
   4045048657.8903799     
   3196143345.7106261     
   2376474523.2156167     
   3028848815.2200317     
   3226824401.5764999     
   3419286888.7484603     
   3605439102.5057554     
   3785013505.2422342     
   2859818901.7377486     
   3046807563.7885313     
   3226946635.7976713     
   3399779233.9017053     
   3565289662.8861833     
   2693194218.2519875     
   2875122695.3713818     
   3049636393.3738790     
   3216524136.2803650     
   3375988365.9188123     
   2531088657.4565101     
   2714119935.2501760     
   2889912786.3647923     
   3058439215.2386918     
   3220115211.2880406     
   2376474523.2156167     
   2566744697.8125186     
   2750652328.9746137     
   2928300925.1728411     
   3100324511.0109992     
   3785013505.2422342     
   3634977474.3753896     
   3487785538.7110486     
   3343716886.1612992     
   3203151991.8363581     
   3565289662.8861833     
   3430715872.6282640     
   3299845419.7875152     
   3173074762.8907294     
   3050910447.3941073     
   3375988365.9188123     
   3257999999.0444670     
   3144660049.4934049     
   3036463578.3028388     
   2934012406.4089165     
   3220115211.2880406     
   3119761889.2070255     
   3025016614.8913660     
   2936433736.4957423     
   2854656644.7414160     
   3100324511.0109992     
   3018415073.5621600     
   2942992188.0529962     
   2874614278.6231380     
   2813899669.7198167     
   3203151991.8363581     
   3002358556.0709591     
   2806682573.2736535     
   2616559175.1728263     
   2432676889.6412859     
   3050910447.3941073     
   2867706284.0015016     
   2690795492.8280172     
   2520799883.7450581     
   2358615532.5410056     
   2934012406.4089165     
   2768951882.5247154     
   2611373765.6704955     
   2462029580.4597921     
   2321930928.6219268     
   2854656644.7414160     
   2707950025.5104327     
   2569793664.4147477     
   2440980744.6466284     
   2322517996.5976377     
   2813899669.7198167     
   2685234025.1030574     
   2565934137.0010705     
   2456739936.7308450     
   2358542268.7376137     
   2432676889.6412859     
   2320198819.7616668     
   2210640521.2890568     
   2104454121.9500675     
   2002206543.0876725     
   2358615532.5410056     
   2260844906.0486598     
   2167114605.4624777     
   2078020788.8759503     
   1994275165.6873424     
   2321930928.6219268     
   2240823673.5528426     
   2164871949.3297396     
   2094739705.5382895     
   2031179380.2284453     
   2322517996.5976377     
   2259354288.0976920     
   2202279052.8941274     
   2151931221.7756958     
   2108997910.2771919     
   2358542268.7376137     
   2313769684.9677429     
   2275723026.6840529     
   2244945747.7528653     
   2221995481.0443625     
   2002206543.0876725     
   1863738266.0150805     
   1725542277.9064384     
   1587997071.4583426     
   1451649840.8952594     
   1994275165.6873424     
   1870395549.2473123     
   1751238899.0714178     
   1637817212.0787768     
   1531387428.3980036     
   2031179380.2284453     
   1927103043.1682003     
   1832280178.3814733     
   1748038666.0713320     
   1675830831.8783479     
   2108997910.2771919     
   2026373763.0963175     
   1956690242.0190275     
   1901154255.7781277     
   1860939268.5310857     
   2221995481.0443625     
   2159422593.1455665     
   2112436844.7043653     
   2081907748.9262049     
   2068620669.1202188     
   1451649840.8952594     
   1344053444.4130533     
   1271408318.3247516     
   1241769459.8284202     
   1262067413.3936007     
   1531387428.3980036     
   1472096563.2597184     
   1445385716.6721702     
   1455142958.7926059     
   1504579065.9573717     
   1675830831.8783479     
   1648931796.5606225     
   1649582498.9547210     
   1680095019.6565487     
   1743021403.9324751     
   1860939268.5310857     
   1851989353.2776053     
   1865808615.1657286     
   1904568736.7434731     
   1971260330.2319372     
   2068620669.1202188     
   2066632047.0207818     
   2083655109.0934579     
   2122297607.1988933     
   2186341026.1862946     
   1262067413.3936007     
   1446269289.3289187     
   1715557226.6731808     
   2110610583.5654376     
   2664024317.2154918     
   1504579065.9573717     
   1613113745.7463677     
   1788757781.0800173     
   2066360771.1945701     
   2476261914.5730033     
   1743021403.9324751     
   1787759114.3744266     
   1884605608.4737008     
   2060543265.2063322     
   2340898443.6909227     
   1971260330.2319372     
   1969176546.3856902     
   2003663047.6002829     
   2093429138.0016863     
   2257179910.7560258     
   2186341026.1862946     
   2156658573.3404622     
   2146669350.3122847     
   2166895285.6103129     
   2228401002.4505091     
   5796258318.3620739     
   4912237850.5760994     
   4045048657.8903799     
   3196143345.7106261     
   2376474523.2156167     
   5724847055.8395586     
   4805357181.4354143     
   3914046139.8500128     
   3052697203.0584545     
   2231849886.2826953     
   5614567035.0110703     
   4672375011.3147764     
   3773745746.6078048     
   2920284604.3599877     
   2121348740.6967154     
   5487497955.1324797     
   4530988767.1712856     
   3637386683.6539016     
   2807709140.8327661     
   2049172563.1928060     
   5375080233.7145357     
   4405989382.4780254     
   3522748032.8007040     
   2725494690.0971065     
   2018240817.4889681     
   2376474523.2156167     
   2566744697.8125186     
   2750652328.9746137     
   2928300925.1728411     
   3100324511.0109992     
   2231849886.2826953     
   2433067067.3171787     
   2627665973.7902961     
   2815576002.9124222     
   2997149839.3044209     
   2121348740.6967154     
   2332631143.7067952     
   2536472485.2683206     
   2732656118.7372327     
   2921301234.2663169     
   2049172563.1928060     
   2269182677.0467653     
   2480400206.0984654     
   2682518892.6748176     
   2875492056.1509500     
   2018240817.4889681     
   2245230101.7613063     
   2461674063.1316142     
   2667230446.8931088     
   2861751259.6494060     
   3100324511.0109992     
   3018415073.5621600     
   2942992188.0529962     
   2874614278.6231380     
   2813899669.7198167     
   2997149839.3044209     
   2929016533.4410744     
   2868170575.1554627     
   2815128659.9848599     
   2770449406.3601108     
   2921301234.2663169     
   2866542248.3528380     
   2819805261.7835712     
   2781531901.6973596     
   2752188397.6712551     
   2875492056.1509500     
   2833103177.1861262     
   2799384990.8592753     
   2774681110.4058623     
   2759346846.9620862     
   2861751259.6494060     
   2830084638.8810296     
   2807656912.6017189     
   2794706045.9068084     
   2791474906.1810737     
   2813899669.7198167     
   2685234025.1030574     
   2565934137.0010705     
   2456739936.7308450     
   2358542268.7376137     
   2770449406.3601108     
   2655038651.9711533     
   2549895937.0244150     
   2455684884.2627025     
   2373175334.0928879     
   2752188397.6712551     
   2649339682.1148486     
   2557538679.1261802     
   2477330400.0861454     
   2409324815.5519509     
   2759346846.9620862     
   2667846175.4876757     
   2588044143.1248488     
   2520345239.7868891     
   2465187460.9849572     
   2791474906.1810737     
   2709630452.4272599     
   2640031474.7379994     
   2582942626.9772730     
   2538642400.1354365     
   2358542268.7376137     
   2313769684.9677429     
   2275723026.6840529     
   2244945747.7528653     
   2221995481.0443625     
   2373175334.0928879     
   2344009223.2528234     
   2322444896.7542109     
   2308909505.3417802     
   2303814192.7613101     
   2409324815.5519509     
   2394687899.2798710     
   2388278002.2823191     
   2390396470.6760449     
   2401314927.4528971     
   2465187460.9849572     
   2463409926.9911313     
   2470303269.7532935     
   2486057439.7287626     
   2510832197.3200803     
   2538642400.1354365     
   2547641072.3046565     
   2565664296.9711518     
   2592816575.4332561     
   2629179357.8415837     
   2221995481.0443625     
   2159422593.1455665     
   2112436844.7043653     
   2081907748.9262049     
   2068620669.1202188     
   2303814192.7613101     
   2256132707.8405266     
   2223000519.8708973     
   2204938085.4441247     
   2202404922.5974154     
   2401314927.4528971     
   2365522195.5227818     
   2343210790.4330082     
   2334677094.4969931     
   2340188716.6745362     
   2510832197.3200803     
   2484217434.7090063     
   2470108747.5963006     
   2468670929.7725267     
   2480067741.3035297     
   2629179357.8415837     
   2609400545.6856303     
   2601310693.9859099     
   2605005270.0029297     
   2620598216.5631981     
   2068620669.1202188     
   2066632047.0207818     
   2083655109.0934579     
   2122297607.1988933     
   2186341026.1862946     
   2202404922.5974154     
   2189483550.4846330     
   2191373736.8781552     
   2210029017.2133007     
   2248344785.6968069     
   2340188716.6745362     
   2317186445.8758569     
   2305569203.8010640     
   2306731837.0129051     
   2322743746.6614618     
   2480067741.3035297     
   2448778582.7139668     
   2425926805.5975509     
   2412450118.5372419     
   2409710803.0174179     
   2620598216.5631981     
   2583488782.7837968     
   2552166069.0188403     
   2527205563.7021275     
   2509405029.3664246     
   2186341026.1862946     
   2156658573.3404622     
   2146669350.3122847     
   2166895285.6103129     
   2228401002.4505091     
   2248344785.6968069     
   2183268832.6550202     
   2134723970.6522608     
   2112386254.4938695     
   2127198897.2167187     
   2322743746.6614618     
   2225591547.2679477     
   2141854040.0045648     
   2079915599.9124842     
   2049972905.9769249     
   2409710803.0174179     
   2283921982.9601707     
   2168707889.2195244     
   2070834954.3390987     
   1999110909.9163826     
   2509405029.3664246     
   2358470586.3565588     
   2215757560.6089315     
   2086276623.8101921     
   1976953129.8704123     
   5375080233.7145357     
   4405989382.4780254     
   3522748032.8007040     
   2725494690.0971065     
   2018240817.4889681     
   5045429157.0708342     
   4150059224.9549451     
   3333236664.3649712     
   2594930542.8293300     
   1936758720.2607095     
   4813630340.0578213     
   3977676422.3246598     
   3210490109.7374902     
   2512045406.3192377     
   1882856467.2943895     
   4663587951.4995060     
   3877065343.0469050     
   3147670608.0849872     
   2475404121.0116878     
   1860371333.1004770     
   4575609868.2774763     
   3832987433.8819551     
   3134827489.1176858     
   2481130033.9846797     
   1871895068.4829175     
   2018240817.4889681     
   2245230101.7613063     
   2461674063.1316142     
   2667230446.8931088     
   2861751259.6494060     
   1936758720.2607095     
   2164911544.1733789     
   2383119861.7277479     
   2591130131.6856985     
   2788820572.7799397     
   1882856467.2943895     
   2112439881.6956248     
   2332713857.8517618     
   2543542679.4287810     
   2744857646.4843612     
   1860371333.1004770     
   2090648929.0954630     
   2312399799.2764268     
   2525586593.0803003     
   2730189849.7528791     
   1871895068.4829175     
   2101232583.7296982     
   2323069390.3101239     
   2537405488.2241988     
   2744240877.4719219     
   2861751259.6494060     
   2830084638.8810296     
   2807656912.6017189     
   2794706045.9068084     
   2791474906.1810737     
   2788820572.7799397     
   2769083097.5828462     
   2758536338.4462781     
   2757317548.8824644     
   2765563234.6056919     
   2744857646.4843612     
   2734503341.3110394     
   2733211889.5070353     
   2741044204.6741447     
   2758059600.2075858     
   2730189849.7528791     
   2726361900.7258525     
   2731436175.6764536     
   2745427557.4430647     
   2768350318.8127861     
   2744240877.4719219     
   2743932580.7132521     
   2752374035.8922825     
   2769565243.0090137     
   2795506202.0634327     
   2791474906.1810737     
   2709630452.4272599     
   2640031474.7379994     
   2582942626.9772730     
   2538642400.1354365     
   2765563234.6056919     
   2692736350.1577930     
   2632006270.0653296     
   2583522390.4064422     
   2547438764.8813534     
   2758059600.2075858     
   2692171474.6119027     
   2638228886.1675982     
   2596297630.3941531     
   2566444429.8670588     
   2768350318.8127861     
   2707233531.8208289     
   2657942102.1820936     
   2620492169.8428054     
   2594899893.4717827     
   2795506202.0634327     
   2736980063.4269876     
   2690217542.0149426     
   2655218637.8272986     
   2631983350.8640695     
   2538642400.1354365     
   2547641072.3046565     
   2565664296.9711518     
   2592816575.4332561     
   2629179357.8415837     
   2547438764.8813534     
   2564018644.2261767     
   2589295032.3084483     
   2623320695.5058413     
   2666135082.7211900     
   2566444429.8670588     
   2588826775.7187257     
   2619655977.3082175     
   2658953146.4472857     
   2706733458.9824162     
   2594899893.4717827     
   2621306551.9902830     
   2656014675.2470589     
   2699029069.5932884     
   2750353074.1733928     
   2631983350.8640695     
   2660677996.4216323     
   2697648020.0981774     
   2742893421.8937087     
   2796414201.8082352     
   2629179357.8415837     
   2609400545.6856303     
   2601310693.9859099     
   2605005270.0029297     
   2620598216.5631981     
   2666135082.7211900     
   2648228933.6782455     
   2641104083.0685191     
   2644807970.4719772     
   2659400157.3557792     
   2706733458.9824162     
   2690366975.2988625     
   2684063616.2813649     
   2687841939.4504318     
   2701726493.4582748     
   2750353074.1733928     
   2735361258.7104177     
   2729882533.0298505     
   2733920954.1850538     
   2747482192.5325332     
   2796414201.8082352     
   2782784425.2905164     
   2778266997.2693343     
   2782861917.7446804     
   2796569186.7165470     
   2620598216.5631981     
   2583488782.7837968     
   2552166069.0188403     
   2527205563.7021275     
   2509405029.3664246     
   2659400157.3557792     
   2615376350.3713355     
   2576917483.9423094     
   2544351026.1855168     
   2518133254.1091785     
   2701726493.4582748     
   2652869687.0588503     
   2609497832.3191376     
   2571756808.1131387     
   2539850431.6922894     
   2747482192.5325332     
   2695878329.5650005     
   2649820944.9631062     
   2609346270.6657414     
   2574504942.8068690     
   2796569186.7165470     
   2744302908.0017352     
   2697785857.4568515     
   2657018035.0818930     
   2621999440.8768539     
   2509405029.3664246     
   2358470586.3565588     
   2215757560.6089315     
   2086276623.8101921     
   1976953129.8704123     
   2518133254.1091785     
   2349590755.8373814     
   2184658327.7221117     
   2026454535.0773201     
   1879576748.8977261     
   2539850431.6922894     
   2358812212.7239609     
   2177570301.6799002     
   1997604865.9681642     
   1821209809.7281194     
   2574504942.8068690     
   2386238346.4883337     
   2194960726.5092034     
   2001052462.3853586     
   1805121547.8404047     
   2621999440.8768539     
   2431837315.1405225     
   2236971371.7853332     
   2037401610.8113186     
   1833128032.2184150     
   4575609868.2774763     
   3832987433.8819551     
   3134827489.1176858     
   2481130033.9846797     
   1871895068.4829175     
   4663587931.9699841     
   3877065342.5779834     
   3147670620.7175021     
   2475404141.2303948     
   1860371356.0112996     
   4813630267.2664833     
   3977676393.1397085     
   3210490112.8238325     
   2512045430.9094625     
   1882856503.1938767     
   5045428982.8919191     
   4150059126.2446108     
   3333236625.4480481     
   2594930548.4796457     
   1936758755.0243709     
   5375079899.5821390     
   4405989164.4385471     
   3522747912.1745586     
   2725494648.4226432     
   2018240834.5820811     
   1871895068.4829175     
   2101232583.7296982     
   2323069390.3101239     
   2537405488.2241988     
   2744240877.4719219     
   1860371356.0112996     
   2090648939.7680111     
   2312399794.5841074     
   2525586570.0221205     
   2730189805.5018282     
   1882856503.1938767     
   2112439897.9743369     
   2332713848.2286525     
   2543542637.8888369     
   2744857567.3420415     
   1936758755.0243709     
   2164911558.3170705     
   2383119845.7808719     
   2591130076.6286631     
   2788820470.0853271     
   2018240834.5820811     
   2245230104.2140808     
   2461674038.4616399     
   2667230383.2711601     
   2861751145.9007664     
   2744240877.4719219     
   2743932580.7132521     
   2752374035.8922825     
   2769565243.0090137     
   2795506202.0634327     
   2730189805.5018282     
   2726361865.8334775     
   2731436151.4791861     
   2745427545.2184329     
   2768350319.7587476     
   2744857567.3420415     
   2734503278.8224206     
   2733211846.2275724     
   2741044183.0765672     
   2758059602.6432357     
   2788820470.0853271     
   2769083016.1421733     
   2758536281.9287453     
   2757317520.9023046     
   2765563238.6682768     
   2861751145.9007664     
   2830084547.9238825     
   2807656849.0874991     
   2794706014.5202198     
   2791474911.5780778     
   2795506202.0634327     
   2736980063.4269876     
   2690217542.0149426     
   2655218637.8272986     
   2631983350.8640695     
   2768350319.7587476     
   2707233532.2920418     
   2657942101.9474082     
   2620492168.6793256     
   2594899891.1637845     
   2758059602.6432357     
   2692171476.1401572     
   2638228886.3071361     
   2596297628.6786041     
   2566444425.8431950     
   2765563238.6682768     
   2692736353.0252719     
   2632006270.9851756     
   2583522388.6421452     
   2547438759.7103295     
   2791474911.5780778     
   2709630456.5852790     
   2640031476.6142426     
   2582942625.5360570     
   2538642394.3459768     
   2631983350.8640695     
   2660677996.4216323     
   2697648020.0981774     
   2742893421.8937087     
   2796414201.8082352     
   2594899891.1637845     
   2621306550.3073354     
   2656014674.2025270     
   2699029069.1977444     
   2750353074.4341722     
   2566444425.8431950     
   2588826772.7815661     
   2619655975.4774461     
   2658953145.7387276     
   2706733459.4071374     
   2547438759.7103295     
   2564018640.4421587     
   2589295029.9305859     
   2623320694.5499773     
   2666135083.1986184     
   2538642394.3459768     
   2547641068.0491138     
   2565664294.2601748     
   2592816574.2764211     
   2629179358.2459030     
   2796414201.8082352     
   2782784425.2905164     
   2778266997.2693343     
   2782861917.7446804     
   2796569186.7165470     
   2750353074.4341722     
   2735361258.8406243     
   2729882533.0110488     
   2733920953.9997773     
   2747482192.1633573     
   2706733459.4071374     
   2690366975.5017557     
   2684063616.2252030     
   2687841939.0996752     
   2701726492.7776027     
   2666135083.1986184     
   2648228933.8860760     
   2641104082.9497366     
   2644807969.9716649     
   2659400156.4195285     
   2629179358.2459030     
   2609400545.8200283     
   2601310693.7721529     
   2605005269.3647599     
   2620598215.4252586     
   2796569186.7165470     
   2744302908.0017352     
   2697785857.4568515     
   2657018035.0818930     
   2621999440.8768539     
   2747482192.1633573     
   2695878329.2742782     
   2649820944.7485838     
   2609346270.5260701     
   2574504942.7422948     
   2701726492.7776027     
   2652869686.5154634     
   2609497831.9083538     
   2571756807.8318219     
   2539850431.5396571     
   2659400156.4195285     
   2615376349.6121531     
   2576917483.3528891     
   2544351025.7603297     
   2518133253.8449883     
   2620598215.4252586     
   2583488781.8443546     
   2552166068.2676597     
   2527205563.1305771     
   2509405028.9671574     
   2621999440.8768539     
   2431837315.1405225     
   2236971371.7853332     
   2037401610.8113186     
   1833128032.2184150     
   2574504942.7422948     
   2386238346.4503293     
   2194960726.5118861     
   2001052462.4484870     
   1805121547.9919927     
   2539850431.5396571     
   2358812212.6295695     
   2177570301.6709976     
   1997604866.0825436     
   1821209810.0185585     
   2518133253.8449883     
   2349590755.6675730     
   2184658327.6852574     
   2026454535.2259762     
   1879576749.3026865     
   2509405028.9671574     
   2358470586.0917439     
   2215757560.5261850     
   2086276623.9727383     
   1976953130.3594060     
   5375079899.5821390     
   4405989164.4385471     
   3522747912.1745586     
   2725494648.4226432     
   2018240834.5820811     
   5487497749.7703714     
   4530988617.7063332     
   3637386593.1578078     
   2807709111.5229750     
   2049172594.1048717     
   5614567000.6457739     
   4672374967.8712378     
   3773745713.6478853     
   2920284599.7264938     
   2121348778.7530816     
   5724847276.4094114     
   4805357314.6985216     
   3914046216.6426711     
   3052697252.1525269     
   2231849933.3385096     
   5796258903.6900396     
   4912238251.8543015     
   4045048912.2702451     
   3196143488.8244085     
   2376474588.4935141     
   2018240834.5820811     
   2245230104.2140808     
   2461674038.4616399     
   2667230383.2711601     
   2861751145.9007664     
   2049172594.1048717     
   2269182687.5179596     
   2480400186.5889382     
   2682518834.6000962     
   2875491951.7508535     
   2121348778.7530816     
   2332631159.5527406     
   2536472472.5567851     
   2732656072.2640529     
   2921301149.6549697     
   2231849933.3385096     
   2433067091.5417333     
   2627665972.4300785     
   2815575974.3757658     
   2997149782.6340971     
   2376474588.4935141     
   2566744738.2617893     
   2750652345.8491645     
   2928300920.7534285     
   3100324487.8421721     
   2861751145.9007664     
   2830084547.9238825     
   2807656849.0874991     
   2794706014.5202198     
   2791474911.5780778     
   2875491951.7508535     
   2833103095.1875777     
   2799384935.7565804     
   2774681086.8430181     
   2759346859.6816607     
   2921301149.6549697     
   2866542183.0636692     
   2819805219.9341631     
   2781531887.7002296     
   2752188416.2043128     
   2997149782.6340971     
   2929016491.0854321     
   2868170550.5833321     
   2815128657.1043015     
   2770449429.5223374     
   3100324487.8421721     
   3018415058.5586071     
   2942992183.7553720     
   2874614288.1265149     
   2813899696.7177639     
   2791474911.5780778     
   2709630456.5852790     
   2640031476.6142426     
   2582942625.5360570     
   2538642394.3459768     
   2759346859.6816607     
   2667846185.4751520     
   2588044149.4689341     
   2520345241.5605392     
   2465187457.2436261     
   2752188416.2043128     
   2649339696.8183298     
   2557538689.2125711     
   2477330404.7253981     
   2409324813.8694963     
   2770449429.5223374     
   2655038670.5064602     
   2549895950.2695823     
   2455684891.4853592     
   2373175334.4876928     
   2813899696.7177639     
   2685234046.8675342     
   2565934152.9988589     
   2456739946.3373752     
   2358542271.2300935     
   2538642394.3459768     
   2547641068.0491138     
   2565664294.2601748     
   2592816574.2764211     
   2629179358.2459030     
   2465187457.2436261     
   2463409924.4744902     
   2470303268.4468293     
   2486057439.6175375     
   2510832198.3872142     
   2409324813.8694963     
   2394687898.4954634     
   2388278002.3443174     
   2390396471.5334754     
   2401314929.0546784     
   2373175334.4876928     
   2344009224.2296219     
   2322444898.2101417     
   2308909507.1751580     
   2303814194.8724713     
   2358542271.2300935     
   2313769687.7685909     
   2275723029.6263170     
   2244945750.6691833     
   2221995483.7702026     
   2629179358.2459030     
   2609400545.8200283     
   2601310693.7721529     
   2605005269.3647599     
   2620598215.4252586     
   2510832198.3872142     
   2484217435.2097921     
   2470108747.5291166     
   2468670929.1372313     
   2480067740.1019444     
   2401314929.0546784     
   2365522196.2877913     
   2343210790.4411912     
   2334677093.8306689     
   2340188715.4203439     
   2303814194.8724713     
   2256132708.8390017     
   2223000519.9250741     
   2204938084.7290273     
   2202404921.2976823     
   2221995483.7702026     
   2159422594.4408398     
   2112436844.8324995     
   2081907748.1677201     
   2068620667.7767353     
   2620598215.4252586     
   2583488781.8443546     
   2552166068.2676597     
   2527205563.1305771     
   2509405028.9671574     
   2480067740.1019444     
   2448778581.7132578     
   2425926804.7849417     
   2412450117.9015298     
   2409710802.5476141     
   2340188715.4203439     
   2317186444.8160849     
   2305569202.9206715     
   2306731836.2979374     
   2322743746.0962725     
   2202404921.2976823     
   2189483549.3657579     
   2191373735.9226508     
   2210029016.4037590     
   2248344785.0113482     
   2068620667.7767353     
   2066632045.8399136     
   2083655108.0544600     
   2122297606.2793751     
   2186341025.3556600     
   2509405028.9671574     
   2358470586.0917439     
   2215757560.5261850     
   2086276623.9727383     
   1976953130.3594060     
   2409710802.5476141     
   2283921982.6625199     
   2168707889.1425123     
   2070834954.5448027     
   1999110910.4798503     
   2322743746.0962725     
   2225591546.9102421     
   2141854039.9008009     
   2079915600.1192856     
   2049972906.5579295     
   2248344785.0113482     
   2183268832.2099180     
   2134723970.4892998     
   2112386254.6608243     
   2127198897.7629678     
   2186341025.3556600     
   2156658572.7807951     
   2146669350.0583143     
   2166895285.6988273     
   2228401002.9161711     
   5796258903.6900396     
   4912238251.8543015     
   4045048912.2702451     
   3196143488.8244085     
   2376474588.4935141     
   6185576459.3507442     
   5210140077.4405251     
   4273417669.7240701     
   3376735825.5677509     
   2531088697.1233411     
   6803387926.2476082     
   5687309776.9842787     
   4628788475.6287069     
   3627213250.8534617     
   2693194234.0432215     
   7661927895.5218515     
   6352713632.0977325     
   5116061518.6693087     
   3948260261.0119481     
   2859818891.7087946     
   8770456417.3192635     
   7211585183.9818382     
   5736804969.6102314     
   4338846547.1252050     
   3028848774.9028130     
   2376474588.4935141     
   2566744738.2617893     
   2750652345.8491645     
   2928300920.7534285     
   3100324487.8421721     
   2531088697.1233411     
   2714119961.3478231     
   2889912800.0809598     
   3058439218.5887632     
   3220115206.5032039     
   2693194234.0432215     
   2875122706.1629248     
   3049636400.7714720     
   3216524142.3767395     
   3375988372.8628988     
   2859818891.7087946     
   3046807555.3853159     
   3226946631.3666415     
   3399779235.8227110     
   3565289673.3435888     
   3028848774.9028130     
   3226824367.9945269     
   3419286865.2904453     
   3605439092.0249138     
   3785013510.0540562     
   3100324487.8421721     
   3018415058.5586071     
   2942992183.7553720     
   2874614288.1265149     
   2813899696.7177639     
   3220115206.5032039     
   3119761887.8466315     
   3025016618.4408135     
   2936433746.9916148     
   2854656664.8378329     
   3375988372.8628988     
   3258000005.6429529     
   3144660056.2200651     
   3036463586.1373353     
   2934012416.9118295     
   3565289673.3435888     
   3430715880.3072615     
   3299845424.2543454     
   3173074764.1485338     
   3050910445.9510942     
   3785013510.0540562     
   3634977475.5688601     
   3487785535.0896125     
   3343716876.8943529     
   3203151976.5093718     
   2813899696.7177639     
   2685234046.8675342     
   2565934152.9988589     
   2456739946.3373752     
   2358542271.2300935     
   2854656664.8378329     
   2707950041.8519969     
   2569793676.4407339     
   2440980751.6441102     
   2322517997.6812472     
   2934012416.9118295     
   2768951891.2949767     
   2611373772.2503409     
   2462029584.2078772     
   2321930928.6747885     
   3050910445.9510942     
   2867706283.2611618     
   2690795492.5363936     
   2520799883.4731402     
   2358615531.6333537     
   3203151976.5093718     
   3002358544.1790447     
   2806682564.8232999     
   2616559170.0420055     
   2432676887.5281525     
   2358542271.2300935     
   2313769687.7685909     
   2275723029.6263170     
   2244945750.6691833     
   2221995483.7702026     
   2322517997.6812472     
   2259354289.7531576     
   2202279054.9026046     
   2151931223.9204621     
   2108997912.3501935     
   2321930928.6747885     
   2240823674.3758435     
   2164871950.6328101     
   2094739707.0337183     
   2031179381.6395631     
   2358615531.6333537     
   2260844906.0884218     
   2167114606.0762486     
   2078020789.6900005     
   1994275166.3363667     
   2432676887.5281525     
   2320198818.7914701     
   2210640521.0030613     
   2104454121.8849552     
   2002206542.7818437     
   2221995483.7702026     
   2159422594.4408398     
   2112436844.8324995     
   2081907748.1677201     
   2068620667.7767353     
   2108997912.3501935     
   2026373763.9815097     
   1956690241.9196956     
   1901154254.9193082     
   1860939267.1630878     
   2031179381.6395631     
   1927103043.6171935     
   1832280178.0157547     
   1748038665.0590057     
   1675830830.4121485     
   1994275166.3363667     
   1870395549.1682723     
   1751238898.3587098     
   1637817210.8394322     
   1531387426.7544832     
   2002206542.7818437     
   1863738265.2443988     
   1725542276.7177567     
   1587997069.8990853     
   1451649839.0118592     
   2068620667.7767353     
   2066632045.8399136     
   2083655108.0544600     
   2122297606.2793751     
   2186341025.3556600     
   1860939267.1630878     
   1851989352.0721638     
   1865808614.0951135     
   1904568735.7778325     
   1971260329.3357129     
   1675830830.4121485     
   1648931795.2817490     
   1649582497.8304520     
   1680095018.6490638     
   1743021402.9985232     
   1531387426.7544832     
   1472096561.8495080     
   1445385715.4635665     
   1455142957.7423720     
   1504579065.0124426     
   1451649839.0118592     
   1344053442.8169739     
   1271408316.9956586     
   1241769458.7277274     
   1262067412.4618843     
   2186341025.3556600     
   2156658572.7807951     
   2146669350.0583143     
   2166895285.6988273     
   2228401002.9161711     
   1971260329.3357129     
   1969176545.7980583     
   2003663047.3487573     
   2093429138.1016366     
   2257179911.2031503     
   1743021402.9985232     
   1787759113.7628093     
   1884605608.2041526     
   2060543265.2712831     
   2340898444.0480347     
   1504579065.0124426     
   1613113745.1129513     
   1788757780.7723801     
   2066360771.1843863     
   2476261914.7863388     
   1262067412.4618843     
   1446269288.6731262     
   1715557226.3086870     
   2110610583.4467678     
   2664024317.2432899     
   8770456417.3192635     
   7211585183.9818382     
   5736804969.6102314     
   4338846547.1252050     
   3028848774.9028130     
   9230279352.6246319     
   7675927757.8036137     
   6140262592.0367603     
   4629978783.5337257     
   3168855603.4057856     
   9214904304.8609257     
   7733703852.8292084     
   6260405728.2826662     
   4800195137.1484509     
   3376118735.7794681     
   8693082300.9245472     
   7361360318.9249325     
   6081983788.4694405     
   4840071627.3660469     
   3643009378.5178995     
   7772007731.3446808     
   6605705185.6149597     
   5620525460.9543123     
   4750955000.7618046     
   3961383250.1120844     
   3028848774.9028130     
   3226824367.9945269     
   3419286865.2904453     
   3605439092.0249138     
   3785013510.0540562     
   3168855603.4057856     
   3370470491.2782440     
   3570232858.4050665     
   3767773559.2767529     
   3963028462.4333954     
   3376118735.7794681     
   3574629412.0473070     
   3772797906.4349437     
   3970794725.7653213     
   4168929410.2408004     
   3643009378.5178995     
   3831588960.6958170     
   4019272702.4485784     
   4206844574.4280100     
   4395153479.4143124     
   3961383250.1120844     
   4133400208.0995631     
   4302200081.3424749     
   4469128757.6938515     
   4635638497.4129858     
   3785013510.0540562     
   3634977475.5688601     
   3487785535.0896125     
   3343716876.8943529     
   3203151976.5093718     
   3963028462.4333954     
   3803280203.5589628     
   3645639943.2060785     
   3490363503.4505043     
   3337800995.4598117     
   4168929410.2408004     
   3998346811.9307766     
   3829295169.2718425     
   3662011549.2461181     
   3496822382.3620167     
   4395153479.4143124     
   4212663730.8095140     
   4031280122.9257269     
   3851226878.5078950     
   3672815592.5060344     
   4635638497.4129858     
   4440207576.5058594     
   4245596784.1360760     
   4052023640.2739401     
   3859794325.3563786     
   3203151976.5093718     
   3002358544.1790447     
   2806682564.8232999     
   2616559170.0420055     
   2432676887.5281525     
   3337800995.4598117     
   3127012315.3933897     
   2919291175.9049940     
   2714935443.0126777     
   2514427704.8149619     
   3496822382.3620167     
   3276860282.8542123     
   3058356230.8867798     
   2841469457.3320799     
   2626470497.6316686     
   3672815592.5060344     
   3445058090.5438342     
   3217583699.4261622     
   2990440274.2426615     
   2763727073.6830716     
   3859794325.3563786     
   3625978191.0295029     
   3391667063.6512027     
   3156837359.1057873     
   2921479904.1400795     
   2432676887.5281525     
   2320198818.7914701     
   2210640521.0030613     
   2104454121.8849552     
   2002206542.7818437     
   2514427704.8149619     
   2393534045.2843332     
   2274196934.0196552     
   2156664161.2769899     
   2041247214.8295875     
   2626470497.6316686     
   2500206754.1180706     
   2374727243.4608431     
   2250114459.1866012     
   2126471643.4303160     
   2763727073.6830716     
   2635079299.4273601     
   2507032184.5199122     
   2379564031.3858500     
   2252655336.3022695     
   2921479904.1400795     
   2793132924.4678688     
   2665720301.4329324     
   2539164046.2349539     
   2413392961.6587677     
   2002206542.7818437     
   1863738265.2443988     
   1725542276.7177567     
   1587997069.8990853     
   1451649839.0118592     
   2041247214.8295875     
   1896980951.4181120     
   1753018571.4477186     
   1609512812.0158019     
   1466677452.4691780     
   2126471643.4303160     
   1978857223.3954086     
   1831906558.2738533     
   1685670676.3178923     
   1540225099.3323033     
   2252655336.3022695     
   2102620193.7581606     
   1953683193.0094023     
   1805865710.4496770     
   1659229756.4909654     
   2413392961.6587677     
   2260413313.2606945     
   2108840604.4568639     
   1958695951.6836064     
   1810086905.7640584     
   1451649839.0118592     
   1344053442.8169739     
   1271408316.9956586     
   1241769458.7277274     
   1262067412.4618843     
   1466677452.4691780     
   1323985092.1617906     
   1195763564.1288099     
   1086387580.3303716     
   1001617514.2867703     
   1540225099.3323033     
   1392168662.9208674     
   1240716396.0318527     
   1083511434.7718163     
   918463007.91547334     
   1659229756.4909654     
   1545995980.2397387     
   1424054152.1964166     
   1293619599.6272855     
   1160670751.7362819     
   1810086905.7640584     
   1771990372.4729955     
   1731100836.9729044     
   1695664620.0672607     
   1683710227.1137130     
   1262067412.4618843     
   1446269288.6731262     
   1715557226.3086870     
   2110610583.4467678     
   2664024317.2432899     
   1001617514.2867703     
   1164502306.9269998     
   1425497951.4668665     
   1809096041.9161351     
   2335275409.6939473     
   918463007.91547334     
   963602740.85618711     
   1145228454.7622991     
   1476685991.5207005     
   1957391031.8735039     
   1160670751.7362819     
   1009833079.5871245     
   985773853.78909004     
   1161097431.3469672     
   1542720603.4211543     
   1683710227.1137130     
   1385713935.2317853     
   1130184276.6786075     
   1008749935.6424098     
   1149191124.8595097     
 </DataArray>
 <DataArray  type="Float64" Name="strain" NumberOfComponents="3" format="ascii">
  0.12086820064781700       -3.2291984414038355E-002  -7.3010376574919156E-002
  0.10664573228526331       -2.8732721835719288E-002  -4.4790944769545149E-002
   9.2423263922709720E-002  -2.6230486896993505E-002  -2.5637166657891508E-002
   7.8200795560155967E-002  -2.4785279597860845E-002  -1.5549042239958094E-002
   6.3978327197602325E-002  -2.4397099938321842E-002  -1.4526571515744768E-002
  0.14547561993579206       -3.0339424296764284E-002  -3.3908837565050254E-002
  0.12391832680603376       -2.7039287101338905E-002  -1.8447346966359857E-002
  0.10236103367627569       -2.4715470016752894E-002  -8.5898522083583395E-003
   8.0803740546517483E-002  -2.3367973043006418E-002  -4.3363532910455915E-003
   5.9246447416759329E-002  -2.2996796180099144E-002  -5.6868502144208910E-003
  0.15661094296578343       -2.8386864179490268E-002   4.8932222975485995E-003
  0.13118048292185253       -2.5345852366958577E-002   7.6774792183087470E-003
  0.10575002287792160       -2.3200453136512270E-002   8.3193981514119303E-003
   8.0319562833990651E-002  -2.1950666488151655E-002   6.8189790968580730E-003
   5.4889102790059791E-002  -2.1596492421876556E-002   3.1762220546475151E-003
  0.15427416973779157       -2.6434304062216279E-002   4.3395803012876731E-002
  0.12843220063271948       -2.3652417632578165E-002   3.3583533784460551E-002
  0.10259023152764751       -2.1685436256271652E-002   2.5090584421419340E-002
   7.6748262422575486E-002  -2.0533359933297003E-002   1.7916954923752788E-002
   5.0906293317503543E-002  -2.0196188663653858E-002   1.2062645291460963E-002
  0.13846530025181625       -2.4481743944942236E-002   8.1598904580934162E-002
  0.11567347993863486       -2.1958982898197810E-002   5.9270816732095777E-002
   9.2881659625453472E-002  -2.0170419376031187E-002   4.1723706601663940E-002
   7.0089839312272084E-002  -1.9116053378442393E-002   2.8957574189638471E-002
   4.7298018999090724E-002  -1.8795884905431326E-002   2.0972419496019412E-002
   6.3978327197602325E-002  -2.4397099938321842E-002  -1.4526571515744768E-002
   6.7301623798054933E-002  -2.4385856744574108E-002  -1.3036411824938698E-002
   7.0624920398507485E-002  -2.4071458842814863E-002  -1.1235701491153494E-002
   7.3948216998960092E-002  -2.3453906233045843E-002  -9.1244405143903473E-003
   7.7271513599412645E-002  -2.2533198915265173E-002  -6.7026288946486767E-003
   5.9246447416759329E-002  -2.2996796180099144E-002  -5.6868502144208910E-003
   6.2782794407419074E-002  -2.2973549243374192E-002  -3.6278481389999673E-003
   6.6319141398078763E-002  -2.2669842048174446E-002  -1.4532959261426837E-003
   6.9855488388738479E-002  -2.2085674594499585E-002   8.3680642415014106E-004
   7.3391835379398196E-002  -2.1221046882350159E-002   3.2424589118788538E-003
   5.4889102790059791E-002  -2.1596492421876556E-002   3.1762220546475151E-003
   5.8443499665383952E-002  -2.1561241742174692E-002   5.7813720651476858E-003
   6.1997896540708197E-002  -2.1268225253533696E-002   8.3070717075412193E-003
   6.5552293416032456E-002  -2.0717442955953992E-002   1.0753320981828129E-002
   6.9106690291356632E-002  -1.9908894849434977E-002   1.3120119888008153E-002
   5.0906293317503543E-002  -2.0196188663653858E-002   1.2062645291460963E-002
   5.4283739571949700E-002  -2.0148934240975150E-002   1.5191248787504583E-002
   5.7661185826395830E-002  -1.9866608458893001E-002   1.8045401409898514E-002
   6.1038632080841961E-002  -1.9349211317408067E-002   2.0625103158643261E-002
   6.4416078335288118E-002  -1.8596742816519879E-002   2.2930354033738470E-002
   4.7298018999090724E-002  -1.8795884905431326E-002   2.0972419496019412E-002
   5.0303514127116172E-002  -1.8736626739775386E-002   2.4601782028070202E-002
   5.3309009255141579E-002  -1.8464991664252375E-002   2.7761693180928831E-002
   5.6314504383166993E-002  -1.7980979678862103E-002   3.0452152954595621E-002
   5.9319999511192434E-002  -1.7284590783604725E-002   3.2673161349070168E-002
   7.7271513599412645E-002  -2.2533198915265173E-002  -6.7026288946486767E-003
   7.4062735475395991E-002  -2.1495482691182677E-002  -5.6710076324755221E-003
   7.0853957351379282E-002  -2.0526903362505289E-002  -4.4763743474260931E-003
   6.7645179227362656E-002  -1.9627460929234231E-002  -3.1187290395005007E-003
   6.4436401103345919E-002  -1.8797155391368281E-002  -1.5980717086983010E-003
   7.3391835379398196E-002  -2.1221046882350159E-002   3.2424589118788538E-003
   7.0350413034498460E-002  -2.0239748695241477E-002   3.8148289602844554E-003
   6.7308990689598780E-002  -1.9305569816689905E-002   4.5588985440475072E-003
   6.4267568344699072E-002  -1.8418510246695038E-002   5.4746676631685226E-003
   6.1226145999799364E-002  -1.7578569985257420E-002   6.5621363176469050E-003
   6.9106690291356632E-002  -1.9908894849434977E-002   1.3120119888008153E-002
   6.6241311238055323E-002  -1.8984014699300805E-002   1.3255256309494645E-002
   6.3375932184754000E-002  -1.8084236270874299E-002   1.3570779778820388E-002
   6.0510553131452698E-002  -1.7209559564156179E-002   1.4066690295985271E-002
   5.7645174078151368E-002  -1.6359984579145948E-002   1.4742987860989015E-002
   6.4416078335288118E-002  -1.8596742816519879E-002   2.2930354033738470E-002
   6.1735430086066530E-002  -1.7728280703359869E-002   2.2650274415155033E-002
   5.9054781836844983E-002  -1.6862902725058915E-002   2.2559269356892155E-002
   5.6374133587623401E-002  -1.6000608881617376E-002   2.2657338858949758E-002
   5.3693485338401799E-002  -1.5141399173034781E-002   2.2944482921327565E-002
   5.9319999511192434E-002  -1.7284590783604725E-002   3.2673161349070168E-002
   5.6832769578532033E-002  -1.6472546707418906E-002   3.1999883277265551E-002
   5.4345539645871632E-002  -1.5641569179243420E-002   3.1524367278262994E-002
   5.1858309713211231E-002  -1.4791658199078322E-002   3.1246613352061969E-002
   4.9371079780550831E-002  -1.3922813766923559E-002   3.1166621498663172E-002
   6.4436401103345919E-002  -1.8797155391368281E-002  -1.5980717086983010E-003
   6.0457268282027465E-002  -1.7980865902206156E-002  -1.6397678239186142E-003
   5.6478135460709067E-002  -1.7123471615044655E-002  -1.5817778749444567E-003
   5.2499002639390641E-002  -1.6224972529883495E-002  -1.4241018617758561E-003
   4.8519869818072214E-002  -1.5285368646723363E-002  -1.1667397844117300E-003
   6.1226145999799364E-002  -1.7578569985257420E-002   6.5621363176469050E-003
   5.7367597430872053E-002  -1.6753739431304981E-002   6.1996239183139679E-003
   5.3509048861944714E-002  -1.5912008983767545E-002   5.9785939595685123E-003
   4.9650500293017444E-002  -1.5053378642644860E-002   5.8990464414101218E-003
   4.5791951724090119E-002  -1.4177848407936788E-002   5.9609813638400455E-003
   5.7645174078151368E-002  -1.6359984579145948E-002   1.4742987860989015E-002
   5.3949006138008071E-002  -1.5526612960404418E-002   1.4035454273129161E-002
   5.0252838197864844E-002  -1.4700546352491226E-002   1.3511199502249951E-002
   4.6556670257721582E-002  -1.3881784755406228E-002   1.3170223548350936E-002
   4.2860502317578320E-002  -1.3070328169150214E-002   1.3012526411433023E-002
   5.3693485338401799E-002  -1.5141399173034781E-002   2.2944482921327565E-002
   5.0201494403435597E-002  -1.4299486489503105E-002   2.1867723240527173E-002
   4.6709503468469249E-002  -1.3489083721214289E-002   2.1016038753100218E-002
   4.3217512533502971E-002  -1.2710190868167706E-002   2.0389429459046975E-002
   3.9725521598536637E-002  -1.1962807930363639E-002   1.9987895358366897E-002
   4.9371079780550831E-002  -1.3922813766923559E-002   3.1166621498663172E-002
   4.6125062227154429E-002  -1.3072360018602458E-002   2.9696430820508213E-002
   4.2879044673758082E-002  -1.2277621089937338E-002   2.8493111712119684E-002
   3.9633027120361652E-002  -1.1538596980928902E-002   2.7556664173497628E-002
   3.6387009566965334E-002  -1.0855287691576954E-002   2.6887088204641696E-002
   4.8519869818072214E-002  -1.5285368646723363E-002  -1.1667397844117300E-003
   4.6457350818263299E-002  -1.4351405579768772E-002  -6.7360796411419788E-004
   4.4394831818454550E-002  -1.3469828943224571E-002  -2.5950608071445558E-004
   4.2332312818645745E-002  -1.2640638737090676E-002   7.5565865787552422E-005
   4.0269793818836885E-002  -1.1863834961367337E-002   3.3160787539188163E-004
   4.5791951724090119E-002  -1.4177848407936788E-002   5.9609813638400455E-003
   4.3674982093272030E-002  -1.3311463767962550E-002   6.2313724207649912E-003
   4.1558012462454025E-002  -1.2480270211041339E-002   6.4718921525686590E-003
   3.9441042831635978E-002  -1.1684267737172342E-002   6.6825405592518816E-003
   3.7324073200817820E-002  -1.0923456346356497E-002   6.8633176408147145E-003
   4.2860502317578320E-002  -1.3070328169150214E-002   1.3012526411433023E-002
   4.0738240667527958E-002  -1.2271521956156162E-002   1.3077372052342440E-002
   3.8615979017477625E-002  -1.1490711478857218E-002   1.3161504979907784E-002
   3.6493717367427278E-002  -1.0727896737254008E-002   1.3264925194129640E-002
   3.4371455717376959E-002  -9.9830777313459906E-003   1.3387632695008089E-002
   3.9725521598536637E-002  -1.1962807930363639E-002   1.9987895358366897E-002
   3.7647126541031126E-002  -1.1231580144349523E-002   1.9864390930618252E-002
   3.5568731483525427E-002  -1.0501152746673764E-002   1.9809332401303364E-002
   3.3490336426019909E-002  -9.7715257373356748E-003   1.9822719770420986E-002
   3.1411941368514273E-002  -9.0426991163353176E-003   1.9904553037972478E-002
   3.6387009566965334E-002  -1.0855287691576954E-002   2.6887088204641696E-002
   3.4401639713781407E-002  -1.0191638332543551E-002   2.6592429055593281E-002
   3.2416269860597507E-002  -9.5115940144900879E-003   2.6415374416754400E-002
   3.0430900007413594E-002  -8.8151547374171191E-003   2.6355924288126081E-002
   2.8445530154229681E-002  -8.1023205013247557E-003   2.6414078669707797E-002
   4.0269793818836885E-002  -1.1863834961367337E-002   3.3160787539188163E-004
   3.7706016611333104E-002  -1.1162543095742827E-002  -1.1335993979111336E-004
   3.5142239403829267E-002  -1.0559888619907531E-002  -4.5661611775371647E-004
   3.2578462196325486E-002  -1.0055871533859090E-002  -6.9816065849453990E-004
   3.0014684988821649E-002  -9.6504918376003612E-003  -8.3799356201308406E-004
   3.7324073200817820E-002  -1.0923456346356497E-002   6.8633176408147145E-003
   3.4842846863428645E-002  -1.0211095049659669E-002   6.3121189456154525E-003
   3.2361620526039497E-002  -9.5604428581472778E-003   5.8243103534242335E-003
   2.9880394188650308E-002  -8.9714997718201017E-003   5.3998918642412519E-003
   2.7399167851261175E-002  -8.4442657906775853E-003   5.0388634780649255E-003
   3.4371455717376959E-002  -9.9830777313459906E-003   1.3387632695008089E-002
   3.1934458715888681E-002  -9.2596470035762324E-003   1.2767131404397225E-002
   2.9497461714400319E-002  -8.5609970963879678E-003   1.2171698682580001E-002
   2.7060464712912000E-002  -7.8871280097806834E-003   1.1601334529557611E-002
   2.4623467711423652E-002  -7.2380397437549204E-003   1.1056038945328361E-002
   3.1411941368514273E-002  -9.0426991163353176E-003   1.9904553037972478E-002
   2.8980852168713003E-002  -8.3081989574929349E-003   1.9251677436553441E-002
   2.6549762968911816E-002  -7.5615513346282970E-003   1.8585548869714488E-002
   2.4118673769110630E-002  -6.8027562477414802E-003   1.7906167337455300E-002
   2.1687584569309408E-002  -6.0318136968324221E-003   1.7213532839777126E-002
   2.8445530154229681E-002  -8.1023205013247557E-003   2.6414078669707797E-002
   2.5982027221901904E-002  -7.3567509114095264E-003   2.5765757042083948E-002
   2.3518524289574017E-002  -6.5621055728684874E-003   2.5065860914826488E-002
   2.1055021357246156E-002  -5.7183844857022423E-003   2.4314390287935500E-002
   1.8591518424918296E-002  -4.8255876499099237E-003   2.3511345161410735E-002
   3.0014684988821649E-002  -9.6504918376003612E-003  -8.3799356201308406E-004
   2.9471540164707100E-002  -9.1091328949010064E-003  -4.7640279063387858E-004
   2.8928395340592550E-002  -8.1971780695307417E-003  -1.8181471555901441E-003
   2.8385250516478028E-002  -6.9146273614930781E-003  -4.8632266568842120E-003
   2.7842105692363450E-002  -5.2614807707844768E-003  -9.6116412945144170E-003
   2.7399167851261175E-002  -8.4442657906775853E-003   5.0388634780649255E-003
   2.5425143375619852E-002  -7.8559445432900832E-003   5.7899664921507998E-003
   2.3451118899978585E-002  -7.0837396582268952E-003   5.3826453395192098E-003
   2.1477094424337317E-002  -6.1276511354888680E-003   3.8169000201723202E-003
   1.9503069948695995E-002  -4.9876789750753492E-003   1.0927305341077442E-003
   2.4623467711423652E-002  -7.2380397437549204E-003   1.1056038945328361E-002
   2.1763474553875922E-002  -6.6027561916793265E-003   1.2009941957125514E-002
   1.8903481396328123E-002  -5.9703012469225769E-003   1.2350331771826512E-002
   1.6043488238780386E-002  -5.3406749094853170E-003   1.2077208389430674E-002
   1.3183495081232621E-002  -4.7138771793659995E-003   1.1190571809938654E-002
   2.1687584569309408E-002  -6.0318136968324221E-003   1.7213532839777126E-002
   1.8486533699475304E-002  -5.3495678400689306E-003   1.8183523604291527E-002
   1.5285482829641272E-002  -4.8568628356184945E-003   1.9084912141329895E-002
   1.2084431959807207E-002  -4.5536986834807704E-003   1.9917698450891499E-002
   8.8833810899731289E-003  -4.4400753836567608E-003   2.0681882532977314E-002
   1.8591518424918296E-002  -4.8255876499099237E-003   2.3511345161410735E-002
   1.5594320812418128E-002  -4.0963794884579796E-003   2.4310711433648269E-002
   1.2597123199917959E-002  -3.7434244243139125E-003   2.5586386448029574E-002
   9.5999255874177902E-003  -3.7667224574773200E-003   2.7338370204555040E-002
   6.6027279749176215E-003  -4.1662735879473001E-003   2.9566662703224500E-002
   2.7842105692363450E-002  -5.2614807707844768E-003  -9.6116412945144170E-003
   2.3388743779680254E-002  -4.2216938797263737E-003  -4.1486658010425614E-003
   1.8935381866997170E-002  -4.7792222706338761E-003   2.5951575433731389E-003
   1.4482019954314057E-002  -6.9340659435109531E-003   1.0619828738733017E-002
   1.0028658041630889E-002  -1.0686224898355690E-002   1.9925347785036962E-002
   1.9503069948695995E-002  -4.9876789750753492E-003   1.0927305341077442E-003
   1.6255332809990808E-002  -4.7017105951828730E-003   6.7553405864747562E-003
   1.3007595671285566E-002  -6.3076334140075296E-003   1.3548352335853275E-002
   9.7598585325805176E-003  -9.8054474315485418E-003   2.1471765782243968E-002
   6.5121213938752476E-003  -1.5195152647807131E-002   3.0525580925646167E-002
   1.3183495081232621E-002  -4.7138771793659995E-003   1.1190571809938654E-002
   1.0990936562572884E-002  -5.1817273106395945E-003   1.6758240504451460E-002
   8.7983780439131465E-003  -7.8360445573796844E-003   2.3305864742043714E-002
   6.6058195252534577E-003  -1.2676828919586033E-002   3.0833444522715331E-002
   4.4132610065937272E-003  -1.9704080397258572E-002   3.9340979846466340E-002
   8.8833810899731289E-003  -4.4400753836567608E-003   2.0681882532977314E-002
   7.5955550374264824E-003  -5.6617440260970930E-003   2.5860033952887301E-002
   6.3077289848798394E-003  -9.3644557007523666E-003   3.1867694761944051E-002
   5.0199029323330490E-003  -1.5548210407623352E-002   3.8704864960147557E-002
   3.7320768797864251E-003  -2.4213008146709569E-002   4.6371544547498145E-002
   6.6027279749176215E-003  -4.1662735879473001E-003   2.9566662703224500E-002
   6.0691882345514370E-003  -6.1417607415541475E-003   3.4060720931781807E-002
   5.5356484941853079E-003  -1.0892866844124882E-002   3.9233842395554053E-002
   5.0021087538192205E-003  -1.8419591895660517E-002   4.5086027094540515E-002
   4.4685690134530498E-003  -2.8721935896161011E-002   5.1617275028740917E-002
  0.13846530025181625       -2.4481743944942236E-002   8.1598904580934162E-002
  0.11567347993863486       -2.1958982898197810E-002   5.9270816732095777E-002
   9.2881659625453472E-002  -2.0170419376031187E-002   4.1723706601663940E-002
   7.0089839312272084E-002  -1.9116053378442393E-002   2.8957574189638471E-002
   4.7298018999090724E-002  -1.8795884905431326E-002   2.0972419496019412E-002
  0.11802999318965918       -2.2839074967963280E-002   8.0520467931150086E-002
   9.9465089694485948E-002  -2.0030192135767649E-002   6.1050041266415639E-002
   8.0900186199312774E-002  -1.8102109821229395E-002   4.5252470519291210E-002
   6.2335282704139489E-002  -1.7054828024348462E-002   3.3127755689776467E-002
   4.3770379208966315E-002  -1.6888346745124849E-002   2.4675896777871603E-002
  0.10181390723312200       -2.1196405990984324E-002   7.9801454563356813E-002
   8.6367798755160319E-002  -1.8101401373337517E-002   6.3042086089647065E-002
   7.0921690277198565E-002  -1.6033800266427610E-002   4.8847451732750437E-002
   5.5475581799236839E-002  -1.4993602670254588E-002   3.7217551492666895E-002
   4.0029473321275190E-002  -1.4980808584818456E-002   2.8152385369396682E-002
   8.9817042382204781E-002  -1.9553737014005354E-002   7.9441864477554733E-002
   7.6381607120657891E-002  -1.6172610610907370E-002   6.5246951201789805E-002
   6.2946171859111152E-002  -1.3965490711625821E-002   5.2508650242041467E-002
   4.9510736597564303E-002  -1.2932377316160714E-002   4.1226961598309644E-002
   3.6075301336017461E-002  -1.3073270424511993E-002   3.1401885270594329E-002
   8.2039398636907401E-002  -1.7911068037026412E-002   7.9441697673743761E-002
   6.9506514790978802E-002  -1.4243819848477196E-002   6.7664636602844053E-002
   5.6973630945050230E-002  -1.1897181156824033E-002   5.6236066047164357E-002
   4.4440747099121644E-002  -1.0871151962066797E-002   4.5155986006704701E-002
   3.1907863253193058E-002  -1.1165732264205641E-002   3.4424396481464836E-002
   4.7298018999090724E-002  -1.8795884905431326E-002   2.0972419496019412E-002
   5.0303514127116172E-002  -1.8736626739775386E-002   2.4601782028070202E-002
   5.3309009255141579E-002  -1.8464991664252375E-002   2.7761693180928831E-002
   5.6314504383166993E-002  -1.7980979678862103E-002   3.0452152954595621E-002
   5.9319999511192434E-002  -1.7284590783604725E-002   3.2673161349070168E-002
   4.3770379208966315E-002  -1.6888346745124849E-002   2.4675896777871603E-002
   4.6350246878077664E-002  -1.7030824682789589E-002   2.8373446629507595E-002
   4.8930114547188999E-002  -1.6910420536573767E-002   3.1689192942507383E-002
   5.1509982216300342E-002  -1.6527134306477231E-002   3.4623135716871270E-002
   5.4089849885411684E-002  -1.5880965992500162E-002   3.7175274952598675E-002
   4.0029473321275190E-002  -1.4980808584818456E-002   2.8152385369396682E-002
   4.2271361372028422E-002  -1.5325022625803708E-002   3.1968627714631229E-002
   4.4513249422781578E-002  -1.5355849408895041E-002   3.5490714361785629E-002
   4.6755137473534783E-002  -1.5073288934092191E-002   3.8718645310859820E-002
   4.8997025524287974E-002  -1.4477341201395516E-002   4.1652420561853698E-002
   3.6075301336017461E-002  -1.3073270424511993E-002   3.1401885270594329E-002
   3.8066857608968427E-002  -1.3619220568817814E-002   3.5387325283440983E-002
   4.0058413881919358E-002  -1.3801278281216318E-002   3.9166257438763154E-002
   4.2049970154870317E-002  -1.3619443561707262E-002   4.2738681736561167E-002
   4.4041526427821318E-002  -1.3073716410290800E-002   4.6104598176834960E-002
   3.1907863253193058E-002  -1.1165732264205641E-002   3.4424396481464836E-002
   3.3736735588897671E-002  -1.1913418511832030E-002   3.8629539335936769E-002
   3.5565607924602310E-002  -1.2246707153537692E-002   4.2715822173440443E-002
   3.7394480260306923E-002  -1.2165598189322304E-002   4.6683244993975762E-002
   3.9223352596011563E-002  -1.1670091619186251E-002   5.0531807797542516E-002
   5.9319999511192434E-002  -1.7284590783604725E-002   3.2673161349070168E-002
   5.6832769578532033E-002  -1.6472546707418906E-002   3.1999883277265551E-002
   5.4345539645871632E-002  -1.5641569179243420E-002   3.1524367278262994E-002
   5.1858309713211231E-002  -1.4791658199078322E-002   3.1246613352061969E-002
   4.9371079780550831E-002  -1.3922813766923559E-002   3.1166621498663172E-002
   5.4089849885411684E-002  -1.5880965992500162E-002   3.7175274952598675E-002
   5.1798248890716714E-002  -1.5095256136652441E-002   3.6654756236539937E-002
   4.9506647896021702E-002  -1.4293345280943864E-002   3.6327733323609904E-002
   4.7215046901326697E-002  -1.3475233425374801E-002   3.6194206213808831E-002
   4.4923445906631665E-002  -1.2640920569944980E-002   3.6254174907136560E-002
   4.8997025524287974E-002  -1.4477341201395516E-002   4.1652420561853698E-002
   4.6896787197885391E-002  -1.3717965565885823E-002   4.1281928749411570E-002
   4.4796548871482864E-002  -1.2945121382644476E-002   4.1100666470425304E-002
   4.2696310545080308E-002  -1.2158808651671280E-002   4.1108633724895025E-002
   4.0596072218677767E-002  -1.1359027372966429E-002   4.1305830512820954E-002
   4.4041526427821318E-002  -1.3073716410290800E-002   4.6104598176834960E-002
   4.2128384500038224E-002  -1.2340674995119365E-002   4.5881400815880512E-002
   4.0215242572255144E-002  -1.1596897484345003E-002   4.5843166718709229E-002
   3.8302100644472099E-002  -1.0842383877967786E-002   4.5989895885320889E-002
   3.6388958716689020E-002  -1.0077134175987865E-002   4.6321588315715617E-002
   3.9223352596011563E-002  -1.1670091619186251E-002   5.0531807797542516E-002
   3.7493040797175053E-002  -1.0963384424352712E-002   5.0453172435947158E-002
   3.5762728998338544E-002  -1.0248673586045559E-002   5.0555234068461657E-002
   3.4032417199502007E-002  -9.5259591042641603E-003   5.0837992695086348E-002
   3.2302105400665526E-002  -8.7952409790092445E-003   5.1301448315820897E-002
   4.9371079780550831E-002  -1.3922813766923559E-002   3.1166621498663172E-002
   4.6125062227154429E-002  -1.3072360018602458E-002   2.9696430820508213E-002
   4.2879044673758082E-002  -1.2277621089937338E-002   2.8493111712119684E-002
   3.9633027120361652E-002  -1.1538596980928902E-002   2.7556664173497628E-002
   3.6387009566965334E-002  -1.0855287691576954E-002   2.6887088204641696E-002
   4.4923445906631665E-002  -1.2640920569944980E-002   3.6254174907136560E-002
   4.1940195970526423E-002  -1.1829110708851370E-002   3.4841679558377192E-002
   3.8956946034421125E-002  -1.1078507836290649E-002   3.3687847874433213E-002
   3.5973696098315841E-002  -1.0389111952262869E-002   3.2792679855305568E-002
   3.2990446162210585E-002  -9.7609230567679006E-003   3.2156175500993256E-002
   4.0596072218677767E-002  -1.1359027372966429E-002   4.1305830512820954E-002
   3.7867381994913026E-002  -1.0585861399100449E-002   3.9945538324579935E-002
   3.5138691771148339E-002  -9.8793945826438564E-003   3.8835701896204382E-002
   3.2410001547383618E-002  -9.2396269235966704E-003   3.7976321227694149E-002
   2.9681311323618911E-002  -8.6665584219590142E-003   3.7367396319049034E-002
   3.6388958716689020E-002  -1.0077134175987865E-002   4.6321588315715617E-002
   3.3906620300314300E-002  -9.3426120893496112E-003   4.5008007119116858E-002
   3.1424281883939614E-002  -8.6802813289971713E-003   4.3936673777433259E-002
   2.8941943467564901E-002  -8.0901418949305554E-003   4.3107588290664134E-002
   2.6459605051190192E-002  -7.5721937871501555E-003   4.2520750658809933E-002
   3.2302105400665526E-002  -8.7952409790092445E-003   5.1301448315820897E-002
   3.0057910886730321E-002  -8.0993627795986067E-003   5.0029085941988183E-002
   2.7813716372795061E-002  -7.4811680753504445E-003   4.8990763518119568E-002
   2.5569521858859814E-002  -6.9406568662643449E-003   4.8186481044215176E-002
   2.3325327344924596E-002  -6.4778291523410747E-003   4.7616238520274856E-002
   3.6387009566965334E-002  -1.0855287691576954E-002   2.6887088204641696E-002
   3.4401639713781407E-002  -1.0191638332543551E-002   2.6592429055593281E-002
   3.2416269860597507E-002  -9.5115940144900879E-003   2.6415374416754400E-002
   3.0430900007413594E-002  -8.8151547374171191E-003   2.6355924288126081E-002
   2.8445530154229681E-002  -8.1023205013247557E-003   2.6414078669707797E-002
   3.2990446162210585E-002  -9.7609230567679006E-003   3.2156175500993256E-002
   3.1124303410812543E-002  -9.1500304066581828E-003   3.1972072238074301E-002
   2.9258160659414501E-002  -8.5125232587863753E-003   3.1908818668516525E-002
   2.7392017908016444E-002  -7.8484016131515899E-003   3.1966414792320610E-002
   2.5525875156618416E-002  -7.1576654697547148E-003   3.2144860609486292E-002
   2.9681311323618911E-002  -8.6665584219590142E-003   3.7367396319049034E-002
   2.7937640857158080E-002  -8.1084224807734806E-003   3.7304068481002678E-002
   2.6193970390697270E-002  -7.5134525030825516E-003   3.7364835519469092E-002
   2.4450299924236415E-002  -6.8816484888863938E-003   3.7549697434448165E-002
   2.2706629457775629E-002  -6.2130104381850626E-003   3.7858654225940452E-002
   2.6459605051190192E-002  -7.5721937871501555E-003   4.2520750658809933E-002
   2.4841652052817978E-002  -7.0668145548885009E-003   4.2588417784378593E-002
   2.3223699054445678E-002  -6.5143817473788390E-003   4.2783424969611614E-002
   2.1605746056073440E-002  -5.9148953646211422E-003   4.3105772214508974E-002
   1.9987793057701153E-002  -5.2683554066150495E-003   4.3555459519070423E-002
   2.3325327344924596E-002  -6.4778291523410747E-003   4.7616238520274856E-002
   2.1836336997792222E-002  -6.0252066290034656E-003   4.7825120148201838E-002
   2.0347346650659848E-002  -5.5153109916750431E-003   4.8164587018944383E-002
   1.8858356303527501E-002  -4.9481422403554534E-003   4.8634639132502544E-002
   1.7369365956395127E-002  -4.3237003750453695E-003   4.9235276488876489E-002
   2.8445530154229681E-002  -8.1023205013247557E-003   2.6414078669707797E-002
   2.5982027221901904E-002  -7.3567509114095264E-003   2.5765757042083948E-002
   2.3518524289574017E-002  -6.5621055728684874E-003   2.5065860914826488E-002
   2.1055021357246156E-002  -5.7183844857022423E-003   2.4314390287935500E-002
   1.8591518424918296E-002  -4.8255876499099237E-003   2.3511345161410735E-002
   2.5525875156618416E-002  -7.1576654697547148E-003   3.2144860609486292E-002
   2.3050557602369265E-002  -6.4509858047321900E-003   3.1663882305400126E-002
   2.0575240048120058E-002  -5.7390335942205661E-003   3.1210849257105350E-002
   1.8099922493870893E-002  -5.0218088382197046E-003   3.0785761464600880E-002
   1.5624604939621700E-002  -4.2993115367295776E-003   3.0388618927887689E-002
   2.2706629457775629E-002  -6.2130104381850626E-003   3.7858654225940452E-002
   2.0299017037029438E-002  -5.5452206980547980E-003   3.7501216042255731E-002
   1.7891404616283260E-002  -4.9159616155718816E-003   3.7251242869786497E-002
   1.5483792195537090E-002  -4.3252331907370593E-003   3.7108734708532216E-002
   1.3076179774790905E-002  -3.7730354235492314E-003   3.7073691558493271E-002
   1.9987793057701153E-002  -5.2683554066150495E-003   4.3555459519070423E-002
   1.7727405525882402E-002  -4.6394555913774893E-003   4.3277758252650803E-002
   1.5467017994063591E-002  -4.0928896369236897E-003   4.3187041752870428E-002
   1.3206630462244828E-002  -3.6286575432544124E-003   4.3283310019729529E-002
   1.0946242930426030E-002  -3.2467593103691628E-003   4.3566563053228743E-002
   1.7369365956395127E-002  -4.3237003750453695E-003   4.9235276488876489E-002
   1.5335723068928081E-002  -3.7336904846999586E-003   4.8993508936584718E-002
   1.3302080181461076E-002  -3.2698176582752481E-003   4.9018245906356894E-002
   1.1268437293994064E-002  -2.9320818957718139E-003   4.9309487398193103E-002
   9.2347944065270249E-003  -2.7204831971886501E-003   4.9867233412093204E-002
   1.8591518424918296E-002  -4.8255876499099237E-003   2.3511345161410735E-002
   1.5594320812418128E-002  -4.0963794884579796E-003   2.4310711433648269E-002
   1.2597123199917959E-002  -3.7434244243139125E-003   2.5586386448029574E-002
   9.5999255874177902E-003  -3.7667224574773200E-003   2.7338370204555040E-002
   6.6027279749176215E-003  -4.1662735879473001E-003   2.9566662703224500E-002
   1.5624604939621700E-002  -4.2993115367295776E-003   3.0388618927887689E-002
   1.3084519511715853E-002  -3.7908417082932466E-003   3.1182486668589471E-002
   1.0544434083809992E-002  -3.7156993714528297E-003   3.2414270036335735E-002
   8.0043486559041171E-003  -4.0738845262088125E-003   3.4083969031126815E-002
   5.4642632279982839E-003  -4.8653971725608480E-003   3.6191583652962489E-002
   1.3076179774790905E-002  -3.7730354235492314E-003   3.7073691558493271E-002
   1.0954813416379994E-002  -3.4853039281280140E-003   3.7804986373370736E-002
   8.8334470579691030E-003  -3.6879743185917746E-003   3.8935803700193422E-002
   6.7120806995582122E-003  -4.3810465949406449E-003   4.0466143538961261E-002
   4.5907143411473006E-003  -5.5645207571742850E-003   4.2396005889674349E-002
   1.0946242930426030E-002  -3.2467593103691628E-003   4.3566563053228743E-002
   9.2052025264107024E-003  -3.1797661479629202E-003   4.4178210547992619E-002
   7.4641621223953993E-003  -3.6602492657302615E-003   4.5150987439602615E-002
   5.7231217183800510E-003  -4.6882086636724184E-003   4.6484893728058169E-002
   3.9820813143647618E-003  -6.2636443417877774E-003   4.8179929413359968E-002
   9.2347944065270249E-003  -2.7204831971886501E-003   4.9867233412093204E-002
   7.8356868418079095E-003  -2.8742283677979930E-003   5.0302159192455065E-002
   6.4365792770888219E-003  -3.6325242128695534E-003   5.1059821254563320E-002
   5.0374717123696927E-003  -4.9953707324040600E-003   5.2140219598418441E-002
   3.6383641476505635E-003  -6.9627679264010478E-003   5.3543354224020012E-002
   6.6027279749176215E-003  -4.1662735879473001E-003   2.9566662703224500E-002
   6.0691882345514370E-003  -6.1417607415541475E-003   3.4060720931781807E-002
   5.5356484941853079E-003  -1.0892866844124882E-002   3.9233842395554053E-002
   5.0021087538192205E-003  -1.8419591895660517E-002   4.5086027094540515E-002
   4.4685690134530498E-003  -2.8721935896161011E-002   5.1617275028740917E-002
   5.4642632279982839E-003  -4.8653971725608480E-003   3.6191583652962489E-002
   5.5070835210238867E-003  -6.9940185356284768E-003   3.8339600094366544E-002
   5.5499038140494755E-003  -1.1363529840530573E-002   4.0961273367339013E-002
   5.5927241070751338E-003  -1.7973931087267303E-002   4.4056603471881617E-002
   5.6355444001006672E-003  -2.6825222275838723E-002   4.7625590407992524E-002
   4.5907143411473006E-003  -5.5645207571742850E-003   4.2396005889674349E-002
   5.0044882639195265E-003  -7.8462763297031390E-003   4.2732709551054598E-002
   5.4182621866916830E-003  -1.1834192836936236E-002   4.3337663640358626E-002
   5.8320361094640026E-003  -1.7528270278874082E-002   4.4210868157586486E-002
   6.2458100322360655E-003  -2.4928508655516213E-002   4.5352323102739289E-002
   3.9820813143647618E-003  -6.2636443417877774E-003   4.8179929413359968E-002
   4.5614024632383288E-003  -8.6985341237774128E-003   4.7240049301846568E-002
   5.1407236121119842E-003  -1.2304855833342024E-002   4.6363013214611858E-002
   5.7200447609855659E-003  -1.7082609470480754E-002   4.5548821151656232E-002
   6.2993659098592031E-003  -2.3031795035193925E-002   4.4797473112978353E-002
   3.6383641476505635E-003  -6.9627679264010478E-003   5.3543354224020012E-002
   4.1778261189804322E-003  -9.5507919178519085E-003   5.1861619346742716E-002
   4.7172880903103287E-003  -1.2775518829747368E-002   5.0037322090098701E-002
   5.2567500616402113E-003  -1.6636948662087481E-002   4.8070462454089025E-002
   5.7962120329699829E-003  -2.1135081414871415E-002   4.5961040438712963E-002
   8.2039398636907401E-002  -1.7911068037026412E-002   7.9441697673743761E-002
   6.9506514790978802E-002  -1.4243819848477196E-002   6.7664636602844053E-002
   5.6973630945050230E-002  -1.1897181156824033E-002   5.6236066047164357E-002
   4.4440747099121644E-002  -1.0871151962066797E-002   4.5155986006704701E-002
   3.1907863253193058E-002  -1.1165732264205641E-002   3.4424396481464836E-002
   7.5402522305788144E-002  -1.5537600770116899E-002   9.0131848726850150E-002
   6.3474915534281667E-002  -1.2471575664544904E-002   7.5465326540228556E-002
   5.1547308762775162E-002  -1.0502063857398145E-002   6.1660867987231333E-002
   3.9619701991268658E-002  -9.6290653486764098E-003   4.8718473067858092E-002
   2.7692095219762153E-002  -9.8525801383800848E-003   3.6638141782109085E-002
   6.6827959697405612E-002  -1.3164133503207359E-002  0.10010872859774403     
   5.6019203118725394E-002  -1.0699331480612570E-002   8.2776841493871309E-002
   4.5210446540045211E-002  -9.1069465579721731E-003   6.6820591142027153E-002
   3.4401689961365001E-002  -8.3869787352861061E-003   5.2239977542211311E-002
   2.3592933382684839E-002  -8.5394280125545563E-003   3.9035000694423991E-002
   5.6315710811759401E-002  -1.0790666236297847E-002  0.10937233728642552     
   4.7139377544309802E-002  -8.9270872966802292E-003   8.9599181463772201E-002
   3.7963044276860237E-002  -7.7118292585461601E-003   7.1715235511552067E-002
   2.8786711009410697E-002  -7.1448921218958718E-003   5.5720499429764356E-002
   1.9610377741961116E-002  -7.2262758867290416E-003   4.1614973218409568E-002
   4.3865775648849775E-002  -8.4171989693883065E-003  0.11792267479289392     
   3.6835438811035071E-002  -7.1548431127479162E-003   9.5932346449931427E-002
   2.9805101973220380E-002  -6.3167119591203275E-003   7.6344801095805853E-002
   2.2774765135405696E-002  -5.9028055085054328E-003   5.9160038730517214E-002
   1.5744428297590984E-002  -5.9131237609035270E-003   4.4378059354065691E-002
   3.1907863253193058E-002  -1.1165732264205641E-002   3.4424396481464836E-002
   3.3736735588897671E-002  -1.1913418511832030E-002   3.8629539335936769E-002
   3.5565607924602310E-002  -1.2246707153537692E-002   4.2715822173440443E-002
   3.7394480260306923E-002  -1.2165598189322304E-002   4.6683244993975762E-002
   3.9223352596011563E-002  -1.1670091619186251E-002   5.0531807797542516E-002
   2.7692095219762153E-002  -9.8525801383800848E-003   3.6638141782109085E-002
   2.9378970071747598E-002  -1.0452432447695698E-002   4.1315871298744949E-002
   3.1065844923733071E-002  -1.0708446497810289E-002   4.5828465864910822E-002
   3.2752719775718531E-002  -1.0620622288723614E-002   5.0175925480606690E-002
   3.4439594627704018E-002  -1.0188959820435994E-002   5.4358250145832537E-002
   2.3592933382684839E-002  -8.5394280125545563E-003   3.9035000694423991E-002
   2.5091535817449571E-002  -8.9914463835594760E-003   4.4114757526504025E-002
   2.6590138252214270E-002  -9.1701858420829493E-003   4.8983104474612314E-002
   2.8088740686979009E-002  -9.0756463881250925E-003   5.3640041538749142E-002
   2.9587343121743728E-002  -8.7078280216856541E-003   5.8085568718914488E-002
   1.9610377741961116E-002  -7.2262758867290416E-003   4.1614973218409568E-002
   2.0874432826003528E-002  -7.5304603194231712E-003   4.7026198019213858E-002
   2.2138487910045964E-002  -7.6319251863556335E-003   5.2179738002544850E-002
   2.3402542994088400E-002  -7.5306704875264313E-003   5.7075593168403028E-002
   2.4666598078130840E-002  -7.2266962229353832E-003   6.1713763516787999E-002
   1.5744428297590984E-002  -5.9131237609035270E-003   4.4378059354065691E-002
   1.6727661097409530E-002  -6.0694742552869774E-003   5.0050192776874530E-002
   1.7710893897228089E-002  -6.0936645306282344E-003   5.5418366448708900E-002
   1.8694126697046655E-002  -5.9856945869277770E-003   6.0482580369568523E-002
   1.9677359496865193E-002  -5.7455644241851123E-003   6.5242834539453509E-002
   3.9223352596011563E-002  -1.1670091619186251E-002   5.0531807797542516E-002
   3.7493040797175053E-002  -1.0963384424352712E-002   5.0453172435947158E-002
   3.5762728998338544E-002  -1.0248673586045559E-002   5.0555234068461657E-002
   3.4032417199502007E-002  -9.5259591042641603E-003   5.0837992695086348E-002
   3.2302105400665526E-002  -8.7952409790092445E-003   5.1301448315820897E-002
   3.4439594627704018E-002  -1.0188959820435994E-002   5.4358250145832537E-002
   3.2896489768058368E-002  -9.5792051888654584E-003   5.4227806047084492E-002
   3.1353384908412746E-002  -8.9571044899301455E-003   5.4291078832607989E-002
   2.9810280048767117E-002  -8.3226577236304167E-003   5.4548068502403131E-002
   2.8267175189121474E-002  -7.6758648899660775E-003   5.4998775056470051E-002
   2.9587343121743728E-002  -8.7078280216856541E-003   5.8085568718914488E-002
   2.8244465091450573E-002  -8.1950259533779407E-003   5.7907658306904419E-002
   2.6901587061157410E-002  -7.6655353938148846E-003   5.7936484669327631E-002
   2.5558709030864241E-002  -7.1193563429963920E-003   5.8172047806183964E-002
   2.4215831000571092E-002  -6.5564888009226052E-003   5.8614347717473661E-002
   2.4666598078130840E-002  -7.2266962229353832E-003   6.1713763516787999E-002
   2.3536966767351709E-002  -6.8108467178905549E-003   6.1492729215406799E-002
   2.2407335456572617E-002  -6.3739662976995473E-003   6.1491451578620529E-002
   2.1277704145793497E-002  -5.9160549623623413E-003   6.1709930606428938E-002
   2.0148072835014397E-002  -5.4371127118792301E-003   6.2148166298832325E-002
   1.9677359496865193E-002  -5.7455644241851123E-003   6.5242834539453509E-002
   1.8773994795761736E-002  -5.4266674824031413E-003   6.4983018772591772E-002
   1.7870630094658294E-002  -5.0823972015843627E-003   6.4955979560486515E-002
   1.6967265393554823E-002  -4.7127535817284121E-003   6.5161716903137837E-002
   1.6063900692451380E-002  -4.3177366228358549E-003   6.5600230800545556E-002
   3.2302105400665526E-002  -8.7952409790092445E-003   5.1301448315820897E-002
   3.0057910886730321E-002  -8.0993627795986067E-003   5.0029085941988183E-002
   2.7813716372795061E-002  -7.4811680753504445E-003   4.8990763518119568E-002
   2.5569521858859814E-002  -6.9406568662643449E-003   4.8186481044215176E-002
   2.3325327344924596E-002  -6.4778291523410747E-003   4.7616238520274856E-002
   2.8267175189121474E-002  -7.6758648899660775E-003   5.4998775056470051E-002
   2.6264874951027598E-002  -7.0568363829125180E-003   5.3645073923633518E-002
   2.4262574712933666E-002  -6.5056825964452947E-003   5.2541121392515627E-002
   2.2260274474839768E-002  -6.0224035305645879E-003   5.1686917463115989E-002
   2.0257974236745857E-002  -5.6069991852701895E-003   5.1082462135434936E-002
   2.4215831000571092E-002  -6.5564888009226052E-003   5.8614347717473661E-002
   2.2471133690072795E-002  -6.0143099862264016E-003   5.7189116600209811E-002
   2.0726436379574491E-002  -5.5301971175403600E-003   5.6029342736418429E-002
   1.8981739069076197E-002  -5.1041501948647181E-003   5.5135026126099912E-002
   1.7237041758577890E-002  -4.7361692181994153E-003   5.4506166769254349E-002
   2.0148072835014397E-002  -5.4371127118792301E-003   6.2148166298832325E-002
   1.8676687103865965E-002  -4.9717835895401880E-003   6.0661213971716685E-002
   1.7205301372717530E-002  -4.5547116386353732E-003   5.9455427549828375E-002
   1.5733915641569104E-002  -4.1858968591649047E-003   5.8530807033166647E-002
   1.4262529910420669E-002  -3.8653392511285301E-003   5.7887352421732381E-002
   1.6063900692451380E-002  -4.3177366228358549E-003   6.5600230800545556E-002
   1.4881535192407078E-002  -3.9292571928541409E-003   6.4061366038154488E-002
   1.3699169692362796E-002  -3.5792261597301922E-003   6.2819375832744884E-002
   1.2516804192318511E-002  -3.2676435234649873E-003   6.1874260184316521E-002
   1.1334438692274212E-002  -2.9945092840577558E-003   6.1226019092869399E-002
   2.3325327344924596E-002  -6.4778291523410747E-003   4.7616238520274856E-002
   2.1836336997792222E-002  -6.0252066290034656E-003   4.7825120148201838E-002
   2.0347346650659848E-002  -5.5153109916750431E-003   4.8164587018944383E-002
   1.8858356303527501E-002  -4.9481422403554534E-003   4.8634639132502544E-002
   1.7369365956395127E-002  -4.3237003750453695E-003   4.9235276488876489E-002
   2.0257974236745857E-002  -5.6069991852701895E-003   5.1082462135434936E-002
   1.8908675495379917E-002  -5.2031792108740982E-003   5.1397860302714204E-002
   1.7559376754013992E-002  -4.7546532576874523E-003   5.1862056438710807E-002
   1.6210078012648052E-002  -4.2614213257110081E-003   5.2475050543424509E-002
   1.4860779271282126E-002  -3.7234834149441065E-003   5.3236842616855573E-002
   1.7237041758577890E-002  -4.7361692181994153E-003   5.4506166769254349E-002
   1.6045647348880109E-002  -4.3811517927445920E-003   5.4915514340684951E-002
   1.4854252939182355E-002  -3.9939955237000696E-003   5.5491872606734591E-002
   1.3662858529484595E-002  -3.5747004110663373E-003   5.6235241567403192E-002
   1.2471464119786814E-002  -3.1232664548428435E-003   5.7145621222691095E-002
   1.4262529910420669E-002  -3.8653392511285301E-003   5.7887352421732381E-002
   1.3247252558292778E-002  -3.5591243746150997E-003   5.8378082262113780E-002
   1.2231975206164926E-002  -3.2333377897127494E-003   5.9054035523015941E-002
   1.1216697854037064E-002  -2.8879794964215572E-003   5.9915212204438933E-002
   1.0201420501909185E-002  -2.5230494947415805E-003   6.0961612306382841E-002
   1.1334438692274212E-002  -2.9945092840577558E-003   6.1226019092869399E-002
   1.0513491123617991E-002  -2.7370969564857739E-003   6.1785564067000920E-002
   9.6925435549617273E-003  -2.4726800557251516E-003   6.2548545187555094E-002
   8.8715959863054847E-003  -2.2012585817769575E-003   6.3514962454531781E-002
   8.0506484176492699E-003  -1.9228325346404285E-003   6.4684815867930623E-002
   1.7369365956395127E-002  -4.3237003750453695E-003   4.9235276488876489E-002
   1.5335723068928081E-002  -3.7336904846999586E-003   4.8993508936584718E-002
   1.3302080181461076E-002  -3.2698176582752481E-003   4.9018245906356894E-002
   1.1268437293994064E-002  -2.9320818957718139E-003   4.9309487398193103E-002
   9.2347944065270249E-003  -2.7204831971886501E-003   4.9867233412093204E-002
   1.4860779271282126E-002  -3.7234834149441065E-003   5.3236842616855573E-002
   1.3092974060790602E-002  -3.2249228523845153E-003   5.2988880883530209E-002
   1.1325168850299078E-002  -2.8498229650308071E-003   5.3006089982091553E-002
   9.5573636398075326E-003  -2.5981837528822951E-003   5.3288469912539882E-002
   7.7895584293160292E-003  -2.4700052159389863E-003   5.3836020674875862E-002
   1.2471464119786814E-002  -3.1232664548428435E-003   5.7145621222691095E-002
   1.0968162896093918E-002  -2.7161552200695716E-003   5.6894141697047179E-002
   9.4648616724010044E-003  -2.4298282717862690E-003   5.6906499313113271E-002
   7.9615604487081239E-003  -2.2642856099927798E-003   5.7182694070889876E-002
   6.4582592250152226E-003  -2.2195272346892669E-003   5.7722725970376393E-002
   1.0201420501909185E-002  -2.5230494947415805E-003   6.0961612306382841E-002
   8.9612895748380338E-003  -2.2073875877542670E-003   6.0709291377135925E-002
   7.7211586477668537E-003  -2.0098335785417240E-003   6.0719473899422255E-002
   6.4810277206956961E-003  -1.9303874671030407E-003   6.0992159873242024E-002
   5.2408967936244943E-003  -1.9690492534395199E-003   6.1527349298595331E-002
   8.0506484176492699E-003  -1.9228325346404285E-003   6.4684815867930623E-002
   7.0723540970229204E-003  -1.6986199554391845E-003   6.4434329923796274E-002
   6.0940597763966126E-003  -1.5898388852971790E-003   6.4445013741018353E-002
   5.1157654557702978E-003  -1.5964893242137734E-003   6.4716867319596888E-002
   4.1374711351439553E-003  -1.7185712721897728E-003   6.5249890659531795E-002
   9.2347944065270249E-003  -2.7204831971886501E-003   4.9867233412093204E-002
   7.8356868418079095E-003  -2.8742283677979930E-003   5.0302159192455065E-002
   6.4365792770888219E-003  -3.6325242128695534E-003   5.1059821254563320E-002
   5.0374717123696927E-003  -4.9953707324040600E-003   5.2140219598418441E-002
   3.6383641476505635E-003  -6.9627679264010478E-003   5.3543354224020012E-002
   7.7895584293160292E-003  -2.4700052159389863E-003   5.3836020674875862E-002
   6.6874063842326387E-003  -2.6591361890370702E-003   5.3801247956366982E-002
   5.5852543391492065E-003  -3.3594255070120149E-003   5.4037649995383102E-002
   4.4831022940658161E-003  -4.5708731698642230E-003   5.4545226791924264E-002
   3.3809502489823839E-003  -6.2934791775932641E-003   5.5323978345989788E-002
   6.4582592250152226E-003  -2.2195272346892669E-003   5.7722725970376393E-002
   5.6015011753458438E-003  -2.4440440102763972E-003   5.7311647082582795E-002
   4.7447431256765135E-003  -3.0863268011547956E-003   5.7120181428092401E-002
   3.8879850760071798E-003  -4.1463756073246046E-003   5.7148329006905314E-002
   3.0312270263378044E-003  -5.6241904287855915E-003   5.7396089819021556E-002
   5.2408967936244943E-003  -1.9690492534395199E-003   6.1527349298595331E-002
   4.5779712151475978E-003  -2.2289518315157103E-003   6.0833356571102157E-002
   3.9150456366706752E-003  -2.8132280952973057E-003   6.0307415552691201E-002
   3.2521200581937674E-003  -3.7218780447849879E-003   5.9949526243361757E-002
   2.5891944797168283E-003  -4.9549016799775303E-003   5.9759688643113859E-002
   4.1374711351439553E-003  -1.7185712721897728E-003   6.5249890659531795E-002
   3.6168165036378486E-003  -2.0138596527549124E-003   6.4366376421925775E-002
   3.0961618721317141E-003  -2.5401293894400656E-003   6.3599352369179518E-002
   2.5755072406255866E-003  -3.2973804822454336E-003   6.2948818501293496E-002
   2.0548526091194730E-003  -4.2856129311699132E-003   6.2414774818267071E-002
   3.6383641476505635E-003  -6.9627679264010478E-003   5.3543354224020012E-002
   4.1778261189804322E-003  -9.5507919178519085E-003   5.1861619346742716E-002
   4.7172880903103287E-003  -1.2775518829747368E-002   5.0037322090098701E-002
   5.2567500616402113E-003  -1.6636948662087481E-002   4.8070462454089025E-002
   5.7962120329699829E-003  -2.1135081414871415E-002   4.5961040438712963E-002
   3.3809502489823839E-003  -6.2934791775932641E-003   5.5323978345989788E-002
   3.7950772576984676E-003  -8.5597780166136728E-003   5.2960696442414468E-002
   4.2092042664144819E-003  -1.1402304173338373E-002   5.0489306992977379E-002
   4.6233312751306210E-003  -1.4821057647768629E-002   4.7909809997678909E-002
   5.0374582838466631E-003  -1.8816038439903426E-002   4.5222205456519449E-002
   3.0312270263378044E-003  -5.6241904287855915E-003   5.7396089819021556E-002
   3.3544739059450795E-003  -7.5687641153748819E-003   5.4411736491886520E-002
   3.6777207855523478E-003  -1.0029089516929601E-002   5.1353730452395663E-002
   4.0009676651595986E-003  -1.3005166633449777E-002   4.8222071700548610E-002
   4.3242145447668634E-003  -1.6496995464935216E-002   4.5016760236344378E-002
   2.5891944797168283E-003  -4.9549016799775303E-003   5.9759688643113859E-002
   2.8560160637203132E-003  -6.5777502141361466E-003   5.6214739495159552E-002
   3.1228376477237859E-003  -8.6558748605207181E-003   5.2630592468353984E-002
   3.3896592317273376E-003  -1.1189275619130926E-002   4.9007247562697059E-002
   3.6564808157307435E-003  -1.4177952489967116E-002   4.5344704778188777E-002
   2.0548526091194730E-003  -4.2856129311699132E-003   6.2414774818267071E-002
   2.2997037310241858E-003  -5.5867363128979664E-003   5.8369705452232967E-002
   2.5445548529289125E-003  -7.2826602041117794E-003   5.4319893040852607E-002
   2.7894059748336184E-003  -9.3733846048121711E-003   5.0265337584125602E-002
   3.0342570967383242E-003  -1.1858909514999016E-002   4.6206039082052897E-002
   4.3865775648849775E-002  -8.4171989693883065E-003  0.11792267479289392     
   3.6835438811035071E-002  -7.1548431127479162E-003   9.5932346449931427E-002
   2.9805101973220380E-002  -6.3167119591203275E-003   7.6344801095805853E-002
   2.2774765135405696E-002  -5.9028055085054328E-003   5.9160038730517214E-002
   1.5744428297590984E-002  -5.9131237609035270E-003   4.4378059354065691E-002
   3.1060080969796150E-002  -6.3128994102816804E-003  0.11761366847247751     
   2.6271227411650014E-002  -5.3661322673786149E-003   9.6317011023200283E-002
   2.1482373853503843E-002  -4.7375337057062872E-003   7.7100537144422998E-002
   1.6693520295357703E-002  -4.4271037252646139E-003   5.9964246836145776E-002
   1.1904666737211550E-002  -4.4348423260536507E-003   4.4908140098368660E-002
   1.9480553535718044E-002  -4.2085998511749712E-003  0.11693604537743267     
   1.6610583838903507E-002  -3.5774214220093276E-003   9.6439114943622783E-002
   1.3740614142088960E-002  -3.1583554522922677E-003   7.7699768661976004E-002
   1.0870644445274422E-002  -2.9514019420237656E-003   6.0718006532492319E-002
   8.0006747484598767E-003  -2.9565608912038022E-003   4.5493828555171797E-002
   9.1271933466154347E-003  -2.1043002920683035E-003  0.11588980550775919     
   7.8535080927955737E-003  -1.7887105766400749E-003   9.6298658211198762E-002
   6.5798228389756979E-003  -1.5791771988782656E-003   7.8142495648464608E-002
   5.3061375851558359E-003  -1.4757001587829598E-003   6.1421317819556738E-002
   4.0324523313359575E-003  -1.4782794563539398E-003   4.6135124724474889E-002
   4.0248836902234686E-010  -7.3296163582980967E-010  0.11447494886345738     
   1.7332622143095833E-010   2.6872923331033860E-010   9.5895640825928663E-002
  -5.5835912282642397E-011   1.0545357503888297E-009   7.8428718103889156E-002
  -2.8499805293513703E-010   1.6244580021418376E-009   6.2074180697339151E-002
  -5.1416019358763165E-010   1.9784959226498700E-009   4.6832028606278220E-002
   1.5744428297590984E-002  -5.9131237609035270E-003   4.4378059354065691E-002
   1.6727661097409530E-002  -6.0694742552869774E-003   5.0050192776874530E-002
   1.7710893897228089E-002  -6.0936645306282344E-003   5.5418366448708900E-002
   1.8694126697046655E-002  -5.9856945869277770E-003   6.0482580369568523E-002
   1.9677359496865193E-002  -5.7455644241851123E-003   6.5242834539453509E-002
   1.1904666737211550E-002  -4.4348423260536507E-003   4.4908140098368660E-002
   1.2598477684019276E-002  -4.5521051627462478E-003   5.0646221155002044E-002
   1.3292288630827001E-002  -4.5702478900148877E-003   5.6109418256588439E-002
   1.3986099577634720E-002  -4.4892705078601099E-003   6.1297731403127900E-002
   1.4679910524442452E-002  -4.3091730162814201E-003   6.6211160594620316E-002
   8.0006747484598767E-003  -2.9565608912038022E-003   4.5493828555171797E-002
   8.4341396381844257E-003  -3.0347360702054071E-003   5.1264817136011352E-002
   8.8676045279089712E-003  -3.0468312494015409E-003   5.6789997557731550E-002
   9.3010694176335184E-003  -2.9928464287923319E-003   6.2069369820332405E-002
   9.7345343073580656E-003  -2.8727816083775892E-003   6.7102933923813904E-002
   4.0324523313359575E-003  -1.4782794563539398E-003   4.6135124724474889E-002
   4.2346469599049853E-003  -1.5173669776645943E-003   5.1905980719902427E-002
   4.4368415884740156E-003  -1.5234146087881942E-003   5.7460104352138164E-002
   4.6390362170430407E-003  -1.4964223497245539E-003   6.2797495621182309E-002
   4.8412308456120805E-003  -1.4363902004737167E-003   6.7918154527034633E-002
  -5.1416019358763165E-010   1.9784959226498700E-009   4.6832028606278220E-002
  -3.5081903007605497E-010   2.1148761630840340E-009   5.2569711906675254E-002
  -1.8747786656447829E-010   2.0318251525708320E-009   5.8119738639808211E-002
  -2.4136703052901609E-011   1.7293432241771711E-009   6.3482108805677201E-002
   1.3920446045867507E-010   1.2074299893249929E-009   6.8656822404282170E-002
   1.9677359496865193E-002  -5.7455644241851123E-003   6.5242834539453509E-002
   1.8773994795761736E-002  -5.4266674824031413E-003   6.4983018772591772E-002
   1.7870630094658294E-002  -5.0823972015843627E-003   6.4955979560486515E-002
   1.6967265393554823E-002  -4.7127535817284121E-003   6.5161716903137837E-002
   1.6063900692451380E-002  -4.3177366228358549E-003   6.5600230800545556E-002
   1.4679910524442452E-002  -4.3091730162814201E-003   6.6211160594620316E-002
   1.4007588530115633E-002  -4.0700004470207718E-003   6.6023885427605650E-002
   1.3335266535788835E-002  -3.8117978318198686E-003   6.6065919119388070E-002
   1.2662944541462013E-002  -3.5345651706787731E-003   6.6337261669967312E-002
   1.1990622547135218E-002  -3.2383024635975199E-003   6.6837913079343225E-002
   9.7345343073580656E-003  -2.8727816083775892E-003   6.7102933923813904E-002
   9.2897873238483308E-003  -2.7133334116383606E-003   6.6981856063549922E-002
   8.8450403403385891E-003  -2.5411984620556036E-003   6.7086619366123174E-002
   8.4002933568288474E-003  -2.3563767596290804E-003   6.7417223831533646E-002
   7.9555463733191091E-003  -2.1588683043591295E-003   6.7973669459781477E-002
   4.8412308456120805E-003  -1.4363902004737167E-003   6.7918154527034633E-002
   4.6205911769598238E-003  -1.3566663762559147E-003   6.7856930680424477E-002
   4.3999515083075749E-003  -1.2705990922912240E-003   6.8018080300692008E-002
   4.1793118396553242E-003  -1.1781883485794146E-003   6.8401603387837115E-002
   3.9586721710030736E-003  -1.0794341451207667E-003   6.9007499941860062E-002
   1.3920446045867507E-010   1.2074299893249929E-009   6.8656822404282170E-002
   8.9450120921430454E-011   6.5912636459941609E-010   6.8649109278229148E-002
   3.9695774445291931E-011   2.7747312780768141E-010   6.8860301923094336E-002
  -1.0058566826676163E-011   6.2470244255319329E-011   6.9290400338877706E-002
  -5.9812911568091209E-011   1.4117651492284722E-011   6.9939404525578952E-002
   1.6063900692451380E-002  -4.3177366228358549E-003   6.5600230800545556E-002
   1.4881535192407078E-002  -3.9292571928541409E-003   6.4061366038154488E-002
   1.3699169692362796E-002  -3.5792261597301922E-003   6.2819375832744884E-002
   1.2516804192318511E-002  -3.2676435234649873E-003   6.1874260184316521E-002
   1.1334438692274212E-002  -2.9945092840577558E-003   6.1226019092869399E-002
   1.1990622547135218E-002  -3.2383024635975199E-003   6.6837913079343225E-002
   1.1104810808793289E-002  -2.9469428843025558E-003   6.5303287143987893E-002
   1.0218999070451366E-002  -2.6844196065204662E-003   6.4064894175056120E-002
   9.3331873321094334E-003  -2.4507326302515078E-003   6.3122734172547615E-002
   8.4473755937675143E-003  -2.2458819554951881E-003   6.2476807136462698E-002
   7.9555463733191091E-003  -2.1588683043591295E-003   6.7973669459781477E-002
   7.3656468061217249E-003  -1.9646285757511650E-003   6.6452894446807104E-002
   6.7757472389243321E-003  -1.7896130533107818E-003   6.5227710809698233E-002
   6.1858476717269488E-003  -1.6338217370379139E-003   6.4298118548455047E-002
   5.5959481045295550E-003  -1.4972546269326203E-003   6.3664117663077557E-002
   3.9586721710030736E-003  -1.0794341451207667E-003   6.9007499941860062E-002
   3.6640431843923882E-003  -9.8231426719973258E-004   6.7510187946611760E-002
   3.3694141977817058E-003  -8.9480650010096557E-004   6.6307825736671475E-002
   3.0747852111710243E-003  -8.1691084382437724E-004   6.5400413312038858E-002
   2.7801562245603449E-003  -7.4862729837010811E-004   6.4787950672714131E-002
  -5.9812911568091209E-011   1.4117651492284722E-011   6.9939404525578952E-002
  -5.6394715286511854E-011   4.1351699842095968E-011   6.8475167643402446E-002
  -5.2976522474379451E-011   5.3108892283937337E-011   6.7305238955975816E-002
  -4.9558326192800095E-011   4.9389169837210645E-011   6.6429618463299103E-002
  -4.6140133380667692E-011   3.0192515154681132E-011   6.5848306165372628E-002
   1.1334438692274212E-002  -2.9945092840577558E-003   6.1226019092869399E-002
   1.0513491123617991E-002  -2.7370969564857739E-003   6.1785564067000920E-002
   9.6925435549617273E-003  -2.4726800557251516E-003   6.2548545187555094E-002
   8.8715959863054847E-003  -2.2012585817769575E-003   6.3514962454531781E-002
   8.0506484176492699E-003  -1.9228325346404285E-003   6.4684815867930623E-002
   8.4473755937675143E-003  -2.2458819554951881E-003   6.2476807136462698E-002
   7.8303143587310983E-003  -2.0528227154104628E-003   6.3078566909739231E-002
   7.2132531236946754E-003  -1.8545100431558298E-003   6.3884663203832986E-002
   6.5961918886582663E-003  -1.6509439387316326E-003   6.4895096018743922E-002
   5.9791306536218364E-003  -1.4421244021376456E-003   6.6109865354472053E-002
   5.5959481045295550E-003  -1.4972546269326203E-003   6.3664117663077557E-002
   5.1836735775076179E-003  -1.3685484743353460E-003   6.4306341094480815E-002
   4.7713990504856807E-003  -1.2363400305866190E-003   6.5153801421095947E-002
   4.3591245234637418E-003  -1.1006292956864186E-003   6.6206498642922884E-002
   3.9468499964418202E-003  -9.6141626963491822E-004   6.7464432759961446E-002
   2.7801562245603449E-003  -7.4862729837010811E-004   6.4787950672714131E-002
   2.5735687799475476E-003  -6.8427423326007653E-004   6.5468886621225852E-002
   2.3669813353347467E-003  -6.1817001801746374E-004   6.6355959839343892E-002
   2.1603938907219541E-003  -5.5031465264137117E-004   6.7449170327068569E-002
   1.9538064461091624E-003  -4.8070813713227412E-004   6.8748518084399607E-002
  -4.6140133380667692E-011   3.0192515154681132E-011   6.5848306165372628E-002
  -3.3949128230847947E-011   7.8149153814877081E-012   6.6566203489974218E-002
  -2.1758123081028202E-011  -5.4480031597137213E-012   6.7491138458576905E-002
  -9.5671127270380296E-012  -9.5959698520609038E-012   6.8623111071180742E-002
   2.6238872186112872E-012  -4.6295189903844403E-012   6.9962121327786009E-002
   8.0506484176492699E-003  -1.9228325346404285E-003   6.4684815867930623E-002
   7.0723540970229204E-003  -1.6986199554391845E-003   6.4434329923796274E-002
   6.0940597763966126E-003  -1.5898388852971790E-003   6.4445013741018353E-002
   5.1157654557702978E-003  -1.5964893242137734E-003   6.4716867319596888E-002
   4.1374711351439553E-003  -1.7185712721897728E-003   6.5249890659531795E-002
   5.9791306536218364E-003  -1.4421244021376456E-003   6.6109865354472053E-002
   5.2578570488267459E-003  -1.2739649657204644E-003   6.5793464900868515E-002
   4.5365834440316277E-003  -1.1923791618267676E-003   6.5729936117571219E-002
   3.8153098392365373E-003  -1.1973669904568260E-003   6.5919279004579501E-002
   3.0940362344414329E-003  -1.2889284516101052E-003   6.6361493561894247E-002
   3.9468499964418202E-003  -9.6141626963491822E-004   6.7464432759961446E-002
   3.4742990164275331E-003  -8.4930997600163316E-004   6.7110975673424444E-002
   3.0017480364132668E-003  -7.9491943835657830E-004   6.7002092166142974E-002
   2.5291970563989848E-003  -7.9824465669943445E-004   6.7137782238117200E-002
   2.0566460763847133E-003  -8.5928563103071509E-004   6.7518045889346984E-002
   1.9538064461091624E-003  -4.8070813713227412E-004   6.8748518084399607E-002
   1.7216799998253287E-003  -4.2465498628296849E-004   6.8386862241464258E-002
   1.4895535535414950E-003  -3.9745971488633347E-004   6.8261481886734143E-002
   1.2574271072576582E-003  -3.9912232294237598E-004   6.8372377020209318E-002
   1.0253006609738276E-003  -4.2964281045129726E-004   6.8719547641889783E-002
   2.6238872186112872E-012  -4.6295189903844403E-012   6.9962121327786009E-002
  -9.7988978042806707E-013   3.4358627054587032E-012   6.9621124604987705E-002
  -4.5836667794674213E-012   8.5839946262211697E-012   6.9508105279344479E-002
  -8.1874385743363476E-012   1.0814897588584671E-011   6.9623063350856135E-002
  -1.1791220777546130E-011   1.0128342609050378E-011   6.9965998819522479E-002
   4.1374711351439553E-003  -1.7185712721897728E-003   6.5249890659531795E-002
   3.6168165036378486E-003  -2.0138596527549124E-003   6.4366376421925775E-002
   3.0961618721317141E-003  -2.5401293894400656E-003   6.3599352369179518E-002
   2.5755072406255866E-003  -3.2973804822454336E-003   6.2948818501293496E-002
   2.0548526091194730E-003  -4.2856129311699132E-003   6.2414774818267071E-002
   3.0940362344414329E-003  -1.2889284516101052E-003   6.6361493561894247E-002
   2.6932901561919353E-003  -1.5103947374472959E-003   6.5285333748848928E-002
   2.2925440779424724E-003  -1.9050970401281730E-003   6.4332500857456953E-002
   1.8917979996929853E-003  -2.4730353596527574E-003   6.3502994887718350E-002
   1.4910519214435120E-003  -3.2142096960210420E-003   6.2796815839632814E-002
   2.0566460763847133E-003  -8.5928563103071509E-004   6.7518045889346984E-002
   1.7826452881852389E-003  -1.0069298221397349E-003   6.6306985840138388E-002
   1.5086444999857472E-003  -1.2700646908163776E-003   6.5226089449376676E-002
   1.2346437117862746E-003  -1.6486902370608549E-003   6.4275356717061388E-002
   9.6064292358678111E-004  -2.1428064608727260E-003   6.3454787643193122E-002
   1.0253006609738276E-003  -4.2964281045129726E-004   6.8719547641889783E-002
   8.8488189961770033E-004  -5.0346490683214618E-004   6.7431332695794127E-002
   7.4446313826157223E-004  -6.3503234150436710E-004   6.6280118144938560E-002
   6.0404437690543067E-004  -8.2434511446867649E-004   6.5265903989322957E-002
   4.6362561554930300E-004  -1.0714032257239103E-003   6.4388690228947484E-002
  -1.1791220777546130E-011   1.0128342609050378E-011   6.9965998819522479E-002
  -9.5106492126184605E-012   8.4754425699884450E-012   6.8658374315815895E-002
  -7.2300845865846952E-012   7.8073103537690258E-012   6.7494586944142732E-002
  -4.9495216952744059E-012   8.1235018711822704E-012   6.6474636704502932E-002
  -2.6689483956232607E-012   9.4242391668331038E-012   6.5598523596896330E-002
   2.0548526091194730E-003  -4.2856129311699132E-003   6.2414774818267071E-002
   2.2997037310241858E-003  -5.5867363128979664E-003   5.8369705452232967E-002
   2.5445548529289125E-003  -7.2826602041117794E-003   5.4319893040852607E-002
   2.7894059748336184E-003  -9.3733846048121711E-003   5.0265337584125602E-002
   3.0342570967383242E-003  -1.1858909514999016E-002   4.6206039082052897E-002
   1.4910519214435120E-003  -3.2142096960210420E-003   6.2796815839632814E-002
   1.7170425641744314E-003  -4.1900522318635836E-003   5.8425570283795192E-002
   1.9430332069053299E-003  -5.4619951498093289E-003   5.4021346814956017E-002
   2.1690238496362285E-003  -7.0300384498590968E-003   4.9584145433115262E-002
   2.3950144923671479E-003  -8.8941821320132064E-003   4.5113966138274009E-002
   9.6064292358678111E-004  -2.1428064608727260E-003   6.3454787643193122E-002
   1.1395382194887768E-003  -2.7933681508294783E-003   5.8856066024934178E-002
   1.3184335153907621E-003  -3.6413300955073502E-003   5.4196131626018940E-002
   1.4973288112927387E-003  -4.6866922949065290E-003   4.9474984446447184E-002
   1.6762241071947431E-003  -5.9294547490276184E-003   4.4692624486218580E-002
   4.6362561554930300E-004  -1.0714032257239103E-003   6.4388690228947484E-002
   5.6719069696725341E-004  -1.3966840697950123E-003   5.9661192675649816E-002
   6.7075577838519081E-004  -1.8206650412050246E-003   5.4844247474041312E-002
   7.7432085980313472E-004  -2.3433461399539300E-003   4.9937854624120565E-002
   8.7788594122107863E-004  -2.9647273660419193E-003   4.4942014125888552E-002
  -2.6689483956232607E-012   9.4242391668331038E-012   6.5598523596896330E-002
  -3.3901631502075702E-012   1.1238565633675535E-011   6.0840950235942826E-002
  -4.1113779047918797E-012   1.3097078976898047E-011   5.5965694359022433E-002
  -4.8325961288231412E-012   1.4999002040383402E-011   5.0972755966135985E-002
  -5.5538074139604987E-012   1.6943779712619289E-011   4.5862135057281872E-002
   4.0248836902234686E-010  -7.3296163582980967E-010  0.11447494886345738     
   1.7332622143095833E-010   2.6872923331033860E-010   9.5895640825928663E-002
  -5.5835912282642397E-011   1.0545357503888297E-009   7.8428718103889156E-002
  -2.8499805293513703E-010   1.6244580021418376E-009   6.2074180697339151E-002
  -5.1416019358763165E-010   1.9784959226498700E-009   4.6832028606278220E-002
  -9.1271921389649152E-003   2.1042987386556411E-003  0.11588980525934509     
  -7.8535074195511777E-003   1.7887106395262919E-003   9.6298658313795055E-002
  -6.5798227001374436E-003   1.5791785533212643E-003   7.8142495949907562E-002
  -5.3061379807237009E-003   1.4757024800403432E-003   6.1421318167682544E-002
  -4.0324532613099720E-003   1.4782824196836186E-003   4.6135124967119912E-002
  -1.9480551120046138E-002   4.2085982102728625E-003  0.11693604444000831     
  -1.6610582185883273E-002   3.5774210103233922E-003   9.6439114815245530E-002
  -1.3740613251720449E-002   3.1583560521066603E-003   7.7699769038318434E-002
  -1.0870644317557602E-002   2.9514033356226547E-003   6.0718007109227062E-002
  -8.0006753833947505E-003   2.9565628608714256E-003   4.5493829027971389E-002
  -3.1060076540755256E-002   6.3128976818900978E-003  0.11761366640544745     
  -2.6271224125670095E-002   5.3661313811204855E-003   9.6317010330280173E-002
  -2.1482371710584897E-002   4.7375335508921153E-003   7.7100537369121966E-002
  -1.6693519295499722E-002   4.4271041912050365E-003   5.9964247521972769E-002
  -1.1904666880414545E-002   4.4348433020592326E-003   4.4908140788832429E-002
  -4.3865768401092332E-002   8.4171971535073609E-003  0.11792267115566180     
  -3.6835433238911600E-002   7.1548417519175511E-003   9.5932344858898899E-002
  -2.9805098076730843E-002   6.3167110496775702E-003   7.6344800942318214E-002
  -2.2774762914550085E-002   5.9028050467873211E-003   5.9160039405919629E-002
  -1.5744427752369339E-002   5.9131237432469286E-003   4.4378060249703200E-002
  -5.1416019358763165E-010   1.9784959226498700E-009   4.6832028606278220E-002
  -3.5081903007605497E-010   2.1148761630840340E-009   5.2569711906675254E-002
  -1.8747786656447829E-010   2.0318251525708320E-009   5.8119738639808211E-002
  -2.4136703052901609E-011   1.7293432241771711E-009   6.3482108805677201E-002
   1.3920446045867507E-010   1.2074299893249929E-009   6.8656822404282170E-002
  -4.0324532613099720E-003   1.4782824196836186E-003   4.6135124967119912E-002
  -4.2346475960772251E-003   1.5173702293118929E-003   5.1905980715544697E-002
  -4.4368419308444731E-003   1.5234177659855241E-003   5.7460104035016751E-002
  -4.6390362656117297E-003   1.4964250297044568E-003   6.2797494925535990E-002
  -4.8412306003789811E-003   1.4363920204690794E-003   6.7918153387102498E-002
  -8.0006753833947505E-003   2.9565628608714256E-003   4.5493829027971389E-002
  -8.4341400779591770E-003   3.0347383437475672E-003   5.1264817170900506E-002
  -8.8676047725235983E-003   3.0468335001456737E-003   5.6789997023188113E-002
  -9.3010694670880197E-003   2.9928483300659670E-003   6.2069368584834222E-002
  -9.7345341616524462E-003   2.8727828335081418E-003   6.7102931855838654E-002
  -1.1904666880414545E-002   4.4348433020592326E-003   4.4908140788832429E-002
  -1.2598477796464887E-002   4.5521064581832693E-003   5.0646221272742584E-002
  -1.3292288712515239E-002   4.5702492343059342E-003   5.6109417604322337E-002
  -1.3986099628565587E-002   4.4892716304272828E-003   6.1297729783571842E-002
  -1.4679910544615933E-002   4.3091736465471348E-003   6.6211157810490945E-002
  -1.5744427752369339E-002   5.9131237432469286E-003   4.4378060249703200E-002
  -1.6727660751594372E-002   6.0694745726189436E-003   5.0050193021070777E-002
  -1.7710893750819391E-002   6.0936649684660976E-003   5.5418365778419298E-002
  -1.8694126750044417E-002   5.9856949307886577E-003   6.0482578521748778E-002
  -1.9677359749269444E-002   5.7455644595862387E-003   6.5242831251059286E-002
   1.3920446045867507E-010   1.2074299893249929E-009   6.8656822404282170E-002
   8.9450120921430454E-011   6.5912636459941609E-010   6.8649109278229148E-002
   3.9695774445291931E-011   2.7747312780768141E-010   6.8860301923094336E-002
  -1.0058566826676163E-011   6.2470244255319329E-011   6.9290400338877706E-002
  -5.9812911568091209E-011   1.4117651492284722E-011   6.9939404525578952E-002
  -4.8412306003789811E-003   1.4363920204690794E-003   6.7918153387102498E-002
  -4.6205910201779152E-003   1.3566672885366171E-003   6.7856929795502091E-002
  -4.3999514399768475E-003   1.2705993841646002E-003   6.8018079692894612E-002
  -4.1793118597757781E-003   1.1781883073532715E-003   6.8401603079279796E-002
  -3.9586722795747140E-003   1.0794340581024020E-003   6.9007499954657603E-002
  -9.7345341616524462E-003   2.8727828335081418E-003   6.7102931855838654E-002
  -9.2897872334213837E-003   2.7133339179467864E-003   6.6981854459601364E-002
  -8.8450403051903281E-003   2.5411984908561419E-003   6.7086618270431303E-002
  -8.4002933769592725E-003   2.3563765522364132E-003   6.7417223288328609E-002
  -7.9555464487282030E-003   2.1588681020873468E-003   6.7973669513293103E-002
  -1.4679910544615933E-002   4.3091736465471348E-003   6.6211157810490945E-002
  -1.4007588550280302E-002   4.0700005473569417E-003   6.6023883270526856E-002
  -1.3335266555944676E-002   3.8117975975476490E-003   6.6065917655704479E-002
  -1.2662944561609052E-002   3.5345647971194976E-003   6.6337260966024075E-002
  -1.1990622567273417E-002   3.2383021460722500E-003   6.6837913201485549E-002
  -1.9677359749269444E-002   5.7455644595862387E-003   6.5242831251059286E-002
  -1.8773994970754666E-002   5.4266671767672081E-003   6.4983016228278401E-002
  -1.7870630192239882E-002   5.0823967042391421E-003   6.4955977848714125E-002
  -1.6967265413725091E-002   4.7127530420026063E-003   6.5161716112366277E-002
  -1.6063900635210321E-002   4.3177361900571531E-003   6.5600231019234734E-002
  -5.9812911568091209E-011   1.4117651492284722E-011   6.9939404525578952E-002
  -5.6394715286511854E-011   4.1351699842095968E-011   6.8475167643402446E-002
  -5.2976522474379451E-011   5.3108892283937337E-011   6.7305238955975816E-002
  -4.9558326192800095E-011   4.9389169837210645E-011   6.6429618463299103E-002
  -4.6140133380667692E-011   3.0192515154681132E-011   6.5848306165372628E-002
  -3.9586722795747140E-003   1.0794340581024020E-003   6.9007499954657603E-002
  -3.6640432885008036E-003   9.8231426103770336E-004   6.7510187946662387E-002
  -3.3694142974268985E-003   8.9480654078491484E-004   6.6307825719228941E-002
  -3.0747853063530011E-003   8.1691089734354377E-004   6.5400413272356739E-002
  -2.7801563152790899E-003   7.4862733071434651E-004   6.4787950606046085E-002
  -7.9555464487282030E-003   2.1588681020873468E-003   6.7973669513293103E-002
  -7.3656468841870994E-003   1.9646284807239289E-003   6.6452894471768109E-002
  -6.7757473196459863E-003   1.7896130284609443E-003   6.5227710796616184E-002
  -6.1858477551048783E-003   1.6338217452983635E-003   6.4298118487837189E-002
  -5.5959481905637695E-003   1.4972546312363999E-003   6.3664117545431081E-002
  -1.1990622567273417E-002   3.2383021460722500E-003   6.6837913201485549E-002
  -1.1104810843453602E-002   2.9469427004099324E-003   6.5303287218719502E-002
  -1.0218999119633781E-002   2.6844195161370814E-003   6.4064894188137822E-002
  -9.3331873958139716E-003   2.4507325932530159E-003   6.3122734109740661E-002
  -8.4473756719941392E-003   2.2458819317583423E-003   6.2476806983527998E-002
  -1.6063900635210321E-002   4.3177361900571531E-003   6.5600231019234734E-002
  -1.4881535166300298E-002   3.9292569200961580E-003   6.4061366187516233E-002
  -1.3699169697390289E-002   3.5792260038130519E-003   6.2819375893793661E-002
  -1.2516804228480265E-002   3.2676434412075711E-003   6.1874260138066906E-002
  -1.1334438759570256E-002   2.9945092322802846E-003   6.1226018920336300E-002
  -4.6140133380667692E-011   3.0192515154681132E-011   6.5848306165372628E-002
  -3.3949128230847947E-011   7.8149153814877081E-012   6.6566203489974218E-002
  -2.1758123081028202E-011  -5.4480031597137213E-012   6.7491138458576905E-002
  -9.5671127270380296E-012  -9.5959698520609038E-012   6.8623111071180742E-002
   2.6238872186112872E-012  -4.6295189903844403E-012   6.9962121327786009E-002
  -2.7801563152790899E-003   7.4862733071434651E-004   6.4787950606046085E-002
  -2.5735688464638556E-003   6.8427423432287915E-004   6.5468886573514407E-002
  -2.3669813776486352E-003   6.1817000159497537E-004   6.6355959810229959E-002
  -2.1603939088334035E-003   5.5031463253120416E-004   6.7449170316192811E-002
  -1.9538064400181805E-003   4.8070812713107980E-004   6.8748518091403255E-002
  -5.5959481905637695E-003   1.4972546312363999E-003   6.3664117545431081E-002
  -5.1836736398781121E-003   1.3685484608310372E-003   6.4306341010315071E-002
  -4.7713990891924771E-003   1.2363400086383008E-003   6.5153801369692579E-002
  -4.3591245385068266E-003   1.1006292746584372E-003   6.6206498623563592E-002
  -3.9468499878211848E-003   9.6141625889151205E-004   6.7464432771928151E-002
  -8.4473756719941392E-003   2.2458819317583423E-003   6.2476806983527998E-002
  -7.8303144141918975E-003   2.0528226873389871E-003   6.3078566800376532E-002
  -7.2132531563896549E-003   1.8545100156816194E-003   6.3884663136964906E-002
  -6.5961918985874227E-003   1.6509439167859182E-003   6.4895095993292837E-002
  -5.9791306407851698E-003   1.4421243906519721E-003   6.6109865369360643E-002
  -1.1334438759570256E-002   2.9945092322802846E-003   6.1226018920336300E-002
  -1.0513491169405219E-002   2.7370969138471590E-003   6.1785563943698607E-002
  -9.6925435792401746E-003   2.4726800227246881E-003   6.2548545112046827E-002
  -8.8715959890751268E-003   2.2012585589129205E-003   6.3514962425380961E-002
  -8.0506483989100930E-003   1.9228325224125431E-003   6.4684815883700897E-002
   2.6238872186112872E-012  -4.6295189903844403E-012   6.9962121327786009E-002
  -9.7988978042806707E-013   3.4358627054587032E-012   6.9621124604987705E-002
  -4.5836667794674213E-012   8.5839946262211697E-012   6.9508105279344479E-002
  -8.1874385743363476E-012   1.0814897588584671E-011   6.9623063350856135E-002
  -1.1791220777546130E-011   1.0128342609050378E-011   6.9965998819522479E-002
  -1.9538064400181805E-003   4.8070812713107980E-004   6.8748518091403255E-002
  -1.7216800010883930E-003   4.2465499081228986E-004   6.8386862244613544E-002
  -1.4895535621586142E-003   3.9745972899238313E-004   6.8261481885736303E-002
  -1.2574271232288266E-003   3.9912234167171351E-004   6.8372377014771266E-002
  -1.0253006842990478E-003   4.2964282884994098E-004   6.8719547631718614E-002
  -3.9468499878211848E-003   9.6141625889151205E-004   6.7464432771928151E-002
  -3.4742990156004551E-003   8.4930997818852272E-004   6.7110975678563445E-002
  -3.0017480433797263E-003   7.9491944940089654E-004   6.7002092163868585E-002
  -2.5291970711589892E-003   7.9824467252864392E-004   6.7137782227843334E-002
  -2.0566460989382678E-003   8.5928564757153936E-004   6.7518045870487653E-002
  -5.9791306407851698E-003   1.4421243906519721E-003   6.6109865369360643E-002
  -5.2578570445160865E-003   1.2739649655647972E-003   6.5793464906837212E-002
  -4.5365834482470222E-003   1.1923791698094030E-003   6.5729936113740978E-002
  -3.8153098519779450E-003   1.1973670033855171E-003   6.5919278990071509E-002
  -3.0940362557088752E-003   1.2889284662931932E-003   6.6361493535829347E-002
  -8.0506483989100930E-003   1.9228325224125431E-003   6.4684815883700897E-002
  -7.0723540878352906E-003   1.6986199529410717E-003   6.4434329929435097E-002
  -6.0940597767604708E-003   1.5898388902178262E-003   6.4445013735353773E-002
  -5.1157654656856580E-003   1.5964893342424527E-003   6.4716867301456760E-002
  -4.1374711546108486E-003   1.7185712850147361E-003   6.5249890627744223E-002
  -1.1791220777546130E-011   1.0128342609050378E-011   6.9965998819522479E-002
  -9.5106492126184605E-012   8.4754425699884450E-012   6.8658374315815895E-002
  -7.2300845865846952E-012   7.8073103537690258E-012   6.7494586944142732E-002
  -4.9495216952744059E-012   8.1235018711822704E-012   6.6474636704502932E-002
  -2.6689483956232607E-012   9.4242391668331038E-012   6.5598523596896330E-002
  -1.0253006842990478E-003   4.2964282884994098E-004   6.8719547631718614E-002
  -8.8488191844754427E-004   5.0346492314645719E-004   6.7431332687779066E-002
  -7.4446315259602512E-004   6.3503235718043172E-004   6.6280118138948296E-002
  -6.0404438674451031E-004   8.2434513095186457E-004   6.5265903985225859E-002
  -4.6362562089300244E-004   1.0714032444605337E-003   6.4388690226611978E-002
  -2.0566460989382678E-003   8.5928564757153936E-004   6.7518045870487653E-002
  -1.7826453064406717E-003   1.0069298378174718E-003   6.6306985825068304E-002
  -1.5086445139430747E-003   1.2700647065536641E-003   6.5226089437832535E-002
  -1.2346437214454825E-003   1.6486902537801162E-003   6.4275356708780429E-002
  -9.6064292894789544E-004   2.1428064794969393E-003   6.3454787637912013E-002
  -3.0940362557088752E-003   1.2889284662931932E-003   6.6361493535829347E-002
  -2.6932901734900549E-003   1.5103947524884309E-003   6.5285333727683095E-002
  -2.2925440912712420E-003   1.9050970559271185E-003   6.4332500840795420E-002
  -1.8917980090524182E-003   2.4730353766085345E-003   6.3502994875166502E-002
  -1.4910519268336083E-003   3.2142097145335113E-003   6.2796815830796840E-002
  -4.1374711546108486E-003   1.7185712850147361E-003   6.5249890627744223E-002
  -3.6168165195956739E-003   2.0138596671595010E-003   6.4366376395623703E-002
  -3.0961618845805026E-003   2.5401294052998236E-003   6.3599352347837146E-002
  -2.5755072495653349E-003   3.2973804994369041E-003   6.2948818484384245E-002
  -2.0548526145501567E-003   4.2856129495695283E-003   6.2414774805265583E-002
  -2.6689483956232607E-012   9.4242391668331038E-012   6.5598523596896330E-002
  -3.3901631502075702E-012   1.1238565633675535E-011   6.0840950235942826E-002
  -4.1113779047918797E-012   1.3097078976898047E-011   5.5965694359022433E-002
  -4.8325961288231412E-012   1.4999002040383402E-011   5.0972755966135985E-002
  -5.5538074139604987E-012   1.6943779712619289E-011   4.5862135057281872E-002
  -4.6362562089300244E-004   1.0714032444605337E-003   6.4388690226611978E-002
  -5.6719070371675021E-004   1.3966840916405099E-003   5.9661192673515828E-002
  -6.7075578654047542E-004   1.8206650664243096E-003   5.4844247472181085E-002
  -7.7432086936423273E-004   2.3433461688130430E-003   4.9937854622608219E-002
  -8.7788595218797616E-004   2.9647273988058220E-003   4.4942014124796925E-002
  -9.6064292894789544E-004   2.1428064794969393E-003   6.3454787637912013E-002
  -1.1395382261457886E-003   2.7933681720415660E-003   5.8856066020233827E-002
  -1.3184335233436817E-003   3.6413301197517622E-003   5.4196131622045729E-002
  -1.4973288205415757E-003   4.6866923226271395E-003   4.9474984443347941E-002
  -1.6762241177394679E-003   5.9294547806676423E-003   4.4692624484139687E-002
  -1.4910519268336083E-003   3.2142097145335113E-003   6.2796815830796840E-002
  -1.7170425706772810E-003   4.1900522524431771E-003   5.8425570276097669E-002
  -1.9430332145209464E-003   5.4619951730788818E-003   5.4021346808617213E-002
  -2.1690238583646328E-003   7.0300384764412083E-003   4.9584145428354820E-002
  -2.3950145022082706E-003   8.8941821625294626E-003   4.5113966135311351E-002
  -2.0548526145501567E-003   4.2856129495695283E-003   6.2414774805265583E-002
  -2.2997037373112400E-003   5.5867363328443442E-003   5.8369705441106756E-002
  -2.5445548600723095E-003   7.2826602264063067E-003   5.4319893031894828E-002
  -2.7894059828334015E-003   9.3733846302555754E-003   5.0265337577629327E-002
  -3.0342571055944623E-003   1.1858909544391505E-002   4.6206039078311001E-002
  -4.3865768401092332E-002   8.4171971535073609E-003  0.11792267115566180     
  -3.6835433238911600E-002   7.1548417519175511E-003   9.5932344858898899E-002
  -2.9805098076730843E-002   6.3167110496775702E-003   7.6344800942318214E-002
  -2.2774762914550085E-002   5.9028050467873211E-003   5.9160039405919629E-002
  -1.5744427752369339E-002   5.9131237432469286E-003   4.4378060249703200E-002
  -5.6315701670443301E-002   1.0790665070896821E-002  0.10937234097768145     
  -4.7139370402549050E-002   8.9270863223953056E-003   8.9599184835344126E-002
  -3.7963039134654819E-002   7.7118284891320860E-003   7.1715238524251462E-002
  -2.8786707866760547E-002   7.1448915711072973E-003   5.5720502044403819E-002
  -1.9610376598866310E-002   7.2262755683207835E-003   4.1614975395800780E-002
  -6.6827951318194079E-002   1.3164132988286337E-002  0.10010873934484529     
  -5.6019196493523701E-002   1.0699330892873060E-002   8.2776849572821956E-002
  -4.5210441668853352E-002   9.1069459285866849E-003   6.6820597083106184E-002
  -3.4401686844182995E-002   8.3869780954272180E-003   5.2239981875697672E-002
  -2.3592932019512621E-002   8.5394273933946940E-003   3.9035003950596683E-002
  -7.5402517344344680E-002   1.5537600905675825E-002   9.0131866257152846E-002
  -6.3474911511835611E-002   1.2471575463350815E-002   7.5465339071332238E-002
  -5.1547305679326451E-002   1.0502063368041270E-002   6.1660876618881637E-002
  -3.9619699846817347E-002   9.6290646197471665E-003   4.8718478899801174E-002
  -2.7692094014308263E-002   9.8525792184685768E-003   3.6638145914090675E-002
  -8.2039399748895153E-002   1.7911068823065313E-002   7.9441721714604563E-002
  -6.9506515457484666E-002   1.4243820033828569E-002   6.7664653330875124E-002
  -5.6973631166074207E-002   1.1897180807495814E-002   5.6236077131578438E-002
  -4.4440746874663734E-002   1.0871151144067077E-002   4.5155993116714407E-002
  -3.1907862583253246E-002   1.1165731043542459E-002   3.4424401286283046E-002
  -1.5744427752369339E-002   5.9131237432469286E-003   4.4378060249703200E-002
  -1.6727660751594372E-002   6.0694745726189436E-003   5.0050193021070777E-002
  -1.7710893750819391E-002   6.0936649684660976E-003   5.5418365778419298E-002
  -1.8694126750044417E-002   5.9856949307886577E-003   6.0482578521748778E-002
  -1.9677359749269444E-002   5.7455644595862387E-003   6.5242831251059286E-002
  -1.9610376598866310E-002   7.2262755683207835E-003   4.1614975395800780E-002
  -2.0874432098885235E-002   7.5304601833488943E-003   4.7026199049677239E-002
  -2.2138487598904168E-002   7.6319251187679932E-003   5.2179737715984956E-002
  -2.3402543098923062E-002   7.5306703745777366E-003   5.7075591394723908E-002
  -2.4666598598941998E-002   7.2266959507782946E-003   6.1713760085894132E-002
  -2.3592932019512621E-002   8.5394273933946940E-003   3.9035003950596683E-002
  -2.5091534993875123E-002   8.9914457940788867E-003   4.4114759240897625E-002
  -2.6590137968237650E-002   9.1701852690694932E-003   4.8983104570080031E-002
  -2.8088740942600148E-002   9.0756458183667028E-003   5.3640039938144188E-002
  -2.9587343916962681E-002   8.7078274419703783E-003   5.8085565345089726E-002
  -2.7692094014308263E-002   9.8525792184685768E-003   3.6638145914090675E-002
  -2.9378969436564047E-002   1.0452431404808886E-002   4.1315873594731781E-002
  -3.1065844858819840E-002   1.0708445419371080E-002   4.5828466340704775E-002
  -3.2752720281075599E-002   1.0620621262155697E-002   5.0175924152009742E-002
  -3.4439595703331410E-002   1.0188958933162420E-002   5.4358247028646417E-002
  -3.1907862583253246E-002   1.1165731043542459E-002   3.4424401286283046E-002
  -3.3736735426951978E-002   1.1913417015538774E-002   3.8629542111179943E-002
  -3.5565608270650730E-002   1.2246705569672875E-002   4.2715823027858979E-002
  -3.7394481114349468E-002   1.2165596705944717E-002   4.6683244036320348E-002
  -3.9223353958048213E-002   1.1670090424354518E-002   5.0531805136563857E-002
  -1.9677359749269444E-002   5.7455644595862387E-003   6.5242831251059286E-002
  -1.8773994970754666E-002   5.4266671767672081E-003   6.4983016228278401E-002
  -1.7870630192239882E-002   5.0823967042391421E-003   6.4955977848714125E-002
  -1.6967265413725091E-002   4.7127530420026063E-003   6.5161716112366277E-002
  -1.6063900635210321E-002   4.3177361900571531E-003   6.5600231019234734E-002
  -2.4666598598941998E-002   7.2266959507782946E-003   6.1713760085894132E-002
  -2.3536967125130544E-002   6.8108462771703515E-003   6.1492726641987128E-002
  -2.2407335651319044E-002   6.3739657835542723E-003   6.1491449945457050E-002
  -2.1277704177507552E-002   5.9160544699303659E-003   6.1709929996304008E-002
  -2.0148072703696080E-002   5.4371123362982332E-003   6.2148166794527837E-002
  -2.9587343916962681E-002   8.7078274419703783E-003   5.8085565345089726E-002
  -2.8244465643693976E-002   8.1950253775737170E-003   5.7907655849757281E-002
  -2.6901587370425268E-002   7.6655348628695205E-003   5.7936483205962251E-002
  -2.5558709097156573E-002   7.1193558978580717E-003   5.8172047413704728E-002
  -2.4215830823887858E-002   6.5564884825393688E-003   5.8614348472984690E-002
  -3.4439595703331410E-002   1.0188958933162420E-002   5.4358247028646417E-002
  -3.2896490526444971E-002   9.5792044779769991E-003   5.4227803851589013E-002
  -3.1353385349558532E-002   8.9571039421848762E-003   5.4291077630229695E-002
  -2.9810280172672076E-002   8.3226573257859718E-003   5.4548068364568374E-002
  -2.8267174995785672E-002   7.6758646287804766E-003   5.4998776054604986E-002
  -3.9223353958048213E-002   1.1670090424354518E-002   5.0531805136563857E-002
  -3.7493041773383529E-002   1.0963383578380281E-002   5.0453170647482448E-002
  -3.5762729588718858E-002   1.0248673021499885E-002   5.0555233218259471E-002
  -3.4032417404054174E-002   9.5259587537136169E-003   5.0837992848894994E-002
  -3.2302105219389504E-002   8.7952407750216399E-003   5.1301449539389143E-002
  -1.6063900635210321E-002   4.3177361900571531E-003   6.5600231019234734E-002
  -1.4881535166300298E-002   3.9292569200961580E-003   6.4061366187516233E-002
  -1.3699169697390289E-002   3.5792260038130519E-003   6.2819375893793661E-002
  -1.2516804228480265E-002   3.2676434412075711E-003   6.1874260138066906E-002
  -1.1334438759570256E-002   2.9945092322802846E-003   6.1226018920336300E-002
  -2.0148072703696080E-002   5.4371123362982332E-003   6.2148166794527837E-002
  -1.8676687019656930E-002   4.9717833589408567E-003   6.0661214331354102E-002
  -1.7205301335617727E-002   4.5547115141410383E-003   5.9455427760442797E-002
  -1.5733915651578546E-002   4.1858968018986357E-003   5.8530807081793951E-002
  -1.4262529967539371E-002   3.8653392222139926E-003   5.7887352295407313E-002
  -2.4215830823887858E-002   6.5564884825393688E-003   5.8614348472984690E-002
  -2.2471133570453085E-002   6.0143097977854998E-003   5.7189117157235472E-002
  -2.0726436317018315E-002   5.5301970244689136E-003   5.6029343088015188E-002
  -1.8981739063583556E-002   5.1041501625897004E-003   5.5135026265323767E-002
  -1.7237041810148779E-002   4.7361692121478116E-003   5.4506166689161001E-002
  -2.8267174995785672E-002   7.6758646287804766E-003   5.4998776054604986E-002
  -2.6264874818688892E-002   7.0568362366302262E-003   5.3645074665160233E-002
  -2.4262574641592084E-002   6.5056825347969555E-003   5.2541121876510742E-002
  -2.2260274464495296E-002   6.0224035232807095E-003   5.1686917688656436E-002
  -2.0257974287398488E-002   5.6069992020815196E-003   5.1082462101597330E-002
  -3.2302105219389504E-002   8.7952407750216399E-003   5.1301449539389143E-002
  -3.0057910764364246E-002   8.0993626754748971E-003   5.0029086855128357E-002
  -2.7813716309339015E-002   7.4811680451247337E-003   4.8990764125929370E-002
  -2.5569521854313770E-002   6.9406568839716527E-003   4.8186481351791918E-002
  -2.3325327399288526E-002   6.4778291920153386E-003   4.7616238532716459E-002
  -1.1334438759570256E-002   2.9945092322802846E-003   6.1226018920336300E-002
  -1.0513491169405219E-002   2.7370969138471590E-003   6.1785563943698607E-002
  -9.6925435792401746E-003   2.4726800227246881E-003   6.2548545112046827E-002
  -8.8715959890751268E-003   2.2012585589129205E-003   6.3514962425380961E-002
  -8.0506483989100930E-003   1.9228325224125431E-003   6.4684815883700897E-002
  -1.4262529967539371E-002   3.8653392222139926E-003   5.7887352295407313E-002
  -1.3247252595796698E-002   3.5591243541127637E-003   5.8378082179681268E-002
  -1.2231975224053986E-002   3.2333377766212701E-003   5.9054035482124734E-002
  -1.1216697852311311E-002   2.8879794897388456E-003   5.9915212202737517E-002
  -1.0201420480568605E-002   2.5230494934664893E-003   6.0961612341519755E-002
  -1.7237041810148779E-002   4.7361692121478116E-003   5.4506166689161001E-002
  -1.6045647383644914E-002   4.3811517943785905E-003   5.4915514297645240E-002
  -1.4854252957141078E-002   3.9939955305176439E-003   5.5491872597482547E-002
  -1.3662858530637229E-002   3.5747004205647741E-003   5.6235241588672651E-002
  -1.2471464104133377E-002   3.1232664645202135E-003   5.7145621271215918E-002
  -2.0257974287398488E-002   5.6069992020815196E-003   5.1082462101597330E-002
  -1.8908675532949976E-002   5.2031792346444172E-003   5.1397860297590803E-002
  -1.7559376778501418E-002   4.7546532844140663E-003   5.1862056458120517E-002
  -1.6210078024052867E-002   4.2614213513905343E-003   5.2475050583186772E-002
  -1.4860779269604347E-002   3.7234834355741042E-003   5.3236842672789546E-002
  -2.3325327399288526E-002   6.4778291920153386E-003   4.7616238532716459E-002
  -2.1836337043711768E-002   6.0252066749100219E-003   4.7825120179517400E-002
  -2.0347346688135037E-002   5.5153110383107107E-003   4.8164587064038367E-002
  -1.8858356332558300E-002   4.9481422822164334E-003   4.8634639186279388E-002
  -1.7369365976981549E-002   4.3237004066279949E-003   4.9235276546240381E-002
  -8.0506483989100930E-003   1.9228325224125431E-003   6.4684815883700897E-002
  -7.0723540878352906E-003   1.6986199529410717E-003   6.4434329929435097E-002
  -6.0940597767604708E-003   1.5898388902178262E-003   6.4445013735353773E-002
  -5.1157654656856580E-003   1.5964893342424527E-003   6.4716867301456760E-002
  -4.1374711546108486E-003   1.7185712850147361E-003   6.5249890627744223E-002
  -1.0201420480568605E-002   2.5230494934664893E-003   6.0961612341519755E-002
  -8.9612895631229136E-003   2.2073875910230134E-003   6.0709291393432785E-002
  -7.7211586456772067E-003   2.0098335856290894E-003   6.0719473897902998E-002
  -6.4810277282315214E-003   1.9303874772841831E-003   6.0992159854930700E-002
  -5.2408968107858084E-003   1.9690492659883985E-003   6.1527349264515752E-002
  -1.2471464104133377E-002   3.1232664645202135E-003   5.7145621271215918E-002
  -1.0968162887943878E-002   2.7161552291050106E-003   5.6894141719608854E-002
  -9.4648616717543689E-003   2.4298282810401167E-003   5.6906499312932193E-002
  -7.9615604555648561E-003   2.2642856203260210E-003   5.7182694051185763E-002
  -6.4582592393753607E-003   2.2195272469620608E-003   5.7722725934369640E-002
  -1.4860779269604347E-002   3.7234834355741042E-003   5.3236842672789546E-002
  -1.3092974062298104E-002   3.2249228671868135E-003   5.2988880907963741E-002
  -1.1325168854991897E-002   2.8498229764514840E-003   5.3006089980441345E-002
  -9.5573636476856856E-003   2.5981837633675276E-003   5.3288469890222026E-002
  -7.7895584403794467E-003   2.4700052279356677E-003   5.3836020637305922E-002
  -1.7369365976981549E-002   4.3237004066279949E-003   4.9235276546240381E-002
  -1.5335723086185693E-002   3.7336905052688385E-003   4.8993508958497411E-002
  -1.3302080195389837E-002   3.2698176718624627E-003   4.9018245900430357E-002
  -1.1268437304593974E-002   2.9320819064098252E-003   4.9309487372039496E-002
  -9.2347944137981253E-003   2.7204832089092745E-003   4.9867233373324771E-002
  -4.1374711546108486E-003   1.7185712850147361E-003   6.5249890627744223E-002
  -3.6168165195956739E-003   2.0138596671595010E-003   6.4366376395623703E-002
  -3.0961618845805026E-003   2.5401294052998236E-003   6.3599352347837146E-002
  -2.5755072495653349E-003   3.2973804994369041E-003   6.2948818484384245E-002
  -2.0548526145501567E-003   4.2856129495695283E-003   6.2414774805265583E-002
  -5.2408968107858084E-003   1.9690492659883985E-003   6.1527349264515752E-002
  -4.5779712293896983E-003   2.2289518458845081E-003   6.0833356542692563E-002
  -3.9150456479935987E-003   2.8132281111142576E-003   6.0307415529297415E-002
  -3.2521200665975025E-003   3.7218780616782507E-003   5.9949526224330058E-002
  -2.5891944852013890E-003   4.9549016975761750E-003   5.9759688627790908E-002
  -6.4582592393753607E-003   2.2195272469620608E-003   5.7722725934369640E-002
  -5.6015011875043142E-003   2.4440440246095152E-003   5.7311647052181919E-002
  -4.7447431356332573E-003   3.0863268169286778E-003   5.7120181402516221E-002
  -3.8879850837622116E-003   4.1463756239198159E-003   5.7148328985372469E-002
  -3.0312270318911556E-003   5.6241904455826552E-003   5.7396089800750644E-002
  -7.7895584403794467E-003   2.4700052279356677E-003   5.3836020637305922E-002
  -6.6874063939394469E-003   2.6591362033344113E-003   5.3801247924091446E-002
  -5.5852543474994350E-003   3.3594255227429939E-003   5.4037649967492968E-002
  -4.4831023010594214E-003   4.5708731861610497E-003   5.4545226767510391E-002
  -3.3809502546194238E-003   6.2934791935893297E-003   5.5323978324143604E-002
  -9.2347944137981253E-003   2.7204832089092745E-003   4.9867233373324771E-002
  -7.8356868486951503E-003   2.8742283820595849E-003   5.0302159158421511E-002
  -6.4365792835921753E-003   3.6325242285572823E-003   5.1059821224228086E-002
  -5.0374717184892073E-003   4.9953707484023877E-003   5.2140219570744689E-002
  -3.6383641533862254E-003   6.9627679415955601E-003   5.3543354197971071E-002
  -2.0548526145501567E-003   4.2856129495695283E-003   6.2414774805265583E-002
  -2.2997037373112400E-003   5.5867363328443442E-003   5.8369705441106756E-002
  -2.5445548600723095E-003   7.2826602264063067E-003   5.4319893031894828E-002
  -2.7894059828334015E-003   9.3733846302555754E-003   5.0265337577629327E-002
  -3.0342571055944623E-003   1.1858909544391505E-002   4.6206039078311001E-002
  -2.5891944852013890E-003   4.9549016975761750E-003   5.9759688627790908E-002
  -2.8560160697612344E-003   6.5777502326656578E-003   5.6214739482516263E-002
  -3.1228376543210902E-003   8.6558748808045483E-003   5.2630592458697500E-002
  -3.3896592388809321E-003   1.1189275641992957E-002   4.9007247556334316E-002
  -3.6564808234407567E-003   1.4177952516230441E-002   4.5344704775426514E-002
  -3.0312270318911556E-003   5.6241904455826552E-003   5.7396089800750644E-002
  -3.3544739117408896E-003   7.5687641324874155E-003   5.4411736477121941E-002
  -3.6777207915906366E-003   1.0029089535203248E-002   5.1353730441457981E-002
  -4.0009676714403471E-003   1.3005166653730676E-002   4.8222071693759021E-002
  -4.3242145512900898E-003   1.6496995488069377E-002   4.5016760234023900E-002
  -3.3809502546194238E-003   6.2934791935893297E-003   5.5323978324143604E-002
  -3.7950772632501413E-003   8.5597780323087291E-003   5.2960696424923681E-002
  -4.2092042718809008E-003   1.1402304189601829E-002   5.0489306980177270E-002
  -4.6233312805116743E-003   1.4821057665468670E-002   4.7909809989904358E-002
  -5.0374582891424069E-003   1.8816038459908313E-002   4.5222205454104769E-002
  -3.6383641533862254E-003   6.9627679415955601E-003   5.3543354197971071E-002
  -4.1778261242891163E-003   9.5507919321303758E-003   5.1861619325921704E-002
  -4.7172880951919932E-003   1.2775518844000189E-002   5.0037322074854451E-002
  -5.2567500660948979E-003   1.6636948677205998E-002   4.8070462444769479E-002
  -5.7962120369977610E-003   2.1135081431747249E-002   4.5961040435666511E-002
  -8.2039399748895153E-002   1.7911068823065313E-002   7.9441721714604563E-002
  -6.9506515457484666E-002   1.4243820033828569E-002   6.7664653330875124E-002
  -5.6973631166074207E-002   1.1897180807495814E-002   5.6236077131578438E-002
  -4.4440746874663734E-002   1.0871151144067077E-002   4.5155993116714407E-002
  -3.1907862583253246E-002   1.1165731043542459E-002   3.4424401286283046E-002
  -8.9817049127769888E-002   1.9553738036887147E-002   7.9441878699058388E-002
  -7.6381612156210976E-002   1.6172611057829189E-002   6.5246961303409012E-002
  -6.2946175184651940E-002   1.3965490641093148E-002   5.2508657083623955E-002
  -4.9510738213092972E-002   1.2932376786678648E-002   4.1226966039703175E-002
  -3.6075301241533957E-002   1.3073269494586259E-002   3.1401888171646714E-002
 -0.10181391607689354        2.1196407250708954E-002   7.9801458993982125E-002
  -8.6367805433754288E-002   1.8101402081829837E-002   6.3042089585830463E-002
  -7.0921694790615220E-002   1.6033800474690392E-002   4.8847454344974846E-002
  -5.5475584147476040E-002   1.4993602429290357E-002   3.7217553271415127E-002
  -4.0029473504336902E-002   1.4980807945630059E-002   2.8152386365151397E-002
 -0.11803000059626562        2.2839076464530775E-002   8.0520462599375897E-002
  -9.9465095290114783E-002   2.0030193105830443E-002   6.1050038178139754E-002
  -8.0900189983963811E-002   1.8102110308287598E-002   4.5252468915631318E-002
  -6.2335284677812901E-002   1.7054828071901996E-002   3.3127754811850561E-002
  -4.3770379371661970E-002   1.6888346396673831E-002   2.4675895866797120E-002
 -0.13846530268588658        2.4481745678352596E-002   8.1598889515239525E-002
 -0.11567348172529224        2.1958984129831050E-002   5.9270807080336774E-002
  -9.2881660764697921E-002   2.0170420141884970E-002   4.1723700795593233E-002
  -7.0089839804103618E-002   1.9116053714513595E-002   2.8957570661009013E-002
  -4.7298018843509260E-002   1.8795884847717659E-002   2.0972416676584005E-002
  -3.1907862583253246E-002   1.1165731043542459E-002   3.4424401286283046E-002
  -3.3736735426951978E-002   1.1913417015538774E-002   3.8629542111179943E-002
  -3.5565608270650730E-002   1.2246705569672875E-002   4.2715823027858979E-002
  -3.7394481114349468E-002   1.2165596705944717E-002   4.6683244036320348E-002
  -3.9223353958048213E-002   1.1670090424354518E-002   5.0531805136563857E-002
  -3.6075301241533957E-002   1.3073269494586259E-002   3.1401888171646714E-002
  -3.8066857930096294E-002   1.3619219356939702E-002   3.5387326619729528E-002
  -4.0058414618658611E-002   1.3801276965862766E-002   3.9166257286302963E-002
  -4.2049971307220935E-002   1.3619442321356038E-002   4.2738680171367074E-002
  -4.4041527995783210E-002   1.3073715423418897E-002   4.6104595274921889E-002
  -4.0029473504336902E-002   1.4980807945630059E-002   2.8152386365151397E-002
  -4.2271361911054357E-002   1.5325021698340519E-002   3.1968627600852229E-002
  -4.4513250317771785E-002   1.5355848362052830E-002   3.5490713181752030E-002
  -4.6755138724489248E-002   1.5073287936767139E-002   3.8718643107850989E-002
  -4.8997027131206669E-002   1.4477340422483331E-002   4.1652417379149029E-002
  -4.3770379371661970E-002   1.6888346396673831E-002   2.4675895866797120E-002
  -4.6350247369826118E-002   1.7030824039741335E-002   2.8373445054547971E-002
  -4.8930115367990246E-002   1.6910419758242808E-002   3.1689190714206318E-002
  -5.1509983366154394E-002   1.6527133552178296E-002   3.4623132845772085E-002
  -5.4089851364318466E-002   1.5880965421547766E-002   3.7175271449245623E-002
  -4.7298018843509260E-002   1.8795884847717659E-002   2.0972416676584005E-002
  -5.0303514306411612E-002   1.8736626381142318E-002   2.4601778980816807E-002
  -5.3309009769313992E-002   1.8464991154432869E-002   2.7761689883665730E-002
  -5.6314505232216358E-002   1.7980979167589443E-002   3.0452149385130578E-002
  -5.9320000695118724E-002   1.7284590420612145E-002   3.2673157485211324E-002
  -3.9223353958048213E-002   1.1670090424354518E-002   5.0531805136563857E-002
  -3.7493041773383529E-002   1.0963383578380281E-002   5.0453170647482448E-002
  -3.5762729588718858E-002   1.0248673021499885E-002   5.0555233218259471E-002
  -3.4032417404054174E-002   9.5259587537136169E-003   5.0837992848894994E-002
  -3.2302105219389504E-002   8.7952407750216399E-003   5.1301449539389143E-002
  -4.4041527995783210E-002   1.3073715423418897E-002   4.6104595274921889E-002
  -4.2128385631641702E-002   1.2340674315817451E-002   4.5881398869367901E-002
  -4.0215243267500214E-002   1.1596897042317048E-002   4.5843165762909172E-002
  -3.8302100903358727E-002   1.0842383602917786E-002   4.5989895955545590E-002
  -3.6388958539217225E-002   1.0077133997619558E-002   4.6321589447277212E-002
  -4.8997027131206669E-002   1.4477340422483331E-002   4.1652417379149029E-002
  -4.6896788348351683E-002   1.3717965053254538E-002   4.1281926602129732E-002
  -4.4796549565496599E-002   1.2945121063134106E-002   4.1100665363442250E-002
  -4.2696310782641619E-002   1.2158808452121623E-002   4.1108633663086647E-002
  -4.0596071999786529E-002   1.1359027220217449E-002   4.1305831501062887E-002
  -5.4089851364318466E-002   1.5880965421547766E-002   3.7175271449245623E-002
  -5.1798249923513270E-002   1.5095255790691806E-002   3.6654753845767898E-002
  -4.9506648482708054E-002   1.4293345083951022E-002   3.6327732019858699E-002
  -4.7215047041902831E-002   1.3475233301325516E-002   3.6194205971518144E-002
  -4.4923445601097636E-002   1.2640920442815354E-002   3.6254175700746030E-002
  -5.9320000695118724E-002   1.7284590420612145E-002   3.2673157485211324E-002
  -5.6832770357126611E-002   1.6472546528128851E-002   3.1999880600282360E-002
  -5.4345540019134525E-002   1.5641569104768271E-002   3.1524365732158555E-002
  -5.1858309681142453E-002   1.4791658150529449E-002   3.1246612880840061E-002
  -4.9371079343150326E-002   1.3922813665413258E-002   3.1166622046326697E-002
  -3.2302105219389504E-002   8.7952407750216399E-003   5.1301449539389143E-002
  -3.0057910764364246E-002   8.0993626754748971E-003   5.0029086855128357E-002
  -2.7813716309339015E-002   7.4811680451247337E-003   4.8990764125929370E-002
  -2.5569521854313770E-002   6.9406568839716527E-003   4.8186481351791918E-002
  -2.3325327399288526E-002   6.4778291920153386E-003   4.7616238532716459E-002
  -3.6388958539217225E-002   1.0077133997619558E-002   4.6321589447277212E-002
  -3.3906620181102957E-002   9.3426119686159659E-003   4.5008007964144447E-002
  -3.1424281822988724E-002   8.6802812580997479E-003   4.3936674332128028E-002
  -2.8941943464874508E-002   8.0901418660719940E-003   4.3107588551227816E-002
  -2.6459605106760278E-002   7.5721937925316007E-003   4.2520750621444114E-002
  -4.0596071999786529E-002   1.1359027220217449E-002   4.1305831501062887E-002
  -3.7867381842528677E-002   1.0585861261756785E-002   3.9945539068349106E-002
  -3.5138691685270874E-002   9.8793944710747553E-003   3.8835702382806210E-002
  -3.2410001528013044E-002   9.2396268481719449E-003   3.7976321444434330E-002
  -2.9681311370755227E-002   8.6665583930477519E-003   3.7367396253233348E-002
  -4.4923445601097636E-002   1.2640920442815354E-002   3.6254175700746030E-002
  -4.1940195748641482E-002   1.1829110554897673E-002   3.4841680167742299E-002
  -3.8956945896185438E-002   1.1078507684049822E-002   3.3687848277964068E-002
  -3.5973696043729381E-002   1.0389111830271813E-002   3.2792680031411302E-002
  -3.2990446191273302E-002   9.7609229935638475E-003   3.2156175428084216E-002
  -4.9371079343150326E-002   1.3922813665413258E-002   3.1166622046326697E-002
  -4.6125061899441350E-002   1.3072359848038673E-002   2.9696431262323908E-002
  -4.2879044455732429E-002   1.2277620897024610E-002   2.8493112017601296E-002
  -3.9633027012023481E-002   1.1538596812372112E-002   2.7556664312159029E-002
  -3.6387009568314532E-002   1.0855287594080165E-002   2.6887088145996829E-002
  -2.3325327399288526E-002   6.4778291920153386E-003   4.7616238532716459E-002
  -2.1836337043711768E-002   6.0252066749100219E-003   4.7825120179517400E-002
  -2.0347346688135037E-002   5.5153110383107107E-003   4.8164587064038367E-002
  -1.8858356332558300E-002   4.9481422822164334E-003   4.8634639186279388E-002
  -1.7369365976981549E-002   4.3237004066279949E-003   4.9235276546240381E-002
  -2.6459605106760278E-002   7.5721937925316007E-003   4.2520750621444114E-002
  -2.4841652104826216E-002   7.0668145849525632E-003   4.2588417767329578E-002
  -2.3223699102892112E-002   6.5143817908085155E-003   4.2783424968209693E-002
  -2.1605746100958025E-002   5.9148954100990345E-003   4.3105772224084515E-002
  -1.9987793099023946E-002   5.2683554428244461E-003   4.3555459534954211E-002
  -2.9681311370755227E-002   8.6665583930477519E-003   3.7367396253233348E-002
  -2.7937640905188986E-002   8.1084224949948824E-003   3.7304068431132292E-002
  -2.6193970439622811E-002   7.5134525433063204E-003   3.7364835481300845E-002
  -2.4450299974056594E-002   6.8816485379814690E-003   3.7549697403739021E-002
  -2.2706629508490450E-002   6.2130104790208418E-003   3.7858654198446418E-002
  -3.2990446191273302E-002   9.7609229935638475E-003   3.2156175428084216E-002
  -3.1124303444800244E-002   9.1500304050372572E-003   3.1972072170926312E-002
  -2.9258160698327165E-002   8.5125232958042363E-003   3.1908818603312350E-002
  -2.7392017951854138E-002   7.8484016658639869E-003   3.1966414725242719E-002
  -2.5525875205381091E-002   7.1576655152171542E-003   3.2144860536717404E-002
  -3.6387009568314532E-002   1.0855287594080165E-002   2.6887088145996829E-002
  -3.4401639723659783E-002   1.0191638315079743E-002   2.6592428986710770E-002
  -3.2416269879005172E-002   9.5115940483019856E-003   2.6415374334243624E-002
  -3.0430900034350492E-002   8.8151547937466296E-003   2.6355924188595614E-002
  -2.8445530189695839E-002   8.1023205514136887E-003   2.6414078549766629E-002
  -1.7369365976981549E-002   4.3237004066279949E-003   4.9235276546240381E-002
  -1.5335723086185693E-002   3.7336905052688385E-003   4.8993508958497411E-002
  -1.3302080195389837E-002   3.2698176718624627E-003   4.9018245900430357E-002
  -1.1268437304593974E-002   2.9320819064098252E-003   4.9309487372039496E-002
  -9.2347944137981253E-003   2.7204832089092745E-003   4.9867233373324771E-002
  -1.9987793099023946E-002   5.2683554428244461E-003   4.3555459534954211E-002
  -1.7727405557571588E-002   4.6394556147656973E-003   4.3277758247242282E-002
  -1.5467018016119237E-002   4.0928896517033464E-003   4.3187041731167275E-002
  -1.3206630474666886E-002   3.6286575536381288E-003   4.3283309986729135E-002
  -1.0946242933214528E-002   3.2467593205692813E-003   4.3566563013927972E-002
  -2.2706629508490450E-002   6.2130104790208418E-003   3.7858654198446418E-002
  -2.0299017074420798E-002   5.5452207242622786E-003   3.7501216007809479E-002
  -1.7891404640351143E-002   4.9159616315443133E-003   3.7251242830770109E-002
  -1.5483792206281500E-002   4.3252332008666475E-003   3.7108734667328697E-002
  -1.3076179772211892E-002   3.7730354322295656E-003   3.7073691517484603E-002
  -2.5525875205381091E-002   7.1576655152171542E-003   3.2144860536717404E-002
  -2.3050557636733339E-002   6.4509858337591097E-003   3.1663882240199018E-002
  -2.0575240068085584E-002   5.7390336113852386E-003   3.1210849199238958E-002
  -1.8099922499437829E-002   5.0218088480955027E-003   3.0785761413837338E-002
  -1.5624604930790075E-002   4.2993115438897112E-003   3.0388618883994516E-002
  -2.8445530189695839E-002   8.1023205514136887E-003   2.6414078549766629E-002
  -2.5982027244509182E-002   7.3567509432557188E-003   2.5765756944410523E-002
  -2.3518524299322538E-002   6.5621055912261639E-003   2.5065860836573695E-002
  -2.1055021354135887E-002   5.7183844953239138E-003   2.4314390226256116E-002
  -1.8591518408949237E-002   4.8255876555497457E-003   2.3511345113457760E-002
  -9.2347944137981253E-003   2.7204832089092745E-003   4.9867233373324771E-002
  -7.8356868486951503E-003   2.8742283820595849E-003   5.0302159158421511E-002
  -6.4365792835921753E-003   3.6325242285572823E-003   5.1059821224228086E-002
  -5.0374717184892073E-003   4.9953707484023877E-003   5.2140219570744689E-002
  -3.6383641533862254E-003   6.9627679415955601E-003   5.3543354197971071E-002
  -1.0946242933214528E-002   3.2467593205692813E-003   4.3566563013927972E-002
  -9.2052025298888784E-003   3.1797661597542382E-003   4.4178210513385441E-002
  -7.4641621265632216E-003   3.6602492784492957E-003   4.5150987408578119E-002
  -5.7231217232375196E-003   4.6882086766545580E-003   4.6484893699506410E-002
  -3.9820813199118593E-003   6.2636443543697684E-003   4.8179929386169884E-002
  -1.3076179772211892E-002   3.7730354322295656E-003   3.7073691517484603E-002
  -1.0954813415638046E-002   3.4853039374489747E-003   3.7804986337465291E-002
  -8.8334470590642547E-003   3.6879743283414340E-003   3.8935803668206856E-002
  -6.7120807024904101E-003   4.3810466049063988E-003   4.0466143509709250E-002
  -4.5907143459166175E-003   5.5645207671440877E-003   4.2396005861972563E-002
  -1.5624604930790075E-002   4.2993115438897112E-003   3.0388618883994516E-002
  -1.3084519505942669E-002   3.7908417151437807E-003   3.1182486630661053E-002
  -1.0544434081095316E-002   3.7156993782333989E-003   3.2414270003113810E-002
  -8.0043486562479393E-003   4.0738845331580713E-003   3.4083969001353145E-002
  -5.4642632314005606E-003   4.8653971799183515E-003   3.6191583625378360E-002
  -1.8591518408949237E-002   4.8255876555497457E-003   2.3511345113457760E-002
  -1.5594320800802836E-002   4.0963794928384756E-003   2.4310711392973028E-002
  -1.2597123192656406E-002   3.7434244281256412E-003   2.5586386413299467E-002
  -9.5999255845099496E-003   3.7667224614102018E-003   2.7338370174438187E-002
  -6.6027279763635760E-003   4.1662735926925043E-003   2.9566662676388522E-002
  -3.6383641533862254E-003   6.9627679415955601E-003   5.3543354197971071E-002
  -4.1778261242891163E-003   9.5507919321303758E-003   5.1861619325921704E-002
  -4.7172880951919932E-003   1.2775518844000189E-002   5.0037322074854451E-002
  -5.2567500660948979E-003   1.6636948677205998E-002   4.8070462444769479E-002
  -5.7962120369977610E-003   2.1135081431747249E-002   4.5961040435666511E-002
  -3.9820813199118593E-003   6.2636443543697684E-003   4.8179929386169884E-002
  -4.5614024681033677E-003   8.6985341358404300E-003   4.7240049281038143E-002
  -5.1407236162948275E-003   1.2304855845311269E-002   4.6363013200346970E-002
  -5.7200447644864087E-003   1.7082609482782590E-002   4.5548821144096363E-002
  -6.2993659126777402E-003   2.3031795048253700E-002   4.4797473112285768E-002
  -4.5907143459166175E-003   5.5645207671440877E-003   4.2396005861972563E-002
  -5.0044882679385443E-003   7.8462763395507618E-003   4.2732709530423046E-002
  -5.4182621899604398E-003   1.1834192846622127E-002   4.3337663626772327E-002
  -5.8320361119823423E-003   1.7528270288358683E-002   4.4210868151020336E-002
  -6.2458100340043177E-003   2.4928508664759930E-002   4.5352323103166947E-002
  -5.4642632314005606E-003   4.8653971799183515E-003   3.6191583625378360E-002
  -5.5070835237947266E-003   6.9940185432610658E-003   3.8339600074076302E-002
  -5.5499038161889499E-003   1.1363529847933540E-002   4.0961273354131050E-002
  -5.5927241085831888E-003   1.7973931093934803E-002   4.4056603465542445E-002
  -5.6355444009772299E-003   2.6825222281266270E-002   4.7625590408310797E-002
  -6.6027279763635760E-003   4.1662735926925043E-003   2.9566662676388522E-002
  -6.0691882356718740E-003   6.1417607469714808E-003   3.4060720911997966E-002
  -5.5356484949801721E-003   1.0892866849243982E-002   3.9233842382422834E-002
  -5.0021087542885256E-003   1.8419591899511235E-002   4.5086027087662212E-002
  -4.4685690135968237E-003   2.8721935897772610E-002   5.1617275027717291E-002
 -0.13846530268588658        2.4481745678352596E-002   8.1598889515239525E-002
 -0.11567348172529224        2.1958984129831050E-002   5.9270807080336774E-002
  -9.2881660764697921E-002   2.0170420141884970E-002   4.1723700795593233E-002
  -7.0089839804103618E-002   1.9116053714513595E-002   2.8957570661009013E-002
  -4.7298018843509260E-002   1.8795884847717659E-002   2.0972416676584005E-002
 -0.15427416678420880        2.6434305869631691E-002   4.3395793457911502E-002
 -0.12843219826138799        2.3652418601689956E-002   3.3583527397507196E-002
 -0.10259022973856699        2.1685436592342608E-002   2.5090580311396632E-002
  -7.6748261215746100E-002   2.0533359841589906E-002   1.7916952199579936E-002
  -5.0906292692925237E-002   2.0196188349431460E-002   1.2062643062057232E-002
 -0.15661093732968484        2.8386866060910787E-002   4.8932178321536568E-003
 -0.13118047842050268        2.5345853073548724E-002   7.6774758442669511E-003
 -0.10575001951132060        2.3200453042800578E-002   8.3193956548087422E-003
  -8.0319560602138490E-002   2.1950665968665996E-002   6.8189772637789262E-003
  -5.4889101692956410E-002   2.1596491851145205E-002   3.1762206711778151E-003
 -0.14547561432231451        3.0339426252189827E-002  -3.3908837362034192E-002
 -0.12391832220263659        2.7039287545407617E-002  -1.8447347579383867E-002
 -0.10236103008295877        2.4715469493258299E-002  -8.5898531741706655E-003
  -8.0803737963280831E-002   2.3367972095742002E-002  -4.3363541463940008E-003
  -5.9246445843602849E-002   2.2996795352858840E-002  -5.6868504960543784E-003
 -0.12086819776209801        3.2291986443468979E-002  -7.3010372124652001E-002
 -0.10664572960778962        2.8732722017266288E-002  -4.4790942873445427E-002
  -9.2423261453481231E-002   2.6230485943716020E-002  -2.5637166175541126E-002
  -7.8200793299172899E-002   2.4785278222818313E-002  -1.5549042030939181E-002
  -6.3978325144864567E-002   2.4397098854572752E-002  -1.4526570439639119E-002
  -4.7298018843509260E-002   1.8795884847717659E-002   2.0972416676584005E-002
  -5.0303514306411612E-002   1.8736626381142318E-002   2.4601778980816807E-002
  -5.3309009769313992E-002   1.8464991154432869E-002   2.7761689883665730E-002
  -5.6314505232216358E-002   1.7980979167589443E-002   3.0452149385130578E-002
  -5.9320000695118724E-002   1.7284590420612145E-002   3.2673157485211324E-002
  -5.0906292692925237E-002   2.0196188349431460E-002   1.2062643062057232E-002
  -5.4283739320579422E-002   2.0148933840659008E-002   1.5191246426328783E-002
  -5.7661185948233523E-002   1.9866608040063828E-002   1.8045398862480896E-002
  -6.1038632575887652E-002   1.9349210947646155E-002   2.0625100370513350E-002
  -6.4416079203541796E-002   1.8596742563405821E-002   2.2930350950426309E-002
  -5.4889101692956410E-002   2.1596491851145205E-002   3.1762206711778151E-003
  -5.8443499012097874E-002   2.1561241300175699E-002   5.7813705637994109E-003
  -6.1997896331239345E-002   2.1268224925694953E-002   8.3070700015659069E-003
  -6.5552293650380761E-002   2.0717442727702814E-002   1.0753318984477282E-002
  -6.9106690969522225E-002   1.9908894706199387E-002   1.3120117512533808E-002
  -5.9246445843602849E-002   2.2996795352858840E-002  -5.6868504960543784E-003
  -6.2782793380967192E-002   2.2973548759692444E-002  -3.6278486067713982E-003
  -6.6319140918331451E-002   2.2669841811325885E-002  -1.4532966990788709E-003
  -6.9855488455695752E-002   2.2085674507759556E-002   8.3680522702279849E-004
  -7.3391835993060026E-002   2.1221046848992953E-002   3.2424571715339717E-003
  -6.3978325144864567E-002   2.4397098854572752E-002  -1.4526570439639119E-002
  -6.7301622427187235E-002   2.4385856219208968E-002  -1.3036411085383559E-002
  -7.0624919709509848E-002   2.4071458696957093E-002  -1.1235701239453721E-002
  -7.3948216991832516E-002   2.3453906287815976E-002  -9.1244409018506056E-003
  -7.7271514274155129E-002   2.2533198991786740E-002  -6.7026300725732124E-003
  -5.9320000695118724E-002   1.7284590420612145E-002   3.2673157485211324E-002
  -5.6832770357126611E-002   1.6472546528128851E-002   3.1999880600282360E-002
  -5.4345540019134525E-002   1.5641569104768271E-002   3.1524365732158555E-002
  -5.1858309681142453E-002   1.4791658150529449E-002   3.1246612880840061E-002
  -4.9371079343150326E-002   1.3922813665413258E-002   3.1166622046326697E-002
  -6.4416079203541796E-002   1.8596742563405821E-002   2.2930350950426309E-002
  -6.1735430604230979E-002   1.7728280572352234E-002   2.2650272326112553E-002
  -5.9054782004920085E-002   1.6862902659494541E-002   2.2559268207631267E-002
  -5.6374133405609247E-002   1.6000608824832788E-002   2.2657338594982132E-002
  -5.3693484806298430E-002   1.5141399068367090E-002   2.2944483488165357E-002
  -6.9106690969522225E-002   1.9908894706199387E-002   1.3120117512533808E-002
  -6.6241311619865587E-002   1.8984014616575312E-002   1.3255254757909160E-002
  -6.3375932270208879E-002   1.8084236214220756E-002   1.3570778998143969E-002
  -6.0510552920552185E-002   1.7209559499135961E-002   1.4066690233238109E-002
  -5.7645173570895519E-002   1.6359984471320921E-002   1.4742988463191609E-002
  -7.3391835993060026E-002   2.1221046848992953E-002   3.2424571715339717E-003
  -7.0350413404030393E-002   2.0239748660798543E-002   3.8148278956721543E-003
  -6.7308990815000871E-002   1.9305569768947220E-002   4.5588981036967478E-003
  -6.4267568225971280E-002   1.8418510173439272E-002   5.4746677956077211E-003
  -6.1226145636941738E-002   1.7578569874274752E-002   6.5621369714048972E-003
  -7.7271514274155129E-002   2.2533198991786740E-002  -6.7026300725732124E-003
  -7.4062735956725634E-002   2.1495482705021718E-002  -5.6710082605986867E-003
  -7.0853957639296028E-002   2.0526903323673462E-002  -4.4763744757105872E-003
  -6.7645179321866505E-002   1.9627460847742417E-002  -3.1187287179091361E-003
  -6.4436401004436927E-002   1.8797155277228583E-002  -1.5980709871936671E-003
  -4.9371079343150326E-002   1.3922813665413258E-002   3.1166622046326697E-002
  -4.6125061899441350E-002   1.3072359848038673E-002   2.9696431262323908E-002
  -4.2879044455732429E-002   1.2277620897024610E-002   2.8493112017601296E-002
  -3.9633027012023481E-002   1.1538596812372112E-002   2.7556664312159029E-002
  -3.6387009568314532E-002   1.0855287594080165E-002   2.6887088145996829E-002
  -5.3693484806298430E-002   1.5141399068367090E-002   2.2944483488165357E-002
  -5.0201493992380289E-002   1.4299486327963434E-002   2.1867723643786946E-002
  -4.6709503178462161E-002   1.3489083541487437E-002   2.1016039000546632E-002
  -4.3217512364544089E-002   1.2710190708939074E-002   2.0389429558444472E-002
  -3.9725521550625947E-002   1.1962807830318611E-002   1.9987895317480575E-002
  -5.7645173570895519E-002   1.6359984471320921E-002   1.4742988463191609E-002
  -5.3949005724910272E-002   1.5526612807888029E-002   1.4035454646004322E-002
  -5.0252837878925025E-002   1.4700546185949875E-002   1.3511199691813011E-002
  -4.6556670032939791E-002   1.3881784605506202E-002   1.3170223600617995E-002
  -4.2860502186954530E-002   1.3070328066557280E-002   1.3012526372418842E-002
  -6.1226145636941738E-002   1.7578569874274752E-002   6.5621369714048972E-003
  -5.7367597097031382E-002   1.6753739287812985E-002   6.1996242689759500E-003
  -5.3509048557120978E-002   1.5912008830412286E-002   5.9785940914005853E-003
  -4.9650500017210594E-002   1.5053378502073469E-002   5.8990464386795855E-003
  -4.5791951477300211E-002   1.4177848302795615E-002   5.9609813108124840E-003
  -6.4436401004436927E-002   1.8797155277228583E-002  -1.5980709871936671E-003
  -6.0457268108743523E-002   1.7980865767737830E-002  -1.6397674872982160E-003
  -5.6478135213050062E-002   1.7123471474874863E-002  -1.5817778006903538E-003
  -5.2499002317356630E-002   1.6224972398640167E-002  -1.4241019273709687E-003
  -4.8519869421663198E-002   1.5285368539034616E-002  -1.1667398673390617E-003
  -3.6387009568314532E-002   1.0855287594080165E-002   2.6887088145996829E-002
  -3.4401639723659783E-002   1.0191638315079743E-002   2.6592428986710770E-002
  -3.2416269879005172E-002   9.5115940483019856E-003   2.6415374334243624E-002
  -3.0430900034350492E-002   8.8151547937466296E-003   2.6355924188595614E-002
  -2.8445530189695839E-002   8.1023205514136887E-003   2.6414078549766629E-002
  -3.9725521550625947E-002   1.1962807830318611E-002   1.9987895317480575E-002
  -3.7647126508501050E-002   1.1231580111339456E-002   1.9864390883616911E-002
  -3.5568731466376124E-002   1.0501152757714502E-002   1.9809332337874797E-002
  -3.3490336424251213E-002   9.7715257694439388E-003   1.9822719680254175E-002
  -3.1411941382126357E-002   9.0426991465279993E-003   1.9904552910754880E-002
  -4.2860502186954530E-002   1.3070328066557280E-002   1.3012526372418842E-002
  -4.0738240566056932E-002   1.2271521907598948E-002   1.3077372017109942E-002
  -3.8615978945159446E-002   1.1490711467127018E-002   1.3161504931224782E-002
  -3.6493717324261904E-002   1.0727896745141470E-002   1.3264925114763584E-002
  -3.4371455703364355E-002   9.9830777416424210E-003   1.3387632567726182E-002
  -4.5791951477300211E-002   1.4177848302795615E-002   5.9609813108124840E-003
  -4.3674981896327576E-002   1.3311463703858328E-002   6.2313723871901643E-003
  -4.1558012315354942E-002   1.2480270176539757E-002   6.4718921142938521E-003
  -3.9441042734382377E-002   1.1684267720839223E-002   6.6825404921239291E-003
  -3.7324073153409673E-002   1.0923456336757009E-002   6.8633175206801941E-003
  -4.8519869421663198E-002   1.5285368539034616E-002  -1.1667398673390617E-003
  -4.6457350499312988E-002   1.4351405500118375E-002  -6.7360800614318928E-004
  -4.4394831576962834E-002   1.3469828885952106E-002  -2.5950611291819525E-004
  -4.2332312654612653E-002   1.2640638696536213E-002   7.5565812335323668E-005
  -4.0269793732262471E-002   1.1863834931871153E-002   3.3160776961760341E-004
  -2.8445530189695839E-002   8.1023205514136887E-003   2.6414078549766629E-002
  -2.5982027244509182E-002   7.3567509432557188E-003   2.5765756944410523E-002
  -2.3518524299322538E-002   6.5621055912261639E-003   2.5065860836573695E-002
  -2.1055021354135887E-002   5.7183844953239138E-003   2.4314390226256116E-002
  -1.8591518408949237E-002   4.8255876555497457E-003   2.3511345113457760E-002
  -3.1411941382126357E-002   9.0426991465279993E-003   1.9904552910754880E-002
  -2.8980852173523211E-002   8.3081989758663766E-003   1.9251677340129447E-002
  -2.6549762964920037E-002   7.5615513443580973E-003   1.8585548798817630E-002
  -2.4118673756316912E-002   6.8027562520042717E-003   1.7906167286819430E-002
  -2.1687584547713717E-002   6.0318136988040116E-003   1.7213532804135179E-002
  -3.4371455703364355E-002   9.9830777416424210E-003   1.3387632567726182E-002
  -3.1934458699550229E-002   9.2596470084767013E-003   1.2767131314857239E-002
  -2.9497461695736162E-002   8.5609970974906968E-003   1.2171698623096541E-002
  -2.7060464691922068E-002   7.8871280086842965E-003   1.1601334492443667E-002
  -2.4623467688107969E-002   7.2380397420578890E-003   1.1056038922899109E-002
  -3.7324073153409673E-002   1.0923456336757009E-002   6.8633175206801941E-003
  -3.4842846822590319E-002   1.0211095041086860E-002   6.3121188685937996E-003
  -3.2361620491770916E-002   9.5604428506230743E-003   5.8243103094101911E-003
  -2.9880394160951496E-002   8.9714997653640438E-003   5.3998918431284841E-003
  -2.7399167830132160E-002   8.4442657853116276E-003   5.0388634697499449E-003
  -4.0269793732262471E-002   1.1863834931871153E-002   3.3160776961760341E-004
  -3.7706016542643384E-002   1.1162543073697462E-002  -1.1335999866046720E-004
  -3.5142239353024241E-002   1.0559888603755008E-002  -4.5661614224154490E-004
  -3.2578462163405097E-002   1.0055871522044513E-002  -6.9816066112545622E-004
  -3.0014684973786010E-002   9.6504918285658103E-003  -8.3799355531244402E-004
  -1.8591518408949237E-002   4.8255876555497457E-003   2.3511345113457760E-002
  -1.5594320800802836E-002   4.0963794928384756E-003   2.4310711392973028E-002
  -1.2597123192656406E-002   3.7434244281256412E-003   2.5586386413299467E-002
  -9.5999255845099496E-003   3.7667224614102018E-003   2.7338370174438187E-002
  -6.6027279763635760E-003   4.1662735926925043E-003   2.9566662676388522E-002
  -2.1687584547713717E-002   6.0318136988040116E-003   1.7213532804135179E-002
  -1.8486533683125500E-002   5.3495678415733661E-003   1.8183523573042260E-002
  -1.5285482818537172E-002   4.8568628371286615E-003   1.9084912114021579E-002
  -1.2084431953948871E-002   4.5536986854698563E-003   1.9917698427072777E-002
  -8.8833810893606258E-003   4.4400753865974085E-003   2.0681882512196048E-002
  -2.4623467688107969E-002   7.2380397420578890E-003   1.1056038922899109E-002
  -2.1763474535817617E-002   6.6027561903078680E-003   1.2009941935986423E-002
  -1.8903481383527224E-002   5.9703012461320981E-003   1.2350331752406352E-002
  -1.6043488231236802E-002   5.3406749095298370E-003   1.2077208372158171E-002
  -1.3183495078946422E-002   4.7138771805019242E-003   1.1190571795242549E-002
  -2.7399167830132160E-002   8.4442657853116276E-003   5.0388634697499449E-003
  -2.5425143358879340E-002   7.8559445390425087E-003   5.7899664818053670E-003
  -2.3451118887626576E-002   7.0837396551352155E-003   5.3826453284533463E-003
  -2.1477094416373764E-002   6.1276511335896545E-003   3.8169000096941533E-003
  -1.9503069945121000E-002   4.9876789744064121E-003   1.0927305255274064E-003
  -3.0014684973786010E-002   9.6504918285658103E-003  -8.3799355531244402E-004
  -2.9471540152310571E-002   9.1091328877772604E-003  -4.7640278950084047E-004
  -2.8928395330835188E-002   8.1971780641385550E-003  -1.8181471578363750E-003
  -2.8385250509359750E-002   6.9146273576499162E-003  -4.8632266603194432E-003
  -2.7842105687884366E-002   5.2614807683111220E-003  -9.6116412969494691E-003
  -6.6027279763635760E-003   4.1662735926925043E-003   2.9566662676388522E-002
  -6.0691882356718740E-003   6.1417607469714808E-003   3.4060720911997966E-002
  -5.5356484949801721E-003   1.0892866849243982E-002   3.9233842382422834E-002
  -5.0021087542885256E-003   1.8419591899511235E-002   4.5086027087662212E-002
  -4.4685690135968237E-003   2.8721935897772610E-002   5.1617275027717291E-002
  -8.8833810893606258E-003   4.4400753865974085E-003   2.0681882512196048E-002
  -7.5955550369175007E-003   5.6617440297927479E-003   2.5860033937826044E-002
  -6.3077289844744450E-003   9.3644557043393584E-003   3.1867694752143294E-002
  -5.0199029320313823E-003   1.5548210410236310E-002   3.8704864955149243E-002
  -3.7320768795882642E-003   2.4213008147484727E-002   4.6371544546842225E-002
  -1.3183495078946422E-002   4.7138771805019242E-003   1.1190571795242549E-002
  -1.0990936560879183E-002   5.1817273126146257E-003   1.6758240494249177E-002
  -8.7983780428118608E-003   7.8360445594344991E-003   2.3305864735816126E-002
  -6.6058195247446633E-003   1.2676828920961270E-002   3.0833444519944068E-002
  -4.4132610066772993E-003   1.9704080397196844E-002   3.9340979846632318E-002
  -1.9503069945121000E-002   4.9876789744064121E-003   1.0927305255274064E-003
  -1.6255332807556686E-002   4.7017105954356431E-003   6.7553405812673939E-003
  -1.3007595669992454E-002   6.3076334145292026E-003   1.3548352333440743E-002
  -9.7598585324282644E-003   9.8054474316866206E-003   2.1471765782047583E-002
  -6.5121213948639081E-003   1.5195152646908960E-002   3.0525580927088347E-002
  -2.7842105687884366E-002   5.2614807683111220E-003  -9.6116412969494691E-003
  -2.3388743776950327E-002   4.2216938782568825E-003  -4.1486658011188338E-003
  -1.8935381866016288E-002   4.7792222696242947E-003   2.5951575450174069E-003
  -1.4482019955082165E-002   6.9340659424119017E-003   1.0619828741460009E-002
  -1.0028658044148209E-002   1.0686224896621077E-002   1.9925347788208869E-002
 </DataArray>
 </PointData>
 </Piece>
 </UnstructuredGrid>
 </VTKFile>
