 <VTKFile type="UnstructuredGrid"  version="0.1"   >
 <UnstructuredGrid>
 <Piece  NumberOfPoints="            25 "  NumberOfCells="           16 ">
 <Points>
 <DataArray  type="Float64" NumberOfComponents="3"  format="ascii" >
   0.0000000000000000        0.0000000000000000        0.0000000000000000     
  0.25000000000000000        0.0000000000000000        0.0000000000000000     
  0.50000000000000000        0.0000000000000000        0.0000000000000000     
  0.75000000000000000        0.0000000000000000        0.0000000000000000     
   1.0000000000000000        0.0000000000000000        0.0000000000000000     
   0.0000000000000000       0.25000000000000000        0.0000000000000000     
  0.25000000000000000       0.25000000000000000        0.0000000000000000     
  0.50000000000000000       0.25000000000000000        0.0000000000000000     
  0.75000000000000000       0.25000000000000000        0.0000000000000000     
   1.0000000000000000       0.25000000000000000        0.0000000000000000     
   0.0000000000000000       0.50000000000000000        0.0000000000000000     
  0.25000000000000000       0.50000000000000000        0.0000000000000000     
  0.50000000000000000       0.50000000000000000        0.0000000000000000     
  0.75000000000000000       0.50000000000000000        0.0000000000000000     
   1.0000000000000000       0.50000000000000000        0.0000000000000000     
   0.0000000000000000       0.75000000000000000        0.0000000000000000     
  0.25000000000000000       0.75000000000000000        0.0000000000000000     
  0.50000000000000000       0.75000000000000000        0.0000000000000000     
  0.75000000000000000       0.75000000000000000        0.0000000000000000     
   1.0000000000000000       0.75000000000000000        0.0000000000000000     
   0.0000000000000000        1.0000000000000000        0.0000000000000000     
  0.25000000000000000        1.0000000000000000        0.0000000000000000     
  0.50000000000000000        1.0000000000000000        0.0000000000000000     
  0.75000000000000000        1.0000000000000000        0.0000000000000000     
   1.0000000000000000        1.0000000000000000        0.0000000000000000     
 </DataArray>
 </Points>
 <Cells>
 <DataArray  type="Int32"  Name="connectivity"  format="ascii">
           0           1           6           5
           1           2           7           6
           2           3           8           7
           3           4           9           8
           5           6          11          10
           6           7          12          11
           7           8          13          12
           8           9          14          13
          10          11          16          15
          11          12          17          16
          12          13          18          17
          13          14          19          18
          15          16          21          20
          16          17          22          21
          17          18          23          22
          18          19          24          23
 </DataArray>
 <DataArray  type="Int32"  Name="offsets"  format="ascii"> 
           4
           8
          12
          16
          20
          24
          28
          32
          36
          40
          44
          48
          52
          56
          60
          64
 </DataArray>
 <DataArray  type="UInt8"  Name="types"  format="ascii">
 9
 9
 9
 9
 9
 9
 9
 9
 9
 9
 9
 9
 9
 9
 9
 9
 </DataArray>
 </Cells> 
 <PointData>
 <DataArray  type="Float64" Name="disp" NumberOfComponents="3" format="ascii">
   0.0000000000000000        0.0000000000000000        0.0000000000000000     
   3.0106871731505454E-002   2.4984827797788649E-002   0.0000000000000000     
   5.5189261562206923E-002   5.7627188311548658E-002   0.0000000000000000     
   7.5247169492104415E-002   9.7927081541280020E-002   0.0000000000000000     
   9.0280595521197909E-002  0.14588450748698276        0.0000000000000000     
   0.0000000000000000        0.0000000000000000        0.0000000000000000     
   1.5053435865752706E-002   2.2091962768946028E-002   0.0000000000000000     
   2.7594630781103441E-002   5.3096171624361935E-002   0.0000000000000000     
   3.7623584746052208E-002   9.3012626566247730E-002   0.0000000000000000     
   4.5140297760599003E-002  0.14184132759460338        0.0000000000000000     
   0.0000000000000000        0.0000000000000000        0.0000000000000000     
   1.3877787807814457E-017   2.1127674425998492E-002   0.0000000000000000     
   1.7347234759768071E-017   5.1585832728633041E-002   0.0000000000000000     
   1.2143064331837650E-017   9.1374474907903624E-002   0.0000000000000000     
   0.0000000000000000       0.14049360096381025        0.0000000000000000     
   0.0000000000000000        0.0000000000000000        0.0000000000000000     
  -1.5053435865752623E-002   2.2091962768946042E-002   0.0000000000000000     
  -2.7594630781103351E-002   5.3096171624361949E-002   0.0000000000000000     
  -3.7623584746052166E-002   9.3012626566247716E-002   0.0000000000000000     
  -4.5140297760599093E-002  0.14184132759460336        0.0000000000000000     
   0.0000000000000000        0.0000000000000000        0.0000000000000000     
  -3.0106871731505200E-002   2.4984827797788670E-002   0.0000000000000000     
  -5.5189261562206646E-002   5.7627188311548672E-002   0.0000000000000000     
  -7.5247169492104346E-002   9.7927081541280020E-002   0.0000000000000000     
  -9.0280595521198284E-002  0.14588450748698267        0.0000000000000000     
 </DataArray>
 <DataArray  type="Float64" Name="stress" NumberOfComponents="3" format="ascii">
   8602842905.1184464        2580852871.5355344        1952867209.8279662     
   6972523455.7098236        1166040227.4833088        1270168457.5404510     
   5474569372.8592854        192445471.95803499        819368869.90543151     
   4108980656.5668316       -339931395.04028606        600468446.92290807     
   2875757306.8324652       -431090373.51165509        613467188.59288108     
   4301421452.5592146        1290426435.7677643        1627923666.9887161     
   3486261727.8549089        583020113.74165416        1061044610.4395308     
   2737284686.4296460        96222735.979019880        726064718.54283679     
   2054490328.2834256       -169965697.52014101        622983991.29863298     
   1437878653.4162469       -215545186.75582498        751802428.70692170     
   5.0326043698667806E-006   1.5097813109600342E-006   1519609152.7089665     
   2.6993059802012735E-006   2.0587926967636835E-006   991336661.40589404     
   2.7450569290182442E-007   9.1501897633941472E-007   694963334.75530815     
  -3.1110645195540103E-006  -1.3496529901006367E-006   630489172.75720799     
  -6.6796385272777269E-006  -6.9998951689965232E-006   797914175.41159475     
  -4301421452.5591841       -1290426435.7677553        1627923666.9887178     
  -3486261727.8548965       -583020113.74164784        1061044610.4395416     
  -2737284686.4296513       -96222735.979018927        726064718.54284632     
  -2054490328.2834501        169965697.52013183        622983991.29863274     
  -1437878653.4162934        215545186.75580192        751802428.70690084     
  -8602842905.1183510       -2580852871.5355048        1952867209.8279696     
  -6972523455.7097855       -1166040227.4832950        1270168457.5404725     
  -5474569372.8593092       -192445471.95804071        819368869.90545201     
  -4108980656.5669188        339931395.04026008        600468446.92290747     
  -2875757306.8326149        431090373.51160026        613467188.59283996     
 </DataArray>
 <DataArray  type="Float64" Name="VM" NumberOfComponents="1" format="ascii">
   8361106792.6010704     
   6832676931.3129730     
   5564933514.9765682     
   4413358583.1433144     
   3290069340.2884645     
   4750491063.1986141     
   3720056394.0691018     
   2969866524.6670375     
   2400695501.1583304     
   2029655943.2069812     
   2632040260.1386228     
   1717045464.9607134     
   1203711805.1936915     
   1092039280.8375556     
   1382027891.8923075     
   4750491063.1985941     
   3720056394.0691028     
   2969866524.6670494     
   2400695501.1583476     
   2029655943.2069829     
   8361106792.6009951     
   6832676931.3129539     
   5564933514.9765978     
   4413358583.1433849     
   3290069340.2885513     
 </DataArray>
 <DataArray  type="Float64" Name="strain" NumberOfComponents="3" format="ascii">
  0.13047645072762978        0.0000000000000000        8.4624245759211875E-002
  0.11037852312441385       -1.5428613487160635E-002   5.5040633160086214E-002
   9.0280595521197909E-002  -2.4165422331662509E-002   3.5505984362568702E-002
   7.0182667917981958E-002  -2.6210426533505596E-002   2.6020299366659352E-002
   5.0084740314766035E-002  -2.1563626092689914E-002   2.6583578172358180E-002
   6.5238225363814753E-002   0.0000000000000000        7.0543358902844369E-002
   5.5189261562206882E-002  -7.7143067435803091E-003   4.5978599785713004E-002
   4.5140297760599003E-002  -1.2082711165831234E-002   3.1462804470189593E-002
   3.5091333958991132E-002  -1.3105213266752812E-002   2.6995972956274095E-002
   2.5042370157383240E-002  -1.0781813046344985E-002   3.2578105243966607E-002
   7.6327832942979512E-017   0.0000000000000000        6.5849729950721886E-002
   3.4694469519536142E-017   2.0816681711721685E-017   4.2957921994255410E-002
   0.0000000000000000        1.3877787807814457E-017   3.0115077839396688E-002
  -4.5102810375396984E-017  -6.9388939039072284E-018   2.7321197486145681E-002
  -7.6327832942979512E-017  -8.3266726846886741E-017   3.4576280934502442E-002
  -6.5238225363814295E-002   0.0000000000000000        7.0543358902844439E-002
  -5.5189261562206701E-002   7.7143067435803507E-003   4.5978599785713468E-002
  -4.5140297760599093E-002   1.2082711165831275E-002   3.1462804470190009E-002
  -3.5091333958991493E-002   1.3105213266752781E-002   2.6995972956274088E-002
  -2.5042370157383899E-002   1.0781813046344832E-002   3.2578105243965705E-002
 -0.13047645072762831        0.0000000000000000        8.4624245759212013E-002
 -0.11037852312441329        1.5428613487160677E-002   5.5040633160087143E-002
  -9.0280595521198284E-002   2.4165422331662533E-002   3.5505984362569590E-002
  -7.0182667917983277E-002   2.6210426533505592E-002   2.6020299366659325E-002
  -5.0084740314768256E-002   2.1563626092689747E-002   2.6583578172356397E-002
 </DataArray>
 </PointData>
 </Piece>
 <Piece  NumberOfPoints="            25 "  NumberOfCells="           16 ">
 <Points>
 <DataArray  type="Float64" NumberOfComponents="3"  format="ascii" >
  0.50000000000000000        0.0000000000000000        0.0000000000000000     
  0.75000000000000000        0.0000000000000000        0.0000000000000000     
   1.0000000000000000        0.0000000000000000        0.0000000000000000     
   1.2500000000000000        0.0000000000000000        0.0000000000000000     
   1.5000000000000000        0.0000000000000000        0.0000000000000000     
  0.50000000000000000       0.25000000000000000        0.0000000000000000     
  0.75000000000000000       0.25000000000000000        0.0000000000000000     
   1.0000000000000000       0.25000000000000000        0.0000000000000000     
   1.2500000000000000       0.25000000000000000        0.0000000000000000     
   1.5000000000000000       0.25000000000000000        0.0000000000000000     
  0.50000000000000000       0.50000000000000000        0.0000000000000000     
  0.75000000000000000       0.50000000000000000        0.0000000000000000     
   1.0000000000000000       0.50000000000000000        0.0000000000000000     
   1.2500000000000000       0.50000000000000000        0.0000000000000000     
   1.5000000000000000       0.50000000000000000        0.0000000000000000     
  0.50000000000000000       0.75000000000000000        0.0000000000000000     
  0.75000000000000000       0.75000000000000000        0.0000000000000000     
   1.0000000000000000       0.75000000000000000        0.0000000000000000     
   1.2500000000000000       0.75000000000000000        0.0000000000000000     
   1.5000000000000000       0.75000000000000000        0.0000000000000000     
  0.50000000000000000        1.0000000000000000        0.0000000000000000     
  0.75000000000000000        1.0000000000000000        0.0000000000000000     
   1.0000000000000000        1.0000000000000000        0.0000000000000000     
   1.2500000000000000        1.0000000000000000        0.0000000000000000     
   1.5000000000000000        1.0000000000000000        0.0000000000000000     
 </DataArray>
 </Points>
 <Cells>
 <DataArray  type="Int32"  Name="connectivity"  format="ascii">
           0           1           6           5
           1           2           7           6
           2           3           8           7
           3           4           9           8
           5           6          11          10
           6           7          12          11
           7           8          13          12
           8           9          14          13
          10          11          16          15
          11          12          17          16
          12          13          18          17
          13          14          19          18
          15          16          21          20
          16          17          22          21
          17          18          23          22
          18          19          24          23
 </DataArray>
 <DataArray  type="Int32"  Name="offsets"  format="ascii"> 
           4
           8
          12
          16
          20
          24
          28
          32
          36
          40
          44
          48
          52
          56
          60
          64
 </DataArray>
 <DataArray  type="UInt8"  Name="types"  format="ascii">
 9
 9
 9
 9
 9
 9
 9
 9
 9
 9
 9
 9
 9
 9
 9
 9
 </DataArray>
 </Cells> 
 <PointData>
 <DataArray  type="Float64" Name="disp" NumberOfComponents="3" format="ascii">
   5.5189261562206930E-002   5.7627188311548602E-002   0.0000000000000000     
   7.5247169492104346E-002   9.7927081541279951E-002   0.0000000000000000     
   9.0280595521197937E-002  0.14588450748698265        0.0000000000000000     
  0.10028953964948767       0.20149946614865666        0.0000000000000000     
  0.10527400187697360       0.26477195752630200        0.0000000000000000     
   2.7594630781103465E-002   5.3096171624361949E-002   0.0000000000000000     
   3.7623584746052201E-002   9.3012626566247703E-002   0.0000000000000000     
   4.5140297760598996E-002  0.14184132759460330        0.0000000000000000     
   5.0144769824743841E-002  0.19958227470942883        0.0000000000000000     
   5.2637000938486743E-002  0.26623546791072411        0.0000000000000000     
   6.0715321659188248E-017   5.1585832728633083E-002   0.0000000000000000     
   3.7296554733501353E-017   9.1374474907903624E-002   0.0000000000000000     
   2.3852447794681098E-017  0.14049360096381022        0.0000000000000000     
  -8.7820375971325859E-018  0.19894321089635283        0.0000000000000000     
  -3.1225022567582528E-017  0.26672330470553152        0.0000000000000000     
  -2.7594630781103281E-002   5.3096171624361976E-002   0.0000000000000000     
  -3.7623584746052131E-002   9.3012626566247716E-002   0.0000000000000000     
  -4.5140297760598976E-002  0.14184132759460330        0.0000000000000000     
  -5.0144769824743848E-002  0.19958227470942880        0.0000000000000000     
  -5.2637000938486736E-002  0.26623546791072411        0.0000000000000000     
  -5.5189261562206562E-002   5.7627188311548665E-002   0.0000000000000000     
  -7.5247169492104304E-002   9.7927081541279964E-002   0.0000000000000000     
  -9.0280595521198007E-002  0.14588450748698262        0.0000000000000000     
 -0.10028953964948770       0.20149946614865660        0.0000000000000000     
 -0.10527400187697336       0.26477195752630195        0.0000000000000000     
 </DataArray>
 <DataArray  type="Float64" Name="stress" NumberOfComponents="3" format="ascii">
   5474569372.8592539        192445471.95804667        819368869.90543318     
   4108980656.5668397       -339931395.04027152        600468446.92291164     
   2875757306.8325109       -431090373.51163125        613467188.59286988     
   1774899323.6562696       -81031463.456032991        858365094.91530895     
   806406707.03811479        710245335.12651742        1335162165.8902268     
   2737284686.4296384        96222735.979029059        726064718.54283583     
   2054490328.2834232       -169965697.52013469        622983991.29863358     
   1437878653.4162512       -215545186.75581789        751802428.70691597     
   887449661.82812345       -40515731.728022218        1112520030.7676842     
   403203353.51903796        355122667.56324953        1705136797.4809346     
  -3.5685740077237171E-006   2.6764305057927880E-006   694963334.75530577     
  -4.9868534210498097E-006  -6.6338875784607565E-007   630489172.75720644     
  -6.7711404249116687E-006  -3.4885098472940187E-006   797914175.41159558     
  -8.2752028672695813E-006  -5.5530214126598236E-006   1197238342.7184746     
  -8.4181745823226158E-006  -5.8561214485722542E-006   1828461674.6778414     
  -2737284686.4296703       -96222735.979030967        726064718.54284453     
  -2054490328.2834454        169965697.52013004        622983991.29863036     
  -1437878653.4162631        215545186.75581270        751802428.70690882     
  -887449661.82812679        40515731.728012621        1112520030.7676811     
  -403203353.51902890       -355122667.56325352        1705136797.4809477     
  -5474569372.8593616       -192445471.95807147        819368869.90545177     
  -4108980656.5668974        339931395.04025316        600468446.92290473     
  -2875757306.8325205        431090373.51162553        613467188.59285629     
  -1774899323.6562302        81031463.456039429        858365094.91530526     
  -806406707.03802359       -710245335.12649667        1335162165.8902531     
 </DataArray>
 <DataArray  type="Float64" Name="VM" NumberOfComponents="1" format="ascii">
   5564933514.9765329     
   4413358583.1433163     
   3290069340.2884874     
   2347557945.0516663     
   2435152487.8353148     
   2969866524.6670260     
   2400695501.1583257     
   2029655943.2069747     
   2130320763.5929027     
   2977914185.6683378     
   1203711805.1936874     
   1092039280.8375528     
   1382027891.8923090     
   2073677638.3579583     
   3166988520.2344971     
   2969866524.6670604     
   2400695501.1583405     
   2029655943.2069736     
   2130320763.5928967     
   2977914185.6683602     
   5564933514.9766340     
   4413358583.1433592     
   3290069340.2884851     
   2347557945.0516343     
   2435152487.8353386     
 </DataArray>
 <DataArray  type="Float64" Name="strain" NumberOfComponents="3" format="ascii">
   9.0280595521197340E-002  -2.4165422331662162E-002   3.5505984362568771E-002
   7.0182667917982014E-002  -2.6210426533505388E-002   2.6020299366659505E-002
   5.0084740314766667E-002  -2.1563626092689740E-002   2.6583578172357694E-002
   2.9986812711551323E-002  -1.0225021009215232E-002   3.7195820779663387E-002
   9.8888851083359930E-003   7.8053887169180491E-003   5.7857027188576493E-002
   4.5140297760598823E-002  -1.2082711165831039E-002   3.1462804470189551E-002
   3.5091333958991063E-002  -1.3105213266752694E-002   2.6995972956274122E-002
   2.5042370157383278E-002  -1.0781813046344887E-002   3.2578105243966357E-002
   1.4993406355775502E-002  -5.1125105046076549E-003   4.8209201333266317E-002
   4.9444425541677189E-003   3.9026943584589691E-003   7.3889261224173830E-002
  -7.2858385991025898E-017   6.2450045135165055E-017   3.0115077839396584E-002
  -7.9797279894933126E-017   1.3877787807814457E-017   2.7321197486145615E-002
  -9.5409791178724390E-017  -2.4286128663675299E-017   3.4576280934502476E-002
  -1.1015494072452725E-016  -5.1174342541315809E-017   5.1880328184467230E-002
  -1.1102230246251565E-016  -5.5511151231257827E-017   7.9233339236039799E-002
  -4.5140297760599357E-002   1.2082711165831171E-002   3.1462804470189933E-002
  -3.5091333958991409E-002   1.3105213266752729E-002   2.6995972956273984E-002
  -2.5042370157383451E-002   1.0781813046344861E-002   3.2578105243966052E-002
  -1.4993406355775509E-002   5.1125105046075110E-003   4.8209201333266179E-002
  -4.9444425541675481E-003  -3.9026943584590801E-003   7.3889261224174399E-002
  -9.0280595521199020E-002   2.4165422331662287E-002   3.5505984362569576E-002
  -7.0182667917982888E-002   2.6210426533505374E-002   2.6020299366659203E-002
  -5.0084740314766799E-002   2.1563626092689692E-002   2.6583578172357108E-002
  -2.9986812711550702E-002   1.0225021009215143E-002   3.7195820779663227E-002
  -9.8888851083345775E-003  -7.8053887169181602E-003   5.7857027188577638E-002
 </DataArray>
 </PointData>
 </Piece>
 </UnstructuredGrid>
 </VTKFile>
